<?xml version="1.0"?>
<VTKFile type="UnstructuredGrid" version="0.1" byte_order="LittleEndian">
<UnstructuredGrid>
<Piece NumberOfPoints="30578" NumberOfCells="10723">
<Points>
<DataArray type="Float64" NumberOfComponents="3" format="ascii">
-0.5 -0.5 0 -0.47439485679867832 -0.48072581506667478 0 -0.5 -0.44765434486020428 0 -0.5 -0.5 0 -0.47439485679867832 -0.48072581506667478 0 -0.43702443379937372 -0.49999999999999922 0 -0.47439485679867832 -0.48072581506667478 0 -0.45530669598391149 -0.47718009944797551 0 -0.43702443379937372 -0.49999999999999922 0 -0.47439485679867832 -0.48072581506667478 0 -0.45530669598391149 -0.47718009944797551 0 -0.4597353119515426 -0.45943449384344293 0 -0.45530669598391149 -0.47718009944797551 0 -0.44381084376742141 -0.47114793899167112 0 -0.4597353119515426 -0.45943449384344293 0 -0.45530669598391149 -0.47718009944797551 0 -0.44381084376742141 -0.47114793899167112 0 -0.43702443379937372 -0.49999999999999922 0 -0.44381084376742141 -0.47114793899167112 0 -0.43702443379937372 -0.49999999999999922 0 -0.45059725373546922 -0.44229587798334291 0 -0.4339166039271336 -0.43498117536117131 0 -0.43309128002320102 -0.45351235807576151 0 -0.44381084376742141 -0.47114793899167112 0 -0.45059725373546922 -0.44229587798334291 0 -0.4597353119515426 -0.45943449384344293 0 -0.44381084376742141 -0.47114793899167112 0 -0.45059725373546922 -0.44229587798334291 0 -0.43309128002320102 -0.45351235807576151 0 -0.44381084376742141 -0.47114793899167112 0 -0.45059725373546922 -0.44229587798334291 0 -0.4597353119515426 -0.45943449384344293 0 -0.47505511338101108 -0.44868394208069429 0 -0.46517432262153441 -0.43649963461163338 0 -0.45059725373546922 -0.44229587798334291 0 -0.4597353119515426 -0.45943449384344293 0 -0.46517432262153441 -0.43649963461163338 0 -0.47505511338101108 -0.44868394208069429 0 -0.47820614292347569 -0.42776699273468149 0 -0.46517432262153441 -0.43649963461163338 0 -0.47505511338101108 -0.44868394208069429 0 -0.47820614292347569 -0.42776699273468149 0 -0.47439485679867832 -0.48072581506667478 0 -0.47505511338101108 -0.44868394208069429 0 -0.5 -0.44765434486020428 0 -0.47439485679867832 -0.48072581506667478 0 -0.4597353119515426 -0.45943449384344293 0 -0.47505511338101108 -0.44868394208069429 0 -0.47505511338101108 -0.44868394208069429 0 -0.5 -0.44765434486020428 0 -0.47820614292347569 -0.42776699273468149 0 -0.5 -0.44765434486020428 0 -0.49656450065014057 -0.42151023988558672 0 -0.47820614292347569 -0.42776699273468149 0 -0.5 -0.44765434486020428 0 -0.49656450065014057 -0.42151023988558672 0 -0.50000000000000089 -0.37904661106745707 0 -0.49656450065014057 -0.42151023988558672 0 -0.48135717246594062 -0.40685004338866881 0 -0.47820614292347569 -0.42776699273468149 0 -0.49656450065014057 -0.42151023988558672 0 -0.48135717246594062 -0.40685004338866881 0 -0.48135717246594062 -0.40685004338866881 0 -0.47820614292347569 -0.42776699273468149 0 -0.48135717246594062 -0.40685004338866881 0 -0.47820614292347569 -0.42776699273468149 0 -0.45738366370351707 -0.41344381697501481 0 -0.49656450065014057 -0.42151023988558672 0 -0.48135717246594062 -0.40685004338866881 0 -0.50000000000000089 -0.37904661106745707 0 -0.50000000000000089 -0.37904661106745707 0 -0.48466894952205442 -0.38486603086372417 0 -0.48717439863114548 -0.36823452950912272 0 -0.48135717246594062 -0.40685004338866881 0 -0.50000000000000089 -0.37904661106745707 0 -0.48466894952205442 -0.38486603086372417 0 -0.48466894952205442 -0.38486603086372417 0 -0.48717439863114548 -0.36823452950912272 0 -0.50000000000000089 -0.37904661106745707 0 -0.48466894952205442 -0.38486603086372417 0 -0.48135717246594062 -0.40685004338866881 0 -0.48466894952205442 -0.38486603086372417 0 -0.46593083509403682 -0.39197871725165279 0 -0.48135717246594062 -0.40685004338866881 0 -0.48466894952205442 -0.38486603086372417 0 -0.48135717246594062 -0.40685004338866881 0 -0.46593083509403682 -0.39197871725165279 0 -0.48466894952205442 -0.38486603086372417 0 -0.47195833844942919 -0.37959069520904498 0 -0.46593083509403682 -0.39197871725165279 0 -0.48466894952205442 -0.38486603086372417 0 -0.46593083509403682 -0.39197871725165279 0 -0.48466894952205442 -0.38486603086372417 0 -0.47195833844942919 -0.37959069520904498 0 -0.48717439863114548 -0.36823452950912272 0 -0.46593083509403682 -0.39197871725165279 0 -0.44890944387521442 -0.39029302340116001 0 -0.45132291774153199 -0.37789636588759368 0 -0.47195833844942919 -0.37959069520904498 0 -0.46593083509403682 -0.39197871725165279 0 -0.45132291774153199 -0.37789636588759368 0 -0.46593083509403682 -0.39197871725165279 0 -0.45132291774153199 -0.37789636588759368 0 -0.48135717246594062 -0.40685004338866881 0 -0.46593083509403682 -0.39197871725165279 0 -0.45738366370351707 -0.41344381697501481 0 -0.46593083509403682 -0.39197871725165279 0 -0.44275815558040038 -0.40077469311046232 0 -0.45738366370351707 -0.41344381697501481 0 -0.46593083509403682 -0.39197871725165279 0 -0.44275815558040038 -0.40077469311046232 0 -0.46593083509403682 -0.39197871725165279 0 -0.44275815558040038 -0.40077469311046232 0 -0.44890944387521442 -0.39029302340116001 0 -0.44275815558040038 -0.40077469311046232 0 -0.44064580868350911 -0.39542861624611658 0 -0.44890944387521442 -0.39029302340116001 0 -0.44225344557501872 -0.38376649822575309 0 -0.45132291774153199 -0.37789636588759368 0 -0.43671500038902772 -0.36381401452353412 0 -0.44890944387521442 -0.39029302340116001 0 -0.44225344557501872 -0.38376649822575309 0 -0.45132291774153199 -0.37789636588759368 0 -0.44064580868350911 -0.39542861624611658 0 -0.44225344557501872 -0.38376649822575309 0 -0.43040194378266172 -0.3881600185019185 0 -0.44064580868350911 -0.39542861624611658 0 -0.44890944387521442 -0.39029302340116001 0 -0.44225344557501872 -0.38376649822575309 0 -0.47820614292347569 -0.42776699273468149 0 -0.46517432262153441 -0.43649963461163338 0 -0.45738366370351707 -0.41344381697501481 0 -0.45059725373546922 -0.44229587798334291 0 -0.45738366370351707 -0.41344381697501481 0 -0.45059725373546922 -0.44229587798334291 0 -0.46517432262153441 -0.43649963461163338 0 -0.45738366370351707 -0.41344381697501481 0 -0.44275815558040038 -0.40077469311046232 0 -0.45738366370351707 -0.41344381697501481 0 -0.44164244492799948 -0.42121090558557039 0 -0.45059725373546922 -0.44229587798334291 0 -0.45738366370351707 -0.41344381697501481 0 -0.44164244492799948 -0.42121090558557039 0 -0.45059725373546922 -0.44229587798334291 0 -0.44164244492799948 -0.42121090558557039 0 -0.4339166039271336 -0.43498117536117131 0 -0.4339166039271336 -0.43498117536117131 0 -0.42355654769347711 -0.414558964497861 0 -0.41671115160429401 -0.44095791049380378 0 -0.44164244492799948 -0.42121090558557039 0 -0.4339166039271336 -0.43498117536117131 0 -0.42355654769347711 -0.414558964497861 0 -0.44275815558040038 -0.40077469311046232 0 -0.44164244492799948 -0.42121090558557039 0 -0.42355654769347711 -0.414558964497861 0 -0.42355654769347711 -0.414558964497861 0 -0.41056920252370888 -0.3963363404412637 0 -0.40050668374064252 -0.41734442193795029 0 -0.42355654769347711 -0.414558964497861 0 -0.41671115160429401 -0.44095791049380378 0 -0.42355654769347711 -0.414558964497861 0 -0.40050668374064252 -0.41734442193795029 0 -0.41671115160429401 -0.44095791049380378 0 -0.44225344557501872 -0.38376649822575309 0 -0.43040194378266172 -0.3881600185019185 0 -0.43671500038902772 -0.36381401452353412 0 -0.43040194378266172 -0.3881600185019185 0 -0.43671500038902772 -0.36381401452353412 0 -0.44064580868350911 -0.39542861624611658 0 -0.42355654769347711 -0.414558964497861 0 -0.43040194378266172 -0.3881600185019185 0 -0.42355654769347711 -0.414558964497861 0 -0.43040194378266172 -0.3881600185019185 0 -0.44275815558040038 -0.40077469311046232 0 -0.44064580868350911 -0.39542861624611658 0 -0.42355654769347711 -0.414558964497861 0 -0.44064580868350911 -0.39542861624611658 0 -0.43040194378266172 -0.3881600185019185 0 -0.42355654769347711 -0.414558964497861 0 -0.43040194378266172 -0.3881600185019185 0 -0.41056920252370888 -0.3963363404412637 0 -0.43040194378266172 -0.3881600185019185 0 -0.4079689369259607 -0.37224253963894771 0 -0.43040194378266172 -0.3881600185019185 0 -0.41056920252370888 -0.3963363404412637 0 -0.4079689369259607 -0.37224253963894771 0 -0.41056920252370888 -0.3963363404412637 0 -0.39195929229331972 -0.37982250283040359 0 -0.4079689369259607 -0.37224253963894771 0 -0.41056920252370888 -0.3963363404412637 0 -0.39195929229331972 -0.37982250283040359 0 -0.39357845321732049 -0.39746174547711199 0 -0.41056920252370888 -0.3963363404412637 0 -0.39357845321732049 -0.39746174547711199 0 -0.40050668374064252 -0.41734442193795029 0 -0.39357845321732049 -0.39746174547711199 0 -0.38114412328536468 -0.40833987260765031 0 -0.36544727141479139 -0.39026932065168712 0 -0.39195929229331972 -0.37982250283040359 0 -0.37549160074202448 -0.3732971907138336 0 -0.36544727141479139 -0.39026932065168712 0 -0.39195929229331972 -0.37982250283040359 0 -0.39357845321732049 -0.39746174547711199 0 -0.36544727141479139 -0.39026932065168712 0 -0.40050668374064252 -0.41734442193795029 0 -0.3944977858259317 -0.43926335073686201 0 -0.41671115160429401 -0.44095791049380378 0 -0.40050668374064252 -0.41734442193795029 0 -0.38028594703985957 -0.42392304976487449 0 -0.3944977858259317 -0.43926335073686201 0 -0.39357845321732049 -0.39746174547711199 0 -0.40050668374064252 -0.41734442193795029 0 -0.38114412328536468 -0.40833987260765031 0 -0.40050668374064252 -0.41734442193795029 0 -0.38114412328536468 -0.40833987260765031 0 -0.38028594703985957 -0.42392304976487449 0 -0.38114412328536468 -0.40833987260765031 0 -0.38028594703985957 -0.42392304976487449 0 -0.36590226101420908 -0.41270082520662749 0 -0.38028594703985957 -0.42392304976487449 0 -0.3944977858259317 -0.43926335073686201 0 -0.3723601590800425 -0.44005613486137668 0 -0.3944977858259317 -0.43926335073686201 0 -0.38265619596279349 -0.45813348326120767 0 -0.3723601590800425 -0.44005613486137668 0 -0.40093272222703252 -0.45142790024540502 0 -0.3944977858259317 -0.43926335073686201 0 -0.38265619596279349 -0.45813348326120767 0 -0.40093272222703252 -0.45142790024540502 0 -0.3944977858259317 -0.43926335073686201 0 -0.41671115160429401 -0.44095791049380378 0 -0.38265619596279349 -0.45813348326120767 0 -0.40986575551511062 -0.46735685648974662 0 -0.38265619596279349 -0.45813348326120767 0 -0.39389470715733632 -0.47355095168427308 0 -0.40986575551511062 -0.46735685648974662 0 -0.40093272222703252 -0.45142790024540502 0 -0.38265619596279349 -0.45813348326120767 0 -0.40986575551511062 -0.46735685648974662 0 -0.38265619596279349 -0.45813348326120767 0 -0.38272382101637098 -0.47243968377412587 0 -0.39389470715733632 -0.47355095168427308 0 -0.38272382101637098 -0.47243968377412587 0 -0.38859428369766791 -0.48614630665141417 0 -0.36652141413456929 -0.48474993749143802 0 -0.38272382101637098 -0.47243968377412587 0 -0.38859428369766791 -0.48614630665141417 0 -0.39389470715733632 -0.47355095168427308 0 -0.37500484199342449 -0.5 0 -0.38859428369766791 -0.48614630665141417 0 -0.40140120367436599 -0.49999999999999611 0 -0.37500484199342449 -0.5 0 -0.38859428369766791 -0.48614630665141417 0 -0.36652141413456929 -0.48474993749143802 0 -0.38859428369766791 -0.48614630665141417 0 -0.40140120367436599 -0.49999999999999611 0 -0.40563347959473789 -0.48367842824487117 0 -0.40140120367436599 -0.49999999999999611 0 -0.40563347959473789 -0.48367842824487117 0 -0.40563347959473789 -0.48367842824487117 0 -0.39389470715733632 -0.47355095168427308 0 -0.40986575551511062 -0.46735685648974662 0 -0.38859428369766791 -0.48614630665141417 0 -0.40563347959473789 -0.48367842824487117 0 -0.39389470715733632 -0.47355095168427308 0 -0.40563347959473789 -0.48367842824487117 0 -0.40986575551511062 -0.46735685648974662 0 -0.42809744812538553 -0.47353695305504512 0 -0.40986575551511062 -0.46735685648974662 0 -0.4199949121527507 -0.4855396040697898 0 -0.42809744812538553 -0.47353695305504512 0 -0.40986575551511062 -0.46735685648974662 0 -0.40563347959473789 -0.48367842824487117 0 -0.4199949121527507 -0.4855396040697898 0 -0.40986575551511062 -0.46735685648974662 0 -0.40563347959473789 -0.48367842824487117 0 -0.4199949121527507 -0.4855396040697898 0 -0.41921281873686977 -0.5 0 -0.40140120367436599 -0.49999999999999611 0 -0.40563347959473789 -0.48367842824487117 0 -0.41921281873686977 -0.5 0 -0.4199949121527507 -0.4855396040697898 0 -0.41921281873686977 -0.5 0 -0.43702443379937372 -0.49999999999999922 0 -0.4199949121527507 -0.4855396040697898 0 -0.43702443379937372 -0.49999999999999922 0 -0.42809744812538553 -0.47353695305504512 0 -0.44381084376742141 -0.47114793899167112 0 -0.43702443379937372 -0.49999999999999922 0 -0.42809744812538553 -0.47353695305504512 0 -0.42809744812538553 -0.47353695305504512 0 -0.42194140881699782 -0.45884101952858919 0 -0.43309128002320102 -0.45351235807576151 0 -0.44381084376742141 -0.47114793899167112 0 -0.42809744812538553 -0.47353695305504512 0 -0.43309128002320102 -0.45351235807576151 0 -0.4339166039271336 -0.43498117536117131 0 -0.43309128002320102 -0.45351235807576151 0 -0.41671115160429401 -0.44095791049380378 0 -0.42194140881699782 -0.45884101952858919 0 -0.43309128002320102 -0.45351235807576151 0 -0.41671115160429401 -0.44095791049380378 0 -0.42194140881699782 -0.45884101952858919 0 -0.41671115160429401 -0.44095791049380378 0 -0.40986575551511062 -0.46735685648974662 0 -0.41671115160429401 -0.44095791049380378 0 -0.40986575551511062 -0.46735685648974662 0 -0.40093272222703252 -0.45142790024540502 0 -0.41671115160429401 -0.44095791049380378 0 -0.40986575551511062 -0.46735685648974662 0 -0.42809744812538553 -0.47353695305504512 0 -0.42194140881699782 -0.45884101952858919 0 -0.40986575551511062 -0.46735685648974662 0 -0.45828666285701658 -0.26028432573271792 0 -0.43487007995442373 -0.25384069753834382 0 -0.45658005330295048 -0.2439827770756183 0 -0.43864273500925549 -0.2751587481676856 0 -0.45828666285701658 -0.26028432573271792 0 -0.43487007995442373 -0.25384069753834382 0 -0.43864273500925549 -0.2751587481676856 0 -0.45645423860141388 -0.27827293425430932 0 -0.45828666285701658 -0.26028432573271792 0 -0.43864273500925549 -0.2751587481676856 0 -0.45828666285701658 -0.26028432573271792 0 -0.45645423860141388 -0.27827293425430932 0 -0.47869064668718631 -0.2683854874950159 0 -0.47091363495918082 -0.28947603344621109 0 -0.45645423860141388 -0.27827293425430932 0 -0.45828666285701658 -0.26028432573271792 0 -0.47869064668718631 -0.2683854874950159 0 -0.45828666285701658 -0.26028432573271792 0 -0.47793059070477772 -0.24540990329775009 0 -0.45828666285701658 -0.26028432573271792 0 -0.47869064668718631 -0.2683854874950159 0 -0.47793059070477772 -0.24540990329775009 0 -0.4872249908214738 -0.25598993182963242 0 -0.47869064668718631 -0.2683854874950159 0 -0.47793059070477772 -0.24540990329775009 0 -0.4872249908214738 -0.25598993182963242 0 -0.5 -0.25006354863638108 0 -0.5 -0.27586016112259643 0 -0.4872249908214738 -0.25598993182963242 0 -0.5 -0.25006354863638108 0 -0.49068252501969761 -0.24549971615663649 0 -0.4872249908214738 -0.25598993182963242 0 -0.5 -0.27586016112259643 0 -0.47869064668718631 -0.2683854874950159 0 -0.5 -0.27586016112259643 0 -0.47869064668718631 -0.2683854874950159 0 -0.48721788021035761 -0.2882082846164955 0 -0.47869064668718631 -0.2683854874950159 0 -0.47091363495918082 -0.28947603344621109 0 -0.48721788021035761 -0.2882082846164955 0 -0.47091363495918082 -0.28947603344621109 0 -0.48721788021035761 -0.2882082846164955 0 -0.48161809245015419 -0.30465866835107641 0 -0.5 -0.27586016112259643 0 -0.48721788021035761 -0.2882082846164955 0 -0.5 -0.3016567736088116 0 -0.48721788021035761 -0.2882082846164955 0 -0.5 -0.3016567736088116 0 -0.48161809245015419 -0.30465866835107641 0 -0.5 -0.3016567736088116 0 -0.48161809245015419 -0.30465866835107641 0 -0.5 -0.32745338609502678 0 -0.47091363495918082 -0.28947603344621109 0 -0.48161809245015419 -0.30465866835107641 0 -0.45879166701778518 -0.3036258058313378 0 -0.48161809245015419 -0.30465866835107641 0 -0.45879166701778518 -0.3036258058313378 0 -0.47638885418803739 -0.32253493654140952 0 -0.45645423860141388 -0.27827293425430932 0 -0.47091363495918082 -0.28947603344621109 0 -0.45879166701778518 -0.3036258058313378 0 -0.45645423860141388 -0.27827293425430932 0 -0.45879166701778518 -0.3036258058313378 0 -0.43905227881958647 -0.29505920944709452 0 -0.43864273500925549 -0.2751587481676856 0 -0.45645423860141388 -0.27827293425430932 0 -0.43905227881958647 -0.29505920944709452 0 -0.45879166701778518 -0.3036258058313378 0 -0.43905227881958647 -0.29505920944709452 0 -0.4399695753826649 -0.31139282438396382 0 -0.4399695753826649 -0.31139282438396382 0 -0.45223868162566522 -0.32343332413938758 0 -0.42808850906329299 -0.32433171173736591 0 -0.45879166701778518 -0.3036258058313378 0 -0.4399695753826649 -0.31139282438396382 0 -0.45223868162566522 -0.32343332413938758 0 -0.45223868162566522 -0.32343332413938758 0 -0.42808850906329299 -0.32433171173736591 0 -0.45223868162566522 -0.32343332413938758 0 -0.44207286924452832 -0.33783824796895978 0 -0.46140244920768408 -0.33754740415941759 0 -0.44207286924452832 -0.33783824796895978 0 -0.46140244920768408 -0.33754740415941759 0 -0.45117994904742642 -0.3486532256997657 0 -0.45223868162566522 -0.32343332413938758 0 -0.44207286924452832 -0.33783824796895978 0 -0.42808850906329299 -0.32433171173736591 0 -0.45879166701778518 -0.3036258058313378 0 -0.45223868162566522 -0.32343332413938758 0 -0.47638885418803739 -0.32253493654140952 0 -0.45223868162566522 -0.32343332413938758 0 -0.46140244920768408 -0.33754740415941759 0 -0.47638885418803739 -0.32253493654140952 0 -0.45223868162566522 -0.32343332413938758 0 -0.47638885418803739 -0.32253493654140952 0 -0.48161809245015419 -0.30465866835107641 0 -0.47638885418803739 -0.32253493654140952 0 -0.5 -0.32745338609502678 0 -0.47638885418803739 -0.32253493654140952 0 -0.5 -0.32745338609502678 0 -0.48104103145021149 -0.34129537751375599 0 -0.5 -0.32745338609502678 0 -0.48104103145021149 -0.34129537751375599 0 -0.5 -0.35324999858124201 0 -0.46140244920768408 -0.33754740415941759 0 -0.48104103145021149 -0.34129537751375599 0 -0.46549330969023639 -0.35152931309322771 0 -0.46140244920768408 -0.33754740415941759 0 -0.47638885418803739 -0.32253493654140952 0 -0.48104103145021149 -0.34129537751375599 0 -0.48104103145021149 -0.34129537751375599 0 -0.48025743214923627 -0.35616585996071459 0 -0.46549330969023639 -0.35152931309322771 0 -0.48025743214923627 -0.35616585996071459 0 -0.46757842097458802 -0.36652008110622503 0 -0.46549330969023639 -0.35152931309322771 0 -0.48025743214923627 -0.35616585996071459 0 -0.5 -0.35324999858124201 0 -0.48717439863114548 -0.36823452950912272 0 -0.48104103145021149 -0.34129537751375599 0 -0.48025743214923627 -0.35616585996071459 0 -0.5 -0.35324999858124201 0 -0.50000000000000089 -0.37904661106745707 0 -0.5 -0.35324999858124201 0 -0.48717439863114548 -0.36823452950912272 0 -0.47195833844942919 -0.37959069520904498 0 -0.48717439863114548 -0.36823452950912272 0 -0.46757842097458802 -0.36652008110622503 0 -0.48025743214923627 -0.35616585996071459 0 -0.48717439863114548 -0.36823452950912272 0 -0.46757842097458802 -0.36652008110622503 0 -0.45132291774153199 -0.37789636588759368 0 -0.46757842097458802 -0.36652008110622503 0 -0.45216690816074923 -0.36231126303824313 0 -0.47195833844942919 -0.37959069520904498 0 -0.45132291774153199 -0.37789636588759368 0 -0.46757842097458802 -0.36652008110622503 0 -0.46757842097458802 -0.36652008110622503 0 -0.46549330969023639 -0.35152931309322771 0 -0.45216690816074923 -0.36231126303824313 0 -0.46140244920768408 -0.33754740415941759 0 -0.46549330969023639 -0.35152931309322771 0 -0.45117994904742642 -0.3486532256997657 0 -0.46549330969023639 -0.35152931309322771 0 -0.45117994904742642 -0.3486532256997657 0 -0.45216690816074923 -0.36231126303824313 0 -0.44599028472907742 -0.35554349803526408 0 -0.45117994904742642 -0.3486532256997657 0 -0.45216690816074923 -0.36231126303824313 0 -0.44599028472907742 -0.35554349803526408 0 -0.45117994904742642 -0.3486532256997657 0 -0.44228407783080631 -0.34851364977492799 0 -0.44207286924452832 -0.33783824796895978 0 -0.44228407783080631 -0.34851364977492799 0 -0.43394442261003058 -0.34546672586134508 0 -0.44228407783080631 -0.34851364977492799 0 -0.43858436747801349 -0.35660488883003821 0 -0.43394442261003058 -0.34546672586134508 0 -0.44207286924452832 -0.33783824796895978 0 -0.45117994904742642 -0.3486532256997657 0 -0.44228407783080631 -0.34851364977492799 0 -0.44599028472907742 -0.35554349803526408 0 -0.44228407783080631 -0.34851364977492799 0 -0.43858436747801349 -0.35660488883003821 0 -0.44599028472907742 -0.35554349803526408 0 -0.43858436747801349 -0.35660488883003821 0 -0.43671500038902772 -0.36381401452353412 0 -0.43858436747801349 -0.35660488883003821 0 -0.43671500038902772 -0.36381401452353412 0 -0.44599028472907742 -0.35554349803526408 0 -0.45216690816074923 -0.36231126303824313 0 -0.43671500038902772 -0.36381401452353412 0 -0.45132291774153199 -0.37789636588759368 0 -0.43671500038902772 -0.36381401452353412 0 -0.45132291774153199 -0.37789636588759368 0 -0.45216690816074923 -0.36231126303824313 0 -0.43671500038902772 -0.36381401452353412 0 -0.43040194378266172 -0.3881600185019185 0 -0.43671500038902772 -0.36381401452353412 0 -0.4079689369259607 -0.37224253963894771 0 -0.43858436747801349 -0.35660488883003821 0 -0.43671500038902772 -0.36381401452353412 0 -0.41901032175007979 -0.34674631764622038 0 -0.43671500038902772 -0.36381401452353412 0 -0.41901032175007979 -0.34674631764622038 0 -0.43858436747801349 -0.35660488883003821 0 -0.43394442261003058 -0.34546672586134508 0 -0.41901032175007979 -0.34674631764622038 0 -0.41901032175007979 -0.34674631764622038 0 -0.4079689369259607 -0.37224253963894771 0 -0.40160491304204049 -0.35527610236370899 0 -0.43671500038902772 -0.36381401452353412 0 -0.41901032175007979 -0.34674631764622038 0 -0.4079689369259607 -0.37224253963894771 0 -0.4079689369259607 -0.37224253963894771 0 -0.38553593006925752 -0.3563250607759802 0 -0.4079689369259607 -0.37224253963894771 0 -0.38553593006925752 -0.3563250607759802 0 -0.40160491304204049 -0.35527610236370899 0 -0.39195929229331972 -0.37982250283040359 0 -0.4079689369259607 -0.37224253963894771 0 -0.38553593006925752 -0.3563250607759802 0 -0.39195929229331972 -0.37982250283040359 0 -0.37549160074202448 -0.3732971907138336 0 -0.38553593006925752 -0.3563250607759802 0 -0.37549160074202448 -0.3732971907138336 0 -0.38553593006925752 -0.3563250607759802 0 -0.38553593006925752 -0.3563250607759802 0 -0.36666079927166728 -0.34293209489202431 0 -0.38553593006925752 -0.3563250607759802 0 -0.39342078659019603 -0.34300184077244372 0 -0.38006824781918919 -0.33243312042550199 0 -0.38553593006925752 -0.3563250607759802 0 -0.38006824781918919 -0.33243312042550199 0 -0.36666079927166728 -0.34293209489202431 0 -0.38553593006925752 -0.3563250607759802 0 -0.39342078659019603 -0.34300184077244372 0 -0.41901032175007979 -0.34674631764622038 0 -0.40160491304204049 -0.35527610236370899 0 -0.39342078659019603 -0.34300184077244372 0 -0.38553593006925752 -0.3563250607759802 0 -0.40160491304204049 -0.35527610236370899 0 -0.39342078659019603 -0.34300184077244372 0 -0.41901032175007979 -0.34674631764622038 0 -0.40130564311113259 -0.32967862076890581 0 -0.39342078659019603 -0.34300184077244372 0 -0.40130564311113259 -0.32967862076890581 0 -0.39064670272592411 -0.32967160323888278 0 -0.39342078659019603 -0.34300184077244372 0 -0.40130564311113259 -0.32967862076890581 0 -0.39342078659019603 -0.34300184077244372 0 -0.39064670272592411 -0.32967160323888278 0 -0.39342078659019603 -0.34300184077244372 0 -0.38006824781918919 -0.33243312042550199 0 -0.38006824781918919 -0.33243312042550199 0 -0.38935907146989862 -0.31816186479418052 0 -0.37140736883531977 -0.32183989730859341 0 -0.38935907146989862 -0.31816186479418052 0 -0.38351210912712752 -0.30253866195360818 0 -0.37140736883531977 -0.32183989730859341 0 -0.39064670272592411 -0.32967160323888278 0 -0.38006824781918919 -0.33243312042550199 0 -0.38935907146989862 -0.31816186479418052 0 -0.38935907146989862 -0.31816186479418052 0 -0.401514660155255 -0.31819685637317691 0 -0.39554973675391708 -0.30949047449279188 0 -0.40130564311113259 -0.32967862076890581 0 -0.38935907146989862 -0.31816186479418052 0 -0.40130564311113259 -0.32967862076890581 0 -0.38935907146989862 -0.31816186479418052 0 -0.39962023335203928 -0.32539073298322901 0 -0.38935907146989862 -0.31816186479418052 0 -0.39962023335203928 -0.32539073298322901 0 -0.401514660155255 -0.31819685637317691 0 -0.40130564311113259 -0.32967862076890581 0 -0.39064670272592411 -0.32967160323888278 0 -0.38935907146989862 -0.31816186479418052 0 -0.40130564311113259 -0.32967862076890581 0 -0.39962023335203928 -0.32539073298322901 0 -0.4039383365009207 -0.3252300993353433 0 -0.39962023335203928 -0.32539073298322901 0 -0.4039383365009207 -0.3252300993353433 0 -0.39962023335203928 -0.32539073298322901 0 -0.4039383365009207 -0.3252300993353433 0 -0.401514660155255 -0.31819685637317691 0 -0.40130564311113259 -0.32967862076890581 0 -0.4039383365009207 -0.3252300993353433 0 -0.401514660155255 -0.31819685637317691 0 -0.4088463285069534 -0.31693695448250642 0 -0.4053668684804122 -0.3086126184714344 0 -0.4039383365009207 -0.3252300993353433 0 -0.401514660155255 -0.31819685637317691 0 -0.4088463285069534 -0.31693695448250642 0 -0.4039383365009207 -0.3252300993353433 0 -0.42808850906329299 -0.32433171173736591 0 -0.4088463285069534 -0.31693695448250642 0 -0.42808850906329299 -0.32433171173736591 0 -0.41503252140001728 -0.31110728079830707 0 -0.4039383365009207 -0.3252300993353433 0 -0.4088463285069534 -0.31693695448250642 0 -0.42808850906329299 -0.32433171173736591 0 -0.4039383365009207 -0.3252300993353433 0 -0.41609663568284688 -0.33258428014908531 0 -0.42808850906329299 -0.32433171173736591 0 -0.4039383365009207 -0.3252300993353433 0 -0.4088463285069534 -0.31693695448250642 0 -0.40130564311113259 -0.32967862076890581 0 -0.4039383365009207 -0.3252300993353433 0 -0.41609663568284688 -0.33258428014908531 0 -0.41901032175007979 -0.34674631764622038 0 -0.40130564311113259 -0.32967862076890581 0 -0.41609663568284688 -0.33258428014908531 0 -0.41901032175007979 -0.34674631764622038 0 -0.40130564311113259 -0.32967862076890581 0 -0.41901032175007979 -0.34674631764622038 0 -0.41609663568284688 -0.33258428014908531 0 -0.42777047674672519 -0.33763052508657909 0 -0.41609663568284688 -0.33258428014908531 0 -0.42777047674672519 -0.33763052508657909 0 -0.42808850906329299 -0.32433171173736591 0 -0.43394442261003058 -0.34546672586134508 0 -0.41901032175007979 -0.34674631764622038 0 -0.42777047674672519 -0.33763052508657909 0 -0.44207286924452832 -0.33783824796895978 0 -0.43394442261003058 -0.34546672586134508 0 -0.42777047674672519 -0.33763052508657909 0 -0.44207286924452832 -0.33783824796895978 0 -0.42777047674672519 -0.33763052508657909 0 -0.42808850906329299 -0.32433171173736591 0 -0.4399695753826649 -0.31139282438396382 0 -0.42808850906329299 -0.32433171173736591 0 -0.42349591428063971 -0.31031667424466408 0 -0.42808850906329299 -0.32433171173736591 0 -0.42349591428063971 -0.31031667424466408 0 -0.41503252140001728 -0.31110728079830707 0 -0.43905227881958647 -0.29505920944709452 0 -0.42349591428063971 -0.31031667424466408 0 -0.41899880716149451 -0.29003317060265321 0 -0.43905227881958647 -0.29505920944709452 0 -0.4399695753826649 -0.31139282438396382 0 -0.42349591428063971 -0.31031667424466408 0 -0.43864273500925549 -0.2751587481676856 0 -0.43905227881958647 -0.29505920944709452 0 -0.41899880716149451 -0.29003317060265321 0 -0.43864273500925549 -0.2751587481676856 0 -0.41899880716149451 -0.29003317060265321 0 -0.41649742047364408 -0.2919272257303569 0 -0.41502826726935188 -0.28951283527362931 0 -0.41151645216318689 -0.29124877083691719 0 -0.41899880716149451 -0.29003317060265321 0 -0.41649742047364408 -0.2919272257303569 0 -0.41502826726935188 -0.28951283527362931 0 -0.41899880716149451 -0.29003317060265321 0 -0.41649742047364408 -0.2919272257303569 0 -0.41899880716149451 -0.29003317060265321 0 -0.41502826726935188 -0.28951283527362931 0 -0.41310038927908221 -0.28484217392458988 0 -0.41310038927908221 -0.28484217392458988 0 -0.40629814920556201 -0.2872410904076857 0 -0.40433064532645308 -0.27892106023783952 0 -0.41502826726935188 -0.28951283527362931 0 -0.41310038927908221 -0.28484217392458988 0 -0.41151645216318689 -0.29124877083691719 0 -0.41310038927908221 -0.28484217392458988 0 -0.40629814920556201 -0.2872410904076857 0 -0.41151645216318689 -0.29124877083691719 0 -0.41649742047364408 -0.2919272257303569 0 -0.41151645216318689 -0.29124877083691719 0 -0.41283916949633909 -0.29890888486812428 0 -0.40629814920556201 -0.2872410904076857 0 -0.41151645216318689 -0.29124877083691719 0 -0.4052488046064433 -0.29379102377099447 0 -0.41151645216318689 -0.29124877083691719 0 -0.41283916949633909 -0.29890888486812428 0 -0.4052488046064433 -0.29379102377099447 0 -0.42349591428063971 -0.31031667424466408 0 -0.41899880716149451 -0.29003317060265321 0 -0.42349591428063971 -0.31031667424466408 0 -0.41649742047364408 -0.2919272257303569 0 -0.41283916949633909 -0.29890888486812428 0 -0.42349591428063971 -0.31031667424466408 0 -0.41899880716149451 -0.29003317060265321 0 -0.41649742047364408 -0.2919272257303569 0 -0.40711072979061191 -0.30081998795009107 0 -0.41283916949633909 -0.29890888486812428 0 -0.4052488046064433 -0.29379102377099447 0 -0.40711072979061191 -0.30081998795009107 0 -0.41283916949633909 -0.29890888486812428 0 -0.41256685577174013 -0.30556786269479153 0 -0.42349591428063971 -0.31031667424466408 0 -0.41283916949633909 -0.29890888486812428 0 -0.41256685577174013 -0.30556786269479153 0 -0.42349591428063971 -0.31031667424466408 0 -0.41503252140001728 -0.31110728079830707 0 -0.41256685577174013 -0.30556786269479153 0 -0.4088463285069534 -0.31693695448250642 0 -0.41503252140001728 -0.31110728079830707 0 -0.4053668684804122 -0.3086126184714344 0 -0.41503252140001728 -0.31110728079830707 0 -0.41256685577174013 -0.30556786269479153 0 -0.4053668684804122 -0.3086126184714344 0 -0.40711072979061191 -0.30081998795009107 0 -0.41256685577174013 -0.30556786269479153 0 -0.4053668684804122 -0.3086126184714344 0 -0.401514660155255 -0.31819685637317691 0 -0.4053668684804122 -0.3086126184714344 0 -0.39554973675391708 -0.30949047449279188 0 -0.4053668684804122 -0.3086126184714344 0 -0.39799597453689262 -0.29994237087155962 0 -0.39554973675391708 -0.30949047449279188 0 -0.40711072979061191 -0.30081998795009107 0 -0.4053668684804122 -0.3086126184714344 0 -0.39799597453689262 -0.29994237087155962 0 -0.40711072979061191 -0.30081998795009107 0 -0.39799597453689262 -0.29994237087155962 0 -0.4052488046064433 -0.29379102377099447 0 -0.39799597453689262 -0.29994237087155962 0 -0.39554973675391708 -0.30949047449279188 0 -0.38351210912712752 -0.30253866195360818 0 -0.38935907146989862 -0.31816186479418052 0 -0.39554973675391708 -0.30949047449279188 0 -0.38351210912712752 -0.30253866195360818 0 -0.38351210912712752 -0.30253866195360818 0 -0.3950660262777419 -0.28803976586637831 0 -0.37433096522584453 -0.28132989654828328 0 -0.39799597453689262 -0.29994237087155962 0 -0.38351210912712752 -0.30253866195360818 0 -0.3950660262777419 -0.28803976586637831 0 -0.39799597453689262 -0.29994237087155962 0 -0.3950660262777419 -0.28803976586637831 0 -0.4052488046064433 -0.29379102377099447 0 -0.40629814920556201 -0.2872410904076857 0 -0.3950660262777419 -0.28803976586637831 0 -0.4052488046064433 -0.29379102377099447 0 -0.40629814920556201 -0.2872410904076857 0 -0.3950660262777419 -0.28803976586637831 0 -0.40433064532645308 -0.27892106023783952 0 -0.40433064532645308 -0.27892106023783952 0 -0.39374553591587069 -0.27251425727467649 0 -0.41316010660589619 -0.2636986180010682 0 -0.39374553591587069 -0.27251425727467649 0 -0.41316010660589619 -0.2636986180010682 0 -0.3950660262777419 -0.28803976586637831 0 -0.40433064532645308 -0.27892106023783952 0 -0.39374553591587069 -0.27251425727467649 0 -0.39374553591587069 -0.27251425727467649 0 -0.37433096522584453 -0.28132989654828328 0 -0.3950660262777419 -0.28803976586637831 0 -0.39374553591587069 -0.27251425727467649 0 -0.37433096522584453 -0.28132989654828328 0 -0.39374553591587069 -0.27251425727467649 0 -0.37648826808451968 -0.27741199289956509 0 -0.37433096522584453 -0.28132989654828328 0 -0.39374553591587069 -0.27251425727467649 0 -0.37598097480723441 -0.26745556380373348 0 -0.38363075469537122 -0.26088114511686322 0 -0.39374553591587069 -0.27251425727467649 0 -0.37598097480723441 -0.26745556380373348 0 -0.37648826808451968 -0.27741199289956509 0 -0.37598097480723441 -0.26745556380373348 0 -0.37648826808451968 -0.27741199289956509 0 -0.37277902062147272 -0.27405557492128901 0 -0.37648826808451968 -0.27741199289956509 0 -0.37433096522584453 -0.28132989654828328 0 -0.38363075469537122 -0.26088114511686322 0 -0.37393540655460039 -0.25504906339868932 0 -0.38258347849844832 -0.24967798674395081 0 -0.37598097480723441 -0.26745556380373348 0 -0.38363075469537122 -0.26088114511686322 0 -0.37393540655460039 -0.25504906339868932 0 -0.38363075469537122 -0.26088114511686322 0 -0.3945867816951415 -0.25828321704239809 0 -0.38258347849844832 -0.24967798674395081 0 -0.3945867816951415 -0.25828321704239809 0 -0.3933004523496676 -0.24484402304582939 0 -0.38258347849844832 -0.24967798674395081 0 -0.39374553591587069 -0.27251425727467649 0 -0.3945867816951415 -0.25828321704239809 0 -0.41316010660589619 -0.2636986180010682 0 -0.3945867816951415 -0.25828321704239809 0 -0.41316010660589619 -0.2636986180010682 0 -0.40847937369743209 -0.24258689873782929 0 -0.39374553591587069 -0.27251425727467649 0 -0.38363075469537122 -0.26088114511686322 0 -0.3945867816951415 -0.25828321704239809 0 -0.41316010660589619 -0.2636986180010682 0 -0.42931567121415071 -0.25028064732030619 0 -0.40847937369743209 -0.24258689873782929 0 -0.41316010660589619 -0.2636986180010682 0 -0.40847937369743209 -0.24258689873782929 0 -0.41899880716149451 -0.29003317060265321 0 -0.41310038927908221 -0.28484217392458988 0 -0.41316010660589619 -0.2636986180010682 0 -0.41310038927908221 -0.28484217392458988 0 -0.40433064532645308 -0.27892106023783952 0 -0.41316010660589619 -0.2636986180010682 0 -0.41899880716149451 -0.29003317060265321 0 -0.41316010660589619 -0.2636986180010682 0 -0.42551969657153998 -0.27199364899169498 0 -0.41899880716149451 -0.29003317060265321 0 -0.41316010660589619 -0.2636986180010682 0 -0.43864273500925549 -0.2751587481676856 0 -0.42551969657153998 -0.27199364899169498 0 -0.43487007995442373 -0.25384069753834382 0 -0.43864273500925549 -0.2751587481676856 0 -0.41899880716149451 -0.29003317060265321 0 -0.42551969657153998 -0.27199364899169498 0 -0.41316010660589619 -0.2636986180010682 0 -0.43487007995442373 -0.25384069753834382 0 -0.41316010660589619 -0.2636986180010682 0 -0.42551969657153998 -0.27199364899169498 0 -0.43487007995442373 -0.25384069753834382 0 -0.41316010660589619 -0.2636986180010682 0 -0.43487007995442373 -0.25384069753834382 0 -0.42931567121415071 -0.25028064732030619 0 -0.32316489217708799 -0.25890650528201359 0 -0.32888695585781391 -0.26910619260742191 0 -0.31032083431566337 -0.26180085087236171 0 -0.32316489217708799 -0.25890650528201359 0 -0.32888695585781391 -0.26910619260742191 0 -0.33131030172746923 -0.25321851497678438 0 -0.32888695585781391 -0.26910619260742191 0 -0.31032083431566337 -0.26180085087236171 0 -0.32316489217708799 -0.25890650528201359 0 -0.33131030172746923 -0.25321851497678438 0 -0.32202724095639168 -0.2495658441092535 0 -0.32316489217708799 -0.25890650528201359 0 -0.31032083431566337 -0.26180085087236171 0 -0.32202724095639168 -0.2495658441092535 0 -0.31032083431566337 -0.26180085087236171 0 -0.32202724095639168 -0.2495658441092535 0 -0.31283906540333922 -0.25031215033235238 0 -0.31032083431566337 -0.26180085087236171 0 -0.32202724095639168 -0.2495658441092535 0 -0.31480478096024378 -0.27564718726691712 0 -0.32888695585781391 -0.26910619260742191 0 -0.31032083431566337 -0.26180085087236171 0 -0.31480478096024378 -0.27564718726691712 0 -0.32888695585781391 -0.26910619260742191 0 -0.32507396769595592 -0.29410449247197662 0 -0.32888695585781391 -0.26910619260742191 0 -0.3381311227387106 -0.26238754928509761 0 -0.34453036853746388 -0.27526151563856671 0 -0.32888695585781391 -0.26910619260742191 0 -0.34453036853746388 -0.27526151563856671 0 -0.33279411355556121 -0.28213246275860349 0 -0.32888695585781391 -0.26910619260742191 0 -0.34453036853746388 -0.27526151563856671 0 -0.34453036853746388 -0.27526151563856671 0 -0.34450588037081892 -0.28462367662190302 0 -0.33279411355556121 -0.28213246275860349 0 -0.32888695585781391 -0.26910619260742191 0 -0.33131030172746923 -0.25321851497678438 0 -0.32888695585781391 -0.26910619260742191 0 -0.3381311227387106 -0.26238754928509761 0 -0.33131030172746923 -0.25321851497678438 0 -0.3381311227387106 -0.26238754928509761 0 -0.34897267059429732 -0.25990550268967838 0 -0.3420777495351906 -0.24844208584564559 0 -0.3381311227387106 -0.26238754928509761 0 -0.33131030172746923 -0.25321851497678438 0 -0.3420777495351906 -0.24844208584564559 0 -0.34897267059429732 -0.25990550268967838 0 -0.35255150303394622 -0.24812522560144931 0 -0.3420777495351906 -0.24844208584564559 0 -0.34897267059429732 -0.25990550268967838 0 -0.35751050643918753 -0.2560897164936603 0 -0.35722060467742811 -0.26762499714769428 0 -0.34897267059429732 -0.25990550268967838 0 -0.35751050643918753 -0.2560897164936603 0 -0.35255150303394622 -0.24812522560144931 0 -0.35751050643918753 -0.2560897164936603 0 -0.363557814049559 -0.2486896754833777 0 -0.35255150303394622 -0.24812522560144931 0 -0.35751050643918753 -0.2560897164936603 0 -0.36561260290989678 -0.26128521942254013 0 -0.363557814049559 -0.2486896754833777 0 -0.35751050643918753 -0.2560897164936603 0 -0.36561260290989678 -0.26128521942254013 0 -0.35722060467742811 -0.26762499714769428 0 -0.37598097480723441 -0.26745556380373348 0 -0.36561260290989678 -0.26128521942254013 0 -0.37393540655460039 -0.25504906339868932 0 -0.36561260290989678 -0.26128521942254013 0 -0.37393540655460039 -0.25504906339868932 0 -0.363557814049559 -0.2486896754833777 0 -0.37277902062147272 -0.27405557492128901 0 -0.36654922363893422 -0.27215591673696138 0 -0.37433096522584453 -0.28132989654828328 0 -0.37648826808451968 -0.27741199289956509 0 -0.37277902062147272 -0.27405557492128901 0 -0.37433096522584453 -0.28132989654828328 0 -0.37598097480723441 -0.26745556380373348 0 -0.37277902062147272 -0.27405557492128901 0 -0.36654922363893422 -0.27215591673696138 0 -0.37598097480723441 -0.26745556380373348 0 -0.36561260290989678 -0.26128521942254013 0 -0.36654922363893422 -0.27215591673696138 0 -0.36561260290989678 -0.26128521942254013 0 -0.36654922363893422 -0.27215591673696138 0 -0.35722060467742811 -0.26762499714769428 0 -0.36654922363893422 -0.27215591673696138 0 -0.35722060467742811 -0.26762499714769428 0 -0.36017378121711419 -0.28141683866971062 0 -0.36654922363893422 -0.27215591673696138 0 -0.36017378121711419 -0.28141683866971062 0 -0.37433096522584453 -0.28132989654828328 0 -0.34453036853746388 -0.27526151563856671 0 -0.36017378121711419 -0.28141683866971062 0 -0.35722060467742811 -0.26762499714769428 0 -0.34453036853746388 -0.27526151563856671 0 -0.36017378121711419 -0.28141683866971062 0 -0.34453036853746388 -0.27526151563856671 0 -0.34450588037081892 -0.28462367662190302 0 -0.36017378121711419 -0.28141683866971062 0 -0.34897267059429732 -0.25990550268967838 0 -0.35722060467742811 -0.26762499714769428 0 -0.34453036853746388 -0.27526151563856671 0 -0.3381311227387106 -0.26238754928509761 0 -0.34897267059429732 -0.25990550268967838 0 -0.34453036853746388 -0.27526151563856671 0 -0.34450588037081892 -0.28462367662190302 0 -0.34891652205724832 -0.29286991805537971 0 -0.36017378121711419 -0.28141683866971062 0 -0.37433096522584453 -0.28132989654828328 0 -0.36105831684996031 -0.30543451277817618 0 -0.34891652205724832 -0.29286991805537971 0 -0.37433096522584453 -0.28132989654828328 0 -0.34891652205724832 -0.29286991805537971 0 -0.36017378121711419 -0.28141683866971062 0 -0.37433096522584453 -0.28132989654828328 0 -0.38351210912712752 -0.30253866195360818 0 -0.37433096522584453 -0.28132989654828328 0 -0.36105831684996031 -0.30543451277817618 0 -0.34891652205724832 -0.29286991805537971 0 -0.37433096522584453 -0.28132989654828328 0 -0.36105831684996031 -0.30543451277817618 0 -0.38351210912712752 -0.30253866195360818 0 -0.36105831684996031 -0.30543451277817618 0 -0.37140736883531977 -0.32183989730859341 0 -0.36105831684996031 -0.30543451277817618 0 -0.3496688877197569 -0.30429177800002122 0 -0.34586440994984541 -0.3145735322147622 0 -0.34891652205724832 -0.29286991805537971 0 -0.36105831684996031 -0.30543451277817618 0 -0.3496688877197569 -0.30429177800002122 0 -0.34891652205724832 -0.29286991805537971 0 -0.3496688877197569 -0.30429177800002122 0 -0.33956299038192078 -0.30735077663143923 0 -0.3496688877197569 -0.30429177800002122 0 -0.33956299038192078 -0.30735077663143923 0 -0.34586440994984541 -0.3145735322147622 0 -0.34891652205724832 -0.29286991805537971 0 -0.33956299038192078 -0.30735077663143923 0 -0.32350207888865212 -0.30440993956247547 0 -0.33956299038192078 -0.30735077663143923 0 -0.3301339810941622 -0.31110503031331638 0 -0.32350207888865212 -0.30440993956247547 0 -0.34891652205724832 -0.29286991805537971 0 -0.32350207888865212 -0.30440993956247547 0 -0.33956299038192078 -0.30735077663143923 0 -0.3301339810941622 -0.31110503031331638 0 -0.33675509785737662 -0.31655799101612769 0 -0.34891652205724832 -0.29286991805537971 0 -0.33611461648670682 -0.29143764798725502 0 -0.32350207888865212 -0.30440993956247547 0 -0.32888695585781391 -0.26910619260742191 0 -0.33279411355556121 -0.28213246275860349 0 -0.32507396769595592 -0.29410449247197662 0 -0.34450588037081892 -0.28462367662190302 0 -0.34891652205724832 -0.29286991805537971 0 -0.33611461648670682 -0.29143764798725502 0 -0.34450588037081892 -0.28462367662190302 0 -0.33611461648670682 -0.29143764798725502 0 -0.33279411355556121 -0.28213246275860349 0 -0.33279411355556121 -0.28213246275860349 0 -0.33070524953878982 -0.29012978506972142 0 -0.32507396769595592 -0.29410449247197662 0 -0.33611461648670682 -0.29143764798725502 0 -0.33279411355556121 -0.28213246275860349 0 -0.33070524953878982 -0.29012978506972142 0 -0.33611461648670682 -0.29143764798725502 0 -0.32742439802278828 -0.29462709162158601 0 -0.32350207888865212 -0.30440993956247547 0 -0.33611461648670682 -0.29143764798725502 0 -0.33070524953878982 -0.29012978506972142 0 -0.32742439802278828 -0.29462709162158601 0 -0.32507396769595592 -0.29410449247197662 0 -0.30234930147786221 -0.28905184696057518 0 -0.32507396769595592 -0.29410449247197662 0 -0.32350207888865212 -0.30440993956247547 0 -0.30234930147786221 -0.28905184696057518 0 -0.31480478096024378 -0.27564718726691712 0 -0.32507396769595592 -0.29410449247197662 0 -0.30234930147786221 -0.28905184696057518 0 -0.32888695585781391 -0.26910619260742191 0 -0.32507396769595592 -0.29410449247197662 0 -0.32507396769595592 -0.29410449247197662 0 -0.32742439802278828 -0.29462709162158601 0 -0.33070524953878982 -0.29012978506972142 0 -0.32507396769595592 -0.29410449247197662 0 -0.32742439802278828 -0.29462709162158601 0 -0.32302725724223008 -0.30752291379569302 0 -0.32350207888865212 -0.30440993956247547 0 -0.2999756881373381 -0.31509264677165549 0 -0.3301339810941622 -0.31110503031331638 0 -0.32302725724223008 -0.30752291379569302 0 -0.32422013968378288 -0.31561436227230438 0 -0.32302725724223008 -0.30752291379569302 0 -0.32350207888865212 -0.30440993956247547 0 -0.3301339810941622 -0.31110503031331638 0 -0.32302725724223008 -0.30752291379569302 0 -0.32350207888865212 -0.30440993956247547 0 -0.32507396769595592 -0.29410449247197662 0 -0.32742439802278828 -0.29462709162158601 0 -0.32350207888865212 -0.30440993956247547 0 -0.32507396769595592 -0.29410449247197662 0 -0.32350207888865212 -0.30440993956247547 0 -0.32302725724223008 -0.30752291379569302 0 -0.31656029902357641 -0.31849097864348519 0 -0.2999756881373381 -0.31509264677165549 0 -0.32265466046617669 -0.32198754646013139 0 -0.33127214989488979 -0.33008610863815152 0 -0.32872450059276898 -0.31896534214889599 0 -0.32265466046617669 -0.32198754646013139 0 -0.31892782856615448 -0.32825501756413727 0 -0.33127214989488979 -0.33008610863815152 0 -0.32265466046617669 -0.32198754646013139 0 -0.32422013968378288 -0.31561436227230438 0 -0.32872450059276898 -0.31896534214889599 0 -0.32302725724223008 -0.30752291379569302 0 -0.32422013968378288 -0.31561436227230438 0 -0.31656029902357641 -0.31849097864348519 0 -0.3301339810941622 -0.31110503031331638 0 -0.32422013968378288 -0.31561436227230438 0 -0.32872450059276898 -0.31896534214889599 0 -0.32265466046617669 -0.32198754646013139 0 -0.32422013968378288 -0.31561436227230438 0 -0.31656029902357641 -0.31849097864348519 0 -0.32265466046617669 -0.32198754646013139 0 -0.31656029902357641 -0.31849097864348519 0 -0.31892782856615448 -0.32825501756413727 0 -0.31656029902357641 -0.31849097864348519 0 -0.31892782856615448 -0.32825501756413727 0 -0.30936258926988919 -0.3261434941065412 0 -0.31892782856615448 -0.32825501756413727 0 -0.31208723605418232 -0.33616024018399832 0 -0.30936258926988919 -0.3261434941065412 0 -0.31892782856615448 -0.32825501756413727 0 -0.32183099473442811 -0.33958013728355868 0 -0.31208723605418232 -0.33616024018399832 0 -0.32183099473442811 -0.33958013728355868 0 -0.31234840654553953 -0.34764506024843322 0 -0.31208723605418232 -0.33616024018399832 0 -0.31892782856615448 -0.32825501756413727 0 -0.32183099473442811 -0.33958013728355868 0 -0.33127214989488979 -0.33008610863815152 0 -0.33127214989488979 -0.33008610863815152 0 -0.34778566847407638 -0.32953912900806931 0 -0.33412452318830171 -0.35434929914508079 0 -0.32183099473442811 -0.33958013728355868 0 -0.33127214989488979 -0.33008610863815152 0 -0.33412452318830171 -0.35434929914508079 0 -0.34778566847407638 -0.32953912900806931 0 -0.33412452318830171 -0.35434929914508079 0 -0.33127214989488979 -0.33008610863815152 0 -0.34035549841598117 -0.32426700585474 0 -0.34778566847407638 -0.32953912900806931 0 -0.34035549841598117 -0.32426700585474 0 -0.33427681169025408 -0.32246911191447869 0 -0.33675509785737662 -0.31655799101612769 0 -0.33127214989488979 -0.33008610863815152 0 -0.34035549841598117 -0.32426700585474 0 -0.33427681169025408 -0.32246911191447869 0 -0.33127214989488979 -0.33008610863815152 0 -0.33427681169025408 -0.32246911191447869 0 -0.32872450059276898 -0.31896534214889599 0 -0.33427681169025408 -0.32246911191447869 0 -0.32872450059276898 -0.31896534214889599 0 -0.33675509785737662 -0.31655799101612769 0 -0.3301339810941622 -0.31110503031331638 0 -0.32872450059276898 -0.31896534214889599 0 -0.33675509785737662 -0.31655799101612769 0 -0.33956299038192078 -0.30735077663143923 0 -0.33675509785737662 -0.31655799101612769 0 -0.34586440994984541 -0.3145735322147622 0 -0.34035549841598117 -0.32426700585474 0 -0.33675509785737662 -0.31655799101612769 0 -0.34586440994984541 -0.3145735322147622 0 -0.36105831684996031 -0.30543451277817618 0 -0.34778566847407638 -0.32953912900806931 0 -0.36105831684996031 -0.30543451277817618 0 -0.34586440994984541 -0.3145735322147622 0 -0.34778566847407638 -0.32953912900806931 0 -0.34035549841598117 -0.32426700585474 0 -0.34586440994984541 -0.3145735322147622 0 -0.34778566847407638 -0.32953912900806931 0 -0.34035549841598117 -0.32426700585474 0 -0.34778566847407638 -0.32953912900806931 0 -0.36105831684996031 -0.30543451277817618 0 -0.37140736883531977 -0.32183989730859341 0 -0.34778566847407638 -0.32953912900806931 0 -0.38006824781918919 -0.33243312042550199 0 -0.37140736883531977 -0.32183989730859341 0 -0.36666079927166728 -0.34293209489202431 0 -0.37140736883531977 -0.32183989730859341 0 -0.36666079927166728 -0.34293209489202431 0 -0.34778566847407638 -0.32953912900806931 0 -0.34778566847407638 -0.32953912900806931 0 -0.35170181166344461 -0.34709871950800919 0 -0.33412452318830171 -0.35434929914508079 0 -0.36666079927166728 -0.34293209489202431 0 -0.34778566847407638 -0.32953912900806931 0 -0.36666079927166728 -0.34293209489202431 0 -0.34778566847407638 -0.32953912900806931 0 -0.35170181166344461 -0.34709871950800919 0 -0.36666079927166728 -0.34293209489202431 0 -0.35170181166344461 -0.34709871950800919 0 -0.35823625571973289 -0.36157435498686258 0 -0.35170181166344461 -0.34709871950800919 0 -0.35823625571973289 -0.36157435498686258 0 -0.33412452318830171 -0.35434929914508079 0 -0.38553593006925752 -0.3563250607759802 0 -0.36666079927166728 -0.34293209489202431 0 -0.35823625571973289 -0.36157435498686258 0 -0.37549160074202448 -0.3732971907138336 0 -0.38553593006925752 -0.3563250607759802 0 -0.35823625571973289 -0.36157435498686258 0 -0.37549160074202448 -0.3732971907138336 0 -0.35823625571973289 -0.36157435498686258 0 -0.35302350150803719 -0.38208755235937009 0 -0.35823625571973289 -0.36157435498686258 0 -0.34413293857164062 -0.37054757780120701 0 -0.35302350150803719 -0.38208755235937009 0 -0.35823625571973289 -0.36157435498686258 0 -0.34413293857164062 -0.37054757780120701 0 -0.33412452318830171 -0.35434929914508079 0 -0.34413293857164062 -0.37054757780120701 0 -0.33412452318830171 -0.35434929914508079 0 -0.33519042443293379 -0.3802220457599616 0 -0.33412452318830171 -0.35434929914508079 0 -0.33519042443293379 -0.3802220457599616 0 -0.32046337790252549 -0.37915946928209171 0 -0.32183099473442811 -0.33958013728355868 0 -0.33412452318830171 -0.35434929914508079 0 -0.31234840654553953 -0.34764506024843322 0 -0.33412452318830171 -0.35434929914508079 0 -0.316806384823896 -0.36257585725837499 0 -0.31234840654553953 -0.34764506024843322 0 -0.316806384823896 -0.36257585725837499 0 -0.3002892316592175 -0.36914960035789463 0 -0.32046337790252549 -0.37915946928209171 0 -0.33412452318830171 -0.35434929914508079 0 -0.316806384823896 -0.36257585725837499 0 -0.32046337790252549 -0.37915946928209171 0 -0.33412452318830171 -0.35434929914508079 0 -0.32046337790252549 -0.37915946928209171 0 -0.3002892316592175 -0.36914960035789463 0 -0.32046337790252549 -0.37915946928209171 0 -0.3002892316592175 -0.36914960035789463 0 -0.31234840654553953 -0.34764506024843322 0 -0.29527517448125451 -0.36666176000398298 0 -0.316806384823896 -0.36257585725837499 0 -0.3002892316592175 -0.36914960035789463 0 -0.31234840654553953 -0.34764506024843322 0 -0.3002892316592175 -0.36914960035789463 0 -0.29527517448125451 -0.36666176000398298 0 -0.3002892316592175 -0.36914960035789463 0 -0.29403121103535113 -0.38030922419454549 0 -0.31234840654553953 -0.34764506024843322 0 -0.29527517448125451 -0.36666176000398298 0 -0.2976254313092957 -0.34087720338781918 0 -0.3002892316592175 -0.36914960035789463 0 -0.31234840654553953 -0.34764506024843322 0 -0.29527517448125451 -0.36666176000398298 0 -0.26926364122666091 -0.35375553660024128 0 -0.28048823453243299 -0.34080574413418752 0 -0.29527517448125451 -0.36666176000398298 0 -0.2976254313092957 -0.34087720338781918 0 -0.29527517448125451 -0.36666176000398298 0 -0.28048823453243299 -0.34080574413418752 0 -0.2976254313092957 -0.34087720338781918 0 -0.29527517448125451 -0.36666176000398298 0 -0.26926364122666091 -0.35375553660024128 0 -0.29527517448125451 -0.36666176000398298 0 -0.27994264201103719 -0.36323993691456841 0 -0.26926364122666091 -0.35375553660024128 0 -0.29527517448125451 -0.36666176000398298 0 -0.28588261091775702 -0.37268605543787447 0 -0.29403121103535113 -0.38030922419454549 0 -0.29527517448125451 -0.36666176000398298 0 -0.29403121103535113 -0.38030922419454549 0 -0.3002892316592175 -0.36914960035789463 0 -0.29527517448125451 -0.36666176000398298 0 -0.29403121103535113 -0.38030922419454549 0 -0.29527517448125451 -0.36666176000398298 0 -0.28588261091775702 -0.37268605543787447 0 -0.27994264201103719 -0.36323993691456841 0 -0.28588261091775702 -0.37268605543787447 0 -0.27994264201103719 -0.36323993691456841 0 -0.2742629371717063 -0.37916463673385931 0 -0.27994264201103719 -0.36323993691456841 0 -0.26568404082974961 -0.36651666061706623 0 -0.2742629371717063 -0.37916463673385931 0 -0.27994264201103719 -0.36323993691456841 0 -0.26568404082974961 -0.36651666061706623 0 -0.26017799311385281 -0.35268912854855933 0 -0.26568404082974961 -0.36651666061706623 0 -0.25909124390184018 -0.37475905286733341 0 -0.2742629371717063 -0.37916463673385931 0 -0.26568404082974961 -0.36651666061706623 0 -0.25909124390184018 -0.37475905286733341 0 -0.25494538795031141 -0.36273054802101118 0 -0.26568404082974961 -0.36651666061706623 0 -0.25494538795031141 -0.36273054802101118 0 -0.26017799311385281 -0.35268912854855933 0 -0.25909124390184018 -0.37475905286733341 0 -0.25494538795031141 -0.36273054802101118 0 -0.24748772700216881 -0.3717564301773445 0 -0.26017799311385281 -0.35268912854855933 0 -0.2404133442166683 -0.34213832018255058 0 -0.26926364122666091 -0.35375553660024128 0 -0.24325210797206609 -0.34084931319650169 0 -0.26017799311385281 -0.35268912854855933 0 -0.26926364122666091 -0.35375553660024128 0 -0.24325210797206609 -0.34084931319650169 0 -0.25494538795031141 -0.36273054802101118 0 -0.26017799311385281 -0.35268912854855933 0 -0.24808760514302669 -0.3536558827211943 0 -0.27994264201103719 -0.36323993691456841 0 -0.26017799311385281 -0.35268912854855933 0 -0.27994264201103719 -0.36323993691456841 0 -0.26017799311385281 -0.35268912854855933 0 -0.26926364122666091 -0.35375553660024128 0 -0.28048823453243299 -0.34080574413418752 0 -0.2621599680271573 -0.33226375772155409 0 -0.28106782808224812 -0.3236782022466056 0 -0.26926364122666091 -0.35375553660024128 0 -0.28048823453243299 -0.34080574413418752 0 -0.2621599680271573 -0.33226375772155409 0 -0.2621599680271573 -0.33226375772155409 0 -0.24518994726652291 -0.33234415230164399 0 -0.24308922262768951 -0.32099342612622928 0 -0.2621599680271573 -0.33226375772155409 0 -0.24325210797206609 -0.34084931319650169 0 -0.24518994726652291 -0.33234415230164399 0 -0.2621599680271573 -0.33226375772155409 0 -0.24325210797206609 -0.34084931319650169 0 -0.26926364122666091 -0.35375553660024128 0 -0.2621599680271573 -0.33226375772155409 0 -0.24325210797206609 -0.34084931319650169 0 -0.2621599680271573 -0.33226375772155409 0 -0.25915672867891859 -0.31415112243359272 0 -0.24308922262768951 -0.32099342612622928 0 -0.2621599680271573 -0.33226375772155409 0 -0.28106782808224812 -0.3236782022466056 0 -0.25915672867891859 -0.31415112243359272 0 -0.28106782808224812 -0.3236782022466056 0 -0.2709678639136075 -0.30238435136382452 0 -0.2621599680271573 -0.33226375772155409 0 -0.25915672867891859 -0.31415112243359272 0 -0.28106782808224812 -0.3236782022466056 0 -0.28106782808224812 -0.3236782022466056 0 -0.2999756881373381 -0.31509264677165549 0 -0.28453315598845252 -0.30841843357299598 0 -0.28106782808224812 -0.3236782022466056 0 -0.2976254313092957 -0.34087720338781918 0 -0.2999756881373381 -0.31509264677165549 0 -0.28106782808224812 -0.3236782022466056 0 -0.2999756881373381 -0.31509264677165549 0 -0.28048823453243299 -0.34080574413418752 0 -0.28106782808224812 -0.3236782022466056 0 -0.2976254313092957 -0.34087720338781918 0 -0.31234840654553953 -0.34764506024843322 0 -0.2976254313092957 -0.34087720338781918 0 -0.31208723605418232 -0.33616024018399832 0 -0.2976254313092957 -0.34087720338781918 0 -0.31208723605418232 -0.33616024018399832 0 -0.30936258926988919 -0.3261434941065412 0 -0.2976254313092957 -0.34087720338781918 0 -0.2999756881373381 -0.31509264677165549 0 -0.2976254313092957 -0.34087720338781918 0 -0.30936258926988919 -0.3261434941065412 0 -0.2999756881373381 -0.31509264677165549 0 -0.31656029902357641 -0.31849097864348519 0 -0.30936258926988919 -0.3261434941065412 0 -0.2999756881373381 -0.31509264677165549 0 -0.32350207888865212 -0.30440993956247547 0 -0.2999756881373381 -0.31509264677165549 0 -0.30234930147786221 -0.28905184696057518 0 -0.2999756881373381 -0.31509264677165549 0 -0.30234930147786221 -0.28905184696057518 0 -0.2999756881373381 -0.31509264677165549 0 -0.30234930147786221 -0.28905184696057518 0 -0.29239547880504652 -0.30127313523009702 0 -0.32350207888865212 -0.30440993956247547 0 -0.2999756881373381 -0.31509264677165549 0 -0.30234930147786221 -0.28905184696057518 0 -0.29006270545698909 -0.29189763306700739 0 -0.29239547880504652 -0.30127313523009702 0 -0.30234930147786221 -0.28905184696057518 0 -0.29006270545698909 -0.29189763306700739 0 -0.28742262680475061 -0.28573302172180548 0 -0.30234930147786221 -0.28905184696057518 0 -0.28742262680475061 -0.28573302172180548 0 -0.29006270545698909 -0.29189763306700739 0 -0.28742262680475061 -0.28573302172180548 0 -0.28158089536532038 -0.29680102193740848 0 -0.29006270545698909 -0.29189763306700739 0 -0.28158089536532038 -0.29680102193740848 0 -0.29239547880504652 -0.30127313523009702 0 -0.28158089536532038 -0.29680102193740848 0 -0.29239547880504652 -0.30127313523009702 0 -0.28453315598845252 -0.30841843357299598 0 -0.2999756881373381 -0.31509264677165549 0 -0.29239547880504652 -0.30127313523009702 0 -0.28453315598845252 -0.30841843357299598 0 -0.28106782808224812 -0.3236782022466056 0 -0.28453315598845252 -0.30841843357299598 0 -0.2709678639136075 -0.30238435136382452 0 -0.28158089536532038 -0.29680102193740848 0 -0.28453315598845252 -0.30841843357299598 0 -0.2709678639136075 -0.30238435136382452 0 -0.25915672867891859 -0.31415112243359272 0 -0.25718459078837252 -0.29759752524363881 0 -0.24047089863443691 -0.30798947189970438 0 -0.25915672867891859 -0.31415112243359272 0 -0.2709678639136075 -0.30238435136382452 0 -0.25718459078837252 -0.29759752524363881 0 -0.25718459078837252 -0.29759752524363881 0 -0.25108388684634803 -0.28956965662021522 0 -0.26792751193251091 -0.28139844079955562 0 -0.25108388684634803 -0.28956965662021522 0 -0.26792751193251091 -0.28139844079955562 0 -0.2484323970602714 -0.27706385987730509 0 -0.2709678639136075 -0.30238435136382452 0 -0.25718459078837252 -0.29759752524363881 0 -0.26792751193251091 -0.28139844079955562 0 -0.28742262680475061 -0.28573302172180548 0 -0.26792751193251091 -0.28139844079955562 0 -0.28158089536532038 -0.29680102193740848 0 -0.2709678639136075 -0.30238435136382452 0 -0.26792751193251091 -0.28139844079955562 0 -0.28742262680475061 -0.28573302172180548 0 -0.28158089536532038 -0.29680102193740848 0 -0.26792751193251091 -0.28139844079955562 0 -0.26792751193251091 -0.28139844079955562 0 -0.27965676560653041 -0.27550351800418249 0 -0.27506057922854799 -0.26523935036500679 0 -0.28742262680475061 -0.28573302172180548 0 -0.26792751193251091 -0.28139844079955562 0 -0.27965676560653041 -0.27550351800418249 0 -0.26792751193251091 -0.28139844079955562 0 -0.26170023695288303 -0.26848976391570201 0 -0.27506057922854799 -0.26523935036500679 0 -0.27965676560653041 -0.27550351800418249 0 -0.27506057922854799 -0.26523935036500679 0 -0.28821634446031208 -0.2696432591303618 0 -0.26792751193251091 -0.28139844079955562 0 -0.2484323970602714 -0.27706385987730509 0 -0.26792751193251091 -0.28139844079955562 0 -0.26170023695288303 -0.26848976391570201 0 -0.2484323970602714 -0.27706385987730509 0 -0.26170023695288303 -0.26848976391570201 0 -0.25309751137434572 -0.26289123234143091 0 -0.2484323970602714 -0.27706385987730509 0 -0.2565674865322034 -0.25340195958415102 0 -0.26524553468775469 -0.25886506807255583 0 -0.27383001930629169 -0.24744255459442921 0 -0.2565674865322034 -0.25340195958415102 0 -0.27383001930629169 -0.24744255459442921 0 -0.2565674865322034 -0.25340195958415102 0 -0.25309751137434572 -0.26289123234143091 0 -0.24233717299785959 -0.25960849866204011 0 -0.2565674865322034 -0.25340195958415102 0 -0.25309751137434572 -0.26289123234143091 0 -0.26524553468775469 -0.25886506807255583 0 -0.26170023695288303 -0.26848976391570201 0 -0.25309751137434572 -0.26289123234143091 0 -0.26524553468775469 -0.25886506807255583 0 -0.27506057922854799 -0.26523935036500679 0 -0.28942662192718172 -0.25357945894426132 0 -0.27383001930629169 -0.24744255459442921 0 -0.26524553468775469 -0.25886506807255583 0 -0.27506057922854799 -0.26523935036500679 0 -0.27383001930629169 -0.24744255459442921 0 -0.26170023695288303 -0.26848976391570201 0 -0.26524553468775469 -0.25886506807255583 0 -0.27506057922854799 -0.26523935036500679 0 -0.28942662192718172 -0.25357945894426132 0 -0.29569431645386429 -0.26311293363000732 0 -0.28821634446031208 -0.2696432591303618 0 -0.28942662192718172 -0.25357945894426132 0 -0.27383001930629169 -0.24744255459442921 0 -0.27506057922854799 -0.26523935036500679 0 -0.28942662192718172 -0.25357945894426132 0 -0.28821634446031208 -0.2696432591303618 0 -0.28942662192718172 -0.25357945894426132 0 -0.29569431645386429 -0.26311293363000732 0 -0.30502322454807101 -0.25971636329409542 0 -0.29569431645386429 -0.26311293363000732 0 -0.28821634446031208 -0.2696432591303618 0 -0.30425539613548452 -0.26814017253042433 0 -0.28742262680475061 -0.28573302172180548 0 -0.27965676560653041 -0.27550351800418249 0 -0.28821634446031208 -0.2696432591303618 0 -0.28742262680475061 -0.28573302172180548 0 -0.28821634446031208 -0.2696432591303618 0 -0.30425539613548452 -0.26814017253042433 0 -0.28742262680475061 -0.28573302172180548 0 -0.30425539613548452 -0.26814017253042433 0 -0.31480478096024378 -0.27564718726691712 0 -0.30234930147786221 -0.28905184696057518 0 -0.30425539613548452 -0.26814017253042433 0 -0.30234930147786221 -0.28905184696057518 0 -0.30425539613548452 -0.26814017253042433 0 -0.30234930147786221 -0.28905184696057518 0 -0.28742262680475061 -0.28573302172180548 0 -0.30425539613548452 -0.26814017253042433 0 -0.31480478096024378 -0.27564718726691712 0 -0.30425539613548452 -0.26814017253042433 0 -0.31032083431566337 -0.26180085087236171 0 -0.30425539613548452 -0.26814017253042433 0 -0.31032083431566337 -0.26180085087236171 0 -0.30502322454807101 -0.25971636329409542 0 -0.28942662192718172 -0.25357945894426132 0 -0.30538593138510828 -0.25573712372202267 0 -0.29948497002523827 -0.2483657822867901 0 -0.28942662192718172 -0.25357945894426132 0 -0.30502322454807101 -0.25971636329409542 0 -0.30538593138510828 -0.25573712372202267 0 -0.30425539613548452 -0.26814017253042433 0 -0.31032083431566337 -0.26180085087236171 0 -0.31032083431566337 -0.26180085087236171 0 -0.30502322454807101 -0.25971636329409542 0 -0.31032083431566337 -0.26180085087236171 0 -0.30502322454807101 -0.25971636329409542 0 -0.30538593138510828 -0.25573712372202267 0 -0.31283906540333922 -0.25031215033235238 0 -0.31032083431566337 -0.26180085087236171 0 -0.30538593138510828 -0.25573712372202267 0 -0.31283906540333922 -0.25031215033235238 0 -0.30538593138510828 -0.25573712372202267 0 -0.30623861516307299 -0.24935013043731349 0 -0.30502322454807101 -0.25971636329409542 0 -0.30538593138510828 -0.25573712372202267 0 -0.28942662192718172 -0.25357945894426132 0 -0.30502322454807101 -0.25971636329409542 0 -0.30538593138510828 -0.25573712372202267 0 -0.29948497002523827 -0.2483657822867901 0 -0.30623861516307299 -0.24935013043731349 0 -0.30425539613548452 -0.26814017253042433 0 -0.30502322454807101 -0.25971636329409542 0 -0.29569431645386429 -0.26311293363000732 0 -0.30425539613548452 -0.26814017253042433 0 -0.30502322454807101 -0.25971636329409542 0 -0.33143192801526428 -0.45396038638140679 0 -0.33152258580119082 -0.46633970128806979 0 -0.34296165509457921 -0.45730971557378147 0 -0.34069406563311189 -0.44566521365826578 0 -0.32492704317595772 -0.44077768091168912 0 -0.33812272201467081 -0.43047089330918592 0 -0.33143192801526428 -0.45396038638140679 0 -0.34069406563311189 -0.44566521365826578 0 -0.32492704317595772 -0.44077768091168912 0 -0.33143192801526428 -0.45396038638140679 0 -0.34296165509457921 -0.45730971557378147 0 -0.34069406563311189 -0.44566521365826578 0 -0.33143192801526428 -0.45396038638140679 0 -0.32492704317595772 -0.44077768091168912 0 -0.31987457796333868 -0.4551426725204325 0 -0.32492704317595772 -0.44077768091168912 0 -0.31987457796333868 -0.4551426725204325 0 -0.31015853372433788 -0.44544301337781073 0 -0.33152258580119082 -0.46633970128806979 0 -0.30592196819360068 -0.46328971004504182 0 -0.33152258580119082 -0.46633970128806979 0 -0.31987457796333868 -0.4551426725204325 0 -0.30592196819360068 -0.46328971004504182 0 -0.33152258580119082 -0.46633970128806979 0 -0.32094261384274558 -0.46854088973335889 0 -0.30592196819360068 -0.46328971004504182 0 -0.33143192801526428 -0.45396038638140679 0 -0.33152258580119082 -0.46633970128806979 0 -0.31987457796333868 -0.4551426725204325 0 -0.33152258580119082 -0.46633970128806979 0 -0.32094261384274558 -0.46854088973335889 0 -0.32966732857214198 -0.4835879285261328 0 -0.32094261384274558 -0.46854088973335889 0 -0.32966732857214198 -0.4835879285261328 0 -0.31208929727375578 -0.48491526738579699 0 -0.32221211863154181 -0.5 0 -0.32966732857214198 -0.4835879285261328 0 -0.31208929727375578 -0.48491526738579699 0 -0.32221211863154181 -0.5 0 -0.32966732857214198 -0.4835879285261328 0 -0.34860848031248309 -0.5 0 -0.32966732857214198 -0.4835879285261328 0 -0.34707385437868848 -0.48052394199199022 0 -0.34860848031248309 -0.5 0 -0.33152258580119082 -0.46633970128806979 0 -0.32966732857214198 -0.4835879285261328 0 -0.34707385437868848 -0.48052394199199022 0 -0.33152258580119082 -0.46633970128806979 0 -0.3571232034087809 -0.46938969253109791 0 -0.34707385437868848 -0.48052394199199022 0 -0.3571232034087809 -0.46938969253109791 0 -0.34707385437868848 -0.48052394199199022 0 -0.36652141413456929 -0.48474993749143802 0 -0.34707385437868848 -0.48052394199199022 0 -0.34860848031248309 -0.5 0 -0.36652141413456929 -0.48474993749143802 0 -0.37500484199342449 -0.5 0 -0.34860848031248309 -0.5 0 -0.36652141413456929 -0.48474993749143802 0 -0.38272382101637098 -0.47243968377412587 0 -0.3571232034087809 -0.46938969253109791 0 -0.36652141413456929 -0.48474993749143802 0 -0.38272382101637098 -0.47243968377412587 0 -0.3571232034087809 -0.46938969253109791 0 -0.38265619596279349 -0.45813348326120767 0 -0.38272382101637098 -0.47243968377412587 0 -0.3571232034087809 -0.46938969253109791 0 -0.38265619596279349 -0.45813348326120767 0 -0.3571232034087809 -0.46938969253109791 0 -0.35544663641047641 -0.4489101100326689 0 -0.38265619596279349 -0.45813348326120767 0 -0.35544663641047641 -0.4489101100326689 0 -0.34296165509457921 -0.45730971557378147 0 -0.3571232034087809 -0.46938969253109791 0 -0.35544663641047641 -0.4489101100326689 0 -0.33152258580119082 -0.46633970128806979 0 -0.3571232034087809 -0.46938969253109791 0 -0.33152258580119082 -0.46633970128806979 0 -0.34296165509457921 -0.45730971557378147 0 -0.3571232034087809 -0.46938969253109791 0 -0.34069406563311189 -0.44566521365826578 0 -0.35544663641047641 -0.4489101100326689 0 -0.35372302635176472 -0.43532257313283612 0 -0.34296165509457921 -0.45730971557378147 0 -0.34069406563311189 -0.44566521365826578 0 -0.35544663641047641 -0.4489101100326689 0 -0.35544663641047641 -0.4489101100326689 0 -0.3723601590800425 -0.44005613486137668 0 -0.35372302635176472 -0.43532257313283612 0 -0.38265619596279349 -0.45813348326120767 0 -0.35544663641047641 -0.4489101100326689 0 -0.3723601590800425 -0.44005613486137668 0 -0.38028594703985957 -0.42392304976487449 0 -0.3723601590800425 -0.44005613486137668 0 -0.36423780173753523 -0.4264797532188066 0 -0.3723601590800425 -0.44005613486137668 0 -0.36423780173753523 -0.4264797532188066 0 -0.35372302635176472 -0.43532257313283612 0 -0.38028594703985957 -0.42392304976487449 0 -0.36423780173753523 -0.4264797532188066 0 -0.36590226101420908 -0.41270082520662749 0 -0.36423780173753523 -0.4264797532188066 0 -0.36590226101420908 -0.41270082520662749 0 -0.35147677323475168 -0.42035333371671318 0 -0.36590226101420908 -0.41270082520662749 0 -0.35147677323475168 -0.42035333371671318 0 -0.35184044830027089 -0.40346733636007898 0 -0.35147677323475168 -0.42035333371671318 0 -0.35184044830027089 -0.40346733636007898 0 -0.33675831632547681 -0.41105613646481343 0 -0.35147677323475168 -0.42035333371671318 0 -0.35372302635176472 -0.43532257313283612 0 -0.33812272201467081 -0.43047089330918592 0 -0.34069406563311189 -0.44566521365826578 0 -0.35372302635176472 -0.43532257313283612 0 -0.33812272201467081 -0.43047089330918592 0 -0.36423780173753523 -0.4264797532188066 0 -0.35147677323475168 -0.42035333371671318 0 -0.35372302635176472 -0.43532257313283612 0 -0.37549160074202448 -0.3732971907138336 0 -0.36544727141479139 -0.39026932065168712 0 -0.37549160074202448 -0.3732971907138336 0 -0.36544727141479139 -0.39026932065168712 0 -0.35302350150803719 -0.38208755235937009 0 -0.36590226101420908 -0.41270082520662749 0 -0.36544727141479139 -0.39026932065168712 0 -0.35184044830027089 -0.40346733636007898 0 -0.38114412328536468 -0.40833987260765031 0 -0.36590226101420908 -0.41270082520662749 0 -0.36544727141479139 -0.39026932065168712 0 -0.35184044830027089 -0.40346733636007898 0 -0.35302350150803719 -0.38208755235937009 0 -0.34082557137486691 -0.39523504024196021 0 -0.36544727141479139 -0.39026932065168712 0 -0.35184044830027089 -0.40346733636007898 0 -0.35302350150803719 -0.38208755235937009 0 -0.34413293857164062 -0.37054757780120701 0 -0.35302350150803719 -0.38208755235937009 0 -0.33519042443293379 -0.3802220457599616 0 -0.35302350150803719 -0.38208755235937009 0 -0.33519042443293379 -0.3802220457599616 0 -0.34082557137486691 -0.39523504024196021 0 -0.33519042443293379 -0.3802220457599616 0 -0.32808226850220168 -0.39240284671641351 0 -0.3247168406287716 -0.38559411673624039 0 -0.33519042443293379 -0.3802220457599616 0 -0.34082557137486691 -0.39523504024196021 0 -0.32808226850220168 -0.39240284671641351 0 -0.34082557137486691 -0.39523504024196021 0 -0.32808226850220168 -0.39240284671641351 0 -0.33675831632547681 -0.41105613646481343 0 -0.32808226850220168 -0.39240284671641351 0 -0.33675831632547681 -0.41105613646481343 0 -0.3206477944579052 -0.41019310838576051 0 -0.35184044830027089 -0.40346733636007898 0 -0.34082557137486691 -0.39523504024196021 0 -0.33675831632547681 -0.41105613646481343 0 -0.32808226850220168 -0.39240284671641351 0 -0.31437491003333667 -0.39021680895226152 0 -0.3206477944579052 -0.41019310838576051 0 -0.32808226850220168 -0.39240284671641351 0 -0.3247168406287716 -0.38559411673624039 0 -0.31437491003333667 -0.39021680895226152 0 -0.31437491003333667 -0.39021680895226152 0 -0.32046337790252549 -0.37915946928209171 0 -0.30588070030683939 -0.38181824174751872 0 -0.3247168406287716 -0.38559411673624039 0 -0.31437491003333667 -0.39021680895226152 0 -0.32046337790252549 -0.37915946928209171 0 -0.31437491003333667 -0.39021680895226152 0 -0.32046337790252549 -0.37915946928209171 0 -0.33519042443293379 -0.3802220457599616 0 -0.3247168406287716 -0.38559411673624039 0 -0.32046337790252549 -0.37915946928209171 0 -0.32492704317595772 -0.44077768091168912 0 -0.33812272201467081 -0.43047089330918592 0 -0.32670905357880831 -0.42305010768611329 0 -0.35147677323475168 -0.42035333371671318 0 -0.33812272201467081 -0.43047089330918592 0 -0.33675831632547681 -0.41105613646481343 0 -0.33812272201467081 -0.43047089330918592 0 -0.33675831632547681 -0.41105613646481343 0 -0.32670905357880831 -0.42305010768611329 0 -0.33675831632547681 -0.41105613646481343 0 -0.3206477944579052 -0.41019310838576051 0 -0.32670905357880831 -0.42305010768611329 0 -0.3206477944579052 -0.41019310838576051 0 -0.31307232924124478 -0.42559811140412351 0 -0.32670905357880831 -0.42305010768611329 0 -0.32492704317595772 -0.44077768091168912 0 -0.31307232924124478 -0.42559811140412351 0 -0.31015853372433788 -0.44544301337781073 0 -0.32492704317595772 -0.44077768091168912 0 -0.31307232924124478 -0.42559811140412351 0 -0.32670905357880831 -0.42305010768611329 0 -0.31307232924124478 -0.42559811140412351 0 -0.29907098912325059 -0.43374406761790368 0 -0.29851577765410048 -0.41098608612968202 0 -0.31307232924124478 -0.42559811140412351 0 -0.29907098912325059 -0.43374406761790368 0 -0.31015853372433788 -0.44544301337781073 0 -0.3206477944579052 -0.41019310838576051 0 -0.31307232924124478 -0.42559811140412351 0 -0.29851577765410048 -0.41098608612968202 0 -0.3206477944579052 -0.41019310838576051 0 -0.29851577765410048 -0.41098608612968202 0 -0.29851577765410048 -0.41098608612968202 0 -0.27638376085029581 -0.41177906387360241 0 -0.29851577765410048 -0.41098608612968202 0 -0.28520748594282241 -0.3960441440340734 0 -0.27638376085029581 -0.41177906387360241 0 -0.29851577765410048 -0.41098608612968202 0 -0.28540276919059199 -0.42535658303670731 0 -0.27638376085029581 -0.41177906387360241 0 -0.29907098912325059 -0.43374406761790368 0 -0.29851577765410048 -0.41098608612968202 0 -0.28540276919059199 -0.42535658303670731 0 -0.28540276919059199 -0.42535658303670731 0 -0.27848929033898201 -0.43669604725877897 0 -0.28902284908971709 -0.44016681433255572 0 -0.29907098912325059 -0.43374406761790368 0 -0.28540276919059199 -0.42535658303670731 0 -0.28902284908971709 -0.44016681433255572 0 -0.3002892316592175 -0.36914960035789463 0 -0.32046337790252549 -0.37915946928209171 0 -0.30588070030683939 -0.38181824174751872 0 -0.3002892316592175 -0.36914960035789463 0 -0.29819443980788141 -0.38001079285233907 0 -0.30588070030683939 -0.38181824174751872 0 -0.3002892316592175 -0.36914960035789463 0 -0.29819443980788141 -0.38001079285233907 0 -0.29403121103535113 -0.38030922419454549 0 -0.31437491003333667 -0.39021680895226152 0 -0.30588070030683939 -0.38181824174751872 0 -0.30232780815510779 -0.39560758766926629 0 -0.29819443980788141 -0.38001079285233907 0 -0.30588070030683939 -0.38181824174751872 0 -0.29681739610749358 -0.387616864260033 0 -0.30588070030683939 -0.38181824174751872 0 -0.30232780815510779 -0.39560758766926629 0 -0.29681739610749358 -0.387616864260033 0 -0.31437491003333667 -0.39021680895226152 0 -0.3206477944579052 -0.41019310838576051 0 -0.30232780815510779 -0.39560758766926629 0 -0.3206477944579052 -0.41019310838576051 0 -0.29851577765410048 -0.41098608612968202 0 -0.30232780815510779 -0.39560758766926629 0 -0.30232780815510779 -0.39560758766926629 0 -0.28520748594282241 -0.3960441440340734 0 -0.29681739610749358 -0.387616864260033 0 -0.29851577765410048 -0.41098608612968202 0 -0.30232780815510779 -0.39560758766926629 0 -0.28520748594282241 -0.3960441440340734 0 -0.28520748594282241 -0.3960441440340734 0 -0.28484606126690931 -0.38205101510008821 0 -0.29403121103535113 -0.38030922419454549 0 -0.28520748594282241 -0.3960441440340734 0 -0.29403121103535113 -0.38030922419454549 0 -0.28520748594282241 -0.3960441440340734 0 -0.29681739610749358 -0.387616864260033 0 -0.29403121103535113 -0.38030922419454549 0 -0.28520748594282241 -0.3960441440340734 0 -0.28484606126690931 -0.38205101510008821 0 -0.2742629371717063 -0.37916463673385931 0 -0.28588261091775702 -0.37268605543787447 0 -0.28484606126690931 -0.38205101510008821 0 -0.2742629371717063 -0.37916463673385931 0 -0.28588261091775702 -0.37268605543787447 0 -0.28484606126690931 -0.38205101510008821 0 -0.29403121103535113 -0.38030922419454549 0 -0.29819443980788141 -0.38001079285233907 0 -0.29681739610749358 -0.387616864260033 0 -0.29403121103535113 -0.38030922419454549 0 -0.28520748594282241 -0.3960441440340734 0 -0.2742629371717063 -0.37916463673385931 0 -0.26755910350718881 -0.39582792531461569 0 -0.2742629371717063 -0.37916463673385931 0 -0.26755910350718881 -0.39582792531461569 0 -0.26281209396899169 -0.38517470131063508 0 -0.28520748594282241 -0.3960441440340734 0 -0.27638376085029581 -0.41177906387360241 0 -0.28520748594282241 -0.3960441440340734 0 -0.26755910350718881 -0.39582792531461569 0 -0.27638376085029581 -0.41177906387360241 0 -0.26755910350718881 -0.39582792531461569 0 -0.25033509129523179 -0.39094719032673231 0 -0.25487024651921952 -0.41254988102096568 0 -0.26755910350718881 -0.39582792531461569 0 -0.25033509129523179 -0.39094719032673231 0 -0.26281209396899169 -0.38517470131063508 0 -0.25909124390184018 -0.37475905286733341 0 -0.25033509129523179 -0.39094719032673231 0 -0.26281209396899169 -0.38517470131063508 0 -0.25909124390184018 -0.37475905286733341 0 -0.25033509129523179 -0.39094719032673231 0 -0.24748772700216881 -0.3717564301773445 0 -0.25909124390184018 -0.37475905286733341 0 -0.2742629371717063 -0.37916463673385931 0 -0.26281209396899169 -0.38517470131063508 0 -0.26911429951178012 -0.42474234074800371 0 -0.27848929033898201 -0.43669604725877897 0 -0.26690007516498948 -0.44242471351124879 0 -0.28540276919059199 -0.42535658303670731 0 -0.26911429951178012 -0.42474234074800371 0 -0.27848929033898201 -0.43669604725877897 0 -0.27638376085029581 -0.41177906387360241 0 -0.25487024651921952 -0.41254988102096568 0 -0.28540276919059199 -0.42535658303670731 0 -0.26911429951178012 -0.42474234074800371 0 -0.27638376085029581 -0.41177906387360241 0 -0.26911429951178012 -0.42474234074800371 0 -0.27638376085029581 -0.41177906387360241 0 -0.25487024651921952 -0.41254988102096568 0 -0.26755910350718881 -0.39582792531461569 0 -0.27638376085029581 -0.41177906387360241 0 -0.25487024651921952 -0.41254988102096568 0 -0.26911429951178012 -0.42474234074800371 0 -0.27638376085029581 -0.41177906387360241 0 -0.26911429951178012 -0.42474234074800371 0 -0.25908880606166329 -0.43064529781943001 0 -0.26690007516498948 -0.44242471351124879 0 -0.25487024651921952 -0.41254988102096568 0 -0.25908880606166329 -0.43064529781943001 0 -0.2468605885266735 -0.43014712497011809 0 -0.26911429951178012 -0.42474234074800371 0 -0.25487024651921952 -0.41254988102096568 0 -0.25908880606166329 -0.43064529781943001 0 -0.25908880606166329 -0.43064529781943001 0 -0.25479397652280911 -0.44050862113911837 0 -0.2468605885266735 -0.43014712497011809 0 -0.25479397652280911 -0.44050862113911837 0 -0.2546108597688766 -0.45375703833677078 0 -0.2450571310604201 -0.44414202720417628 0 -0.25479397652280911 -0.44050862113911837 0 -0.2546108597688766 -0.45375703833677078 0 -0.26690007516498948 -0.44242471351124879 0 -0.2546108597688766 -0.45375703833677078 0 -0.26838297633475061 -0.45652413347846638 0 -0.26690007516498948 -0.44242471351124879 0 -0.25908880606166329 -0.43064529781943001 0 -0.25479397652280911 -0.44050862113911837 0 -0.26690007516498948 -0.44242471351124879 0 -0.25109629719050858 -0.46406488014867903 0 -0.2546108597688766 -0.45375703833677078 0 -0.26079873433517492 -0.46936342421069649 0 -0.2546108597688766 -0.45375703833677078 0 -0.26838297633475061 -0.45652413347846638 0 -0.26079873433517492 -0.46936342421069649 0 -0.27799569035848881 -0.46687050799545499 0 -0.26838297633475061 -0.45652413347846638 0 -0.26079873433517492 -0.46936342421069649 0 -0.27799569035848881 -0.46687050799545499 0 -0.26838297633475061 -0.45652413347846638 0 -0.28160952204622303 -0.450204983338161 0 -0.26838297633475061 -0.45652413347846638 0 -0.26690007516498948 -0.44242471351124879 0 -0.28160952204622303 -0.450204983338161 0 -0.27848929033898201 -0.43669604725877897 0 -0.26690007516498948 -0.44242471351124879 0 -0.28160952204622303 -0.450204983338161 0 -0.29907098912325059 -0.43374406761790368 0 -0.28902284908971709 -0.44016681433255572 0 -0.29708038679871529 -0.44973292283788502 0 -0.27848929033898201 -0.43669604725877897 0 -0.28902284908971709 -0.44016681433255572 0 -0.28160952204622303 -0.450204983338161 0 -0.28902284908971709 -0.44016681433255572 0 -0.28160952204622303 -0.450204983338161 0 -0.29708038679871529 -0.44973292283788502 0 -0.27799569035848881 -0.46687050799545499 0 -0.29150619976335518 -0.46129715127825488 0 -0.29492343141974797 -0.47638763217473168 0 -0.27799569035848881 -0.46687050799545499 0 -0.28160952204622303 -0.450204983338161 0 -0.29150619976335518 -0.46129715127825488 0 -0.28160952204622303 -0.450204983338161 0 -0.29150619976335518 -0.46129715127825488 0 -0.29708038679871529 -0.44973292283788502 0 -0.29150619976335518 -0.46129715127825488 0 -0.30592196819360068 -0.46328971004504182 0 -0.29708038679871529 -0.44973292283788502 0 -0.31987457796333868 -0.4551426725204325 0 -0.30592196819360068 -0.46328971004504182 0 -0.31015853372433788 -0.44544301337781073 0 -0.29150619976335518 -0.46129715127825488 0 -0.30592196819360068 -0.46328971004504182 0 -0.29492343141974797 -0.47638763217473168 0 -0.29907098912325059 -0.43374406761790368 0 -0.31015853372433788 -0.44544301337781073 0 -0.29708038679871529 -0.44973292283788502 0 -0.30592196819360068 -0.46328971004504182 0 -0.31015853372433788 -0.44544301337781073 0 -0.29708038679871529 -0.44973292283788502 0 -0.31208929727375578 -0.48491526738579699 0 -0.29492343141974797 -0.47638763217473168 0 -0.29581575695060047 -0.5 0 -0.32221211863154181 -0.5 0 -0.31208929727375578 -0.48491526738579699 0 -0.29581575695060047 -0.5 0 -0.32094261384274558 -0.46854088973335889 0 -0.30592196819360068 -0.46328971004504182 0 -0.29492343141974797 -0.47638763217473168 0 -0.32094261384274558 -0.46854088973335889 0 -0.29492343141974797 -0.47638763217473168 0 -0.32094261384274558 -0.46854088973335889 0 -0.31208929727375578 -0.48491526738579699 0 -0.29492343141974797 -0.47638763217473168 0 -0.29492343141974797 -0.47638763217473168 0 -0.26890424899675031 -0.48423437461610452 0 -0.29492343141974797 -0.47638763217473168 0 -0.28441593737837417 -0.48860776134254891 0 -0.26890424899675031 -0.48423437461610452 0 -0.29492343141974797 -0.47638763217473168 0 -0.28441593737837417 -0.48860776134254891 0 -0.29581575695060047 -0.5 0 -0.28441593737837417 -0.48860776134254891 0 -0.29581575695060047 -0.5 0 -0.26941939526965919 -0.5 0 -0.28441593737837417 -0.48860776134254891 0 -0.26941939526965919 -0.5 0 -0.26890424899675031 -0.48423437461610452 0 -0.27799569035848881 -0.46687050799545499 0 -0.29492343141974797 -0.47638763217473168 0 -0.26890424899675031 -0.48423437461610452 0 -0.27799569035848881 -0.46687050799545499 0 -0.26890424899675031 -0.48423437461610452 0 -0.26079873433517492 -0.46936342421069649 0 -0.26890424899675031 -0.48423437461610452 0 -0.26079873433517492 -0.46936342421069649 0 -0.25379328426056558 -0.48205965705463422 0 -0.26079873433517492 -0.46936342421069649 0 -0.25379328426056558 -0.48205965705463422 0 -0.250874604213362 -0.47391739130808008 0 -0.25109629719050858 -0.46406488014867903 0 -0.26079873433517492 -0.46936342421069649 0 -0.250874604213362 -0.47391739130808008 0 -0.26941939526965919 -0.5 0 -0.26890424899675031 -0.48423437461610452 0 -0.2544134183364497 -0.49413622749019132 0 -0.26941939526965919 -0.5 0 -0.2544134183364497 -0.49413622749019132 0 -0.2430230335887178 -0.5 0 -0.26890424899675031 -0.48423437461610452 0 -0.2544134183364497 -0.49413622749019132 0 -0.24288506657375261 -0.49208111705747781 0 -0.26890424899675031 -0.48423437461610452 0 -0.25379328426056558 -0.48205965705463422 0 -0.24288506657375261 -0.49208111705747781 0 -0.26890424899675031 -0.48423437461610452 0 -0.24288506657375261 -0.49208111705747781 0 -0.2544134183364497 -0.49413622749019132 0 -0.2430230335887178 -0.5 0 -0.24783534725336881 -0.49436564577737419 0 -0.2544134183364497 -0.49413622749019132 0 -0.24783534725336881 -0.49436564577737419 0 -0.24288506657375261 -0.49208111705747781 0 -0.2430230335887178 -0.5 0 -0.24783534725336881 -0.49436564577737419 0 -0.24288506657375261 -0.49208111705747781 0 -0.24783534725336881 -0.49436564577737419 0 -0.24288506657375261 -0.49208111705747781 0 -0.24288506657375261 -0.49208111705747781 0 -0.24429345028001889 -0.4821559175287794 0 -0.23457410743521059 -0.47899140825596259 0 -0.25379328426056558 -0.48205965705463422 0 -0.24288506657375261 -0.49208111705747781 0 -0.24429345028001889 -0.4821559175287794 0 -0.25379328426056558 -0.48205965705463422 0 -0.250874604213362 -0.47391739130808008 0 -0.24429345028001889 -0.4821559175287794 0 -0.24429345028001889 -0.4821559175287794 0 -0.2443912550005416 -0.47194307759761112 0 -0.2395637252682277 -0.47605318874815389 0 -0.25109629719050858 -0.46406488014867903 0 -0.250874604213362 -0.47391739130808008 0 -0.2443912550005416 -0.47194307759761112 0 -0.250874604213362 -0.47391739130808008 0 -0.24429345028001889 -0.4821559175287794 0 -0.2443912550005416 -0.47194307759761112 0 -0.2443912550005416 -0.47194307759761112 0 -0.2395637252682277 -0.47605318874815389 0 -0.23499608835713959 -0.47112235161026261 0 -0.2395637252682277 -0.47605318874815389 0 -0.23499608835713959 -0.47112235161026261 0 -0.23457410743521059 -0.47899140825596259 0 -0.24429345028001889 -0.4821559175287794 0 -0.2395637252682277 -0.47605318874815389 0 -0.23457410743521059 -0.47899140825596259 0 -0.23457410743521059 -0.47899140825596259 0 -0.2250369990674011 -0.47003999804886298 0 -0.2204246459600448 -0.48171575006642248 0 -0.24288506657375261 -0.49208111705747781 0 -0.23457410743521059 -0.47899140825596259 0 -0.2204246459600448 -0.48171575006642248 0 -0.23499608835713959 -0.47112235161026261 0 -0.23457410743521059 -0.47899140825596259 0 -0.2250369990674011 -0.47003999804886298 0 -0.2430230335887178 -0.5 0 -0.24288506657375261 -0.49208111705747781 0 -0.21662667190777651 -0.49999999999999939 0 -0.24288506657375261 -0.49208111705747781 0 -0.21662667190777651 -0.49999999999999939 0 -0.24288506657375261 -0.49208111705747781 0 -0.2204246459600448 -0.48171575006642248 0 -0.24288506657375261 -0.49208111705747781 0 -0.2204246459600448 -0.48171575006642248 0 -0.21662667190777651 -0.49999999999999939 0 -0.2450571310604201 -0.44414202720417628 0 -0.23716380350122879 -0.45645441389937441 0 -0.23280677558438309 -0.43386548686292281 0 -0.2546108597688766 -0.45375703833677078 0 -0.2450571310604201 -0.44414202720417628 0 -0.23716380350122879 -0.45645441389937441 0 -0.25479397652280911 -0.44050862113911837 0 -0.2450571310604201 -0.44414202720417628 0 -0.2468605885266735 -0.43014712497011809 0 -0.25109629719050858 -0.46406488014867903 0 -0.2546108597688766 -0.45375703833677078 0 -0.23716380350122879 -0.45645441389937441 0 -0.25109629719050858 -0.46406488014867903 0 -0.2443912550005416 -0.47194307759761112 0 -0.23716380350122879 -0.45645441389937441 0 -0.2443912550005416 -0.47194307759761112 0 -0.23499608835713959 -0.47112235161026261 0 -0.23716380350122879 -0.45645441389937441 0 -0.2250369990674011 -0.47003999804886298 0 -0.21844010846223411 -0.44206575668227449 0 -0.2250369990674011 -0.47003999804886298 0 -0.23716380350122879 -0.45645441389937441 0 -0.21844010846223411 -0.44206575668227449 0 -0.23499608835713959 -0.47112235161026261 0 -0.2250369990674011 -0.47003999804886298 0 -0.23716380350122879 -0.45645441389937441 0 -0.23716380350122879 -0.45645441389937441 0 -0.21844010846223411 -0.44206575668227449 0 -0.23280677558438309 -0.43386548686292281 0 -0.21844010846223411 -0.44206575668227449 0 -0.21054881561508179 -0.46151962797655111 0 -0.19087809923939161 -0.44242625200982799 0 -0.2250369990674011 -0.47003999804886298 0 -0.21844010846223411 -0.44206575668227449 0 -0.21054881561508179 -0.46151962797655111 0 -0.21054881561508179 -0.46151962797655111 0 -0.19087809923939161 -0.44242625200982799 0 -0.1979642253463372 -0.47135038307536692 0 -0.19087809923939161 -0.44242625200982799 0 -0.1979642253463372 -0.47135038307536692 0 -0.17550380473262961 -0.46098501608431119 0 -0.2039060436575347 -0.48788306012054039 0 -0.21662667190777651 -0.49999999999999939 0 -0.191185415407293 -0.5 0 -0.2204246459600448 -0.48171575006642248 0 -0.2039060436575347 -0.48788306012054039 0 -0.21662667190777651 -0.49999999999999939 0 -0.2250369990674011 -0.47003999804886298 0 -0.2204246459600448 -0.48171575006642248 0 -0.21054881561508179 -0.46151962797655111 0 -0.2204246459600448 -0.48171575006642248 0 -0.2039060436575347 -0.48788306012054039 0 -0.1979642253463372 -0.47135038307536692 0 -0.2204246459600448 -0.48171575006642248 0 -0.1979642253463372 -0.47135038307536692 0 -0.2204246459600448 -0.48171575006642248 0 -0.21054881561508179 -0.46151962797655111 0 -0.1979642253463372 -0.47135038307536692 0 -0.2039060436575347 -0.48788306012054039 0 -0.1979642253463372 -0.47135038307536692 0 -0.18170511770794731 -0.48283447360099019 0 -0.2039060436575347 -0.48788306012054039 0 -0.191185415407293 -0.5 0 -0.18170511770794731 -0.48283447360099019 0 -0.191185415407293 -0.5 0 -0.16574415890680941 -0.5 0 -0.18170511770794731 -0.48283447360099019 0 -0.16574415890680941 -0.5 0 -0.18170511770794731 -0.48283447360099019 0 -0.1559270581970803 -0.47678838232572268 0 -0.18170511770794731 -0.48283447360099019 0 -0.17550380473262961 -0.46098501608431119 0 -0.1559270581970803 -0.47678838232572268 0 -0.1979642253463372 -0.47135038307536692 0 -0.18170511770794731 -0.48283447360099019 0 -0.17550380473262961 -0.46098501608431119 0 -0.1979642253463372 -0.47135038307536692 0 -0.17550380473262961 -0.46098501608431119 0 -0.19087809923939161 -0.44242625200982799 0 -0.17550380473262961 -0.46098501608431119 0 -0.16487953686040341 -0.43668708651363358 0 -0.17550380473262961 -0.46098501608431119 0 -0.15866236735209521 -0.45377864165300308 0 -0.16487953686040341 -0.43668708651363358 0 -0.17550380473262961 -0.46098501608431119 0 -0.15866236735209521 -0.45377864165300308 0 -0.1559270581970803 -0.47678838232572268 0 -0.15866236735209521 -0.45377864165300308 0 -0.14280129841846509 -0.46103953978105727 0 -0.1559270581970803 -0.47678838232572268 0 -0.15866236735209521 -0.45377864165300308 0 -0.14280129841846509 -0.46103953978105727 0 -0.1438484805828521 -0.43705968193712769 0 -0.15866236735209521 -0.45377864165300308 0 -0.1438484805828521 -0.43705968193712769 0 -0.16487953686040341 -0.43668708651363358 0 -0.14280129841846509 -0.46103953978105727 0 -0.13093011984253891 -0.44972195681556543 0 -0.1438484805828521 -0.43705968193712769 0 -0.13093011984253891 -0.44972195681556543 0 -0.1438484805828521 -0.43705968193712769 0 -0.123519809913229 -0.43733662075251151 0 -0.14280129841846509 -0.46103953978105727 0 -0.13093011984253891 -0.44972195681556543 0 -0.12704973474613379 -0.46277216333596533 0 -0.14280129841846509 -0.46103953978105727 0 -0.12704973474613379 -0.46277216333596533 0 -0.13010403334985379 -0.48000251283874379 0 -0.13010403334985379 -0.48000251283874379 0 -0.1403029024063259 -0.5 0 -0.1148616459058424 -0.5 0 -0.16574415890680941 -0.5 0 -0.1403029024063259 -0.5 0 -0.1559270581970803 -0.47678838232572268 0 -0.13010403334985379 -0.48000251283874379 0 -0.1403029024063259 -0.5 0 -0.1559270581970803 -0.47678838232572268 0 -0.14280129841846509 -0.46103953978105727 0 -0.13010403334985379 -0.48000251283874379 0 -0.1559270581970803 -0.47678838232572268 0 -0.13724659116883831 -0.38156720383825199 0 -0.13696324729183901 -0.40051159333262831 0 -0.1562511533772393 -0.40085091578326698 0 -0.13696324729183901 -0.40051159333262831 0 -0.14428023194946249 -0.41611080081516499 0 -0.1562511533772393 -0.40085091578326698 0 -0.13724659116883831 -0.38156720383825199 0 -0.1562511533772393 -0.40085091578326698 0 -0.1663441030446621 -0.37717300760659073 0 -0.13724659116883831 -0.38156720383825199 0 -0.11827115974421661 -0.40327967795429231 0 -0.13724659116883831 -0.38156720383825199 0 -0.13696324729183901 -0.40051159333262831 0 -0.11827115974421661 -0.40327967795429231 0 -0.13696324729183901 -0.40051159333262831 0 -0.12597911368703019 -0.41952469120143437 0 -0.14428023194946249 -0.41611080081516499 0 -0.13696324729183901 -0.40051159333262831 0 -0.12597911368703019 -0.41952469120143437 0 -0.11827115974421661 -0.40327967795429231 0 -0.12597911368703019 -0.41952469120143437 0 -0.1438484805828521 -0.43705968193712769 0 -0.123519809913229 -0.43733662075251151 0 -0.12597911368703019 -0.41952469120143437 0 -0.1438484805828521 -0.43705968193712769 0 -0.14428023194946249 -0.41611080081516499 0 -0.1438484805828521 -0.43705968193712769 0 -0.16487953686040341 -0.43668708651363358 0 -0.1579375607246061 -0.42228606781690858 0 -0.1438484805828521 -0.43705968193712769 0 -0.14428023194946249 -0.41611080081516499 0 -0.1579375607246061 -0.42228606781690858 0 -0.14428023194946249 -0.41611080081516499 0 -0.1579375607246061 -0.42228606781690858 0 -0.1562511533772393 -0.40085091578326698 0 -0.1717517290487513 -0.41486076781395709 0 -0.1579375607246061 -0.42228606781690858 0 -0.1562511533772393 -0.40085091578326698 0 -0.1717517290487513 -0.41486076781395709 0 -0.16487953686040341 -0.43668708651363358 0 -0.1579375607246061 -0.42228606781690858 0 -0.1717517290487513 -0.41486076781395709 0 -0.16487953686040341 -0.43668708651363358 0 -0.19087809923939161 -0.44242625200982799 0 -0.16487953686040341 -0.43668708651363358 0 -0.18049207608238291 -0.42812424827546058 0 -0.1717517290487513 -0.41486076781395709 0 -0.16487953686040341 -0.43668708651363358 0 -0.18049207608238291 -0.42812424827546058 0 -0.1717517290487513 -0.41486076781395709 0 -0.18680736564207029 -0.41498853585306777 0 -0.17862392123709919 -0.39303444911428059 0 -0.1717517290487513 -0.41486076781395709 0 -0.18049207608238291 -0.42812424827546058 0 -0.18680736564207029 -0.41498853585306777 0 -0.18680736564207029 -0.41498853585306777 0 -0.17862392123709919 -0.39303444911428059 0 -0.19656737959219739 -0.40219111980173922 0 -0.1717517290487513 -0.41486076781395709 0 -0.17862392123709919 -0.39303444911428059 0 -0.1717517290487513 -0.41486076781395709 0 -0.17862392123709919 -0.39303444911428059 0 -0.1562511533772393 -0.40085091578326698 0 -0.17862392123709919 -0.39303444911428059 0 -0.1562511533772393 -0.40085091578326698 0 -0.1663441030446621 -0.37717300760659073 0 -0.17862392123709919 -0.39303444911428059 0 -0.1663441030446621 -0.37717300760659073 0 -0.1854961134254472 -0.37120813041460421 0 -0.17862392123709919 -0.39303444911428059 0 -0.1854961134254472 -0.37120813041460421 0 -0.17862392123709919 -0.39303444911428059 0 -0.20527564977482679 -0.38624161667098289 0 -0.1854961134254472 -0.37120813041460421 0 -0.17862392123709919 -0.39303444911428059 0 -0.19656737959219739 -0.40219111980173922 0 -0.20527564977482679 -0.38624161667098289 0 -0.20527564977482679 -0.38624161667098289 0 -0.2118432178570665 -0.41409151531568628 0 -0.2281799985799623 -0.39436158075255778 0 -0.19656737959219739 -0.40219111980173922 0 -0.20527564977482679 -0.38624161667098289 0 -0.2118432178570665 -0.41409151531568628 0 -0.20527564977482679 -0.38624161667098289 0 -0.2118432178570665 -0.41409151531568628 0 -0.20527564977482679 -0.38624161667098289 0 -0.22195794658956111 -0.37463091785279867 0 -0.21168543115216709 -0.36681117402183649 0 -0.20527564977482679 -0.38624161667098289 0 -0.2281799985799623 -0.39436158075255778 0 -0.22195794658956111 -0.37463091785279867 0 -0.18049207608238291 -0.42812424827546058 0 -0.18680736564207029 -0.41498853585306777 0 -0.19899408631087909 -0.4269358685541359 0 -0.19087809923939161 -0.44242625200982799 0 -0.18049207608238291 -0.42812424827546058 0 -0.19899408631087909 -0.4269358685541359 0 -0.21844010846223411 -0.44206575668227449 0 -0.19087809923939161 -0.44242625200982799 0 -0.19899408631087909 -0.4269358685541359 0 -0.18680736564207029 -0.41498853585306777 0 -0.19656737959219739 -0.40219111980173922 0 -0.2118432178570665 -0.41409151531568628 0 -0.18680736564207029 -0.41498853585306777 0 -0.19899408631087909 -0.4269358685541359 0 -0.2118432178570665 -0.41409151531568628 0 -0.18680736564207029 -0.41498853585306777 0 -0.2118432178570665 -0.41409151531568628 0 -0.21844010846223411 -0.44206575668227449 0 -0.19899408631087909 -0.4269358685541359 0 -0.2118432178570665 -0.41409151531568628 0 -0.21844010846223411 -0.44206575668227449 0 -0.2118432178570665 -0.41409151531568628 0 -0.21844010846223411 -0.44206575668227449 0 -0.2118432178570665 -0.41409151531568628 0 -0.23280677558438309 -0.43386548686292281 0 -0.2118432178570665 -0.41409151531568628 0 -0.23335673218814301 -0.41332069816832789 0 -0.2281799985799623 -0.39436158075255778 0 -0.2118432178570665 -0.41409151531568628 0 -0.23335673218814301 -0.41332069816832789 0 -0.2118432178570665 -0.41409151531568628 0 -0.23280677558438309 -0.43386548686292281 0 -0.23335673218814301 -0.41332069816832789 0 -0.25487024651921952 -0.41254988102096568 0 -0.23335673218814301 -0.41332069816832789 0 -0.25487024651921952 -0.41254988102096568 0 -0.23335673218814301 -0.41332069816832789 0 -0.24168551714563921 -0.4027948375671459 0 -0.25487024651921952 -0.41254988102096568 0 -0.23335673218814301 -0.41332069816832789 0 -0.2468605885266735 -0.43014712497011809 0 -0.23280677558438309 -0.43386548686292281 0 -0.23335673218814301 -0.41332069816832789 0 -0.2468605885266735 -0.43014712497011809 0 -0.2450571310604201 -0.44414202720417628 0 -0.23280677558438309 -0.43386548686292281 0 -0.2468605885266735 -0.43014712497011809 0 -0.2281799985799623 -0.39436158075255778 0 -0.2359431282162788 -0.37698905115118858 0 -0.22195794658956111 -0.37463091785279867 0 -0.25033509129523179 -0.39094719032673231 0 -0.2281799985799623 -0.39436158075255778 0 -0.24168551714563921 -0.4027948375671459 0 -0.25033509129523179 -0.39094719032673231 0 -0.25487024651921952 -0.41254988102096568 0 -0.24168551714563921 -0.4027948375671459 0 -0.23335673218814301 -0.41332069816832789 0 -0.2281799985799623 -0.39436158075255778 0 -0.24168551714563921 -0.4027948375671459 0 -0.25033509129523179 -0.39094719032673231 0 -0.2359431282162788 -0.37698905115118858 0 -0.24748772700216881 -0.3717564301773445 0 -0.25033509129523179 -0.39094719032673231 0 -0.2281799985799623 -0.39436158075255778 0 -0.2359431282162788 -0.37698905115118858 0 -0.25494538795031141 -0.36273054802101118 0 -0.24748772700216881 -0.3717564301773445 0 -0.24521251836493849 -0.35951647641646678 0 -0.24748772700216881 -0.3717564301773445 0 -0.24521251836493849 -0.35951647641646678 0 -0.23939899228441261 -0.3655962622813349 0 -0.23939899228441261 -0.3655962622813349 0 -0.23024759562621139 -0.36380396142485888 0 -0.23761117654761921 -0.35850429625613017 0 -0.24521251836493849 -0.35951647641646678 0 -0.23939899228441261 -0.3655962622813349 0 -0.23761117654761921 -0.35850429625613017 0 -0.2359431282162788 -0.37698905115118858 0 -0.23939899228441261 -0.3655962622813349 0 -0.23024759562621139 -0.36380396142485888 0 -0.2359431282162788 -0.37698905115118858 0 -0.24748772700216881 -0.3717564301773445 0 -0.23939899228441261 -0.3655962622813349 0 -0.2359431282162788 -0.37698905115118858 0 -0.23024759562621139 -0.36380396142485888 0 -0.22195794658956111 -0.37463091785279867 0 -0.23024759562621139 -0.36380396142485888 0 -0.22135664398937441 -0.36020929429952131 0 -0.2310785660723691 -0.35440187846705151 0 -0.23024759562621139 -0.36380396142485888 0 -0.22135664398937441 -0.36020929429952131 0 -0.22195794658956111 -0.37463091785279867 0 -0.22135664398937441 -0.36020929429952131 0 -0.22331676928072861 -0.34527245129667988 0 -0.2310785660723691 -0.35440187846705151 0 -0.23024759562621139 -0.36380396142485888 0 -0.2310785660723691 -0.35440187846705151 0 -0.23761117654761921 -0.35850429625613017 0 -0.22331676928072861 -0.34527245129667988 0 -0.2337118992122327 -0.34903918396608452 0 -0.23708401688859529 -0.34365007901650441 0 -0.22331676928072861 -0.34527245129667988 0 -0.2310785660723691 -0.35440187846705151 0 -0.2337118992122327 -0.34903918396608452 0 -0.26017799311385281 -0.35268912854855933 0 -0.24808760514302669 -0.3536558827211943 0 -0.2404133442166683 -0.34213832018255058 0 -0.2310785660723691 -0.35440187846705151 0 -0.2337118992122327 -0.34903918396608452 0 -0.2396887820693627 -0.35120494043738398 0 -0.26017799311385281 -0.35268912854855933 0 -0.24325210797206609 -0.34084931319650169 0 -0.2404133442166683 -0.34213832018255058 0 -0.2396887820693627 -0.35120494043738398 0 -0.23708401688859529 -0.34365007901650441 0 -0.2404133442166683 -0.34213832018255058 0 -0.2337118992122327 -0.34903918396608452 0 -0.2396887820693627 -0.35120494043738398 0 -0.23708401688859529 -0.34365007901650441 0 -0.2310785660723691 -0.35440187846705151 0 -0.2396887820693627 -0.35120494043738398 0 -0.23761117654761921 -0.35850429625613017 0 -0.24521251836493849 -0.35951647641646678 0 -0.2396887820693627 -0.35120494043738398 0 -0.23761117654761921 -0.35850429625613017 0 -0.24521251836493849 -0.35951647641646678 0 -0.2396887820693627 -0.35120494043738398 0 -0.24808760514302669 -0.3536558827211943 0 -0.25494538795031141 -0.36273054802101118 0 -0.24521251836493849 -0.35951647641646678 0 -0.24808760514302669 -0.3536558827211943 0 -0.2396887820693627 -0.35120494043738398 0 -0.24808760514302669 -0.3536558827211943 0 -0.2404133442166683 -0.34213832018255058 0 -0.24325210797206609 -0.34084931319650169 0 -0.24518994726652291 -0.33234415230164399 0 -0.23958942898634211 -0.33903199036576709 0 -0.24518994726652291 -0.33234415230164399 0 -0.23560348244150561 -0.32909319502054812 0 -0.23958942898634211 -0.33903199036576709 0 -0.23708401688859529 -0.34365007901650441 0 -0.2404133442166683 -0.34213832018255058 0 -0.24325210797206609 -0.34084931319650169 0 -0.2404133442166683 -0.34213832018255058 0 -0.23958942898634211 -0.33903199036576709 0 -0.24325210797206609 -0.34084931319650169 0 -0.2404133442166683 -0.34213832018255058 0 -0.24325210797206609 -0.34084931319650169 0 -0.23958942898634211 -0.33903199036576709 0 -0.25915672867891859 -0.31415112243359272 0 -0.24308922262768951 -0.32099342612622928 0 -0.24047089863443691 -0.30798947189970438 0 -0.24518994726652291 -0.33234415230164399 0 -0.23560348244150561 -0.32909319502054812 0 -0.24308922262768951 -0.32099342612622928 0 -0.23560348244150561 -0.32909319502054812 0 -0.24308922262768951 -0.32099342612622928 0 -0.22938765682563561 -0.32144886021699343 0 -0.24308922262768951 -0.32099342612622928 0 -0.22938765682563561 -0.32144886021699343 0 -0.23158309368585001 -0.31181085789310747 0 -0.24308922262768951 -0.32099342612622928 0 -0.24047089863443691 -0.30798947189970438 0 -0.23158309368585001 -0.31181085789310747 0 -0.22938765682563561 -0.32144886021699343 0 -0.23158309368585001 -0.31181085789310747 0 -0.22249387381410951 -0.31123320620709588 0 -0.23560348244150561 -0.32909319502054812 0 -0.22938765682563561 -0.32144886021699343 0 -0.22076115650133771 -0.33164754609210678 0 -0.22938765682563561 -0.32144886021699343 0 -0.22076115650133771 -0.33164754609210678 0 -0.2180259411870723 -0.31620608063285149 0 -0.22938765682563561 -0.32144886021699343 0 -0.2180259411870723 -0.31620608063285149 0 -0.22249387381410951 -0.31123320620709588 0 -0.22331676928072861 -0.34527245129667988 0 -0.23708401688859529 -0.34365007901650441 0 -0.22076115650133771 -0.33164754609210678 0 -0.23560348244150561 -0.32909319502054812 0 -0.23958942898634211 -0.33903199036576709 0 -0.22076115650133771 -0.33164754609210678 0 -0.2404133442166683 -0.34213832018255058 0 -0.22076115650133771 -0.33164754609210678 0 -0.2404133442166683 -0.34213832018255058 0 -0.23958942898634211 -0.33903199036576709 0 -0.22076115650133771 -0.33164754609210678 0 -0.23708401688859529 -0.34365007901650441 0 -0.2404133442166683 -0.34213832018255058 0 -0.22076115650133771 -0.33164754609210678 0 -0.22331676928072861 -0.34527245129667988 0 -0.22076115650133771 -0.33164754609210678 0 -0.20784983644103361 -0.34097302903627591 0 -0.22076115650133771 -0.33164754609210678 0 -0.20348412114368319 -0.33156666209817831 0 -0.20784983644103361 -0.34097302903627591 0 -0.2180259411870723 -0.31620608063285149 0 -0.19974136112887431 -0.31343603927203523 0 -0.20110896878600679 -0.32115677200166343 0 -0.22076115650133771 -0.33164754609210678 0 -0.2180259411870723 -0.31620608063285149 0 -0.20110896878600679 -0.32115677200166343 0 -0.22076115650133771 -0.33164754609210678 0 -0.20348412114368319 -0.33156666209817831 0 -0.20110896878600679 -0.32115677200166343 0 -0.22076115650133771 -0.33164754609210678 0 -0.20110896878600679 -0.32115677200166343 0 -0.2180259411870723 -0.31620608063285149 0 -0.19974136112887431 -0.31343603927203523 0 -0.20904493575850211 -0.30938578927939081 0 -0.2180259411870723 -0.31620608063285149 0 -0.19974136112887431 -0.31343603927203523 0 -0.19974136112887431 -0.31343603927203523 0 -0.20110896878600679 -0.32115677200166343 0 -0.1814567810706762 -0.3106659979112194 0 -0.20110896878600679 -0.32115677200166343 0 -0.1814567810706762 -0.3106659979112194 0 -0.20110896878600679 -0.32115677200166343 0 -0.19214051361034601 -0.33054181938157612 0 -0.1814567810706762 -0.3106659979112194 0 -0.20348412114368319 -0.33156666209817831 0 -0.20110896878600679 -0.32115677200166343 0 -0.19214051361034601 -0.33054181938157612 0 -0.20348412114368319 -0.33156666209817831 0 -0.20784983644103361 -0.34097302903627591 0 -0.19214051361034601 -0.33054181938157612 0 -0.20784983644103361 -0.34097302903627591 0 -0.19214051361034601 -0.33054181938157612 0 -0.20232946575910341 -0.34593351830387509 0 -0.19214051361034601 -0.33054181938157612 0 -0.19236830561379509 -0.34938181171492771 0 -0.18622265824693729 -0.34003474470360739 0 -0.19214051361034601 -0.33054181938157612 0 -0.19236830561379509 -0.34938181171492771 0 -0.19870808169258641 -0.35839171802627962 0 -0.19214051361034601 -0.33054181938157612 0 -0.19870808169258641 -0.35839171802627962 0 -0.19214051361034601 -0.33054181938157612 0 -0.20232946575910341 -0.34593351830387509 0 -0.19870808169258641 -0.35839171802627962 0 -0.19236830561379509 -0.34938181171492771 0 -0.1854961134254472 -0.37120813041460421 0 -0.20527564977482679 -0.38624161667098289 0 -0.19870808169258641 -0.35839171802627962 0 -0.20527564977482679 -0.38624161667098289 0 -0.19870808169258641 -0.35839171802627962 0 -0.1854961134254472 -0.37120813041460421 0 -0.19236830561379509 -0.34938181171492771 0 -0.19870808169258641 -0.35839171802627962 0 -0.1854961134254472 -0.37120813041460421 0 -0.20527564977482679 -0.38624161667098289 0 -0.19870808169258641 -0.35839171802627962 0 -0.21168543115216709 -0.36681117402183649 0 -0.19870808169258641 -0.35839171802627962 0 -0.21168543115216709 -0.36681117402183649 0 -0.21061943129244759 -0.3538275067713687 0 -0.22135664398937441 -0.36020929429952131 0 -0.22195794658956111 -0.37463091785279867 0 -0.21168543115216709 -0.36681117402183649 0 -0.22135664398937441 -0.36020929429952131 0 -0.21168543115216709 -0.36681117402183649 0 -0.21061943129244759 -0.3538275067713687 0 -0.22135664398937441 -0.36020929429952131 0 -0.22331676928072861 -0.34527245129667988 0 -0.21061943129244759 -0.3538275067713687 0 -0.22331676928072861 -0.34527245129667988 0 -0.20784983644103361 -0.34097302903627591 0 -0.21061943129244759 -0.3538275067713687 0 -0.20784983644103361 -0.34097302903627591 0 -0.20232946575910341 -0.34593351830387509 0 -0.21061943129244759 -0.3538275067713687 0 -0.20232946575910341 -0.34593351830387509 0 -0.19870808169258641 -0.35839171802627962 0 -0.21061943129244759 -0.3538275067713687 0 -0.22866545068461799 -0.25948943059043711 0 -0.21759888839251429 -0.26212753750200368 0 -0.22025275826160279 -0.2471257797298928 0 -0.22866545068461799 -0.25948943059043711 0 -0.22398633244919169 -0.27132847136955079 0 -0.21759888839251429 -0.26212753750200368 0 -0.22866545068461799 -0.25948943059043711 0 -0.23442911476228809 -0.24683612341654529 0 -0.22025275826160279 -0.2471257797298928 0 -0.22866545068461799 -0.25948943059043711 0 -0.24233717299785959 -0.25960849866204011 0 -0.23442911476228809 -0.24683612341654529 0 -0.2565674865322034 -0.25340195958415102 0 -0.24233717299785959 -0.25960849866204011 0 -0.25018128361314113 -0.24746468840205441 0 -0.22866545068461799 -0.25948943059043711 0 -0.24233717299785959 -0.25960849866204011 0 -0.2333815926018066 -0.27110706845475141 0 -0.24233717299785959 -0.25960849866204011 0 -0.2333815926018066 -0.27110706845475141 0 -0.24140403581614819 -0.28379898528087227 0 -0.24233717299785959 -0.25960849866204011 0 -0.24140403581614819 -0.28379898528087227 0 -0.24233717299785959 -0.25960849866204011 0 -0.2484323970602714 -0.27706385987730509 0 -0.24140403581614819 -0.28379898528087227 0 -0.25309751137434572 -0.26289123234143091 0 -0.24233717299785959 -0.25960849866204011 0 -0.2484323970602714 -0.27706385987730509 0 -0.2333815926018066 -0.27110706845475141 0 -0.2300547693907766 -0.28178467995593781 0 -0.24140403581614819 -0.28379898528087227 0 -0.2333815926018066 -0.27110706845475141 0 -0.22398633244919169 -0.27132847136955079 0 -0.2300547693907766 -0.28178467995593781 0 -0.22866545068461799 -0.25948943059043711 0 -0.2333815926018066 -0.27110706845475141 0 -0.22398633244919169 -0.27132847136955079 0 -0.22398633244919169 -0.27132847136955079 0 -0.21947311754018139 -0.28174823216008099 0 -0.2300547693907766 -0.28178467995593781 0 -0.21947311754018139 -0.28174823216008099 0 -0.22569627159534009 -0.29064390563822362 0 -0.2300547693907766 -0.28178467995593781 0 -0.21947311754018139 -0.28174823216008099 0 -0.22569627159534009 -0.29064390563822362 0 -0.21595054291829549 -0.29285447433738648 0 -0.22569627159534009 -0.29064390563822362 0 -0.22453607640027501 -0.29842387346705762 0 -0.21595054291829549 -0.29285447433738648 0 -0.22569627159534009 -0.29064390563822362 0 -0.2341156104824163 -0.28973116501788848 0 -0.23104294706112549 -0.29817392722980551 0 -0.22569627159534009 -0.29064390563822362 0 -0.23104294706112549 -0.29817392722980551 0 -0.22453607640027501 -0.29842387346705762 0 -0.22569627159534009 -0.29064390563822362 0 -0.2341156104824163 -0.28973116501788848 0 -0.2300547693907766 -0.28178467995593781 0 -0.25108388684634803 -0.28956965662021522 0 -0.24140403581614819 -0.28379898528087227 0 -0.24047089863443691 -0.30798947189970438 0 -0.2341156104824163 -0.28973116501788848 0 -0.24140403581614819 -0.28379898528087227 0 -0.24047089863443691 -0.30798947189970438 0 -0.24140403581614819 -0.28379898528087227 0 -0.24047089863443691 -0.30798947189970438 0 -0.2341156104824163 -0.28973116501788848 0 -0.2300547693907766 -0.28178467995593781 0 -0.24140403581614819 -0.28379898528087227 0 -0.25108388684634803 -0.28956965662021522 0 -0.2484323970602714 -0.27706385987730509 0 -0.24140403581614819 -0.28379898528087227 0 -0.25718459078837252 -0.29759752524363881 0 -0.25108388684634803 -0.28956965662021522 0 -0.24047089863443691 -0.30798947189970438 0 -0.2341156104824163 -0.28973116501788848 0 -0.24047089863443691 -0.30798947189970438 0 -0.23104294706112549 -0.29817392722980551 0 -0.24047089863443691 -0.30798947189970438 0 -0.23158309368585001 -0.31181085789310747 0 -0.2303958781931594 -0.30408122012615352 0 -0.23158309368585001 -0.31181085789310747 0 -0.2303958781931594 -0.30408122012615352 0 -0.2249978911063876 -0.30539226771637512 0 -0.24047089863443691 -0.30798947189970438 0 -0.23104294706112549 -0.29817392722980551 0 -0.2303958781931594 -0.30408122012615352 0 -0.23104294706112549 -0.29817392722980551 0 -0.2303958781931594 -0.30408122012615352 0 -0.22453607640027501 -0.29842387346705762 0 -0.2303958781931594 -0.30408122012615352 0 -0.22453607640027501 -0.29842387346705762 0 -0.2249978911063876 -0.30539226771637512 0 -0.22453607640027501 -0.29842387346705762 0 -0.2249978911063876 -0.30539226771637512 0 -0.21872282414136721 -0.30136563651957121 0 -0.22453607640027501 -0.29842387346705762 0 -0.21872282414136721 -0.30136563651957121 0 -0.21595054291829549 -0.29285447433738648 0 -0.22249387381410951 -0.31123320620709588 0 -0.2249978911063876 -0.30539226771637512 0 -0.21872282414136721 -0.30136563651957121 0 -0.23158309368585001 -0.31181085789310747 0 -0.22249387381410951 -0.31123320620709588 0 -0.2249978911063876 -0.30539226771637512 0 -0.22249387381410951 -0.31123320620709588 0 -0.20819654573008861 -0.30010144335043992 0 -0.2180259411870723 -0.31620608063285149 0 -0.2144403241224431 -0.30923162986744451 0 -0.20904493575850211 -0.30938578927939081 0 -0.22249387381410951 -0.31123320620709588 0 -0.2144403241224431 -0.30923162986744451 0 -0.20819654573008861 -0.30010144335043992 0 -0.2180259411870723 -0.31620608063285149 0 -0.22249387381410951 -0.31123320620709588 0 -0.2144403241224431 -0.30923162986744451 0 -0.21872282414136721 -0.30136563651957121 0 -0.20819654573008861 -0.30010144335043992 0 -0.21595054291829549 -0.29285447433738648 0 -0.22249387381410951 -0.31123320620709588 0 -0.21872282414136721 -0.30136563651957121 0 -0.20819654573008861 -0.30010144335043992 0 -0.20819654573008861 -0.30010144335043992 0 -0.20288915614788011 -0.30684576889979082 0 -0.200327377448308 -0.30070497350852549 0 -0.19974136112887431 -0.31343603927203523 0 -0.20904493575850211 -0.30938578927939081 0 -0.20288915614788011 -0.30684576889979082 0 -0.2144403241224431 -0.30923162986744451 0 -0.20819654573008861 -0.30010144335043992 0 -0.20904493575850211 -0.30938578927939081 0 -0.20819654573008861 -0.30010144335043992 0 -0.20904493575850211 -0.30938578927939081 0 -0.20288915614788011 -0.30684576889979082 0 -0.19974136112887431 -0.31343603927203523 0 -0.1814567810706762 -0.3106659979112194 0 -0.19974136112887431 -0.31343603927203523 0 -0.20288915614788011 -0.30684576889979082 0 -0.19308950921137841 -0.30535425612401718 0 -0.19974136112887431 -0.31343603927203523 0 -0.19308950921137841 -0.30535425612401718 0 -0.1814567810706762 -0.3106659979112194 0 -0.19308950921137841 -0.30535425612401718 0 -0.1899902243989981 -0.29832565749187118 0 -0.1817779539512053 -0.30255714357571323 0 -0.19308950921137841 -0.30535425612401718 0 -0.1899902243989981 -0.29832565749187118 0 -0.200327377448308 -0.30070497350852549 0 -0.20288915614788011 -0.30684576889979082 0 -0.19308950921137841 -0.30535425612401718 0 -0.200327377448308 -0.30070497350852549 0 -0.20819654573008861 -0.30010144335043992 0 -0.19389921764606771 -0.28896968049378402 0 -0.200327377448308 -0.30070497350852549 0 -0.19389921764606771 -0.28896968049378402 0 -0.20819654573008861 -0.30010144335043992 0 -0.200327377448308 -0.30070497350852549 0 -0.19389921764606771 -0.28896968049378402 0 -0.20819654573008861 -0.30010144335043992 0 -0.19389921764606771 -0.28896968049378402 0 -0.2049502680629153 -0.28953974020436019 0 -0.1899902243989981 -0.29832565749187118 0 -0.19389921764606771 -0.28896968049378402 0 -0.18066470514172869 -0.29420676669921531 0 -0.1899902243989981 -0.29832565749187118 0 -0.200327377448308 -0.30070497350852549 0 -0.19389921764606771 -0.28896968049378402 0 -0.19389921764606771 -0.28896968049378402 0 -0.18643891475010321 -0.2753500999052107 0 -0.19389921764606771 -0.28896968049378402 0 -0.1815972113741586 -0.27939145610981342 0 -0.19389921764606771 -0.28896968049378402 0 -0.2049502680629153 -0.28953974020436019 0 -0.20163083764207049 -0.27816255368004889 0 -0.2099333729274668 -0.28317129254800538 0 -0.2049502680629153 -0.28953974020436019 0 -0.20163083764207049 -0.27816255368004889 0 -0.2099333729274668 -0.28317129254800538 0 -0.2049502680629153 -0.28953974020436019 0 -0.21595054291829549 -0.29285447433738648 0 -0.20819654573008861 -0.30010144335043992 0 -0.2049502680629153 -0.28953974020436019 0 -0.21595054291829549 -0.29285447433738648 0 -0.21947311754018139 -0.28174823216008099 0 -0.2099333729274668 -0.28317129254800538 0 -0.21595054291829549 -0.29285447433738648 0 -0.2117440640613063 -0.2714560660025862 0 -0.20163083764207049 -0.27816255368004889 0 -0.20334583650585281 -0.26123793981755161 0 -0.22398633244919169 -0.27132847136955079 0 -0.21947311754018139 -0.28174823216008099 0 -0.2117440640613063 -0.2714560660025862 0 -0.21947311754018139 -0.28174823216008099 0 -0.2099333729274668 -0.28317129254800538 0 -0.2117440640613063 -0.2714560660025862 0 -0.22398633244919169 -0.27132847136955079 0 -0.2117440640613063 -0.2714560660025862 0 -0.21759888839251429 -0.26212753750200368 0 -0.2099333729274668 -0.28317129254800538 0 -0.2117440640613063 -0.2714560660025862 0 -0.20163083764207049 -0.27816255368004889 0 -0.20163083764207049 -0.27816255368004889 0 -0.20334583650585281 -0.26123793981755161 0 -0.18643891475010321 -0.2753500999052107 0 -0.20334583650585281 -0.26123793981755161 0 -0.18643891475010321 -0.2753500999052107 0 -0.1892261620383611 -0.26071341320317981 0 -0.20334583650585281 -0.26123793981755161 0 -0.18643891475010321 -0.2753500999052107 0 -0.19389921764606771 -0.28896968049378402 0 -0.20163083764207049 -0.27816255368004889 0 -0.18643891475010321 -0.2753500999052107 0 -0.1892261620383611 -0.26071341320317981 0 -0.20334583650585281 -0.26123793981755161 0 -0.1971211098569064 -0.2485562144643311 0 -0.20334583650585281 -0.26123793981755161 0 -0.21759888839251429 -0.26212753750200368 0 -0.22025275826160279 -0.2471257797298928 0 -0.20334583650585281 -0.26123793981755161 0 -0.22025275826160279 -0.2471257797298928 0 -0.20334583650585281 -0.26123793981755161 0 -0.1971211098569064 -0.2485562144643311 0 -0.22025275826160279 -0.2471257797298928 0 -0.2117440640613063 -0.2714560660025862 0 -0.20334583650585281 -0.26123793981755161 0 -0.21759888839251429 -0.26212753750200368 0 -0.15821309250511281 -0.26118480488572993 0 -0.17536452169406261 -0.25513261131262932 0 -0.1815972113741586 -0.27939145610981342 0 -0.15821309250511281 -0.26118480488572993 0 -0.17536452169406261 -0.25513261131262932 0 -0.15566934165753701 -0.24482136105764621 0 -0.1892261620383611 -0.26071341320317981 0 -0.17536452169406261 -0.25513261131262932 0 -0.1971211098569064 -0.2485562144643311 0 -0.1892261620383611 -0.26071341320317981 0 -0.17536452169406261 -0.25513261131262932 0 -0.18643891475010321 -0.2753500999052107 0 -0.17536452169406261 -0.25513261131262932 0 -0.18643891475010321 -0.2753500999052107 0 -0.17536452169406261 -0.25513261131262932 0 -0.18643891475010321 -0.2753500999052107 0 -0.1815972113741586 -0.27939145610981342 0 -0.19389921764606771 -0.28896968049378402 0 -0.18643891475010321 -0.2753500999052107 0 -0.1815972113741586 -0.27939145610981342 0 -0.18643891475010321 -0.2753500999052107 0 -0.1815972113741586 -0.27939145610981342 0 -0.15821309250511281 -0.26118480488572993 0 -0.1815972113741586 -0.27939145610981342 0 -0.1605334253196628 -0.27705414769848019 0 -0.15821309250511281 -0.26118480488572993 0 -0.1815972113741586 -0.27939145610981342 0 -0.1605334253196628 -0.27705414769848019 0 -0.16662117086531369 -0.29189191504570172 0 -0.1460397447830028 -0.28392096720827609 0 -0.1815972113741586 -0.27939145610981342 0 -0.1605334253196628 -0.27705414769848019 0 -0.16662117086531369 -0.29189191504570172 0 -0.16662117086531369 -0.29189191504570172 0 -0.18066470514172869 -0.29420676669921531 0 -0.16807172941449361 -0.30108874618849107 0 -0.1815972113741586 -0.27939145610981342 0 -0.16662117086531369 -0.29189191504570172 0 -0.1815972113741586 -0.27939145610981342 0 -0.16662117086531369 -0.29189191504570172 0 -0.18066470514172869 -0.29420676669921531 0 -0.19389921764606771 -0.28896968049378402 0 -0.1815972113741586 -0.27939145610981342 0 -0.18066470514172869 -0.29420676669921531 0 -0.18066470514172869 -0.29420676669921531 0 -0.1817779539512053 -0.30255714357571323 0 -0.16807172941449361 -0.30108874618849107 0 -0.1817779539512053 -0.30255714357571323 0 -0.17538193411824851 -0.30742310974349601 0 -0.16807172941449361 -0.30108874618849107 0 -0.1899902243989981 -0.29832565749187118 0 -0.18066470514172869 -0.29420676669921531 0 -0.1817779539512053 -0.30255714357571323 0 -0.19308950921137841 -0.30535425612401718 0 -0.1817779539512053 -0.30255714357571323 0 -0.1814567810706762 -0.3106659979112194 0 -0.1817779539512053 -0.30255714357571323 0 -0.1814567810706762 -0.3106659979112194 0 -0.17538193411824851 -0.30742310974349601 0 -0.1814567810706762 -0.3106659979112194 0 -0.17538193411824851 -0.30742310974349601 0 -0.1814567810706762 -0.3106659979112194 0 -0.17538193411824851 -0.30742310974349601 0 -0.1521471234576928 -0.30622570102712859 0 -0.16662117086531369 -0.29189191504570172 0 -0.16807172941449361 -0.30108874618849107 0 -0.15164513035647001 -0.30439237398159158 0 -0.17538193411824851 -0.30742310974349601 0 -0.16807172941449361 -0.30108874618849107 0 -0.1521471234576928 -0.30622570102712859 0 -0.16807172941449361 -0.30108874618849107 0 -0.1521471234576928 -0.30622570102712859 0 -0.15164513035647001 -0.30439237398159158 0 -0.1814567810706762 -0.3106659979112194 0 -0.1521471234576928 -0.30622570102712859 0 -0.16662117086531369 -0.29189191504570172 0 -0.15164513035647001 -0.30439237398159158 0 -0.14986325126998301 -0.30587970344869631 0 -0.1472482395654931 -0.30806244637126978 0 -0.13137693926794269 -0.30307910049847142 0 -0.14986325126998301 -0.30587970344869631 0 -0.13137693926794269 -0.30307910049847142 0 -0.14191197011226919 -0.29595195204747682 0 -0.1521471234576928 -0.30622570102712859 0 -0.15536928910057479 -0.31799335959440589 0 -0.1521471234576928 -0.30622570102712859 0 -0.1472482395654931 -0.30806244637126978 0 -0.1481744133336001 -0.31559103279323952 0 -0.1521471234576928 -0.30622570102712859 0 -0.14986325126998301 -0.30587970344869631 0 -0.1472482395654931 -0.30806244637126978 0 -0.1521471234576928 -0.30622570102712859 0 -0.14986325126998301 -0.30587970344869631 0 -0.15164513035647001 -0.30439237398159158 0 -0.1521471234576928 -0.30622570102712859 0 -0.14986325126998301 -0.30587970344869631 0 -0.1521471234576928 -0.30622570102712859 0 -0.15164513035647001 -0.30439237398159158 0 -0.14986325126998301 -0.30587970344869631 0 -0.15164513035647001 -0.30439237398159158 0 -0.14986325126998301 -0.30587970344869631 0 -0.1472482395654931 -0.30806244637126978 0 -0.14986325126998301 -0.30587970344869631 0 -0.15164513035647001 -0.30439237398159158 0 -0.14191197011226919 -0.29595195204747682 0 -0.1472482395654931 -0.30806244637126978 0 -0.13676428411235661 -0.311985534419285 0 -0.1481744133336001 -0.31559103279323952 0 -0.14986325126998301 -0.30587970344869631 0 -0.13137693926794269 -0.30307910049847142 0 -0.1472482395654931 -0.30806244637126978 0 -0.13676428411235661 -0.311985534419285 0 -0.13137693926794269 -0.30307910049847142 0 -0.13137693926794269 -0.30307910049847142 0 -0.14191197011226919 -0.29595195204747682 0 -0.12354370332633501 -0.29237215235494779 0 -0.13676428411235661 -0.311985534419285 0 -0.13137693926794269 -0.30307910049847142 0 -0.12202825811921469 -0.30947938976295097 0 -0.1460397447830028 -0.28392096720827609 0 -0.14191197011226919 -0.29595195204747682 0 -0.13317406737037779 -0.2802173890703723 0 -0.14191197011226919 -0.29595195204747682 0 -0.13317406737037779 -0.2802173890703723 0 -0.12354370332633501 -0.29237215235494779 0 -0.13317406737037779 -0.2802173890703723 0 -0.121176560474238 -0.27855216134530347 0 -0.12354370332633501 -0.29237215235494779 0 -0.16662117086531369 -0.29189191504570172 0 -0.15164513035647001 -0.30439237398159158 0 -0.1460397447830028 -0.28392096720827609 0 -0.15164513035647001 -0.30439237398159158 0 -0.1460397447830028 -0.28392096720827609 0 -0.14191197011226919 -0.29595195204747682 0 -0.15164513035647001 -0.30439237398159158 0 -0.1460397447830028 -0.28392096720827609 0 -0.1460397447830028 -0.28392096720827609 0 -0.14043435920953651 -0.26344956043496021 0 -0.1605334253196628 -0.27705414769848019 0 -0.1460397447830028 -0.28392096720827609 0 -0.14043435920953651 -0.26344956043496021 0 -0.15821309250511281 -0.26118480488572993 0 -0.1605334253196628 -0.27705414769848019 0 -0.14043435920953651 -0.26344956043496021 0 -0.13317406737037779 -0.2802173890703723 0 -0.1259380663168852 -0.26705754103126977 0 -0.14043435920953651 -0.26344956043496021 0 -0.1460397447830028 -0.28392096720827609 0 -0.13317406737037779 -0.2802173890703723 0 -0.14043435920953651 -0.26344956043496021 0 -0.13317406737037779 -0.2802173890703723 0 -0.1259380663168852 -0.26705754103126977 0 -0.121176560474238 -0.27855216134530347 0 -0.14043435920953651 -0.26344956043496021 0 -0.1283361407779757 -0.25159171728621699 0 -0.13482897363606841 -0.24297815366164491 0 -0.14043435920953651 -0.26344956043496021 0 -0.13482897363606841 -0.24297815366164491 0 -0.1259380663168852 -0.26705754103126977 0 -0.14043435920953651 -0.26344956043496021 0 -0.1283361407779757 -0.25159171728621699 0 -0.15821309250511281 -0.26118480488572993 0 -0.13482897363606841 -0.24297815366164491 0 -0.15821309250511281 -0.26118480488572993 0 -0.14043435920953651 -0.26344956043496021 0 -0.13482897363606841 -0.24297815366164491 0 -0.17697510949039719 -0.35596577996135209 0 -0.17519745401808179 -0.33814225560617162 0 -0.1562220225934601 -0.35985472972221177 0 -0.17519745401808179 -0.33814225560617162 0 -0.1532624182972378 -0.33871633494107939 0 -0.1562220225934601 -0.35985472972221177 0 -0.17519745401808179 -0.33814225560617162 0 -0.1562220225934601 -0.35985472972221177 0 -0.1663441030446621 -0.37717300760659073 0 -0.17697510949039719 -0.35596577996135209 0 -0.1562220225934601 -0.35985472972221177 0 -0.1663441030446621 -0.37717300760659073 0 -0.1854961134254472 -0.37120813041460421 0 -0.17697510949039719 -0.35596577996135209 0 -0.19236830561379509 -0.34938181171492771 0 -0.1854961134254472 -0.37120813041460421 0 -0.17697510949039719 -0.35596577996135209 0 -0.17697510949039719 -0.35596577996135209 0 -0.17519745401808179 -0.33814225560617162 0 -0.18622265824693729 -0.34003474470360739 0 -0.19236830561379509 -0.34938181171492771 0 -0.17697510949039719 -0.35596577996135209 0 -0.18622265824693729 -0.34003474470360739 0 -0.19214051361034601 -0.33054181938157612 0 -0.17519745401808179 -0.33814225560617162 0 -0.18622265824693729 -0.34003474470360739 0 -0.19214051361034601 -0.33054181938157612 0 -0.17519745401808179 -0.33814225560617162 0 -0.17075841890319021 -0.32267991232295651 0 -0.19214051361034601 -0.33054181938157612 0 -0.1814567810706762 -0.3106659979112194 0 -0.17075841890319021 -0.32267991232295651 0 -0.1814567810706762 -0.3106659979112194 0 -0.1521471234576928 -0.30622570102712859 0 -0.17075841890319021 -0.32267991232295651 0 -0.1521471234576928 -0.30622570102712859 0 -0.17075841890319021 -0.32267991232295651 0 -0.15536928910057479 -0.31799335959440589 0 -0.17075841890319021 -0.32267991232295651 0 -0.15536928910057479 -0.31799335959440589 0 -0.15041885550205389 -0.32708722206771829 0 -0.17519745401808179 -0.33814225560617162 0 -0.17075841890319021 -0.32267991232295651 0 -0.1532624182972378 -0.33871633494107939 0 -0.17075841890319021 -0.32267991232295651 0 -0.1532624182972378 -0.33871633494107939 0 -0.15041885550205389 -0.32708722206771829 0 -0.1532624182972378 -0.33871633494107939 0 -0.15041885550205389 -0.32708722206771829 0 -0.13403844172661231 -0.33095488736429202 0 -0.15041885550205389 -0.32708722206771829 0 -0.14028103823900179 -0.32077908792264309 0 -0.13403844172661231 -0.33095488736429202 0 -0.15536928910057479 -0.31799335959440589 0 -0.15041885550205389 -0.32708722206771829 0 -0.1481744133336001 -0.31559103279323952 0 -0.1521471234576928 -0.30622570102712859 0 -0.15536928910057479 -0.31799335959440589 0 -0.1481744133336001 -0.31559103279323952 0 -0.15041885550205389 -0.32708722206771829 0 -0.1481744133336001 -0.31559103279323952 0 -0.14028103823900179 -0.32077908792264309 0 -0.13676428411235661 -0.311985534419285 0 -0.1481744133336001 -0.31559103279323952 0 -0.14028103823900179 -0.32077908792264309 0 -0.13676428411235661 -0.311985534419285 0 -0.14028103823900179 -0.32077908792264309 0 -0.12839564496088529 -0.32005881249807028 0 -0.14028103823900179 -0.32077908792264309 0 -0.12839564496088529 -0.32005881249807028 0 -0.13403844172661231 -0.33095488736429202 0 -0.12839564496088529 -0.32005881249807028 0 -0.13403844172661231 -0.33095488736429202 0 -0.1231279148664025 -0.32697127933959502 0 -0.13676428411235661 -0.311985534419285 0 -0.12839564496088529 -0.32005881249807028 0 -0.12202825811921469 -0.30947938976295097 0 -0.13403844172661231 -0.33095488736429202 0 -0.13290241802702499 -0.35265178330474523 0 -0.1166361947753133 -0.33638206822001748 0 -0.1532624182972378 -0.33871633494107939 0 -0.13403844172661231 -0.33095488736429202 0 -0.13290241802702499 -0.35265178330474523 0 -0.1532624182972378 -0.33871633494107939 0 -0.13290241802702499 -0.35265178330474523 0 -0.1562220225934601 -0.35985472972221177 0 -0.13724659116883831 -0.38156720383825199 0 -0.13290241802702499 -0.35265178330474523 0 -0.1562220225934601 -0.35985472972221177 0 -0.13724659116883831 -0.38156720383825199 0 -0.1663441030446621 -0.37717300760659073 0 -0.1562220225934601 -0.35985472972221177 0 -0.13724659116883831 -0.38156720383825199 0 -0.1562220225934601 -0.35985472972221177 0 -0.13724659116883831 -0.38156720383825199 0 -0.13290241802702499 -0.35265178330474523 0 -0.1192781490478088 -0.36668410834504778 0 -0.1192781490478088 -0.36668410834504778 0 -0.1016352808315869 -0.36700177770792092 0 -0.11220573075163159 -0.38220411347121069 0 -0.1192781490478088 -0.36668410834504778 0 -0.1016352808315869 -0.36700177770792092 0 -0.1099844304083452 -0.35257743562026572 0 -0.1016352808315869 -0.36700177770792092 0 -0.091783481537845241 -0.36974840743822202 0 -0.093334558199797538 -0.36412034719781128 0 -0.1016352808315869 -0.36700177770792092 0 -0.094364811557621053 -0.35389299716276579 0 -0.093334558199797538 -0.36412034719781128 0 -0.1016352808315869 -0.36700177770792092 0 -0.091783481537845241 -0.36974840743822202 0 -0.093814789784828018 -0.38091150164421111 0 -0.094364811557621053 -0.35389299716276579 0 -0.1099844304083452 -0.35257743562026572 0 -0.096042697554356071 -0.3397062417384924 0 -0.1016352808315869 -0.36700177770792092 0 -0.094364811557621053 -0.35389299716276579 0 -0.1099844304083452 -0.35257743562026572 0 -0.13290241802702499 -0.35265178330474523 0 -0.1099844304083452 -0.35257743562026572 0 -0.1166361947753133 -0.33638206822001748 0 -0.13290241802702499 -0.35265178330474523 0 -0.1192781490478088 -0.36668410834504778 0 -0.1099844304083452 -0.35257743562026572 0 -0.13403844172661231 -0.33095488736429202 0 -0.1166361947753133 -0.33638206822001748 0 -0.1231279148664025 -0.32697127933959502 0 -0.1166361947753133 -0.33638206822001748 0 -0.1152881905332649 -0.31967160768574748 0 -0.098893476597157901 -0.32632392269665411 0 -0.1166361947753133 -0.33638206822001748 0 -0.1231279148664025 -0.32697127933959502 0 -0.1152881905332649 -0.31967160768574748 0 -0.12839564496088529 -0.32005881249807028 0 -0.1152881905332649 -0.31967160768574748 0 -0.12202825811921469 -0.30947938976295097 0 -0.12839564496088529 -0.32005881249807028 0 -0.1231279148664025 -0.32697127933959502 0 -0.1152881905332649 -0.31967160768574748 0 -0.1152881905332649 -0.31967160768574748 0 -0.11397155121489801 -0.30848478901155318 0 -0.10823649018657309 -0.3106210867482716 0 -0.1152881905332649 -0.31967160768574748 0 -0.12202825811921469 -0.30947938976295097 0 -0.11397155121489801 -0.30848478901155318 0 -0.1152881905332649 -0.31967160768574748 0 -0.098893476597157901 -0.32632392269665411 0 -0.10823649018657309 -0.3106210867482716 0 -0.1166361947753133 -0.33638206822001748 0 -0.098893476597157901 -0.32632392269665411 0 -0.096042697554356071 -0.3397062417384924 0 -0.1099844304083452 -0.35257743562026572 0 -0.1166361947753133 -0.33638206822001748 0 -0.096042697554356071 -0.3397062417384924 0 -0.081273045807338212 -0.32012122354728773 0 -0.072383893537199012 -0.33396092306611819 0 -0.082523744249277803 -0.34494336359321798 0 -0.081273045807338212 -0.32012122354728773 0 -0.082523744249277803 -0.34494336359321798 0 -0.096042697554356071 -0.3397062417384924 0 -0.081273045807338212 -0.32012122354728773 0 -0.082523744249277803 -0.34494336359321798 0 -0.098893476597157901 -0.32632392269665411 0 -0.096042697554356071 -0.3397062417384924 0 -0.081273045807338212 -0.32012122354728773 0 -0.098893476597157901 -0.32632392269665411 0 -0.081273045807338212 -0.32012122354728773 0 -0.088490963390462057 -0.3073149594937738 0 -0.081273045807338212 -0.32012122354728773 0 -0.06349485352407537 -0.31994243130957151 0 -0.072383893537199012 -0.33396092306611819 0 -0.081273045807338212 -0.32012122354728773 0 -0.06349485352407537 -0.31994243130957151 0 -0.071882199735688629 -0.30989172464331072 0 -0.06349485352407537 -0.31994243130957151 0 -0.072383893537199012 -0.33396092306611819 0 -0.062587044379988993 -0.33886333000968721 0 -0.072383893537199012 -0.33396092306611819 0 -0.072040779725314613 -0.34593426687082662 0 -0.082523744249277803 -0.34494336359321798 0 -0.072383893537199012 -0.33396092306611819 0 -0.062587044379988993 -0.33886333000968721 0 -0.072040779725314613 -0.34593426687082662 0 -0.062587044379988993 -0.33886333000968721 0 -0.072040779725314613 -0.34593426687082662 0 -0.05778126825204781 -0.35817517109810632 0 -0.081484465201393491 -0.35485127927681481 0 -0.05778126825204781 -0.35817517109810632 0 -0.072289445743601369 -0.36429171085611578 0 -0.081484465201393491 -0.35485127927681481 0 -0.05778126825204781 -0.35817517109810632 0 -0.072040779725314613 -0.34593426687082662 0 -0.081484465201393491 -0.35485127927681481 0 -0.05778126825204781 -0.35817517109810632 0 -0.066117606829746781 -0.37437488941039382 0 -0.072289445743601369 -0.36429171085611578 0 -0.05778126825204781 -0.35817517109810632 0 -0.066117606829746781 -0.37437488941039382 0 -0.072289445743601369 -0.36429171085611578 0 -0.083774442691217046 -0.36976550363914829 0 -0.072289445743601369 -0.36429171085611578 0 -0.083774442691217046 -0.36976550363914829 0 -0.081484465201393491 -0.35485127927681481 0 -0.085554658872136979 -0.36583820648233678 0 -0.083774442691217046 -0.36976550363914829 0 -0.082523744249277803 -0.34494336359321798 0 -0.085554658872136979 -0.36583820648233678 0 -0.083774442691217046 -0.36976550363914829 0 -0.083774442691217046 -0.36976550363914829 0 -0.091783481537845241 -0.36974840743822202 0 -0.093814789784828018 -0.38091150164421111 0 -0.085554658872136979 -0.36583820648233678 0 -0.083774442691217046 -0.36976550363914829 0 -0.091783481537845241 -0.36974840743822202 0 -0.094364811557621053 -0.35389299716276579 0 -0.085554658872136979 -0.36583820648233678 0 -0.093334558199797538 -0.36412034719781128 0 -0.085554658872136979 -0.36583820648233678 0 -0.091783481537845241 -0.36974840743822202 0 -0.093334558199797538 -0.36412034719781128 0 -0.094364811557621053 -0.35389299716276579 0 -0.085554658872136979 -0.36583820648233678 0 -0.082523744249277803 -0.34494336359321798 0 -0.083774442691217046 -0.36976550363914829 0 -0.082523744249277803 -0.34494336359321798 0 -0.083774442691217046 -0.36976550363914829 0 -0.082523744249277803 -0.34494336359321798 0 -0.081484465201393491 -0.35485127927681481 0 -0.094364811557621053 -0.35389299716276579 0 -0.096042697554356071 -0.3397062417384924 0 -0.082523744249277803 -0.34494336359321798 0 -0.072040779725314613 -0.34593426687082662 0 -0.082523744249277803 -0.34494336359321798 0 -0.081484465201393491 -0.35485127927681481 0 -0.101475907254733 -0.26829823342826459 0 -0.093680051977193257 -0.25300014610948141 0 -0.1025516661405015 -0.24412656761791199 0 -0.1097432552782682 -0.2572086698476283 0 -0.101475907254733 -0.26829823342826459 0 -0.1025516661405015 -0.24412656761791199 0 -0.101475907254733 -0.26829823342826459 0 -0.1025516661405015 -0.24412656761791199 0 -0.101475907254733 -0.26829823342826459 0 -0.092490388530258719 -0.26367462890309928 0 -0.093680051977193257 -0.25300014610948141 0 -0.1097432552782682 -0.2572086698476283 0 -0.11415052326640381 -0.26847741843797612 0 -0.101475907254733 -0.26829823342826459 0 -0.1097432552782682 -0.2572086698476283 0 -0.1183855941197941 -0.25651062511641259 0 -0.1121525856099083 -0.24863050463757599 0 -0.1283361407779757 -0.25159171728621699 0 -0.1183855941197941 -0.25651062511641259 0 -0.11992695639240671 -0.24305274461581289 0 -0.1259380663168852 -0.26705754103126977 0 -0.1183855941197941 -0.25651062511641259 0 -0.11415052326640381 -0.26847741843797612 0 -0.1259380663168852 -0.26705754103126977 0 -0.1283361407779757 -0.25159171728621699 0 -0.1183855941197941 -0.25651062511641259 0 -0.1097432552782682 -0.2572086698476283 0 -0.1183855941197941 -0.25651062511641259 0 -0.11415052326640381 -0.26847741843797612 0 -0.1259380663168852 -0.26705754103126977 0 -0.11415052326640381 -0.26847741843797612 0 -0.121176560474238 -0.27855216134530347 0 -0.11415052326640381 -0.26847741843797612 0 -0.121176560474238 -0.27855216134530347 0 -0.112272911659429 -0.28340806039222649 0 -0.101475907254733 -0.26829823342826459 0 -0.1004001483689636 -0.29246989923861699 0 -0.089806853404465051 -0.2713401455271785 0 -0.101475907254733 -0.26829823342826459 0 -0.1004001483689636 -0.29246989923861699 0 -0.11415052326640381 -0.26847741843797612 0 -0.101475907254733 -0.26829823342826459 0 -0.112272911659429 -0.28340806039222649 0 -0.101475907254733 -0.26829823342826459 0 -0.089806853404465051 -0.2713401455271785 0 -0.092490388530258719 -0.26367462890309928 0 -0.1004001483689636 -0.29246989923861699 0 -0.112272911659429 -0.28340806039222649 0 -0.11289062726590229 -0.30027849754824781 0 -0.101475907254733 -0.26829823342826459 0 -0.1004001483689636 -0.29246989923861699 0 -0.112272911659429 -0.28340806039222649 0 -0.1004001483689636 -0.29246989923861699 0 -0.10013860532164209 -0.29834661679915908 0 -0.1004001483689636 -0.29246989923861699 0 -0.11289062726590229 -0.30027849754824781 0 -0.112272911659429 -0.28340806039222649 0 -0.12354370332633501 -0.29237215235494779 0 -0.11289062726590229 -0.30027849754824781 0 -0.121176560474238 -0.27855216134530347 0 -0.112272911659429 -0.28340806039222649 0 -0.12354370332633501 -0.29237215235494779 0 -0.13137693926794269 -0.30307910049847142 0 -0.11289062726590229 -0.30027849754824781 0 -0.13137693926794269 -0.30307910049847142 0 -0.11289062726590229 -0.30027849754824781 0 -0.12202825811921469 -0.30947938976295097 0 -0.13137693926794269 -0.30307910049847142 0 -0.12354370332633501 -0.29237215235494779 0 -0.11289062726590229 -0.30027849754824781 0 -0.11289062726590229 -0.30027849754824781 0 -0.11397155121489801 -0.30848478901155318 0 -0.10823649018657309 -0.3106210867482716 0 -0.11289062726590229 -0.30027849754824781 0 -0.12202825811921469 -0.30947938976295097 0 -0.11397155121489801 -0.30848478901155318 0 -0.098893476597157901 -0.32632392269665411 0 -0.10013860532164209 -0.29834661679915908 0 -0.098893476597157901 -0.32632392269665411 0 -0.10013860532164209 -0.29834661679915908 0 -0.088490963390462057 -0.3073149594937738 0 -0.098893476597157901 -0.32632392269665411 0 -0.10823649018657309 -0.3106210867482716 0 -0.10013860532164209 -0.29834661679915908 0 -0.11289062726590229 -0.30027849754824781 0 -0.10013860532164209 -0.29834661679915908 0 -0.1004001483689636 -0.29246989923861699 0 -0.11289062726590229 -0.30027849754824781 0 -0.10013860532164209 -0.29834661679915908 0 -0.11289062726590229 -0.30027849754824781 0 -0.10823649018657309 -0.3106210867482716 0 -0.10013860532164209 -0.29834661679915908 0 -0.081273045807338212 -0.32012122354728773 0 -0.075730545320634307 -0.30237183499028841 0 -0.080022347365398816 -0.29529908350135742 0 -0.081273045807338212 -0.32012122354728773 0 -0.088490963390462057 -0.3073149594937738 0 -0.080022347365398816 -0.29529908350135742 0 -0.10013860532164209 -0.29834661679915908 0 -0.088490963390462057 -0.3073149594937738 0 -0.080022347365398816 -0.29529908350135742 0 -0.081273045807338212 -0.32012122354728773 0 -0.080022347365398816 -0.29529908350135742 0 -0.06349485352407537 -0.31994243130957151 0 -0.067929239438661637 -0.29744245220773302 0 -0.06349485352407537 -0.31994243130957151 0 -0.067929239438661637 -0.29744245220773302 0 -0.05709164511789562 -0.30596989755068921 0 -0.081273045807338212 -0.32012122354728773 0 -0.071882199735688629 -0.30989172464331072 0 -0.075730545320634307 -0.30237183499028841 0 -0.06349485352407537 -0.31994243130957151 0 -0.071882199735688629 -0.30989172464331072 0 -0.067929239438661637 -0.29744245220773302 0 -0.067929239438661637 -0.29744245220773302 0 -0.075730545320634307 -0.30237183499028841 0 -0.074800211398343183 -0.29676828128919502 0 -0.071882199735688629 -0.30989172464331072 0 -0.067929239438661637 -0.29744245220773302 0 -0.075730545320634307 -0.30237183499028841 0 -0.075730545320634307 -0.30237183499028841 0 -0.074800211398343183 -0.29676828128919502 0 -0.080022347365398816 -0.29529908350135742 0 -0.067929239438661637 -0.29744245220773302 0 -0.072363625353247057 -0.27494247310589431 0 -0.074800211398343183 -0.29676828128919502 0 -0.075988861669628593 -0.29203098004520328 0 -0.080022347365398816 -0.29529908350135742 0 -0.067929239438661637 -0.29744245220773302 0 -0.063481929201992804 -0.28659419931659808 0 -0.072363625353247057 -0.27494247310589431 0 -0.067929239438661637 -0.29744245220773302 0 -0.075162920182542767 -0.28731555611229459 0 -0.072363625353247057 -0.27494247310589431 0 -0.075988861669628593 -0.29203098004520328 0 -0.075162920182542767 -0.28731555611229459 0 -0.080022347365398816 -0.29529908350135742 0 -0.067929239438661637 -0.29744245220773302 0 -0.075988861669628593 -0.29203098004520328 0 -0.075162920182542767 -0.28731555611229459 0 -0.067929239438661637 -0.29744245220773302 0 -0.074800211398343183 -0.29676828128919502 0 -0.075988861669628593 -0.29203098004520328 0 -0.067929239438661637 -0.29744245220773302 0 -0.063481929201992804 -0.28659419931659808 0 -0.057157199652218327 -0.29433345841048941 0 -0.1004001483689636 -0.29246989923861699 0 -0.079212385277153408 -0.27922407156230239 0 -0.10013860532164209 -0.29834661679915908 0 -0.080022347365398816 -0.29529908350135742 0 -0.075162920182542767 -0.28731555611229459 0 -0.080022347365398816 -0.29529908350135742 0 -0.079212385277153408 -0.27922407156230239 0 -0.1004001483689636 -0.29246989923861699 0 -0.080022347365398816 -0.29529908350135742 0 -0.079212385277153408 -0.27922407156230239 0 -0.1004001483689636 -0.29246989923861699 0 -0.10013860532164209 -0.29834661679915908 0 -0.080022347365398816 -0.29529908350135742 0 -0.080022347365398816 -0.29529908350135742 0 -0.079212385277153408 -0.27922407156230239 0 -0.1004001483689636 -0.29246989923861699 0 -0.089806853404465051 -0.2713401455271785 0 -0.079212385277153408 -0.27922407156230239 0 -0.089806853404465051 -0.2713401455271785 0 -0.084998741484643592 -0.26205999054747281 0 -0.092490388530258719 -0.26367462890309928 0 -0.089806853404465051 -0.2713401455271785 0 -0.078429256909339093 -0.26368161834739218 0 -0.084998741484643592 -0.26205999054747281 0 -0.079212385277153408 -0.27922407156230239 0 -0.078429256909339093 -0.26368161834739218 0 -0.089806853404465051 -0.2713401455271785 0 -0.079212385277153408 -0.27922407156230239 0 -0.078429256909339093 -0.26368161834739218 0 -0.075162920182542767 -0.28731555611229459 0 -0.079212385277153408 -0.27922407156230239 0 -0.072363625353247057 -0.27494247310589431 0 -0.072363625353247057 -0.27494247310589431 0 -0.052651973256824323 -0.26261945695013877 0 -0.072363625353247057 -0.27494247310589431 0 -0.065594040539757301 -0.27326720108960889 0 -0.052651973256824323 -0.26261945695013877 0 -0.079212385277153408 -0.27922407156230239 0 -0.072363625353247057 -0.27494247310589431 0 -0.072363625353247057 -0.27494247310589431 0 -0.065594040539757301 -0.27326720108960889 0 -0.061663959528748452 -0.27997783588547598 0 -0.063481929201992804 -0.28659419931659808 0 -0.072363625353247057 -0.27494247310589431 0 -0.061663959528748452 -0.27997783588547598 0 -0.079212385277153408 -0.27922407156230239 0 -0.072363625353247057 -0.27494247310589431 0 -0.078429256909339093 -0.26368161834739218 0 -0.072363625353247057 -0.27494247310589431 0 -0.077646128541525 -0.24813916513248199 0 -0.072363625353247057 -0.27494247310589431 0 -0.078429256909339093 -0.26368161834739218 0 -0.077646128541525 -0.24813916513248199 0 -0.072363625353247057 -0.27494247310589431 0 -0.052651973256824323 -0.26261945695013877 0 -0.077646128541525 -0.24813916513248199 0 -0.078429256909339093 -0.26368161834739218 0 -0.077646128541525 -0.24813916513248199 0 -0.084998741484643592 -0.26205999054747281 0 -0.088104632666654803 -0.24175912157342011 0 -0.084998741484643592 -0.26205999054747281 0 -0.093680051977193257 -0.25300014610948141 0 -0.088104632666654803 -0.24175912157342011 0 -0.084998741484643592 -0.26205999054747281 0 -0.088104632666654803 -0.24175912157342011 0 -0.077646128541525 -0.24813916513248199 0 -0.078429256909339093 -0.26368161834739218 0 -0.084998741484643592 -0.26205999054747281 0 -0.077646128541525 -0.24813916513248199 0 -0.084998741484643592 -0.26205999054747281 0 -0.092490388530258719 -0.26367462890309928 0 -0.093680051977193257 -0.25300014610948141 0 -0.032940321160402269 -0.25029644079438251 0 -0.052651973256824323 -0.26261945695013877 0 -0.050902643065861071 -0.24349095896983161 0 -0.032940321160402269 -0.25029644079438251 0 -0.052651973256824323 -0.26261945695013877 0 -0.030801127425925001 -0.25680016795848581 0 -0.032940321160402269 -0.25029644079438251 0 -0.052651973256824323 -0.26261945695013877 0 -0.052651973256824323 -0.26261945695013877 0 -0.048838748996681343 -0.27669498093657302 0 -0.030801127425925001 -0.25680016795848581 0 -0.032940321160402269 -0.25029644079438251 0 -0.030801127425925001 -0.25680016795848581 0 -0.052651973256824323 -0.26261945695013877 0 -0.050902643065861071 -0.24349095896983161 0 -0.077646128541525 -0.24813916513248199 0 -0.065594040539757301 -0.27326720108960889 0 -0.048838748996681343 -0.27669498093657302 0 -0.065594040539757301 -0.27326720108960889 0 -0.052651973256824323 -0.26261945695013877 0 -0.048838748996681343 -0.27669498093657302 0 -0.065594040539757301 -0.27326720108960889 0 -0.061663959528748452 -0.27997783588547598 0 -0.048838748996681343 -0.27669498093657302 0 -0.061663959528748452 -0.27997783588547598 0 -0.048838748996681343 -0.27669498093657302 0 -0.054451087829631463 -0.28288517796522222 0 -0.048838748996681343 -0.27669498093657302 0 -0.054451087829631463 -0.28288517796522222 0 -0.048838748996681343 -0.27669498093657302 0 -0.030801127425925001 -0.25680016795848581 0 -0.048838748996681343 -0.27669498093657302 0 -0.02248395618448398 -0.28208661661419232 0 -0.030801127425925001 -0.25680016795848581 0 -0.048838748996681343 -0.27669498093657302 0 -0.02248395618448398 -0.28208661661419232 0 -0.048838748996681343 -0.27669498093657302 0 -0.041077846387481028 -0.28937070966441081 0 -0.02248395618448398 -0.28208661661419232 0 -0.041077846387481028 -0.28937070966441081 0 -0.037109865356421391 -0.29952186761000271 0 -0.029468436869721851 -0.29252598106650862 0 -0.041077846387481028 -0.28937070966441081 0 -0.04975385330497957 -0.2890306135367654 0 -0.047244383658885593 -0.30186874070713182 0 -0.048838748996681343 -0.27669498093657302 0 -0.041077846387481028 -0.28937070966441081 0 -0.04975385330497957 -0.2890306135367654 0 -0.048838748996681343 -0.27669498093657302 0 -0.04975385330497957 -0.2890306135367654 0 -0.054451087829631463 -0.28288517796522222 0 -0.04975385330497957 -0.2890306135367654 0 -0.054451087829631463 -0.28288517796522222 0 -0.057157199652218327 -0.29433345841048941 0 -0.063481929201992804 -0.28659419931659808 0 -0.054451087829631463 -0.28288517796522222 0 -0.057157199652218327 -0.29433345841048941 0 -0.063481929201992804 -0.28659419931659808 0 -0.061663959528748452 -0.27997783588547598 0 -0.054451087829631463 -0.28288517796522222 0 -0.04975385330497957 -0.2890306135367654 0 -0.057157199652218327 -0.29433345841048941 0 -0.047244383658885593 -0.30186874070713182 0 -0.057157199652218327 -0.29433345841048941 0 -0.047244383658885593 -0.30186874070713182 0 -0.05709164511789562 -0.30596989755068921 0 -0.067929239438661637 -0.29744245220773302 0 -0.057157199652218327 -0.29433345841048941 0 -0.05709164511789562 -0.30596989755068921 0 -0.047244383658885593 -0.30186874070713182 0 -0.05709164511789562 -0.30596989755068921 0 -0.049632549315637188 -0.31626240511852 0 -0.047244383658885593 -0.30186874070713182 0 -0.049632549315637188 -0.31626240511852 0 -0.036505516356473318 -0.31400569198040618 0 -0.047244383658885593 -0.30186874070713182 0 -0.037109865356421391 -0.29952186761000271 0 -0.036505516356473318 -0.31400569198040618 0 -0.041077846387481028 -0.28937070966441081 0 -0.047244383658885593 -0.30186874070713182 0 -0.037109865356421391 -0.29952186761000271 0 -0.037109865356421391 -0.29952186761000271 0 -0.02678144107749017 -0.30078470409936309 0 -0.036505516356473318 -0.31400569198040618 0 -0.02678144107749017 -0.30078470409936309 0 -0.021312585502779081 -0.32213078764647213 0 -0.02678144107749017 -0.30078470409936309 0 -0.036505516356473318 -0.31400569198040618 0 -0.021312585502779081 -0.32213078764647213 0 -0.02678144107749017 -0.30078470409936309 0 -0.01630762940426286 -0.3038502133106713 0 -0.021312585502779081 -0.32213078764647213 0 -0.037109865356421391 -0.29952186761000271 0 -0.02678144107749017 -0.30078470409936309 0 -0.029468436869721851 -0.29252598106650862 0 -0.02678144107749017 -0.30078470409936309 0 -0.01630762940426286 -0.3038502133106713 0 -0.01957434403417008 -0.29093262400193609 0 -0.0063780240591087903 -0.31078717533589839 0 -0.0074917523477661804 -0.29461577546968681 0 0.013051880611257029 -0.30817184754300292 0 -0.01630762940426286 -0.3038502133106713 0 -0.0063780240591087903 -0.31078717533589839 0 -0.021312585502779081 -0.32213078764647213 0 -0.01630762940426286 -0.3038502133106713 0 -0.0063780240591087903 -0.31078717533589839 0 -0.0074917523477661804 -0.29461577546968681 0 -0.02248395618448398 -0.28208661661419232 0 0.0027723556212477219 -0.28725352620772771 0 -0.01075429771457371 -0.28163518560512563 0 -0.02248395618448398 -0.28208661661419232 0 0.0027723556212477219 -0.28725352620772771 0 -0.0074917523477661804 -0.29461577546968681 0 -0.02248395618448398 -0.28208661661419232 0 0.0027723556212477219 -0.28725352620772771 0 -0.01630762940426286 -0.3038502133106713 0 -0.0074917523477661804 -0.29461577546968681 0 -0.01957434403417008 -0.29093262400193609 0 -0.01075429771457371 -0.28163518560512563 0 -0.0017476628817073611 -0.27805551369469472 0 0.0027723556212477219 -0.28725352620772771 0 -0.041077846387481028 -0.28937070966441081 0 -0.02248395618448398 -0.28208661661419232 0 -0.029468436869721851 -0.29252598106650862 0 -0.02248395618448398 -0.28208661661419232 0 -0.01957434403417008 -0.29093262400193609 0 -0.0074917523477661804 -0.29461577546968681 0 -0.02248395618448398 -0.28208661661419232 0 -0.01957434403417008 -0.29093262400193609 0 -0.02678144107749017 -0.30078470409936309 0 -0.01957434403417008 -0.29093262400193609 0 -0.029468436869721851 -0.29252598106650862 0 -0.02248395618448398 -0.28208661661419232 0 -0.01957434403417008 -0.29093262400193609 0 -0.029468436869721851 -0.29252598106650862 0 -0.02248395618448398 -0.28208661661419232 0 -0.030801127425925001 -0.25680016795848581 0 -0.02248395618448398 -0.28208661661419232 0 -0.01520552987642871 -0.27187005660595642 0 -0.030801127425925001 -0.25680016795848581 0 -0.01075429771457371 -0.28163518560512563 0 -0.02248395618448398 -0.28208661661419232 0 -0.01520552987642871 -0.27187005660595642 0 -0.0017476628817073611 -0.27805551369469472 0 -0.01024060517545407 -0.26077279915728391 0 0.0057386521092319797 -0.26220041049146298 0 -0.0017476628817073611 -0.27805551369469472 0 -0.01520552987642871 -0.27187005660595642 0 -0.01024060517545407 -0.26077279915728391 0 -0.0017476628817073611 -0.27805551369469472 0 -0.01024060517545407 -0.26077279915728391 0 -0.01075429771457371 -0.28163518560512563 0 -0.0017476628817073611 -0.27805551369469472 0 -0.01520552987642871 -0.27187005660595642 0 -0.01075429771457371 -0.28163518560512563 0 -0.0017476628817073611 -0.27805551369469472 0 -0.01024060517545407 -0.26077279915728391 0 0.0057386521092319797 -0.26220041049146298 0 0.0025328853753160741 -0.24958102673793139 0 -0.01024060517545407 -0.26077279915728391 0 -0.018733547469201091 -0.24349008461987329 0 -0.01024060517545407 -0.26077279915728391 0 -0.018733547469201091 -0.24349008461987329 0 0.0025328853753160741 -0.24958102673793139 0 -0.01024060517545407 -0.26077279915728391 0 -0.030801127425925001 -0.25680016795848581 0 -0.018733547469201091 -0.24349008461987329 0 -0.01520552987642871 -0.27187005660595642 0 -0.01024060517545407 -0.26077279915728391 0 -0.030801127425925001 -0.25680016795848581 0 -0.032940321160402269 -0.25029644079438251 0 -0.030801127425925001 -0.25680016795848581 0 -0.026871719323301121 -0.24650256912316601 0 -0.030801127425925001 -0.25680016795848581 0 -0.018733547469201091 -0.24349008461987329 0 -0.034078071302702163 -0.36149906291939787 0 -0.05778126825204781 -0.35817517109810632 0 -0.044598414929564491 -0.33459332569111688 0 -0.034078071302702163 -0.36149906291939787 0 -0.044598414929564491 -0.33459332569111688 0 -0.02963630761074966 -0.34409655343526241 0 -0.034078071302702163 -0.36149906291939787 0 -0.05778126825204781 -0.35817517109810632 0 -0.034078071302702163 -0.36149906291939787 0 -0.031733352269984409 -0.37630872523495079 0 -0.04671422923235316 -0.37926911911211442 0 -0.034078071302702163 -0.36149906291939787 0 -0.05778126825204781 -0.35817517109810632 0 -0.04671422923235316 -0.37926911911211442 0 -0.066117606829746781 -0.37437488941039382 0 -0.05778126825204781 -0.35817517109810632 0 -0.04671422923235316 -0.37926911911211442 0 -0.062587044379988993 -0.33886333000968721 0 -0.05778126825204781 -0.35817517109810632 0 -0.044598414929564491 -0.33459332569111688 0 -0.06349485352407537 -0.31994243130957151 0 -0.062587044379988993 -0.33886333000968721 0 -0.044598414929564491 -0.33459332569111688 0 -0.06349485352407537 -0.31994243130957151 0 -0.049632549315637188 -0.31626240511852 0 -0.044598414929564491 -0.33459332569111688 0 -0.06349485352407537 -0.31994243130957151 0 -0.05709164511789562 -0.30596989755068921 0 -0.049632549315637188 -0.31626240511852 0 -0.049632549315637188 -0.31626240511852 0 -0.036505516356473318 -0.31400569198040618 0 -0.044598414929564491 -0.33459332569111688 0 -0.036505516356473318 -0.31400569198040618 0 -0.044598414929564491 -0.33459332569111688 0 -0.021312585502779081 -0.32213078764647213 0 -0.044598414929564491 -0.33459332569111688 0 -0.021312585502779081 -0.32213078764647213 0 -0.02963630761074966 -0.34409655343526241 0 -0.015843729928067991 -0.34347687119358122 0 -0.021312585502779081 -0.32213078764647213 0 -0.02963630761074966 -0.34409655343526241 0 -0.015843729928067991 -0.34347687119358122 0 -0.021312585502779081 -0.32213078764647213 0 -0.0063780240591087903 -0.31078717533589839 0 -0.021312585502779081 -0.32213078764647213 0 3.5896068887442723e-05 -0.32803491845883598 0 -0.015843729928067991 -0.34347687119358122 0 -0.00014080085946228561 -0.35082738964002957 0 3.5896068887442723e-05 -0.32803491845883598 0 -0.015843729928067991 -0.34347687119358122 0 -0.021312585502779081 -0.32213078764647213 0 3.5896068887442723e-05 -0.32803491845883598 0 -0.015843729928067991 -0.34347687119358122 0 -0.00014080085946228561 -0.35082738964002957 0 -0.01037487435335663 -0.3648229547406901 0 -0.015843729928067991 -0.34347687119358122 0 -0.01037487435335663 -0.3648229547406901 0 -0.015843729928067991 -0.34347687119358122 0 -0.02275820373048933 -0.35362182208710219 0 -0.02963630761074966 -0.34409655343526241 0 -0.015843729928067991 -0.34347687119358122 0 -0.02275820373048933 -0.35362182208710219 0 -0.01037487435335663 -0.3648229547406901 0 -0.034078071302702163 -0.36149906291939787 0 -0.02275820373048933 -0.35362182208710219 0 -0.02963630761074966 -0.34409655343526241 0 -0.034078071302702163 -0.36149906291939787 0 -0.02215424893162643 -0.37111505202744122 0 -0.01037487435335663 -0.3648229547406901 0 -0.034078071302702163 -0.36149906291939787 0 -0.01037487435335663 -0.3648229547406901 0 -0.034078071302702163 -0.36149906291939787 0 -0.02275820373048933 -0.35362182208710219 0 -0.01037487435335663 -0.3648229547406901 0 -0.034078071302702163 -0.36149906291939787 0 -0.02215424893162643 -0.37111505202744122 0 -0.031733352269984409 -0.37630872523495079 0 -0.02215424893162643 -0.37111505202744122 0 -0.016772253886492949 -0.37410089839641808 0 -0.01404568160319189 -0.3712617873641948 0 -0.01404568160319189 -0.3712617873641948 0 -0.0094265442937821464 -0.37378457166277412 0 -0.01319259440905524 -0.37623554315916408 0 -0.0078283346885702904 -0.37476262999778609 0 -0.0094265442937821464 -0.37378457166277412 0 -0.01037487435335663 -0.3648229547406901 0 -0.02215424893162643 -0.37111505202744122 0 -0.01404568160319189 -0.3712617873641948 0 -0.01037487435335663 -0.3648229547406901 0 -0.01037487435335663 -0.3648229547406901 0 0.0058490520874761691 -0.36709803082098191 0 -0.016772253886492949 -0.37410089839641808 0 -0.01404568160319189 -0.3712617873641948 0 -0.01319259440905524 -0.37623554315916408 0 -0.00014080085946228561 -0.35082738964002957 0 -0.01037487435335663 -0.3648229547406901 0 0.0058490520874761691 -0.36709803082098191 0 -0.0078283346885702904 -0.37476262999778609 0 -0.01037487435335663 -0.3648229547406901 0 0.0058490520874761691 -0.36709803082098191 0 -0.0078283346885702904 -0.37476262999778609 0 -0.01037487435335663 -0.3648229547406901 0 -0.01404568160319189 -0.3712617873641948 0 -0.0094265442937821464 -0.37378457166277412 0 -0.01037487435335663 -0.3648229547406901 0 -0.0078283346885702904 -0.37476262999778609 0 -0.0094265442937821464 -0.37378457166277412 0 -0.0078283346885702904 -0.37476262999778609 0 -0.0023576536845698339 -0.39611583857600319 0 -0.0078283346885702904 -0.37476262999778609 0 -0.011142097151610131 -0.38172381805447092 0 -0.0023576536845698339 -0.39611583857600319 0 -0.011142097151610131 -0.38172381805447092 0 -0.0023576536845698339 -0.39611583857600319 0 -0.01587325479487519 -0.38723674351337972 0 -0.011142097151610131 -0.38172381805447092 0 -0.01610234460482865 -0.37998891207167063 0 -0.01587325479487519 -0.38723674351337972 0 -0.01319259440905524 -0.37623554315916408 0 -0.011142097151610131 -0.38172381805447092 0 -0.01610234460482865 -0.37998891207167063 0 -0.016772253886492949 -0.37410089839641808 0 -0.01319259440905524 -0.37623554315916408 0 -0.01610234460482865 -0.37998891207167063 0 -0.01319259440905524 -0.37623554315916408 0 -0.010397392635754449 -0.37662664071854879 0 -0.011142097151610131 -0.38172381805447092 0 -0.0078283346885702904 -0.37476262999778609 0 -0.010397392635754449 -0.37662664071854879 0 -0.011142097151610131 -0.38172381805447092 0 -0.0094265442937821464 -0.37378457166277412 0 -0.01319259440905524 -0.37623554315916408 0 -0.010397392635754449 -0.37662664071854879 0 -0.0078283346885702904 -0.37476262999778609 0 -0.0094265442937821464 -0.37378457166277412 0 -0.010397392635754449 -0.37662664071854879 0 -0.0023576536845698339 -0.39611583857600319 0 -0.016854849126784088 -0.39742738565483049 0 -0.01587325479487519 -0.38723674351337972 0 -0.0023576536845698339 -0.39611583857600319 0 -0.016854849126784088 -0.39742738565483049 0 -0.0081630895937607941 -0.41129335178386173 0 -0.016854849126784088 -0.39742738565483049 0 -0.023392714889338931 -0.39064901327928331 0 -0.029305467632274609 -0.40049385546170407 0 -0.016854849126784088 -0.39742738565483049 0 -0.023392714889338931 -0.39064901327928331 0 -0.01587325479487519 -0.38723674351337972 0 -0.023392714889338931 -0.39064901327928331 0 -0.029305467632274609 -0.40049385546170407 0 -0.032188689101130562 -0.38901283488088068 0 -0.02215424893162643 -0.37111505202744122 0 -0.016772253886492949 -0.37410089839641808 0 -0.02353152278210973 -0.38064755723492022 0 -0.016772253886492949 -0.37410089839641808 0 -0.01610234460482865 -0.37998891207167063 0 -0.02353152278210973 -0.38064755723492022 0 -0.01610234460482865 -0.37998891207167063 0 -0.01587325479487519 -0.38723674351337972 0 -0.02353152278210973 -0.38064755723492022 0 -0.023392714889338931 -0.39064901327928331 0 -0.01587325479487519 -0.38723674351337972 0 -0.02353152278210973 -0.38064755723492022 0 -0.023392714889338931 -0.39064901327928331 0 -0.02353152278210973 -0.38064755723492022 0 -0.032188689101130562 -0.38901283488088068 0 -0.02353152278210973 -0.38064755723492022 0 -0.031733352269984409 -0.37630872523495079 0 -0.032188689101130562 -0.38901283488088068 0 -0.02215424893162643 -0.37111505202744122 0 -0.02353152278210973 -0.38064755723492022 0 -0.031733352269984409 -0.37630872523495079 0 -0.031733352269984409 -0.37630872523495079 0 -0.04671422923235316 -0.37926911911211442 0 -0.032188689101130562 -0.38901283488088068 0 -0.04671422923235316 -0.37926911911211442 0 -0.032188689101130562 -0.38901283488088068 0 -0.044289202763444772 -0.39135289085216762 0 -0.032188689101130562 -0.38901283488088068 0 -0.041257957344308177 -0.40487627914437913 0 -0.044289202763444772 -0.39135289085216762 0 -0.029305467632274609 -0.40049385546170407 0 -0.032188689101130562 -0.38901283488088068 0 -0.041257957344308177 -0.40487627914437913 0 -0.056230819367541693 -0.39440183914975269 0 -0.051493530029743613 -0.41277891791385168 0 -0.065747409502729032 -0.40953455918739179 0 -0.041257957344308177 -0.40487627914437913 0 -0.056230819367541693 -0.39440183914975269 0 -0.051493530029743613 -0.41277891791385168 0 -0.041257957344308177 -0.40487627914437913 0 -0.044289202763444772 -0.39135289085216762 0 -0.056230819367541693 -0.39440183914975269 0 -0.056230819367541693 -0.39440183914975269 0 -0.065747409502729032 -0.40953455918739179 0 -0.066117606829746781 -0.37437488941039382 0 -0.04671422923235316 -0.37926911911211442 0 -0.056230819367541693 -0.39440183914975269 0 -0.04671422923235316 -0.37926911911211442 0 -0.044289202763444772 -0.39135289085216762 0 -0.056230819367541693 -0.39440183914975269 0 -0.04671422923235316 -0.37926911911211442 0 -0.056230819367541693 -0.39440183914975269 0 -0.057674512383022389 -0.42734400629007657 0 -0.049601615263317987 -0.44515345339276252 0 -0.057674512383022389 -0.42734400629007657 0 -0.051493530029743613 -0.41277891791385168 0 -0.065747409502729032 -0.40953455918739179 0 -0.057674512383022389 -0.42734400629007657 0 -0.065747409502729032 -0.40953455918739179 0 -0.057674512383022389 -0.42734400629007657 0 -0.051493530029743613 -0.41277891791385168 0 -0.03322823219505102 -0.42129041952379648 0 -0.029305467632274609 -0.40049385546170407 0 -0.041257957344308177 -0.40487627914437913 0 -0.03322823219505102 -0.42129041952379648 0 -0.041257957344308177 -0.40487627914437913 0 -0.051493530029743613 -0.41277891791385168 0 -0.03322823219505102 -0.42129041952379648 0 -0.03322823219505102 -0.42129041952379648 0 -0.02439234541253921 -0.43490569650885758 0 -0.049601615263317987 -0.44515345339276252 0 -0.03322823219505102 -0.42129041952379648 0 -0.049601615263317987 -0.44515345339276252 0 -0.057674512383022389 -0.42734400629007657 0 -0.03322823219505102 -0.42129041952379648 0 -0.049601615263317987 -0.44515345339276252 0 -0.03322823219505102 -0.42129041952379648 0 -0.02439234541253921 -0.43490569650885758 0 -0.010818991714530671 -0.42579448288144173 0 -0.016854849126784088 -0.39742738565483049 0 -0.03322823219505102 -0.42129041952379648 0 -0.03322823219505102 -0.42129041952379648 0 -0.0081630895937607941 -0.41129335178386173 0 -0.010818991714530671 -0.42579448288144173 0 -0.016854849126784088 -0.39742738565483049 0 -0.029305467632274609 -0.40049385546170407 0 -0.03322823219505102 -0.42129041952379648 0 -0.016854849126784088 -0.39742738565483049 0 -0.03322823219505102 -0.42129041952379648 0 -0.0081630895937607941 -0.41129335178386173 0 -0.0081630895937607941 -0.41129335178386173 0 -0.010818991714530671 -0.42579448288144173 0 0.0026957591361241309 -0.41958824334712869 0 -0.02439234541253921 -0.43490569650885758 0 -0.010818991714530671 -0.42579448288144173 0 -0.01027783979290609 -0.4450418277695869 0 -0.010818991714530671 -0.42579448288144173 0 -0.01027783979290609 -0.4450418277695869 0 0.003851027954898749 -0.43172418954792041 0 -0.010818991714530671 -0.42579448288144173 0 0.0026957591361241309 -0.41958824334712869 0 0.003851027954898749 -0.43172418954792041 0 -0.01027783979290609 -0.4450418277695869 0 -0.011038280792740629 -0.46258843223684681 0 0.0031349746952128348 -0.45732154608844711 0 -0.01027783979290609 -0.4450418277695869 0 -0.011038280792740629 -0.46258843223684681 0 -0.02289260566061898 -0.45897742689034388 0 -0.011038280792740629 -0.46258843223684681 0 -0.00094907817261298132 -0.47112804672216879 0 0.0031349746952128348 -0.45732154608844711 0 -0.02289260566061898 -0.45897742689034388 0 -0.029356635895327849 -0.44930438287917762 0 -0.040413005672661102 -0.46542425011239508 0 -0.02289260566061898 -0.45897742689034388 0 -0.023377266149459251 -0.47252824145371342 0 -0.040413005672661102 -0.46542425011239508 0 -0.011038280792740629 -0.46258843223684681 0 -0.02289260566061898 -0.45897742689034388 0 -0.023377266149459251 -0.47252824145371342 0 -0.02439234541253921 -0.43490569650885758 0 -0.01027783979290609 -0.4450418277695869 0 -0.029356635895327849 -0.44930438287917762 0 -0.01027783979290609 -0.4450418277695869 0 -0.02289260566061898 -0.45897742689034388 0 -0.029356635895327849 -0.44930438287917762 0 -0.0023310323066341181 -0.5 0 -0.0043793089323552817 -0.49170101865338262 0 -0.02815109917196898 -0.49861636840837392 0 -0.0043793089323552817 -0.49170101865338262 0 -0.0043176495648967151 -0.48070428616945038 0 0.0053352152350804568 -0.4807791696356124 0 -0.0043793089323552817 -0.49170101865338262 0 -0.0106231170010091 -0.48419136288379427 0 -0.0043176495648967151 -0.48070428616945038 0 -0.0043793089323552817 -0.49170101865338262 0 -0.0106231170010091 -0.48419136288379427 0 -0.017950876149337221 -0.4893641285520216 0 -0.0106231170010091 -0.48419136288379427 0 -0.01097195895358667 -0.47572183295229409 0 -0.019957514846631629 -0.48311391022826639 0 -0.0106231170010091 -0.48419136288379427 0 -0.0043176495648967151 -0.48070428616945038 0 -0.01097195895358667 -0.47572183295229409 0 -0.011038280792740629 -0.46258843223684681 0 -0.00094907817261298132 -0.47112804672216879 0 -0.01097195895358667 -0.47572183295229409 0 -0.0043176495648967151 -0.48070428616945038 0 -0.00094907817261298132 -0.47112804672216879 0 -0.01097195895358667 -0.47572183295229409 0 -0.011038280792740629 -0.46258843223684681 0 -0.01097195895358667 -0.47572183295229409 0 -0.023377266149459251 -0.47252824145371342 0 -0.023377266149459251 -0.47252824145371342 0 -0.019957514846631629 -0.48311391022826639 0 -0.031224396082004221 -0.48569504683202769 0 -0.01097195895358667 -0.47572183295229409 0 -0.023377266149459251 -0.47252824145371342 0 -0.019957514846631629 -0.48311391022826639 0 -0.0023310323066341181 -0.5 0 -0.02815109917196898 -0.49861636840837392 0 -0.031360818006208928 -0.5 0 -0.0043793089323552817 -0.49170101865338262 0 -0.017950876149337221 -0.4893641285520216 0 -0.02815109917196898 -0.49861636840837392 0 -0.0043793089323552817 -0.49170101865338262 0 -0.02815109917196898 -0.49861636840837392 0 -0.0106231170010091 -0.48419136288379427 0 -0.019957514846631629 -0.48311391022826639 0 -0.017950876149337221 -0.4893641285520216 0 -0.019957514846631629 -0.48311391022826639 0 -0.017950876149337221 -0.4893641285520216 0 -0.025597474744393309 -0.49118284869574791 0 -0.019957514846631629 -0.48311391022826639 0 -0.031224396082004221 -0.48569504683202769 0 -0.025597474744393309 -0.49118284869574791 0 -0.025597474744393309 -0.49118284869574791 0 -0.02815109917196898 -0.49861636840837392 0 -0.031360818006208928 -0.5 0 -0.031224396082004221 -0.48569504683202769 0 -0.025597474744393309 -0.49118284869574791 0 -0.031360818006208928 -0.5 0 -0.017950876149337221 -0.4893641285520216 0 -0.025597474744393309 -0.49118284869574791 0 -0.02815109917196898 -0.49861636840837392 0 -0.031360818006208928 -0.5 0 -0.048343055904351132 -0.4819359294639956 0 -0.060390603705783863 -0.5 0 -0.031224396082004221 -0.48569504683202769 0 -0.031360818006208928 -0.5 0 -0.048343055904351132 -0.4819359294639956 0 -0.031224396082004221 -0.48569504683202769 0 -0.040413005672661102 -0.46542425011239508 0 -0.031224396082004221 -0.48569504683202769 0 -0.048343055904351132 -0.4819359294639956 0 -0.040413005672661102 -0.46542425011239508 0 -0.023377266149459251 -0.47252824145371342 0 -0.031224396082004221 -0.48569504683202769 0 -0.040413005672661102 -0.46542425011239508 0 -0.048343055904351132 -0.4819359294639956 0 -0.040413005672661102 -0.46542425011239508 0 -0.061868527913120197 -0.46303160055449383 0 -0.048343055904351132 -0.4819359294639956 0 -0.061868527913120197 -0.46303160055449383 0 -0.067715258758524743 -0.48343239441089819 0 -0.048343055904351132 -0.4819359294639956 0 -0.060390603705783863 -0.5 0 -0.067715258758524743 -0.48343239441089819 0 -0.02439234541253921 -0.43490569650885758 0 -0.029356635895327849 -0.44930438287917762 0 -0.049601615263317987 -0.44515345339276252 0 -0.029356635895327849 -0.44930438287917762 0 -0.040413005672661102 -0.46542425011239508 0 -0.049601615263317987 -0.44515345339276252 0 -0.040413005672661102 -0.46542425011239508 0 -0.049601615263317987 -0.44515345339276252 0 -0.040413005672661102 -0.46542425011239508 0 -0.061868527913120197 -0.46303160055449383 0 -0.049601615263317987 -0.44515345339276252 0 -0.061868527913120197 -0.46303160055449383 0 -0.049601615263317987 -0.44515345339276252 0 -0.057674512383022389 -0.42734400629007657 0 -0.049601615263317987 -0.44515345339276252 0 -0.067687044322660692 -0.44438888407200389 0 -0.061868527913120197 -0.46303160055449383 0 -0.049601615263317987 -0.44515345339276252 0 -0.067687044322660692 -0.44438888407200389 0 -0.067687044322660692 -0.44438888407200389 0 -0.087522951364224152 -0.44416074083195012 0 -0.076635180433477057 -0.42684765000967062 0 -0.067687044322660692 -0.44438888407200389 0 -0.078553716864009776 -0.47219444203600192 0 -0.067687044322660692 -0.44438888407200389 0 -0.080483752515153384 -0.45444307226959779 0 -0.078553716864009776 -0.47219444203600192 0 -0.061868527913120197 -0.46303160055449383 0 -0.067687044322660692 -0.44438888407200389 0 -0.078553716864009776 -0.47219444203600192 0 -0.088171297509719124 -0.45702822213843508 0 -0.078553716864009776 -0.47219444203600192 0 -0.094850460920166413 -0.46755552228499719 0 -0.080483752515153384 -0.45444307226959779 0 -0.088171297509719124 -0.45702822213843508 0 -0.078553716864009776 -0.47219444203600192 0 -0.088171297509719124 -0.45702822213843508 0 -0.092026296169145899 -0.451321693988255 0 -0.09646742034415963 -0.45806785732742278 0 -0.088171297509719124 -0.45702822213843508 0 -0.09646742034415963 -0.45806785732742278 0 -0.094850460920166413 -0.46755552228499719 0 -0.067687044322660692 -0.44438888407200389 0 -0.080483752515153384 -0.45444307226959779 0 -0.087522951364224152 -0.44416074083195012 0 -0.088171297509719124 -0.45702822213843508 0 -0.087522951364224152 -0.44416074083195012 0 -0.088171297509719124 -0.45702822213843508 0 -0.092026296169145899 -0.451321693988255 0 -0.087522951364224152 -0.44416074083195012 0 -0.092026296169145899 -0.451321693988255 0 -0.087522951364224152 -0.44416074083195012 0 -0.080483752515153384 -0.45444307226959779 0 -0.088171297509719124 -0.45702822213843508 0 -0.087522951364224152 -0.44416074083195012 0 -0.060390603705783863 -0.5 0 -0.067715258758524743 -0.48343239441089819 0 -0.089420389405358791 -0.49999999999999978 0 -0.061868527913120197 -0.46303160055449383 0 -0.067715258758524743 -0.48343239441089819 0 -0.078553716864009776 -0.47219444203600192 0 -0.078553716864009776 -0.47219444203600192 0 -0.098208235557426499 -0.48290520710575457 0 -0.094850460920166413 -0.46755552228499719 0 -0.067715258758524743 -0.48343239441089819 0 -0.078553716864009776 -0.47219444203600192 0 -0.089420389405358791 -0.49999999999999978 0 -0.078553716864009776 -0.47219444203600192 0 -0.089420389405358791 -0.49999999999999978 0 -0.078553716864009776 -0.47219444203600192 0 -0.089420389405358791 -0.49999999999999978 0 -0.098208235557426499 -0.48290520710575457 0 -0.098208235557426499 -0.48290520710575457 0 -0.1125398430852395 -0.48112820013538338 0 -0.1148616459058424 -0.5 0 -0.089420389405358791 -0.49999999999999978 0 -0.098208235557426499 -0.48290520710575457 0 -0.1148616459058424 -0.5 0 -0.098208235557426499 -0.48290520710575457 0 -0.1051850434628086 -0.47275710198064308 0 -0.1125398430852395 -0.48112820013538338 0 -0.098208235557426499 -0.48290520710575457 0 -0.1051850434628086 -0.47275710198064308 0 -0.094850460920166413 -0.46755552228499719 0 -0.12704973474613379 -0.46277216333596533 0 -0.13010403334985379 -0.48000251283874379 0 -0.1157083509407465 -0.46985326695645979 0 -0.13010403334985379 -0.48000251283874379 0 -0.1157083509407465 -0.46985326695645979 0 -0.1125398430852395 -0.48112820013538338 0 -0.1051850434628086 -0.47275710198064308 0 -0.1157083509407465 -0.46985326695645979 0 -0.1125398430852395 -0.48112820013538338 0 -0.13010403334985379 -0.48000251283874379 0 -0.1125398430852395 -0.48112820013538338 0 -0.1148616459058424 -0.5 0 -0.10267072031130239 -0.4520905348048061 0 -0.102335674083258 -0.43919792399196639 0 -0.11570487117906469 -0.45324354028800051 0 -0.092026296169145899 -0.451321693988255 0 -0.087522951364224152 -0.44416074083195012 0 -0.102335674083258 -0.43919792399196639 0 -0.092026296169145899 -0.451321693988255 0 -0.10267072031130239 -0.4520905348048061 0 -0.102335674083258 -0.43919792399196639 0 -0.10267072031130239 -0.4520905348048061 0 -0.09646742034415963 -0.45806785732742278 0 -0.1046183268104643 -0.46234331342062063 0 -0.092026296169145899 -0.451321693988255 0 -0.10267072031130239 -0.4520905348048061 0 -0.09646742034415963 -0.45806785732742278 0 -0.1051850434628086 -0.47275710198064308 0 -0.094850460920166413 -0.46755552228499719 0 -0.1046183268104643 -0.46234331342062063 0 -0.09646742034415963 -0.45806785732742278 0 -0.094850460920166413 -0.46755552228499719 0 -0.1046183268104643 -0.46234331342062063 0 -0.1051850434628086 -0.47275710198064308 0 -0.1157083509407465 -0.46985326695645979 0 -0.1046183268104643 -0.46234331342062063 0 -0.10267072031130239 -0.4520905348048061 0 -0.1046183268104643 -0.46234331342062063 0 -0.11570487117906469 -0.45324354028800051 0 -0.12704973474613379 -0.46277216333596533 0 -0.1157083509407465 -0.46985326695645979 0 -0.11570487117906469 -0.45324354028800051 0 -0.1157083509407465 -0.46985326695645979 0 -0.1046183268104643 -0.46234331342062063 0 -0.11570487117906469 -0.45324354028800051 0 -0.13093011984253891 -0.44972195681556543 0 -0.12704973474613379 -0.46277216333596533 0 -0.11570487117906469 -0.45324354028800051 0 -0.13093011984253891 -0.44972195681556543 0 -0.11570487117906469 -0.45324354028800051 0 -0.123519809913229 -0.43733662075251151 0 -0.102335674083258 -0.43919792399196639 0 -0.11570487117906469 -0.45324354028800051 0 -0.123519809913229 -0.43733662075251151 0 -0.102335674083258 -0.43919792399196639 0 -0.123519809913229 -0.43733662075251151 0 -0.1073839645685936 -0.41867419567875119 0 -0.12597911368703019 -0.41952469120143437 0 -0.123519809913229 -0.43733662075251151 0 -0.1073839645685936 -0.41867419567875119 0 -0.102335674083258 -0.43919792399196639 0 -0.1073839645685936 -0.41867419567875119 0 -0.086273448473222103 -0.4193623284343494 0 -0.1073839645685936 -0.41867419567875119 0 -0.1004955064841186 -0.39983262220326049 0 -0.086273448473222103 -0.4193623284343494 0 -0.1073839645685936 -0.41867419567875119 0 -0.11827115974421661 -0.40327967795429231 0 -0.1004955064841186 -0.39983262220326049 0 -0.12597911368703019 -0.41952469120143437 0 -0.1073839645685936 -0.41867419567875119 0 -0.11827115974421661 -0.40327967795429231 0 -0.11827115974421661 -0.40327967795429231 0 -0.11220573075163159 -0.38220411347121069 0 -0.1004955064841186 -0.39983262220326049 0 -0.13724659116883831 -0.38156720383825199 0 -0.1192781490478088 -0.36668410834504778 0 -0.11220573075163159 -0.38220411347121069 0 -0.13724659116883831 -0.38156720383825199 0 -0.11827115974421661 -0.40327967795429231 0 -0.11220573075163159 -0.38220411347121069 0 -0.11220573075163159 -0.38220411347121069 0 -0.093814789784828018 -0.38091150164421111 0 -0.1004955064841186 -0.39983262220326049 0 -0.1016352808315869 -0.36700177770792092 0 -0.11220573075163159 -0.38220411347121069 0 -0.093814789784828018 -0.38091150164421111 0 -0.093814789784828018 -0.38091150164421111 0 -0.1004955064841186 -0.39983262220326049 0 -0.085023945582219762 -0.39456391603674879 0 -0.085023945582219762 -0.39456391603674879 0 -0.074760926096971728 -0.38965003141326948 0 -0.077688182017724178 -0.40799169701628579 0 -0.1004955064841186 -0.39983262220326049 0 -0.085023945582219762 -0.39456391603674879 0 -0.086273448473222103 -0.4193623284343494 0 -0.083774442691217046 -0.36976550363914829 0 -0.093814789784828018 -0.38091150164421111 0 -0.085023945582219762 -0.39456391603674879 0 -0.083774442691217046 -0.36976550363914829 0 -0.085023945582219762 -0.39456391603674879 0 -0.074760926096971728 -0.38965003141326948 0 -0.083774442691217046 -0.36976550363914829 0 -0.085023945582219762 -0.39456391603674879 0 -0.083774442691217046 -0.36976550363914829 0 -0.074760926096971728 -0.38965003141326948 0 -0.066117606829746781 -0.37437488941039382 0 -0.083774442691217046 -0.36976550363914829 0 -0.074760926096971728 -0.38965003141326948 0 -0.066117606829746781 -0.37437488941039382 0 -0.056230819367541693 -0.39440183914975269 0 -0.074760926096971728 -0.38965003141326948 0 -0.074760926096971728 -0.38965003141326948 0 -0.065747409502729032 -0.40953455918739179 0 -0.056230819367541693 -0.39440183914975269 0 -0.074760926096971728 -0.38965003141326948 0 -0.065747409502729032 -0.40953455918739179 0 -0.074760926096971728 -0.38965003141326948 0 -0.077688182017724178 -0.40799169701628579 0 -0.065747409502729032 -0.40953455918739179 0 -0.057674512383022389 -0.42734400629007657 0 -0.065747409502729032 -0.40953455918739179 0 -0.076635180433477057 -0.42684765000967062 0 -0.065747409502729032 -0.40953455918739179 0 -0.076635180433477057 -0.42684765000967062 0 -0.077688182017724178 -0.40799169701628579 0 -0.065747409502729032 -0.40953455918739179 0 -0.076635180433477057 -0.42684765000967062 0 -0.057674512383022389 -0.42734400629007657 0 -0.067687044322660692 -0.44438888407200389 0 -0.076635180433477057 -0.42684765000967062 0 -0.087522951364224152 -0.44416074083195012 0 -0.102335674083258 -0.43919792399196639 0 -0.086273448473222103 -0.4193623284343494 0 -0.087522951364224152 -0.44416074083195012 0 -0.076635180433477057 -0.42684765000967062 0 -0.087522951364224152 -0.44416074083195012 0 -0.086273448473222103 -0.4193623284343494 0 -0.087522951364224152 -0.44416074083195012 0 -0.076635180433477057 -0.42684765000967062 0 -0.086273448473222103 -0.4193623284343494 0 -0.077688182017724178 -0.40799169701628579 0 -0.076635180433477057 -0.42684765000967062 0 -0.086273448473222103 -0.4193623284343494 0 -0.085023945582219762 -0.39456391603674879 0 -0.086273448473222103 -0.4193623284343494 0 -0.085023945582219762 -0.39456391603674879 0 -0.077688182017724178 -0.40799169701628579 0 -0.086273448473222103 -0.4193623284343494 0 -0.088492877882569029 -0.082108210476901852 0 -0.076927128592812144 -0.088910799915979499 0 -0.09750588448509391 -0.094492999713411269 0 -0.088492877882569029 -0.082108210476901852 0 -0.079577064860946206 -0.073577453582062496 0 -0.076927128592812144 -0.088910799915979499 0 -0.079577064860946206 -0.073577453582062496 0 -0.0985919344824224 -0.072778756797164931 0 -0.087769009107716192 -0.046193724725750278 0 -0.088492877882569029 -0.082108210476901852 0 -0.079577064860946206 -0.073577453582062496 0 -0.0985919344824224 -0.072778756797164931 0 -0.079577064860946206 -0.073577453582062496 0 -0.068797467898171552 -0.064113028811232264 0 -0.064240921843242857 -0.078969573753286809 0 -0.068797467898171552 -0.064113028811232264 0 -0.064240921843242857 -0.078969573753286809 0 -0.05461803829180413 -0.069755112608578862 0 -0.064240921843242857 -0.078969573753286809 0 -0.065719917437320752 -0.085301382988547655 0 -0.071622236241637716 -0.082994103557465768 0 -0.079577064860946206 -0.073577453582062496 0 -0.064240921843242857 -0.078969573753286809 0 -0.071622236241637716 -0.082994103557465768 0 -0.079577064860946206 -0.073577453582062496 0 -0.071622236241637716 -0.082994103557465768 0 -0.076927128592812144 -0.088910799915979499 0 -0.076927128592812144 -0.088910799915979499 0 -0.070013937980536456 -0.090181036700446429 0 -0.073360588416105155 -0.101926594449817 0 -0.071622236241637716 -0.082994103557465768 0 -0.076927128592812144 -0.088910799915979499 0 -0.070013937980536456 -0.090181036700446429 0 -0.065719917437320752 -0.085301382988547655 0 -0.070013937980536456 -0.090181036700446429 0 -0.057002573683865979 -0.089060817942991616 0 -0.065719917437320752 -0.085301382988547655 0 -0.071622236241637716 -0.082994103557465768 0 -0.070013937980536456 -0.090181036700446429 0 -0.073360588416105155 -0.101926594449817 0 -0.064648045787775776 -0.1114736180136202 0 -0.083029262804162729 -0.11173362360677321 0 -0.076927128592812144 -0.088910799915979499 0 -0.073360588416105155 -0.101926594449817 0 -0.083029262804162729 -0.11173362360677321 0 -0.070013937980536456 -0.090181036700446429 0 -0.064167586873575405 -0.098824988458513688 0 -0.073360588416105155 -0.101926594449817 0 -0.064167586873575405 -0.098824988458513688 0 -0.073360588416105155 -0.101926594449817 0 -0.064648045787775776 -0.1114736180136202 0 -0.064648045787775776 -0.1114736180136202 0 -0.083029262804162729 -0.11173362360677321 0 -0.072915517223638954 -0.12670463451369329 0 -0.064648045787775776 -0.1114736180136202 0 -0.060928146748241367 -0.123537549367131 0 -0.072915517223638954 -0.12670463451369329 0 -0.083029262804162729 -0.11173362360677321 0 -0.089131397015513494 -0.13455644729756691 0 -0.072915517223638954 -0.12670463451369329 0 -0.083029262804162729 -0.11173362360677321 0 -0.089131397015513494 -0.13455644729756691 0 -0.083029262804162729 -0.11173362360677321 0 -0.099989791654964619 -0.11261170107408 0 -0.089131397015513494 -0.13455644729756691 0 -0.076927128592812144 -0.088910799915979499 0 -0.083029262804162729 -0.11173362360677321 0 -0.076927128592812144 -0.088910799915979499 0 -0.083029262804162729 -0.11173362360677321 0 -0.09750588448509391 -0.094492999713411269 0 -0.083029262804162729 -0.11173362360677321 0 -0.09750588448509391 -0.094492999713411269 0 -0.099989791654964619 -0.11261170107408 0 -0.09750588448509391 -0.094492999713411269 0 -0.099989791654964619 -0.11261170107408 0 -0.11605893441195141 -0.10185107539240761 0 -0.099989791654964619 -0.11261170107408 0 -0.11422347955810171 -0.1204243593602408 0 -0.089131397015513494 -0.13455644729756691 0 -0.11422347955810171 -0.1204243593602408 0 -0.11605893441195141 -0.10185107539240761 0 -0.13931556210068971 -0.10629227142291391 0 -0.099989791654964619 -0.11261170107408 0 -0.11422347955810171 -0.1204243593602408 0 -0.11605893441195141 -0.10185107539240761 0 -0.09750588448509391 -0.094492999713411269 0 -0.11605893441195141 -0.10185107539240761 0 -0.121811479392537 -0.084095963505499416 0 -0.09750588448509391 -0.094492999713411269 0 -0.121811479392537 -0.084095963505499416 0 -0.0985919344824224 -0.072778756797164931 0 -0.088492877882569029 -0.082108210476901852 0 -0.09750588448509391 -0.094492999713411269 0 -0.0985919344824224 -0.072778756797164931 0 -0.121811479392537 -0.084095963505499416 0 -0.0985919344824224 -0.072778756797164931 0 -0.12197003300458489 -0.067133964797042034 0 -0.0985919344824224 -0.072778756797164931 0 -0.12197003300458489 -0.067133964797042034 0 -0.11173313641422659 -0.051099137712197359 0 -0.12197003300458489 -0.067133964797042034 0 -0.11173313641422659 -0.051099137712197359 0 -0.13241258759658719 -0.044529255409706578 0 -0.11719553878173181 -0.037741673539740471 0 -0.12411398995058071 -0.026208981462584841 0 -0.13241258759658719 -0.044529255409706578 0 -0.11173313641422659 -0.051099137712197359 0 -0.11719553878173181 -0.037741673539740471 0 -0.13241258759658719 -0.044529255409706578 0 -0.11719553878173181 -0.037741673539740471 0 -0.1033935341420949 -0.036608907929656417 0 -0.1118019010511415 -0.027957019938586129 0 -0.11173313641422659 -0.051099137712197359 0 -0.11719553878173181 -0.037741673539740471 0 -0.1033935341420949 -0.036608907929656417 0 -0.11173313641422659 -0.051099137712197359 0 -0.1033935341420949 -0.036608907929656417 0 -0.087769009107716192 -0.046193724725750278 0 -0.1033935341420949 -0.036608907929656417 0 -0.091700817231413184 -0.028161456197506499 0 -0.087769009107716192 -0.046193724725750278 0 -0.0985919344824224 -0.072778756797164931 0 -0.11173313641422659 -0.051099137712197359 0 -0.087769009107716192 -0.046193724725750278 0 -0.1152652699767374 -0.0044733142422073097 0 -0.1278640484455188 -0.012334690821253821 0 -0.1273771369441013 0.0023450629401116992 0 -0.1152652699767374 -0.0044733142422073097 0 -0.11303603589243651 -0.016818202060669259 0 -0.1278640484455188 -0.012334690821253821 0 -0.1152652699767374 -0.0044733142422073097 0 -0.11303603589243651 -0.016818202060669259 0 -0.1012139958851531 -0.0082010901258140791 0 -0.11303603589243651 -0.016818202060669259 0 -0.12411398995058071 -0.026208981462584841 0 -0.1278640484455188 -0.012334690821253821 0 -0.11719553878173181 -0.037741673539740471 0 -0.12411398995058071 -0.026208981462584841 0 -0.1118019010511415 -0.027957019938586129 0 -0.11303603589243651 -0.016818202060669259 0 -0.12411398995058071 -0.026208981462584841 0 -0.1118019010511415 -0.027957019938586129 0 -0.1033935341420949 -0.036608907929656417 0 -0.1118019010511415 -0.027957019938586129 0 -0.10074487633177411 -0.021927112774035699 0 -0.1033935341420949 -0.036608907929656417 0 -0.10074487633177411 -0.021927112774035699 0 -0.091700817231413184 -0.028161456197506499 0 -0.10074487633177411 -0.021927112774035699 0 -0.089359217900845153 -0.01537750648633354 0 -0.091700817231413184 -0.028161456197506499 0 -0.11303603589243651 -0.016818202060669259 0 -0.10074487633177411 -0.021927112774035699 0 -0.1012139958851531 -0.0082010901258140791 0 -0.11303603589243651 -0.016818202060669259 0 -0.1118019010511415 -0.027957019938586129 0 -0.10074487633177411 -0.021927112774035699 0 -0.10074487633177411 -0.021927112774035699 0 -0.1012139958851531 -0.0082010901258140791 0 -0.089359217900845153 -0.01537750648633354 0 -0.1012139958851531 -0.0082010901258140791 0 -0.089124004628701792 -0.0040277377021705899 0 -0.097507665945787692 0.0040820149966005574 0 -0.1012139958851531 -0.0082010901258140791 0 -0.097507665945787692 0.0040820149966005574 0 -0.1058521268010089 0.00073384547527136773 0 -0.1152652699767374 -0.0044733142422073097 0 -0.1012139958851531 -0.0082010901258140791 0 -0.1058521268010089 0.00073384547527136773 0 -0.079764572027605563 -0.001208843295517239 0 -0.089124004628701792 -0.0040277377021705899 0 -0.080379206648835008 -0.009775819102595687 0 -0.089124004628701792 -0.0040277377021705899 0 -0.089359217900845153 -0.01537750648633354 0 -0.080379206648835008 -0.009775819102595687 0 -0.1012139958851531 -0.0082010901258140791 0 -0.089124004628701792 -0.0040277377021705899 0 -0.089359217900845153 -0.01537750648633354 0 -0.089359217900845153 -0.01537750648633354 0 -0.080379206648835008 -0.009775819102595687 0 -0.076946083733010012 -0.019608692654335649 0 -0.089359217900845153 -0.01537750648633354 0 -0.091700817231413184 -0.028161456197506499 0 -0.076946083733010012 -0.019608692654335649 0 -0.066439508831189667 -0.02875513821822643 0 -0.076946083733010012 -0.019608692654335649 0 -0.073396792324475907 -0.036549185213838799 0 -0.066439508831189667 -0.02875513821822643 0 -0.068530762808199294 -0.019938962024248611 0 -0.056338296441182101 -0.027044179732367449 0 -0.066439508831189667 -0.02875513821822643 0 -0.068530762808199294 -0.019938962024248611 0 -0.076946083733010012 -0.019608692654335649 0 -0.080379206648835008 -0.009775819102595687 0 -0.076946083733010012 -0.019608692654335649 0 -0.066123158358303874 0.0069763394170788487 0 -0.079764572027605563 -0.001208843295517239 0 -0.080379206648835008 -0.009775819102595687 0 -0.066123158358303874 0.0069763394170788487 0 -0.076946083733010012 -0.019608692654335649 0 -0.059664616745900671 -0.0040500510012267867 0 -0.066123158358303874 0.0069763394170788487 0 -0.068530762808199294 -0.019938962024248611 0 -0.059664616745900671 -0.0040500510012267867 0 -0.068530762808199294 -0.019938962024248611 0 -0.076946083733010012 -0.019608692654335649 0 -0.059664616745900671 -0.0040500510012267867 0 -0.076946083733010012 -0.019608692654335649 0 -0.066123158358303874 0.0069763394170788487 0 -0.079577064860946206 -0.073577453582062496 0 -0.068797467898171552 -0.064113028811232264 0 -0.087769009107716192 -0.046193724725750278 0 -0.0985919344824224 -0.072778756797164931 0 -0.087769009107716192 -0.046193724725750278 0 -0.076946083733010012 -0.019608692654335649 0 -0.087769009107716192 -0.046193724725750278 0 -0.073396792324475907 -0.036549185213838799 0 -0.091700817231413184 -0.028161456197506499 0 -0.076946083733010012 -0.019608692654335649 0 -0.087769009107716192 -0.046193724725750278 0 -0.076946083733010012 -0.019608692654335649 0 -0.087769009107716192 -0.046193724725750278 0 -0.073396792324475907 -0.036549185213838799 0 -0.062271996897588083 -0.052791321925605532 0 -0.056985608849081007 -0.04063467146634165 0 -0.087769009107716192 -0.046193724725750278 0 -0.073396792324475907 -0.036549185213838799 0 -0.062271996897588083 -0.052791321925605532 0 -0.066439508831189667 -0.02875513821822643 0 -0.073396792324475907 -0.036549185213838799 0 -0.056985608849081007 -0.04063467146634165 0 -0.068797467898171552 -0.064113028811232264 0 -0.087769009107716192 -0.046193724725750278 0 -0.062271996897588083 -0.052791321925605532 0 -0.050876123791686781 -0.0557005837010279 0 -0.062271996897588083 -0.052791321925605532 0 -0.05461803829180413 -0.069755112608578862 0 -0.068797467898171552 -0.064113028811232264 0 -0.062271996897588083 -0.052791321925605532 0 -0.05461803829180413 -0.069755112608578862 0 -0.050876123791686781 -0.0557005837010279 0 -0.04125611079489349 -0.061033813963863537 0 -0.05461803829180413 -0.069755112608578862 0 -0.050876123791686781 -0.0557005837010279 0 -0.056985608849081007 -0.04063467146634165 0 -0.043217803893324663 -0.046983348469378128 0 -0.050876123791686781 -0.0557005837010279 0 -0.062271996897588083 -0.052791321925605532 0 -0.056985608849081007 -0.04063467146634165 0 -0.066439508831189667 -0.02875513821822643 0 -0.056985608849081007 -0.04063467146634165 0 -0.056338296441182101 -0.027044179732367449 0 -0.056985608849081007 -0.04063467146634165 0 -0.048013312662868769 -0.034084565957593307 0 -0.056338296441182101 -0.027044179732367449 0 -0.056985608849081007 -0.04063467146634165 0 -0.048013312662868769 -0.034084565957593307 0 -0.043217803893324663 -0.046983348469378128 0 -0.034747022969916552 -0.036023397885302497 0 -0.03178279228815796 -0.053256275703554248 0 -0.043217803893324663 -0.046983348469378128 0 -0.048013312662868769 -0.034084565957593307 0 -0.034747022969916552 -0.036023397885302497 0 -0.043217803893324663 -0.046983348469378128 0 -0.03178279228815796 -0.053256275703554248 0 -0.04125611079489349 -0.061033813963863537 0 -0.027189616291661511 -0.068956488044421491 0 -0.03178279228815796 -0.053256275703554248 0 -0.04125611079489349 -0.061033813963863537 0 -0.043217803893324663 -0.046983348469378128 0 -0.050876123791686781 -0.0557005837010279 0 -0.04125611079489349 -0.061033813963863537 0 -0.043217803893324663 -0.046983348469378128 0 -0.068530762808199294 -0.019938962024248611 0 -0.059664616745900671 -0.0040500510012267867 0 -0.057625718948113309 -0.01560592069947127 0 -0.047617207273071643 -0.0035118018543059538 0 -0.059664616745900671 -0.0040500510012267867 0 -0.057625718948113309 -0.01560592069947127 0 -0.047617207273071643 -0.0035118018543059538 0 -0.057625718948113309 -0.01560592069947127 0 -0.044435943862541481 -0.018862463730406901 0 -0.057625718948113309 -0.01560592069947127 0 -0.056338296441182101 -0.027044179732367449 0 -0.044435943862541481 -0.018862463730406901 0 -0.068530762808199294 -0.019938962024248611 0 -0.057625718948113309 -0.01560592069947127 0 -0.056338296441182101 -0.027044179732367449 0 -0.048013312662868769 -0.034084565957593307 0 -0.056338296441182101 -0.027044179732367449 0 -0.044435943862541481 -0.018862463730406901 0 -0.048013312662868769 -0.034084565957593307 0 -0.034747022969916552 -0.036023397885302497 0 -0.044435943862541481 -0.018862463730406901 0 -0.034747022969916552 -0.036023397885302497 0 -0.044435943862541481 -0.018862463730406901 0 -0.029096019340949839 -0.020089153358083849 0 -0.044435943862541481 -0.018862463730406901 0 -0.037331614038931003 -0.0090830911405071785 0 -0.029096019340949839 -0.020089153358083849 0 -0.047617207273071643 -0.0035118018543059538 0 -0.044435943862541481 -0.018862463730406901 0 -0.037331614038931003 -0.0090830911405071785 0 -0.047617207273071643 -0.0035118018543059538 0 -0.044435943862541481 -0.018862463730406901 0 -0.037331614038931003 -0.0090830911405071785 0 -0.025670282478897081 -0.0054027298625421993 0 -0.03671052455766443 0.0037031618858211421 0 -0.047617207273071643 -0.0035118018543059538 0 -0.037331614038931003 -0.0090830911405071785 0 -0.03671052455766443 0.0037031618858211421 0 -0.025670282478897081 -0.0054027298625421993 0 -0.029096019340949839 -0.020089153358083849 0 -0.01201491237982177 -0.012697106039732861 0 -0.025670282478897081 -0.0054027298625421993 0 -0.01201491237982177 -0.012697106039732861 0 -0.010105069976996849 0.0023765649732562961 0 -0.037331614038931003 -0.0090830911405071785 0 -0.025670282478897081 -0.0054027298625421993 0 -0.029096019340949839 -0.020089153358083849 0 -0.034747022969916552 -0.036023397885302497 0 -0.029096019340949839 -0.020089153358083849 0 -0.01621539074153976 -0.030149579770640821 0 -0.029096019340949839 -0.020089153358083849 0 -0.01621539074153976 -0.030149579770640821 0 -0.01201491237982177 -0.012697106039732861 0 -0.01621539074153976 -0.030149579770640821 0 0.0026421611525163911 -0.019923693291100199 0 0.001114662024295677 -0.034644724797188199 0 -0.01621539074153976 -0.030149579770640821 0 -0.01201491237982177 -0.012697106039732861 0 0.0026421611525163911 -0.019923693291100199 0 -0.01201491237982177 -0.012697106039732861 0 0.0047038114401232534 -0.001040937293712483 0 0.0026421611525163911 -0.019923693291100199 0 -0.01201491237982177 -0.012697106039732861 0 -0.010105069976996849 0.0023765649732562961 0 0.0047038114401232534 -0.001040937293712483 0 -0.03178279228815796 -0.053256275703554248 0 -0.015718878272565229 -0.058792224196781109 0 -0.02130541942185268 -0.044498810144407437 0 -0.03178279228815796 -0.053256275703554248 0 -0.015718878272565229 -0.058792224196781109 0 -0.027189616291661511 -0.068956488044421491 0 -0.034747022969916552 -0.036023397885302497 0 -0.01621539074153976 -0.030149579770640821 0 -0.02130541942185268 -0.044498810144407437 0 -0.034747022969916552 -0.036023397885302497 0 -0.03178279228815796 -0.053256275703554248 0 -0.02130541942185268 -0.044498810144407437 0 -0.01621539074153976 -0.030149579770640821 0 -0.0092606153764647689 -0.044492254616565037 0 0.001114662024295677 -0.034644724797188199 0 -0.0092606153764647689 -0.044492254616565037 0 0.001114662024295677 -0.034644724797188199 0 0.003426744450576454 -0.054815297075420773 0 -0.01621539074153976 -0.030149579770640821 0 -0.02130541942185268 -0.044498810144407437 0 -0.0092606153764647689 -0.044492254616565037 0 -0.015718878272565229 -0.058792224196781109 0 -0.0092606153764647689 -0.044492254616565037 0 0.003426744450576454 -0.054815297075420773 0 -0.015718878272565229 -0.058792224196781109 0 -0.0072319765520409062 -0.068818796064575097 0 0.003426744450576454 -0.054815297075420773 0 -0.015718878272565229 -0.058792224196781109 0 -0.02130541942185268 -0.044498810144407437 0 -0.0092606153764647689 -0.044492254616565037 0 -0.0072319765520409062 -0.068818796064575097 0 -0.0056293594721457006 -0.082036805430144924 0 0.0054575408194632406 -0.073720759659108445 0 -0.0072319765520409062 -0.068818796064575097 0 -0.016531268938654212 -0.068489504758274394 0 -0.015984604638349179 -0.077390510727319894 0 -0.0072319765520409062 -0.068818796064575097 0 -0.0056293594721457006 -0.082036805430144924 0 -0.015984604638349179 -0.077390510727319894 0 -0.015718878272565229 -0.058792224196781109 0 -0.0072319765520409062 -0.068818796064575097 0 -0.016531268938654212 -0.068489504758274394 0 -0.0075898384642912086 -0.092772169897659226 0 -0.0056293594721457006 -0.082036805430144924 0 0.0072012692200917657 -0.09144049599341271 0 -0.0056293594721457006 -0.082036805430144924 0 -0.01562854721774792 -0.088078100238794171 0 -0.015984604638349179 -0.077390510727319894 0 -0.0075898384642912086 -0.092772169897659226 0 -0.0056293594721457006 -0.082036805430144924 0 -0.01562854721774792 -0.088078100238794171 0 -0.0075898384642912086 -0.092772169897659226 0 -0.01562854721774792 -0.088078100238794171 0 -0.015839401072447711 -0.097831294581907868 0 -0.01562854721774792 -0.088078100238794171 0 -0.02305577581672685 -0.083163458542690943 0 -0.024670005891415589 -0.092262667611894875 0 -0.01562854721774792 -0.088078100238794171 0 -0.024670005891415589 -0.092262667611894875 0 -0.015839401072447711 -0.097831294581907868 0 -0.01562854721774792 -0.088078100238794171 0 -0.02305577581672685 -0.083163458542690943 0 -0.015984604638349179 -0.077390510727319894 0 -0.02305577581672685 -0.083163458542690943 0 -0.024670005891415589 -0.092262667611894875 0 -0.031754510724464793 -0.081253108138323094 0 -0.024670005891415589 -0.092262667611894875 0 -0.031754510724464793 -0.081253108138323094 0 -0.03344051123233422 -0.092098432850847969 0 -0.015718878272565229 -0.058792224196781109 0 -0.016531268938654212 -0.068489504758274394 0 -0.027189616291661511 -0.068956488044421491 0 -0.016531268938654212 -0.068489504758274394 0 -0.015984604638349179 -0.077390510727319894 0 -0.027189616291661511 -0.068956488044421491 0 -0.02305577581672685 -0.083163458542690943 0 -0.015984604638349179 -0.077390510727319894 0 -0.027189616291661511 -0.068956488044421491 0 -0.02305577581672685 -0.083163458542690943 0 -0.027189616291661511 -0.068956488044421491 0 -0.031754510724464793 -0.081253108138323094 0 -0.04125611079489349 -0.061033813963863537 0 -0.027189616291661511 -0.068956488044421491 0 -0.04053175759116228 -0.071452392996033218 0 -0.04125611079489349 -0.061033813963863537 0 -0.04053175759116228 -0.071452392996033218 0 -0.05461803829180413 -0.069755112608578862 0 -0.04053175759116228 -0.071452392996033218 0 -0.04331800788480706 -0.080321541169751709 0 -0.05461803829180413 -0.069755112608578862 0 -0.027189616291661511 -0.068956488044421491 0 -0.04053175759116228 -0.071452392996033218 0 -0.031754510724464793 -0.081253108138323094 0 -0.04053175759116228 -0.071452392996033218 0 -0.031754510724464793 -0.081253108138323094 0 -0.04331800788480706 -0.080321541169751709 0 -0.031754510724464793 -0.081253108138323094 0 -0.037920360895102763 -0.086728863392239786 0 -0.04331800788480706 -0.080321541169751709 0 -0.031754510724464793 -0.081253108138323094 0 -0.03344051123233422 -0.092098432850847969 0 -0.037920360895102763 -0.086728863392239786 0 -0.03344051123233422 -0.092098432850847969 0 -0.037920360895102763 -0.086728863392239786 0 -0.039477100495342581 -0.093081883261144749 0 -0.043535591074226332 -0.088659540190963698 0 -0.052607434978589038 -0.084605160310905272 0 -0.044151246104392423 -0.095288874830203096 0 -0.039477100495342581 -0.093081883261144749 0 -0.043535591074226332 -0.088659540190963698 0 -0.044151246104392423 -0.095288874830203096 0 -0.037920360895102763 -0.086728863392239786 0 -0.039477100495342581 -0.093081883261144749 0 -0.043535591074226332 -0.088659540190963698 0 -0.043535591074226332 -0.088659540190963698 0 -0.044151246104392423 -0.095288874830203096 0 -0.037920360895102763 -0.086728863392239786 0 -0.043535591074226332 -0.088659540190963698 0 -0.04331800788480706 -0.080321541169751709 0 -0.043535591074226332 -0.088659540190963698 0 -0.04331800788480706 -0.080321541169751709 0 -0.052607434978589038 -0.084605160310905272 0 -0.04331800788480706 -0.080321541169751709 0 -0.052607434978589038 -0.084605160310905272 0 -0.05461803829180413 -0.069755112608578862 0 -0.070013937980536456 -0.090181036700446429 0 -0.057002573683865979 -0.089060817942991616 0 -0.04460455598339258 -0.10017008709341529 0 -0.052607434978589038 -0.084605160310905272 0 -0.044151246104392423 -0.095288874830203096 0 -0.052607434978589038 -0.084605160310905272 0 -0.057002573683865979 -0.089060817942991616 0 -0.044151246104392423 -0.095288874830203096 0 -0.064240921843242857 -0.078969573753286809 0 -0.065719917437320752 -0.085301382988547655 0 -0.057002573683865979 -0.089060817942991616 0 -0.064240921843242857 -0.078969573753286809 0 -0.052607434978589038 -0.084605160310905272 0 -0.057002573683865979 -0.089060817942991616 0 -0.064240921843242857 -0.078969573753286809 0 -0.052607434978589038 -0.084605160310905272 0 -0.05461803829180413 -0.069755112608578862 0 -0.064648045787775776 -0.1114736180136202 0 -0.054889055151619223 -0.1064960745062641 0 -0.046573596299020338 -0.1213725893565638 0 -0.064648045787775776 -0.1114736180136202 0 -0.060928146748241367 -0.123537549367131 0 -0.046573596299020338 -0.1213725893565638 0 -0.064167586873575405 -0.098824988458513688 0 -0.054889055151619223 -0.1064960745062641 0 -0.04460455598339258 -0.10017008709341529 0 -0.054889055151619223 -0.1064960745062641 0 -0.04460455598339258 -0.10017008709341529 0 -0.046573596299020338 -0.1213725893565638 0 -0.070013937980536456 -0.090181036700446429 0 -0.04460455598339258 -0.10017008709341529 0 -0.070013937980536456 -0.090181036700446429 0 -0.064167586873575405 -0.098824988458513688 0 -0.04460455598339258 -0.10017008709341529 0 -0.064167586873575405 -0.098824988458513688 0 -0.064648045787775776 -0.1114736180136202 0 -0.054889055151619223 -0.1064960745062641 0 -0.057002573683865979 -0.089060817942991616 0 -0.044151246104392423 -0.095288874830203096 0 -0.04460455598339258 -0.10017008709341529 0 -0.04460455598339258 -0.10017008709341529 0 -0.038337793170655582 -0.1026337050414691 0 -0.046573596299020338 -0.1213725893565638 0 -0.039477100495342581 -0.093081883261144749 0 -0.044151246104392423 -0.095288874830203096 0 -0.038337793170655582 -0.1026337050414691 0 -0.044151246104392423 -0.095288874830203096 0 -0.04460455598339258 -0.10017008709341529 0 -0.044151246104392423 -0.095288874830203096 0 -0.038337793170655582 -0.1026337050414691 0 -0.04460455598339258 -0.10017008709341529 0 -0.038337793170655582 -0.1026337050414691 0 -0.044151246104392423 -0.095288874830203096 0 -0.04460455598339258 -0.10017008709341529 0 -0.038337793170655582 -0.1026337050414691 0 -0.03344051123233422 -0.092098432850847969 0 -0.039477100495342581 -0.093081883261144749 0 -0.038337793170655582 -0.1026337050414691 0 -0.03344051123233422 -0.092098432850847969 0 -0.038337793170655582 -0.1026337050414691 0 -0.030143021990877521 -0.097413384547063803 0 -0.038337793170655582 -0.1026337050414691 0 -0.046573596299020338 -0.1213725893565638 0 -0.032898799107638058 -0.1301455039054305 0 -0.04460455598339258 -0.10017008709341529 0 -0.046573596299020338 -0.1213725893565638 0 -0.038337793170655582 -0.1026337050414691 0 -0.02075820173733281 -0.1248441049076035 0 -0.038337793170655582 -0.1026337050414691 0 -0.02075820173733281 -0.1248441049076035 0 -0.032898799107638058 -0.1301455039054305 0 -0.038337793170655582 -0.1026337050414691 0 -0.02075820173733281 -0.1248441049076035 0 -0.013304609286582791 -0.1124748627422944 0 -0.038337793170655582 -0.1026337050414691 0 -0.013304609286582791 -0.1124748627422944 0 -0.038337793170655582 -0.1026337050414691 0 -0.024123777669104458 -0.10265873268404301 0 -0.013304609286582791 -0.1124748627422944 0 -0.038337793170655582 -0.1026337050414691 0 -0.030143021990877521 -0.097413384547063803 0 -0.024123777669104458 -0.10265873268404301 0 -0.024670005891415589 -0.092262667611894875 0 -0.030143021990877521 -0.097413384547063803 0 -0.024123777669104458 -0.10265873268404301 0 -0.024670005891415589 -0.092262667611894875 0 -0.03344051123233422 -0.092098432850847969 0 -0.030143021990877521 -0.097413384547063803 0 -0.024123777669104458 -0.10265873268404301 0 -0.015994782990863529 -0.1079378035875192 0 -0.013304609286582791 -0.1124748627422944 0 -0.024123777669104458 -0.10265873268404301 0 -0.015994782990863529 -0.1079378035875192 0 -0.015839401072447711 -0.097831294581907868 0 -0.024670005891415589 -0.092262667611894875 0 -0.024123777669104458 -0.10265873268404301 0 -0.015839401072447711 -0.097831294581907868 0 -0.0070294542012635762 -0.10327829347153671 0 -0.013304609286582791 -0.1124748627422944 0 0.0046245275045138064 -0.1076828264142336 0 -0.0075898384642912086 -0.092772169897659226 0 -0.015839401072447711 -0.097831294581907868 0 -0.0070294542012635762 -0.10327829347153671 0 -0.015994782990863529 -0.1079378035875192 0 -0.015839401072447711 -0.097831294581907868 0 -0.0070294542012635762 -0.10327829347153671 0 -0.015994782990863529 -0.1079378035875192 0 -0.0070294542012635762 -0.10327829347153671 0 -0.013304609286582791 -0.1124748627422944 0 -0.0075898384642912086 -0.092772169897659226 0 -0.0070294542012635762 -0.10327829347153671 0 0.0072012692200917657 -0.09144049599341271 0 -0.02075820173733281 -0.1248441049076035 0 -0.013304609286582791 -0.1124748627422944 0 -0.00221818493688669 -0.13117245205018849 0 -0.013304609286582791 -0.1124748627422944 0 -0.00221818493688669 -0.13117245205018849 0 0.014197789575412951 -0.12328672932727321 0 -0.013304609286582791 -0.1124748627422944 0 -0.00221818493688669 -0.13117245205018849 0 -0.015994782990863529 -0.1079378035875192 0 -0.013304609286582791 -0.1124748627422944 0 -0.02075820173733281 -0.1248441049076035 0 -0.0137133242766358 -0.14598078836242959 0 -0.0031786103040098569 -0.14705450477373769 0 -0.02075820173733281 -0.1248441049076035 0 -0.0031786103040098569 -0.14705450477373769 0 -0.02075820173733281 -0.1248441049076035 0 -0.00221818493688669 -0.13117245205018849 0 -0.0031786103040098569 -0.14705450477373769 0 -0.02075820173733281 -0.1248441049076035 0 -0.02657462786173766 -0.13400490724319661 0 -0.021326083532184278 -0.14069250208886769 0 -0.02075820173733281 -0.1248441049076035 0 -0.021326083532184278 -0.14069250208886769 0 -0.0137133242766358 -0.14598078836242959 0 -0.02657462786173766 -0.13400490724319661 0 -0.032898799107638058 -0.1301455039054305 0 -0.031315427069795509 -0.14033751807088471 0 -0.02657462786173766 -0.13400490724319661 0 -0.021326083532184278 -0.14069250208886769 0 -0.031315427069795509 -0.14033751807088471 0 -0.02075820173733281 -0.1248441049076035 0 -0.02657462786173766 -0.13400490724319661 0 -0.032898799107638058 -0.1301455039054305 0 -0.026655807174363451 -0.14845120392719069 0 -0.02210874630731275 -0.1561964137015745 0 -0.031495029160766817 -0.15509855920566379 0 -0.026655807174363451 -0.14845120392719069 0 -0.03449156258747036 -0.148917707105098 0 -0.031495029160766817 -0.15509855920566379 0 -0.026655807174363451 -0.14845120392719069 0 -0.021326083532184278 -0.14069250208886769 0 -0.031315427069795509 -0.14033751807088471 0 -0.026655807174363451 -0.14845120392719069 0 -0.031315427069795509 -0.14033751807088471 0 -0.03449156258747036 -0.148917707105098 0 -0.021326083532184278 -0.14069250208886769 0 -0.019449426413567759 -0.15004718796545319 0 -0.0137133242766358 -0.14598078836242959 0 -0.026655807174363451 -0.14845120392719069 0 -0.021326083532184278 -0.14069250208886769 0 -0.019449426413567759 -0.15004718796545319 0 -0.019449426413567759 -0.15004718796545319 0 -0.01542317820397726 -0.15505006264073101 0 -0.0137133242766358 -0.14598078836242959 0 -0.026655807174363451 -0.14845120392719069 0 -0.019449426413567759 -0.15004718796545319 0 -0.02210874630731275 -0.1561964137015745 0 -0.019449426413567759 -0.15004718796545319 0 -0.02210874630731275 -0.1561964137015745 0 -0.01542317820397726 -0.15505006264073101 0 -0.0137133242766358 -0.14598078836242959 0 -0.0031786103040098569 -0.14705450477373769 0 -0.0072073677341612146 -0.1544888065361133 0 -0.01542317820397726 -0.15505006264073101 0 -0.0137133242766358 -0.14598078836242959 0 -0.0072073677341612146 -0.1544888065361133 0 -0.0031786103040098569 -0.14705450477373769 0 -0.0072073677341612146 -0.1544888065361133 0 -0.0025999653858941639 -0.16131422913783491 0 -0.01542317820397726 -0.15505006264073101 0 -0.0084927016390539001 -0.17431231470194719 0 -0.01542317820397726 -0.15505006264073101 0 -0.0025999653858941639 -0.16131422913783491 0 -0.0084927016390539001 -0.17431231470194719 0 -0.01542317820397726 -0.15505006264073101 0 -0.0084927016390539001 -0.17431231470194719 0 -0.018600123305710169 -0.16452936741983731 0 -0.0025999653858941639 -0.16131422913783491 0 -0.0084927016390539001 -0.17431231470194719 0 0.0067086063528142403 -0.16809244781376179 0 -0.0084927016390539001 -0.17431231470194719 0 -0.019446339186483811 -0.17229591455881449 0 -0.018600123305710169 -0.16452936741983731 0 -0.01542317820397726 -0.15505006264073101 0 -0.0072073677341612146 -0.1544888065361133 0 -0.0025999653858941639 -0.16131422913783491 0 -0.0084927016390539001 -0.17431231470194719 0 -0.0015622250741301779 -0.1935745667631632 0 -0.01452589755716127 -0.18854972137590889 0 -0.0084927016390539001 -0.17431231470194719 0 -0.0015622250741301779 -0.1935745667631632 0 -0.0084927016390539001 -0.17431231470194719 0 -0.0015622250741301779 -0.1935745667631632 0 0.0091962193441852118 -0.18107109871456811 0 -0.0084927016390539001 -0.17431231470194719 0 -0.019789997202817391 -0.17944929683230451 0 -0.01452589755716127 -0.18854972137590889 0 -0.019789997202817391 -0.17944929683230451 0 -0.01452589755716127 -0.18854972137590889 0 -0.02459459850908961 -0.18853055632871979 0 -0.0084927016390539001 -0.17431231470194719 0 -0.019789997202817391 -0.17944929683230451 0 -0.019446339186483811 -0.17229591455881449 0 -0.019789997202817391 -0.17944929683230451 0 -0.019446339186483811 -0.17229591455881449 0 -0.025875972540285681 -0.17494695229964419 0 -0.019789997202817391 -0.17944929683230451 0 -0.025875972540285681 -0.17494695229964419 0 -0.028761852805915141 -0.18157091371807699 0 -0.025875972540285681 -0.17494695229964419 0 -0.032240004386850082 -0.17024588421870079 0 -0.032480769472988377 -0.1765838753595764 0 -0.025875972540285681 -0.17494695229964419 0 -0.028761852805915141 -0.18157091371807699 0 -0.032480769472988377 -0.1765838753595764 0 -0.028761852805915141 -0.18157091371807699 0 -0.032920373861235572 -0.18696580359983689 0 -0.02459459850908961 -0.18853055632871979 0 -0.019789997202817391 -0.17944929683230451 0 -0.028761852805915141 -0.18157091371807699 0 -0.02459459850908961 -0.18853055632871979 0 -0.02210874630731275 -0.1561964137015745 0 -0.02334206205745518 -0.16321350683772101 0 -0.018600123305710169 -0.16452936741983731 0 -0.02210874630731275 -0.1561964137015745 0 -0.01542317820397726 -0.15505006264073101 0 -0.018600123305710169 -0.16452936741983731 0 -0.019446339186483811 -0.17229591455881449 0 -0.018600123305710169 -0.16452936741983731 0 -0.024472901244551901 -0.1682416415403396 0 -0.019446339186483811 -0.17229591455881449 0 -0.025875972540285681 -0.17494695229964419 0 -0.024472901244551901 -0.1682416415403396 0 -0.02334206205745518 -0.16321350683772101 0 -0.018600123305710169 -0.16452936741983731 0 -0.024472901244551901 -0.1682416415403396 0 -0.02334206205745518 -0.16321350683772101 0 -0.024472901244551901 -0.1682416415403396 0 -0.028186477372245909 -0.16388660468913291 0 -0.025875972540285681 -0.17494695229964419 0 -0.024472901244551901 -0.1682416415403396 0 -0.032240004386850082 -0.17024588421870079 0 -0.024472901244551901 -0.1682416415403396 0 -0.028186477372245909 -0.16388660468913291 0 -0.032240004386850082 -0.17024588421870079 0 -0.02210874630731275 -0.1561964137015745 0 -0.036601677587355427 -0.1631254910080501 0 -0.02210874630731275 -0.1561964137015745 0 -0.028186477372245909 -0.16388660468913291 0 -0.036601677587355427 -0.1631254910080501 0 -0.02210874630731275 -0.1561964137015745 0 -0.036601677587355427 -0.1631254910080501 0 -0.031495029160766817 -0.15509855920566379 0 -0.02210874630731275 -0.1561964137015745 0 -0.02334206205745518 -0.16321350683772101 0 -0.028186477372245909 -0.16388660468913291 0 -0.036601677587355427 -0.1631254910080501 0 -0.031495029160766817 -0.15509855920566379 0 -0.03757233301838208 -0.1561293615731485 0 -0.036601677587355427 -0.1631254910080501 0 -0.042683024331232992 -0.16071659108817879 0 -0.03757233301838208 -0.1561293615731485 0 -0.036601677587355427 -0.1631254910080501 0 -0.032240004386850082 -0.17024588421870079 0 -0.040990311010288182 -0.1707810542940659 0 -0.028186477372245909 -0.16388660468913291 0 -0.036601677587355427 -0.1631254910080501 0 -0.032240004386850082 -0.17024588421870079 0 -0.036601677587355427 -0.1631254910080501 0 -0.040990311010288182 -0.1707810542940659 0 -0.051094608867397598 -0.17005456831452659 0 -0.036601677587355427 -0.1631254910080501 0 -0.042683024331232992 -0.16071659108817879 0 -0.051094608867397598 -0.17005456831452659 0 -0.036601677587355427 -0.1631254910080501 0 -0.051094608867397598 -0.17005456831452659 0 -0.042683024331232992 -0.16071659108817879 0 -0.03757233301838208 -0.1561293615731485 0 -0.042590371425084809 -0.152788459458752 0 -0.042683024331232992 -0.16071659108817879 0 -0.049852416986034973 -0.1566787242717059 0 -0.042590371425084809 -0.152788459458752 0 -0.042683024331232992 -0.16071659108817879 0 -0.049852416986034973 -0.1566787242717059 0 -0.032920373861235572 -0.18696580359983689 0 -0.035662893679222471 -0.1808176818492459 0 -0.039648887306358682 -0.18457447877016059 0 -0.028761852805915141 -0.18157091371807699 0 -0.032920373861235572 -0.18696580359983689 0 -0.035662893679222471 -0.1808176818492459 0 -0.032240004386850082 -0.17024588421870079 0 -0.040990311010288182 -0.1707810542940659 0 -0.038331319031698619 -0.1753090981098179 0 -0.035662893679222471 -0.1808176818492459 0 -0.038331319031698619 -0.1753090981098179 0 -0.042134054383572032 -0.1794085226548284 0 -0.035662893679222471 -0.1808176818492459 0 -0.032480769472988377 -0.1765838753595764 0 -0.038331319031698619 -0.1753090981098179 0 -0.028761852805915141 -0.18157091371807699 0 -0.035662893679222471 -0.1808176818492459 0 -0.032480769472988377 -0.1765838753595764 0 -0.032240004386850082 -0.17024588421870079 0 -0.032480769472988377 -0.1765838753595764 0 -0.038331319031698619 -0.1753090981098179 0 -0.040990311010288182 -0.1707810542940659 0 -0.045496547127059937 -0.17528527585558801 0 -0.051094608867397598 -0.17005456831452659 0 -0.040990311010288182 -0.1707810542940659 0 -0.038331319031698619 -0.1753090981098179 0 -0.045496547127059937 -0.17528527585558801 0 -0.045496547127059937 -0.17528527585558801 0 -0.042134054383572032 -0.1794085226548284 0 -0.049232931697160941 -0.18142535687920061 0 -0.038331319031698619 -0.1753090981098179 0 -0.045496547127059937 -0.17528527585558801 0 -0.042134054383572032 -0.1794085226548284 0 -0.042134054383572032 -0.1794085226548284 0 -0.039648887306358682 -0.18457447877016059 0 -0.049232931697160941 -0.18142535687920061 0 -0.039648887306358682 -0.18457447877016059 0 -0.049232931697160941 -0.18142535687920061 0 -0.037513132105194948 -0.19164621715467339 0 -0.035662893679222471 -0.1808176818492459 0 -0.042134054383572032 -0.1794085226548284 0 -0.039648887306358682 -0.18457447877016059 0 -0.052530262953744307 -0.18551360121156771 0 -0.064566778430722005 -0.1899668467895553 0 -0.070259181001566293 -0.17921715932508539 0 -0.052530262953744307 -0.18551360121156771 0 -0.051094608867397598 -0.17005456831452659 0 -0.070259181001566293 -0.17921715932508539 0 -0.051094608867397598 -0.17005456831452659 0 -0.070259181001566293 -0.17921715932508539 0 -0.052530262953744307 -0.18551360121156771 0 -0.049232931697160941 -0.18142535687920061 0 -0.051094608867397598 -0.17005456831452659 0 -0.052530262953744307 -0.18551360121156771 0 -0.051094608867397598 -0.17005456831452659 0 -0.045496547127059937 -0.17528527585558801 0 -0.049232931697160941 -0.18142535687920061 0 -0.051094608867397598 -0.17005456831452659 0 -0.051094608867397598 -0.17005456831452659 0 -0.061817946007188637 -0.1647032604190713 0 -0.070259181001566293 -0.17921715932508539 0 -0.049852416986034973 -0.1566787242717059 0 -0.051094608867397598 -0.17005456831452659 0 -0.061817946007188637 -0.1647032604190713 0 -0.042683024331232992 -0.16071659108817879 0 -0.049852416986034973 -0.1566787242717059 0 -0.051094608867397598 -0.17005456831452659 0 -0.049852416986034973 -0.1566787242717059 0 -0.051094608867397598 -0.17005456831452659 0 -0.049852416986034973 -0.1566787242717059 0 -0.061817946007188637 -0.1647032604190713 0 -0.059473492795946999 -0.1512600473178678 0 -0.049852416986034973 -0.1566787242717059 0 -0.059473492795946999 -0.1512600473178678 0 -0.049852416986034973 -0.1566787242717059 0 -0.048542636614648908 -0.14257509161971199 0 -0.042590371425084809 -0.152788459458752 0 -0.049852416986034973 -0.1566787242717059 0 -0.059473492795946999 -0.1512600473178678 0 -0.048542636614648908 -0.14257509161971199 0 -0.049852416986034973 -0.1566787242717059 0 -0.048542636614648908 -0.14257509161971199 0 -0.059473492795946999 -0.1512600473178678 0 -0.048542636614648908 -0.14257509161971199 0 -0.059473492795946999 -0.1512600473178678 0 -0.048542636614648908 -0.14257509161971199 0 -0.061100100412547438 -0.13647315015658409 0 -0.046573596299020338 -0.1213725893565638 0 -0.048542636614648908 -0.14257509161971199 0 -0.061100100412547438 -0.13647315015658409 0 -0.046573596299020338 -0.1213725893565638 0 -0.048542636614648908 -0.14257509161971199 0 -0.060928146748241367 -0.123537549367131 0 -0.046573596299020338 -0.1213725893565638 0 -0.061100100412547438 -0.13647315015658409 0 -0.046573596299020338 -0.1213725893565638 0 -0.048542636614648908 -0.14257509161971199 0 -0.032898799107638058 -0.1301455039054305 0 -0.048542636614648908 -0.14257509161971199 0 -0.032898799107638058 -0.1301455039054305 0 -0.031315427069795509 -0.14033751807088471 0 -0.048542636614648908 -0.14257509161971199 0 -0.032898799107638058 -0.1301455039054305 0 -0.048542636614648908 -0.14257509161971199 0 -0.031315427069795509 -0.14033751807088471 0 -0.03449156258747036 -0.148917707105098 0 -0.03449156258747036 -0.148917707105098 0 -0.03757233301838208 -0.1561293615731485 0 -0.042590371425084809 -0.152788459458752 0 -0.03449156258747036 -0.148917707105098 0 -0.031495029160766817 -0.15509855920566379 0 -0.03757233301838208 -0.1561293615731485 0 -0.048542636614648908 -0.14257509161971199 0 -0.03449156258747036 -0.148917707105098 0 -0.042590371425084809 -0.152788459458752 0 -0.030801127425925001 -0.25680016795848581 0 -0.026871719323301121 -0.24650256912316601 0 -0.018733547469201091 -0.24349008461987329 0 -0.032940321160402269 -0.25029644079438251 0 -0.026871719323301121 -0.24650256912316601 0 -0.030857658388656541 -0.2362056796655021 0 -0.032940321160402269 -0.25029644079438251 0 -0.026871719323301121 -0.24650256912316601 0 -0.026871719323301121 -0.24650256912316601 0 -0.030857658388656541 -0.2362056796655021 0 -0.018733547469201091 -0.24349008461987329 0 -0.018733547469201091 -0.24349008461987329 0 0.0010854142569982001 -0.23807309260292489 0 0.0025328853753160741 -0.24958102673793139 0 -0.018733547469201091 -0.24349008461987329 0 -0.0061584899570064598 -0.22962027277065361 0 0.0010854142569982001 -0.23807309260292489 0 -0.018733547469201091 -0.24349008461987329 0 -0.0061584899570064598 -0.22962027277065361 0 -0.018733547469201091 -0.24349008461987329 0 -0.0061584899570064598 -0.22962027277065361 0 -0.014959502272226489 -0.22084886391346231 0 -0.0061584899570064598 -0.22962027277065361 0 -0.0054289760133702037 -0.21457987404047249 0 0.0064165675551885711 -0.21575046092143421 0 -0.0061584899570064598 -0.22962027277065361 0 -0.014959502272226489 -0.22084886391346231 0 -0.0054289760133702037 -0.21457987404047249 0 -0.018733547469201091 -0.24349008461987329 0 -0.02919644603132129 -0.2221986071991269 0 -0.02714058579554627 -0.22330174697438809 0 -0.018733547469201091 -0.24349008461987329 0 -0.02919644603132129 -0.2221986071991269 0 -0.018733547469201091 -0.24349008461987329 0 -0.014959502272226489 -0.22084886391346231 0 -0.02714058579554627 -0.22330174697438809 0 -0.030857658388656541 -0.2362056796655021 0 -0.018733547469201091 -0.24349008461987329 0 -0.02919644603132129 -0.2221986071991269 0 -0.02919644603132129 -0.2221986071991269 0 -0.02714058579554627 -0.22330174697438809 0 -0.023298310508535151 -0.21367384618425 0 -0.02883797433537726 -0.20835292232393379 0 -0.020914866328615171 -0.2008213059726579 0 -0.039659344593441261 -0.20090712977838049 0 -0.02919644603132129 -0.2221986071991269 0 -0.02883797433537726 -0.20835292232393379 0 -0.023298310508535151 -0.21367384618425 0 -0.02883797433537726 -0.20835292232393379 0 -0.023298310508535151 -0.21367384618425 0 -0.020914866328615171 -0.2008213059726579 0 -0.023298310508535151 -0.21367384618425 0 -0.014351405434837939 -0.2084381568687759 0 -0.020914866328615171 -0.2008213059726579 0 -0.02714058579554627 -0.22330174697438809 0 -0.014351405434837939 -0.2084381568687759 0 -0.014959502272226489 -0.22084886391346231 0 -0.02714058579554627 -0.22330174697438809 0 -0.014351405434837939 -0.2084381568687759 0 -0.02714058579554627 -0.22330174697438809 0 -0.023298310508535151 -0.21367384618425 0 -0.014351405434837939 -0.2084381568687759 0 -0.014959502272226489 -0.22084886391346231 0 -0.0054289760133702037 -0.21457987404047249 0 -0.014351405434837939 -0.2084381568687759 0 -0.0054289760133702037 -0.21457987404047249 0 -0.014351405434837939 -0.2084381568687759 0 -0.0015622250741301779 -0.1935745667631632 0 -0.0054289760133702037 -0.21457987404047249 0 -0.0015622250741301779 -0.1935745667631632 0 0.0064165675551885711 -0.21575046092143421 0 -0.014351405434837939 -0.2084381568687759 0 -0.0015622250741301779 -0.1935745667631632 0 -0.014351405434837939 -0.2084381568687759 0 -0.01223217889679739 -0.19705511845509929 0 -0.0015622250741301779 -0.1935745667631632 0 -0.01223217889679739 -0.19705511845509929 0 -0.0015622250741301779 -0.1935745667631632 0 -0.01452589755716127 -0.18854972137590889 0 -0.020914866328615171 -0.2008213059726579 0 -0.039659344593441261 -0.20090712977838049 0 -0.01452589755716127 -0.18854972137590889 0 -0.020914866328615171 -0.2008213059726579 0 -0.02459459850908961 -0.18853055632871979 0 -0.020914866328615171 -0.2008213059726579 0 -0.030654603298793132 -0.19382629647353339 0 -0.039659344593441261 -0.20090712977838049 0 -0.014351405434837939 -0.2084381568687759 0 -0.01223217889679739 -0.19705511845509929 0 -0.020914866328615171 -0.2008213059726579 0 -0.01223217889679739 -0.19705511845509929 0 -0.01452589755716127 -0.18854972137590889 0 -0.020914866328615171 -0.2008213059726579 0 -0.020914866328615171 -0.2008213059726579 0 -0.030654603298793132 -0.19382629647353339 0 -0.02459459850908961 -0.18853055632871979 0 -0.032920373861235572 -0.18696580359983689 0 -0.030654603298793132 -0.19382629647353339 0 -0.02459459850908961 -0.18853055632871979 0 -0.049232931697160941 -0.18142535687920061 0 -0.037513132105194948 -0.19164621715467339 0 -0.039659344593441261 -0.20090712977838049 0 -0.049232931697160941 -0.18142535687920061 0 -0.039659344593441261 -0.20090712977838049 0 -0.032920373861235572 -0.18696580359983689 0 -0.039648887306358682 -0.18457447877016059 0 -0.037513132105194948 -0.19164621715467339 0 -0.032920373861235572 -0.18696580359983689 0 -0.030654603298793132 -0.19382629647353339 0 -0.037513132105194948 -0.19164621715467339 0 -0.030654603298793132 -0.19382629647353339 0 -0.037513132105194948 -0.19164621715467339 0 -0.039659344593441261 -0.20090712977838049 0 -0.039659344593441261 -0.20090712977838049 0 -0.049171036143441697 -0.20095068018059209 0 -0.052530262953744307 -0.18551360121156771 0 -0.053965917040092279 -0.20097263410860849 0 -0.052530262953744307 -0.18551360121156771 0 -0.049232931697160941 -0.18142535687920061 0 -0.039659344593441261 -0.20090712977838049 0 -0.052530262953744307 -0.18551360121156771 0 -0.053965917040092279 -0.20097263410860849 0 -0.064566778430722005 -0.1899668467895553 0 -0.052530262953744307 -0.18551360121156771 0 -0.039659344593441261 -0.20090712977838049 0 -0.049171036143441697 -0.20095068018059209 0 -0.053965917040092279 -0.20097263410860849 0 -0.049171036143441697 -0.20095068018059209 0 -0.052530262953744307 -0.18551360121156771 0 -0.053965917040092279 -0.20097263410860849 0 -0.049171036143441697 -0.20095068018059209 0 -0.049171036143441697 -0.20095068018059209 0 -0.054685660498906767 -0.208722786400212 0 -0.041055678651922348 -0.2256235604874875 0 -0.053965917040092279 -0.20097263410860849 0 -0.054685660498906767 -0.208722786400212 0 -0.075274492420391248 -0.20107019793555661 0 -0.054685660498906767 -0.208722786400212 0 -0.058782723788501128 -0.22597342721149569 0 -0.066300796797188796 -0.21509277327032089 0 -0.053965917040092279 -0.20097263410860849 0 -0.049171036143441697 -0.20095068018059209 0 -0.054685660498906767 -0.208722786400212 0 -0.053965917040092279 -0.20097263410860849 0 -0.054685660498906767 -0.208722786400212 0 -0.049171036143441697 -0.20095068018059209 0 -0.041055678651922348 -0.2256235604874875 0 -0.02919644603132129 -0.2221986071991269 0 -0.039659344593441261 -0.20090712977838049 0 -0.02919644603132129 -0.2221986071991269 0 -0.02883797433537726 -0.20835292232393379 0 -0.039659344593441261 -0.20090712977838049 0 -0.039659344593441261 -0.20090712977838049 0 -0.049171036143441697 -0.20095068018059209 0 -0.041055678651922348 -0.2256235604874875 0 -0.02919644603132129 -0.2221986071991269 0 -0.039659344593441261 -0.20090712977838049 0 -0.041055678651922348 -0.2256235604874875 0 -0.030857658388656541 -0.2362056796655021 0 -0.02919644603132129 -0.2221986071991269 0 -0.041055678651922348 -0.2256235604874875 0 -0.041055678651922348 -0.2256235604874875 0 -0.058782723788501128 -0.22597342721149569 0 -0.050902643065861071 -0.24349095896983161 0 -0.054685660498906767 -0.208722786400212 0 -0.041055678651922348 -0.2256235604874875 0 -0.058782723788501128 -0.22597342721149569 0 -0.058782723788501128 -0.22597342721149569 0 -0.050902643065861071 -0.24349095896983161 0 -0.077646128541525 -0.24813916513248199 0 -0.032940321160402269 -0.25029644079438251 0 -0.041055678651922348 -0.2256235604874875 0 -0.050902643065861071 -0.24349095896983161 0 -0.032940321160402269 -0.25029644079438251 0 -0.030857658388656541 -0.2362056796655021 0 -0.041055678651922348 -0.2256235604874875 0 -0.032940321160402269 -0.25029644079438251 0 -0.041055678651922348 -0.2256235604874875 0 -0.077646128541525 -0.24813916513248199 0 -0.082279147983734507 -0.22463132376819159 0 -0.088104632666654803 -0.24175912157342011 0 -0.077646128541525 -0.24813916513248199 0 -0.082279147983734507 -0.22463132376819159 0 -0.077646128541525 -0.24813916513248199 0 -0.076460310480956056 -0.22460468153401941 0 -0.058782723788501128 -0.22597342721149569 0 -0.077646128541525 -0.24813916513248199 0 -0.076460310480956056 -0.22460468153401941 0 -0.058782723788501128 -0.22597342721149569 0 -0.076460310480956056 -0.22460468153401941 0 -0.066300796797188796 -0.21509277327032089 0 -0.077646128541525 -0.24813916513248199 0 -0.076460310480956056 -0.22460468153401941 0 -0.082279147983734507 -0.22463132376819159 0 -0.088104632666654803 -0.24175912157342011 0 -0.091210523848666042 -0.22145825259936749 0 -0.096373561920523113 -0.2318247108995648 0 -0.088104632666654803 -0.24175912157342011 0 -0.082279147983734507 -0.22463132376819159 0 -0.091210523848666042 -0.22145825259936749 0 -0.088104632666654803 -0.24175912157342011 0 -0.091210523848666042 -0.22145825259936749 0 -0.082279147983734507 -0.22463132376819159 0 -0.075274492420391248 -0.20107019793555661 0 -0.086912167425944153 -0.20112348240390099 0 -0.082279147983734507 -0.22463132376819159 0 -0.091210523848666042 -0.22145825259936749 0 -0.086912167425944153 -0.20112348240390099 0 -0.091210523848666042 -0.22145825259936749 0 -0.094316415030678002 -0.20115738362531499 0 -0.091210523848666042 -0.22145825259936749 0 -0.086912167425944153 -0.20112348240390099 0 -0.094316415030678002 -0.20115738362531499 0 -0.082279147983734507 -0.22463132376819159 0 -0.086912167425944153 -0.20112348240390099 0 -0.076460310480956056 -0.22460468153401941 0 -0.066300796797188796 -0.21509277327032089 0 -0.075274492420391248 -0.20107019793555661 0 -0.054685660498906767 -0.208722786400212 0 -0.066300796797188796 -0.21509277327032089 0 -0.075274492420391248 -0.20107019793555661 0 -0.076460310480956056 -0.22460468153401941 0 -0.082279147983734507 -0.22463132376819159 0 -0.075274492420391248 -0.20107019793555661 0 -0.076460310480956056 -0.22460468153401941 0 -0.075274492420391248 -0.20107019793555661 0 -0.053965917040092279 -0.20097263410860849 0 -0.075274492420391248 -0.20107019793555661 0 -0.070100108945259781 -0.19629415080948229 0 -0.053965917040092279 -0.20097263410860849 0 -0.070100108945259781 -0.19629415080948229 0 -0.064566778430722005 -0.1899668467895553 0 -0.053965917040092279 -0.20097263410860849 0 -0.075274492420391248 -0.20107019793555661 0 -0.075274492420391248 -0.20107019793555661 0 -0.075113373652805612 -0.19571605274700751 0 -0.079733979793737045 -0.19605477611637959 0 -0.075274492420391248 -0.20107019793555661 0 -0.075113373652805612 -0.19571605274700751 0 -0.070100108945259781 -0.19629415080948229 0 -0.070100108945259781 -0.19629415080948229 0 -0.064566778430722005 -0.1899668467895553 0 -0.075377056328755521 -0.19008301367616509 0 -0.075113373652805612 -0.19571605274700751 0 -0.070100108945259781 -0.19629415080948229 0 -0.075377056328755521 -0.19008301367616509 0 -0.075113373652805612 -0.19571605274700751 0 -0.075377056328755521 -0.19008301367616509 0 -0.079733979793737045 -0.19605477611637959 0 -0.075377056328755521 -0.19008301367616509 0 -0.079733979793737045 -0.19605477611637959 0 -0.089423753135733974 -0.18837975033564619 0 -0.079733979793737045 -0.19605477611637959 0 -0.086912167425944153 -0.20112348240390099 0 -0.089423753135733974 -0.18837975033564619 0 -0.075274492420391248 -0.20107019793555661 0 -0.086912167425944153 -0.20112348240390099 0 -0.075274492420391248 -0.20107019793555661 0 -0.079733979793737045 -0.19605477611637959 0 -0.086912167425944153 -0.20112348240390099 0 -0.086912167425944153 -0.20112348240390099 0 -0.095804572093432044 -0.1914304229002349 0 -0.094316415030678002 -0.20115738362531499 0 -0.086912167425944153 -0.20112348240390099 0 -0.094316415030678002 -0.20115738362531499 0 -0.086912167425944153 -0.20112348240390099 0 -0.089423753135733974 -0.18837975033564619 0 -0.086912167425944153 -0.20112348240390099 0 -0.089423753135733974 -0.18837975033564619 0 -0.095804572093432044 -0.1914304229002349 0 -0.089423753135733974 -0.18837975033564619 0 -0.095804572093432044 -0.1914304229002349 0 -0.090500110278716836 -0.18291833725845449 0 -0.089423753135733974 -0.18837975033564619 0 -0.095804572093432044 -0.1914304229002349 0 -0.095804572093432044 -0.1914304229002349 0 -0.1055884512206339 -0.19610810014299959 0 -0.099028938128851704 -0.1826882615985625 0 -0.095804572093432044 -0.1914304229002349 0 -0.1055884512206339 -0.19610810014299959 0 -0.095804572093432044 -0.1914304229002349 0 -0.099726318276372988 -0.19712665769699661 0 -0.1055884512206339 -0.19610810014299959 0 -0.094316415030678002 -0.20115738362531499 0 -0.099726318276372988 -0.19712665769699661 0 -0.1069539478940484 -0.20121524606085259 0 -0.095804572093432044 -0.1914304229002349 0 -0.094316415030678002 -0.20115738362531499 0 -0.095804572093432044 -0.1914304229002349 0 -0.094316415030678002 -0.20115738362531499 0 -0.099726318276372988 -0.19712665769699661 0 -0.094316415030678002 -0.20115738362531499 0 -0.1069539478940484 -0.20121524606085259 0 -0.1006154135170836 -0.20550376286944089 0 -0.094316415030678002 -0.20115738362531499 0 -0.1069539478940484 -0.20121524606085259 0 -0.099726318276372988 -0.19712665769699661 0 -0.1069539478940484 -0.20121524606085259 0 -0.1055884512206339 -0.19610810014299959 0 -0.1069539478940484 -0.20121524606085259 0 -0.1055884512206339 -0.19610810014299959 0 -0.1143022105317214 -0.19176920984990589 0 -0.1234142843990034 -0.20129061165398179 0 -0.118443644943155 -0.18313735869921541 0 -0.1234142843990034 -0.20129061165398179 0 -0.118443644943155 -0.18313735869921541 0 -0.12836978379805469 -0.19505845874684749 0 -0.1055884512206339 -0.19610810014299959 0 -0.1143022105317214 -0.19176920984990589 0 -0.1095912747331507 -0.1796343382558257 0 -0.1234142843990034 -0.20129061165398179 0 -0.118443644943155 -0.18313735869921541 0 -0.1234142843990034 -0.20129061165398179 0 -0.11636069704563699 -0.20125831597190941 0 -0.12446659453658469 -0.2051337493999616 0 -0.1143022105317214 -0.19176920984990589 0 -0.1234142843990034 -0.20129061165398179 0 -0.11636069704563699 -0.20125831597190941 0 -0.1234142843990034 -0.20129061165398179 0 -0.11636069704563699 -0.20125831597190941 0 -0.1055884512206339 -0.19610810014299959 0 -0.1143022105317214 -0.19176920984990589 0 -0.11636069704563699 -0.20125831597190941 0 -0.1055884512206339 -0.19610810014299959 0 -0.11636069704563699 -0.20125831597190941 0 -0.1069539478940484 -0.20121524606085259 0 -0.11636069704563699 -0.20125831597190941 0 -0.116503442890511 -0.20615462214379501 0 -0.1069539478940484 -0.20121524606085259 0 -0.1055884512206339 -0.19610810014299959 0 -0.11636069704563699 -0.20125831597190941 0 -0.1069539478940484 -0.20121524606085259 0 -0.11636069704563699 -0.20125831597190941 0 -0.1069539478940484 -0.20121524606085259 0 -0.1182325320857732 -0.21701117714245771 0 -0.1146322195844853 -0.229933041338924 0 -0.1069539478940484 -0.20121524606085259 0 -0.1146322195844853 -0.229933041338924 0 -0.12446659453658469 -0.2051337493999616 0 -0.1182325320857732 -0.21701117714245771 0 -0.12964778408632779 -0.2240559515308029 0 -0.1069539478940484 -0.20121524606085259 0 -0.116503442890511 -0.20615462214379501 0 -0.1182325320857732 -0.21701117714245771 0 -0.116503442890511 -0.20615462214379501 0 -0.12446659453658469 -0.2051337493999616 0 -0.1182325320857732 -0.21701117714245771 0 -0.11636069704563699 -0.20125831597190941 0 -0.116503442890511 -0.20615462214379501 0 -0.12446659453658469 -0.2051337493999616 0 -0.11636069704563699 -0.20125831597190941 0 -0.12446659453658469 -0.2051337493999616 0 -0.1234142843990034 -0.20129061165398179 0 -0.12446659453658469 -0.2051337493999616 0 -0.1069539478940484 -0.20121524606085259 0 -0.1039432587622498 -0.21234961129803451 0 -0.1146322195844853 -0.229933041338924 0 -0.091210523848666042 -0.22145825259936749 0 -0.094316415030678002 -0.20115738362531499 0 -0.098742607236989521 -0.21208478243994361 0 -0.1039432587622498 -0.21234961129803451 0 -0.098742607236989521 -0.21208478243994361 0 -0.10362742502627011 -0.2199549018075595 0 -0.1069539478940484 -0.20121524606085259 0 -0.1039432587622498 -0.21234961129803451 0 -0.1006154135170836 -0.20550376286944089 0 -0.1039432587622498 -0.21234961129803451 0 -0.1006154135170836 -0.20550376286944089 0 -0.098742607236989521 -0.21208478243994361 0 -0.094316415030678002 -0.20115738362531499 0 -0.1006154135170836 -0.20550376286944089 0 -0.098742607236989521 -0.21208478243994361 0 -0.091210523848666042 -0.22145825259936749 0 -0.098742607236989521 -0.21208478243994361 0 -0.10362742502627011 -0.2199549018075595 0 -0.096373561920523113 -0.2318247108995648 0 -0.10362742502627011 -0.2199549018075595 0 -0.1025516661405015 -0.24412656761791199 0 -0.1039432587622498 -0.21234961129803451 0 -0.10362742502627011 -0.2199549018075595 0 -0.1146322195844853 -0.229933041338924 0 -0.10362742502627011 -0.2199549018075595 0 -0.1025516661405015 -0.24412656761791199 0 -0.10362742502627011 -0.2199549018075595 0 -0.11057817055071439 -0.23713955200355691 0 -0.1025516661405015 -0.24412656761791199 0 -0.091210523848666042 -0.22145825259936749 0 -0.096373561920523113 -0.2318247108995648 0 -0.10362742502627011 -0.2199549018075595 0 -0.10362742502627011 -0.2199549018075595 0 -0.1146322195844853 -0.229933041338924 0 -0.11057817055071439 -0.23713955200355691 0 -0.1182325320857732 -0.21701117714245771 0 -0.1146322195844853 -0.229933041338924 0 -0.12964778408632779 -0.2240559515308029 0 -0.1146322195844853 -0.229933041338924 0 -0.12594535918601221 -0.23537450645762351 0 -0.12964778408632779 -0.2240559515308029 0 -0.1146322195844853 -0.229933041338924 0 -0.11057817055071439 -0.23713955200355691 0 -0.11992695639240671 -0.24305274461581289 0 -0.1146322195844853 -0.229933041338924 0 -0.11992695639240671 -0.24305274461581289 0 -0.12594535918601221 -0.23537450645762351 0 -0.11992695639240671 -0.24305274461581289 0 -0.12594535918601221 -0.23537450645762351 0 -0.1270777831465402 -0.24161244513161839 0 -0.11057817055071439 -0.23713955200355691 0 -0.11992695639240671 -0.24305274461581289 0 -0.1121525856099083 -0.24863050463757599 0 -0.1183855941197941 -0.25651062511641259 0 -0.11992695639240671 -0.24305274461581289 0 -0.1121525856099083 -0.24863050463757599 0 -0.1097432552782682 -0.2572086698476283 0 -0.1121525856099083 -0.24863050463757599 0 -0.1025516661405015 -0.24412656761791199 0 -0.11057817055071439 -0.23713955200355691 0 -0.1121525856099083 -0.24863050463757599 0 -0.1025516661405015 -0.24412656761791199 0 -0.088104632666654803 -0.24175912157342011 0 -0.096373561920523113 -0.2318247108995648 0 -0.1025516661405015 -0.24412656761791199 0 -0.093680051977193257 -0.25300014610948141 0 -0.088104632666654803 -0.24175912157342011 0 -0.1025516661405015 -0.24412656761791199 0 -0.091208904987890735 -0.14232661368977559 0 -0.087323419063827665 -0.1566704494577609 0 -0.098398678104261977 -0.16921735691638781 0 -0.081276062778159672 -0.14883202435870879 0 -0.08710950077230438 -0.14178266396580899 0 -0.074302444905730333 -0.14290824730771751 0 -0.081276062778159672 -0.14883202435870879 0 -0.091208904987890735 -0.14232661368977559 0 -0.087323419063827665 -0.1566704494577609 0 -0.081276062778159672 -0.14883202435870879 0 -0.08710950077230438 -0.14178266396580899 0 -0.091208904987890735 -0.14232661368977559 0 -0.08710950077230438 -0.14178266396580899 0 -0.091208904987890735 -0.14232661368977559 0 -0.091208904987890735 -0.14232661368977559 0 -0.089131397015513494 -0.13455644729756691 0 -0.089131397015513494 -0.13455644729756691 0 -0.072915517223638954 -0.12670463451369329 0 -0.074302444905730333 -0.14290824730771751 0 -0.08710950077230438 -0.14178266396580899 0 -0.091208904987890735 -0.14232661368977559 0 -0.089131397015513494 -0.13455644729756691 0 -0.08710950077230438 -0.14178266396580899 0 -0.089131397015513494 -0.13455644729756691 0 -0.074302444905730333 -0.14290824730771751 0 -0.089131397015513494 -0.13455644729756691 0 -0.074302444905730333 -0.14290824730771751 0 -0.061100100412547438 -0.13647315015658409 0 -0.072915517223638954 -0.12670463451369329 0 -0.074302444905730333 -0.14290824730771751 0 -0.060928146748241367 -0.123537549367131 0 -0.061100100412547438 -0.13647315015658409 0 -0.072915517223638954 -0.12670463451369329 0 -0.059473492795946999 -0.1512600473178678 0 -0.081276062778159672 -0.14883202435870879 0 -0.074302444905730333 -0.14290824730771751 0 -0.059473492795946999 -0.1512600473178678 0 -0.081276062778159672 -0.14883202435870879 0 -0.078410030384998497 -0.16630580286617139 0 -0.059473492795946999 -0.1512600473178678 0 -0.074302444905730333 -0.14290824730771751 0 -0.059473492795946999 -0.1512600473178678 0 -0.061100100412547438 -0.13647315015658409 0 -0.074302444905730333 -0.14290824730771751 0 -0.061817946007188637 -0.1647032604190713 0 -0.070259181001566293 -0.17921715932508539 0 -0.078410030384998497 -0.16630580286617139 0 -0.059473492795946999 -0.1512600473178678 0 -0.078410030384998497 -0.16630580286617139 0 -0.061817946007188637 -0.1647032604190713 0 -0.059473492795946999 -0.1512600473178678 0 -0.078410030384998497 -0.16630580286617139 0 -0.064566778430722005 -0.1899668467895553 0 -0.075377056328755521 -0.19008301367616509 0 -0.070259181001566293 -0.17921715932508539 0 -0.070259181001566293 -0.17921715932508539 0 -0.08402443889557612 -0.1788939005998389 0 -0.078410030384998497 -0.16630580286617139 0 -0.089423753135733974 -0.18837975033564619 0 -0.070259181001566293 -0.17921715932508539 0 -0.075377056328755521 -0.19008301367616509 0 -0.089423753135733974 -0.18837975033564619 0 -0.070259181001566293 -0.17921715932508539 0 -0.078410030384998497 -0.16630580286617139 0 -0.098398678104261977 -0.16921735691638781 0 -0.097346567974052028 -0.18135155841447259 0 -0.078410030384998497 -0.16630580286617139 0 -0.097346567974052028 -0.18135155841447259 0 -0.08402443889557612 -0.1788939005998389 0 -0.078410030384998497 -0.16630580286617139 0 -0.097346567974052028 -0.18135155841447259 0 -0.089423753135733974 -0.18837975033564619 0 -0.070259181001566293 -0.17921715932508539 0 -0.08402443889557612 -0.1788939005998389 0 -0.089423753135733974 -0.18837975033564619 0 -0.08402443889557612 -0.1788939005998389 0 -0.090500110278716836 -0.18291833725845449 0 -0.08402443889557612 -0.1788939005998389 0 -0.090500110278716836 -0.18291833725845449 0 -0.097346567974052028 -0.18135155841447259 0 -0.089423753135733974 -0.18837975033564619 0 -0.090500110278716836 -0.18291833725845449 0 -0.081276062778159672 -0.14883202435870879 0 -0.078410030384998497 -0.16630580286617139 0 -0.087323419063827665 -0.1566704494577609 0 -0.078410030384998497 -0.16630580286617139 0 -0.087323419063827665 -0.1566704494577609 0 -0.098398678104261977 -0.16921735691638781 0 -0.098398678104261977 -0.16921735691638781 0 -0.1095912747331507 -0.1796343382558257 0 -0.1134730054873082 -0.16498410574444861 0 -0.098398678104261977 -0.16921735691638781 0 -0.1134730054873082 -0.16498410574444861 0 -0.1057127461594554 -0.15566112818699529 0 -0.1055884512206339 -0.19610810014299959 0 -0.098398678104261977 -0.16921735691638781 0 -0.099028938128851704 -0.1826882615985625 0 -0.1055884512206339 -0.19610810014299959 0 -0.098398678104261977 -0.16921735691638781 0 -0.1055884512206339 -0.19610810014299959 0 -0.098398678104261977 -0.16921735691638781 0 -0.1095912747331507 -0.1796343382558257 0 -0.095804572093432044 -0.1914304229002349 0 -0.097346567974052028 -0.18135155841447259 0 -0.099028938128851704 -0.1826882615985625 0 -0.095804572093432044 -0.1914304229002349 0 -0.090500110278716836 -0.18291833725845449 0 -0.097346567974052028 -0.18135155841447259 0 -0.095804572093432044 -0.1914304229002349 0 -0.097346567974052028 -0.18135155841447259 0 -0.097346567974052028 -0.18135155841447259 0 -0.099028938128851704 -0.1826882615985625 0 -0.098398678104261977 -0.16921735691638781 0 -0.097346567974052028 -0.18135155841447259 0 -0.099028938128851704 -0.1826882615985625 0 -0.118443644943155 -0.18313735869921541 0 -0.1134730054873082 -0.16498410574444861 0 -0.1288769000074067 -0.1787922372229141 0 -0.118443644943155 -0.18313735869921541 0 -0.1134730054873082 -0.16498410574444861 0 -0.1095912747331507 -0.1796343382558257 0 -0.118443644943155 -0.18313735869921541 0 -0.1134730054873082 -0.16498410574444861 0 -0.1143022105317214 -0.19176920984990589 0 -0.1095912747331507 -0.1796343382558257 0 -0.118443644943155 -0.18313735869921541 0 -0.1134730054873082 -0.16498410574444861 0 -0.1197703960583608 -0.14611643639736929 0 -0.1290470673658046 -0.1573335562640088 0 -0.1134730054873082 -0.16498410574444861 0 -0.1197703960583608 -0.14611643639736929 0 -0.1057127461594554 -0.15566112818699529 0 -0.091208904987890735 -0.14232661368977559 0 -0.1197703960583608 -0.14611643639736929 0 -0.1055319536065798 -0.13433424813048789 0 -0.091208904987890735 -0.14232661368977559 0 -0.1197703960583608 -0.14611643639736929 0 -0.091208904987890735 -0.14232661368977559 0 -0.098398678104261977 -0.16921735691638781 0 -0.091208904987890735 -0.14232661368977559 0 -0.1197703960583608 -0.14611643639736929 0 -0.1057127461594554 -0.15566112818699529 0 -0.091208904987890735 -0.14232661368977559 0 -0.098398678104261977 -0.16921735691638781 0 -0.1057127461594554 -0.15566112818699529 0 -0.11422347955810171 -0.1204243593602408 0 -0.089131397015513494 -0.13455644729756691 0 -0.1055319536065798 -0.13433424813048789 0 -0.091208904987890735 -0.14232661368977559 0 -0.089131397015513494 -0.13455644729756691 0 -0.1055319536065798 -0.13433424813048789 0 -0.11422347955810171 -0.1204243593602408 0 -0.089131397015513494 -0.13455644729756691 0 -0.11422347955810171 -0.1204243593602408 0 -0.1197703960583608 -0.14611643639736929 0 -0.13445671698849809 -0.1291024538471422 0 -0.11422347955810171 -0.1204243593602408 0 -0.1197703960583608 -0.14611643639736929 0 -0.1055319536065798 -0.13433424813048789 0 -0.1483318871288308 -0.14990625910496369 0 -0.16449988742022109 -0.13664022397910389 0 -0.1531014227808439 -0.1221458571451004 0 -0.13445671698849809 -0.1291024538471422 0 -0.1483318871288308 -0.14990625910496369 0 -0.1531014227808439 -0.1221458571451004 0 -0.1197703960583608 -0.14611643639736929 0 -0.1483318871288308 -0.14990625910496369 0 -0.1197703960583608 -0.14611643639736929 0 -0.13445671698849809 -0.1291024538471422 0 -0.1483318871288308 -0.14990625910496369 0 -0.1197703960583608 -0.14611643639736929 0 -0.1483318871288308 -0.14990625910496369 0 -0.1290470673658046 -0.1573335562640088 0 -0.1134730054873082 -0.16498410574444861 0 -0.13461298078871861 -0.16832742380925381 0 -0.1288769000074067 -0.1787922372229141 0 -0.1134730054873082 -0.16498410574444861 0 -0.1290470673658046 -0.1573335562640088 0 -0.13461298078871861 -0.16832742380925381 0 -0.1483318871288308 -0.14990625910496369 0 -0.1290470673658046 -0.1573335562640088 0 -0.13461298078871861 -0.16832742380925381 0 -0.1288769000074067 -0.1787922372229141 0 -0.13667151748925299 -0.18732448341615179 0 -0.12964513627792831 -0.18854704193980709 0 -0.118443644943155 -0.18313735869921541 0 -0.1288769000074067 -0.1787922372229141 0 -0.12964513627792831 -0.18854704193980709 0 -0.13461298078871861 -0.16832742380925381 0 -0.1288769000074067 -0.1787922372229141 0 -0.13971937495991149 -0.1792470101286355 0 -0.13971937495991149 -0.1792470101286355 0 -0.13667151748925299 -0.18732448341615179 0 -0.14496415935730611 -0.1865433765957375 0 -0.1288769000074067 -0.1787922372229141 0 -0.13971937495991149 -0.1792470101286355 0 -0.13667151748925299 -0.18732448341615179 0 -0.13461298078871861 -0.16832742380925381 0 -0.13971937495991149 -0.1792470101286355 0 -0.15185728900885839 -0.17281716391360821 0 -0.13971937495991149 -0.1792470101286355 0 -0.14496415935730611 -0.1865433765957375 0 -0.15185728900885839 -0.17281716391360821 0 -0.14496415935730611 -0.1865433765957375 0 -0.15185728900885839 -0.17281716391360821 0 -0.15433817598466459 -0.18776234762491931 0 -0.1483318871288308 -0.14990625910496369 0 -0.13461298078871861 -0.16832742380925381 0 -0.15185728900885839 -0.17281716391360821 0 -0.1483318871288308 -0.14990625910496369 0 -0.15185728900885839 -0.17281716391360821 0 -0.1768933781993007 -0.15369608181255809 0 -0.15185728900885839 -0.17281716391360821 0 -0.16517877359736971 -0.18077311964873491 0 -0.1768933781993007 -0.15369608181255809 0 -0.16517877359736971 -0.18077311964873491 0 -0.15433817598466459 -0.18776234762491931 0 -0.16707343948115469 -0.19329854854562631 0 -0.15185728900885839 -0.17281716391360821 0 -0.16517877359736971 -0.18077311964873491 0 -0.15433817598466459 -0.18776234762491931 0 -0.16517877359736971 -0.18077311964873491 0 -0.17993745220376059 -0.17895489523397801 0 -0.16707343948115469 -0.19329854854562631 0 -0.16517877359736971 -0.18077311964873491 0 -0.17993745220376059 -0.17895489523397801 0 -0.1768933781993007 -0.15369608181255809 0 -0.17993745220376059 -0.17895489523397801 0 -0.1768933781993007 -0.15369608181255809 0 -0.19905977422349169 -0.1755558360643551 0 -0.1768933781993007 -0.15369608181255809 0 -0.17856324423929071 -0.13411692648003359 0 -0.16449988742022109 -0.13664022397910389 0 -0.1768933781993007 -0.15369608181255809 0 -0.17856324423929071 -0.13411692648003359 0 -0.1900158864605431 -0.1418606691544825 0 -0.17856324423929071 -0.13411692648003359 0 -0.1912596026832544 -0.12883579632457359 0 -0.1900158864605431 -0.1418606691544825 0 -0.17856324423929071 -0.13411692648003359 0 -0.1912596026832544 -0.12883579632457359 0 -0.18212358698306741 -0.12142770117184561 0 -0.17856324423929071 -0.13411692648003359 0 -0.18212358698306741 -0.12142770117184561 0 -0.16904936396502779 -0.1225698900008125 0 -0.16449988742022109 -0.13664022397910389 0 -0.16904936396502779 -0.1225698900008125 0 -0.1531014227808439 -0.1221458571451004 0 -0.17856324423929071 -0.13411692648003359 0 -0.16449988742022109 -0.13664022397910389 0 -0.16904936396502779 -0.1225698900008125 0 -0.1483318871288308 -0.14990625910496369 0 -0.1768933781993007 -0.15369608181255809 0 -0.1483318871288308 -0.14990625910496369 0 -0.1768933781993007 -0.15369608181255809 0 -0.16449988742022109 -0.13664022397910389 0 -0.15566934165753701 -0.24482136105764621 0 -0.13482897363606841 -0.24297815366164491 0 -0.14564999181442231 -0.22989611270817639 0 -0.15566934165753701 -0.24482136105764621 0 -0.14564999181442231 -0.22989611270817639 0 -0.16429012863802009 -0.23491512272004891 0 -0.15821309250511281 -0.26118480488572993 0 -0.15566934165753701 -0.24482136105764621 0 -0.13482897363606841 -0.24297815366164491 0 -0.1283361407779757 -0.25159171728621699 0 -0.13482897363606841 -0.24297815366164491 0 -0.1310987251445577 -0.2446583467236331 0 -0.1283361407779757 -0.25159171728621699 0 -0.1310987251445577 -0.2446583467236331 0 -0.1270777831465402 -0.24161244513161839 0 -0.1283361407779757 -0.25159171728621699 0 -0.11992695639240671 -0.24305274461581289 0 -0.1270777831465402 -0.24161244513161839 0 -0.13482897363606841 -0.24297815366164491 0 -0.1310987251445577 -0.2446583467236331 0 -0.1270777831465402 -0.24161244513161839 0 -0.13482897363606841 -0.24297815366164491 0 -0.12594535918601221 -0.23537450645762351 0 -0.1270777831465402 -0.24161244513161839 0 -0.13482897363606841 -0.24297815366164491 0 -0.12964778408632779 -0.2240559515308029 0 -0.14564999181442231 -0.22989611270817639 0 -0.13482897363606841 -0.24297815366164491 0 -0.12594535918601221 -0.23537450645762351 0 -0.12964778408632779 -0.2240559515308029 0 -0.13482897363606841 -0.24297815366164491 0 -0.12964778408632779 -0.2240559515308029 0 -0.12964778408632779 -0.2240559515308029 0 -0.14564999181442231 -0.22989611270817639 0 -0.13906082520362789 -0.21424948005767519 0 -0.14564999181442231 -0.22989611270817639 0 -0.1532157355819776 -0.21469763412746851 0 -0.16429012863802009 -0.23491512272004891 0 -0.14564999181442231 -0.22989611270817639 0 -0.1532157355819776 -0.21469763412746851 0 -0.13906082520362789 -0.21424948005767519 0 -0.1532157355819776 -0.21469763412746851 0 -0.1421413425259351 -0.1944801455348881 0 -0.14344356041104711 -0.20138231805780499 0 -0.1532157355819776 -0.21469763412746851 0 -0.1421413425259351 -0.1944801455348881 0 -0.1532157355819776 -0.21469763412746851 0 -0.13906082520362789 -0.21424948005767519 0 -0.14344356041104711 -0.20138231805780499 0 -0.12964778408632779 -0.2240559515308029 0 -0.13906082520362789 -0.21424948005767519 0 -0.12775347419704111 -0.20670520812175669 0 -0.12446659453658469 -0.2051337493999616 0 -0.12964778408632779 -0.2240559515308029 0 -0.12775347419704111 -0.20670520812175669 0 -0.12446659453658469 -0.2051337493999616 0 -0.12964778408632779 -0.2240559515308029 0 -0.1234142843990034 -0.20129061165398179 0 -0.12775347419704111 -0.20670520812175669 0 -0.1342433848347403 -0.2059710501757869 0 -0.1234142843990034 -0.20129061165398179 0 -0.12446659453658469 -0.2051337493999616 0 -0.12775347419704111 -0.20670520812175669 0 -0.12446659453658469 -0.2051337493999616 0 -0.12775347419704111 -0.20670520812175669 0 -0.13906082520362789 -0.21424948005767519 0 -0.12775347419704111 -0.20670520812175669 0 -0.1342433848347403 -0.2059710501757869 0 -0.13906082520362789 -0.21424948005767519 0 -0.1342433848347403 -0.2059710501757869 0 -0.14344356041104711 -0.20138231805780499 0 -0.13448747671815081 -0.19705371152474219 0 -0.1421413425259351 -0.1944801455348881 0 -0.14344356041104711 -0.20138231805780499 0 -0.1234142843990034 -0.20129061165398179 0 -0.1342433848347403 -0.2059710501757869 0 -0.14344356041104711 -0.20138231805780499 0 -0.1234142843990034 -0.20129061165398179 0 -0.13448747671815081 -0.19705371152474219 0 -0.14344356041104711 -0.20138231805780499 0 -0.1234142843990034 -0.20129061165398179 0 -0.14344356041104711 -0.20138231805780499 0 -0.1234142843990034 -0.20129061165398179 0 -0.13448747671815081 -0.19705371152474219 0 -0.12836978379805469 -0.19505845874684749 0 -0.118443644943155 -0.18313735869921541 0 -0.12836978379805469 -0.19505845874684749 0 -0.12964513627792831 -0.18854704193980709 0 -0.12836978379805469 -0.19505845874684749 0 -0.12964513627792831 -0.18854704193980709 0 -0.1350684124567138 -0.19305702363018909 0 -0.13448747671815081 -0.19705371152474219 0 -0.12836978379805469 -0.19505845874684749 0 -0.1350684124567138 -0.19305702363018909 0 -0.13667151748925299 -0.18732448341615179 0 -0.12964513627792831 -0.18854704193980709 0 -0.1350684124567138 -0.19305702363018909 0 -0.13448747671815081 -0.19705371152474219 0 -0.1350684124567138 -0.19305702363018909 0 -0.1421413425259351 -0.1944801455348881 0 -0.13667151748925299 -0.18732448341615179 0 -0.1350684124567138 -0.19305702363018909 0 -0.1421413425259351 -0.1944801455348881 0 -0.1532157355819776 -0.21469763412746851 0 -0.1421413425259351 -0.1944801455348881 0 -0.15666351948114629 -0.1995899832452937 0 -0.13667151748925299 -0.18732448341615179 0 -0.14496415935730611 -0.1865433765957375 0 -0.1421413425259351 -0.1944801455348881 0 -0.14496415935730611 -0.1865433765957375 0 -0.1421413425259351 -0.1944801455348881 0 -0.15433817598466459 -0.18776234762491931 0 -0.1421413425259351 -0.1944801455348881 0 -0.15433817598466459 -0.18776234762491931 0 -0.15666351948114629 -0.1995899832452937 0 -0.15433817598466459 -0.18776234762491931 0 -0.15666351948114629 -0.1995899832452937 0 -0.16707343948115469 -0.19329854854562631 0 -0.15666351948114629 -0.1995899832452937 0 -0.16707343948115469 -0.19329854854562631 0 -0.16732224548458891 -0.20842311436722119 0 -0.16707343948115469 -0.19329854854562631 0 -0.17975878066101059 -0.20042989322362739 0 -0.16732224548458891 -0.20842311436722119 0 -0.17993745220376059 -0.17895489523397801 0 -0.17975878066101059 -0.20042989322362739 0 -0.19266467917721081 -0.1936257676085566 0 -0.17993745220376059 -0.17895489523397801 0 -0.16707343948115469 -0.19329854854562631 0 -0.17975878066101059 -0.20042989322362739 0 -0.17975878066101059 -0.20042989322362739 0 -0.18070391625864071 -0.21863984915545301 0 -0.19253239785726259 -0.2093467412910768 0 -0.17975878066101059 -0.20042989322362739 0 -0.18070391625864071 -0.21863984915545301 0 -0.16732224548458891 -0.20842311436722119 0 -0.1532157355819776 -0.21469763412746851 0 -0.15666351948114629 -0.1995899832452937 0 -0.16732224548458891 -0.20842311436722119 0 -0.1532157355819776 -0.21469763412746851 0 -0.16732224548458891 -0.20842311436722119 0 -0.16429012863802009 -0.23491512272004891 0 -0.1532157355819776 -0.21469763412746851 0 -0.16429012863802009 -0.23491512272004891 0 -0.18070391625864071 -0.21863984915545301 0 -0.16732224548458891 -0.20842311436722119 0 -0.16429012863802009 -0.23491512272004891 0 -0.18070391625864071 -0.21863984915545301 0 -0.18601458812680871 -0.23629827425452701 0 -0.16429012863802009 -0.23491512272004891 0 -0.18070391625864071 -0.21863984915545301 0 -0.18601458812680871 -0.23629827425452701 0 -0.19270158591305361 -0.22296204550849591 0 -0.17536452169406261 -0.25513261131262932 0 -0.18601458812680871 -0.23629827425452701 0 -0.1971211098569064 -0.2485562144643311 0 -0.17536452169406261 -0.25513261131262932 0 -0.18601458812680871 -0.23629827425452701 0 -0.16429012863802009 -0.23491512272004891 0 -0.17536452169406261 -0.25513261131262932 0 -0.16429012863802009 -0.23491512272004891 0 -0.17536452169406261 -0.25513261131262932 0 -0.15566934165753701 -0.24482136105764621 0 -0.16429012863802009 -0.23491512272004891 0 -0.2040044810152343 -0.23377727090047351 0 -0.22181314593257209 -0.22697511150882529 0 -0.22025275826160279 -0.2471257797298928 0 -0.1971211098569064 -0.2485562144643311 0 -0.2040044810152343 -0.23377727090047351 0 -0.22025275826160279 -0.2471257797298928 0 -0.18601458812680871 -0.23629827425452701 0 -0.1971211098569064 -0.2485562144643311 0 -0.2040044810152343 -0.23377727090047351 0 -0.18601458812680871 -0.23629827425452701 0 -0.19270158591305361 -0.22296204550849591 0 -0.2040044810152343 -0.23377727090047351 0 -0.19270158591305361 -0.22296204550849591 0 -0.20646661184779291 -0.2209366033754204 0 -0.2040044810152343 -0.23377727090047351 0 -0.20646661184779291 -0.2209366033754204 0 -0.2040044810152343 -0.23377727090047351 0 -0.22181314593257209 -0.22697511150882529 0 -0.20646661184779291 -0.2209366033754204 0 -0.22181314593257209 -0.22697511150882529 0 -0.20646661184779291 -0.2209366033754204 0 -0.21966781828876961 -0.21222017746694699 0 -0.22181314593257209 -0.22697511150882529 0 -0.20646661184779291 -0.2209366033754204 0 -0.20611948272011121 -0.20304611138236681 0 -0.21966781828876961 -0.21222017746694699 0 -0.20611948272011121 -0.20304611138236681 0 -0.21897926871800019 -0.19669337567287831 0 -0.21966781828876961 -0.21222017746694699 0 -0.20646661184779291 -0.2209366033754204 0 -0.19253239785726259 -0.2093467412910768 0 -0.20611948272011121 -0.20304611138236681 0 -0.19270158591305361 -0.22296204550849591 0 -0.20646661184779291 -0.2209366033754204 0 -0.19253239785726259 -0.2093467412910768 0 -0.18070391625864071 -0.21863984915545301 0 -0.19270158591305361 -0.22296204550849591 0 -0.19253239785726259 -0.2093467412910768 0 -0.19266467917721081 -0.1936257676085566 0 -0.20611948272011121 -0.20304611138236681 0 -0.2083219237785757 -0.1873320277690235 0 -0.17975878066101059 -0.20042989322362739 0 -0.19253239785726259 -0.2093467412910768 0 -0.19266467917721081 -0.1936257676085566 0 -0.19253239785726259 -0.2093467412910768 0 -0.19266467917721081 -0.1936257676085566 0 -0.20611948272011121 -0.20304611138236681 0 -0.20611948272011121 -0.20304611138236681 0 -0.21897926871800019 -0.19669337567287831 0 -0.2083219237785757 -0.1873320277690235 0 -0.21897926871800019 -0.19669337567287831 0 -0.23230424975577199 -0.20503470769258789 0 -0.23313215691775949 -0.18450877018534409 0 -0.2448317244682672 -0.19494017856122331 0 -0.23230424975577199 -0.20503470769258789 0 -0.23313215691775949 -0.18450877018534409 0 -0.2448317244682672 -0.19494017856122331 0 -0.24405101732391901 -0.2151790953022156 0 -0.23230424975577199 -0.20503470769258789 0 -0.2448317244682672 -0.19494017856122331 0 -0.24405101732391901 -0.2151790953022156 0 -0.24405101732391901 -0.2151790953022156 0 -0.23230424975577199 -0.20503470769258789 0 -0.23232415075836929 -0.22063515516960361 0 -0.23230424975577199 -0.20503470769258789 0 -0.21966781828876961 -0.21222017746694699 0 -0.23232415075836929 -0.22063515516960361 0 -0.21897926871800019 -0.19669337567287831 0 -0.23230424975577199 -0.20503470769258789 0 -0.21966781828876961 -0.21222017746694699 0 -0.21966781828876961 -0.21222017746694699 0 -0.22181314593257209 -0.22697511150882529 0 -0.23232415075836929 -0.22063515516960361 0 -0.22181314593257209 -0.22697511150882529 0 -0.23232415075836929 -0.22063515516960361 0 -0.2371596800173508 -0.23301361964223161 0 -0.22181314593257209 -0.22697511150882529 0 -0.2371596800173508 -0.23301361964223161 0 -0.24405101732391901 -0.2151790953022156 0 -0.24327031017957049 -0.23541801204320789 0 -0.24405101732391901 -0.2151790953022156 0 -0.24327031017957049 -0.23541801204320789 0 -0.25588924886857078 -0.22577026586403889 0 -0.24405101732391901 -0.2151790953022156 0 -0.23232415075836929 -0.22063515516960361 0 -0.23916826383476761 -0.23133706037317611 0 -0.24405101732391901 -0.2151790953022156 0 -0.23916826383476761 -0.23133706037317611 0 -0.24327031017957049 -0.23541801204320789 0 -0.23916826383476761 -0.23133706037317611 0 -0.2371596800173508 -0.23301361964223161 0 -0.24327031017957049 -0.23541801204320789 0 -0.2371596800173508 -0.23301361964223161 0 -0.24327031017957049 -0.23541801204320789 0 -0.23232415075836929 -0.22063515516960361 0 -0.23916826383476761 -0.23133706037317611 0 -0.2371596800173508 -0.23301361964223161 0 -0.23916826383476761 -0.23133706037317611 0 -0.2371596800173508 -0.23301361964223161 0 -0.24233717299785959 -0.25960849866204011 0 -0.24327031017957049 -0.23541801204320789 0 -0.23442911476228809 -0.24683612341654529 0 -0.24233717299785959 -0.25960849866204011 0 -0.24327031017957049 -0.23541801204320789 0 -0.25018128361314113 -0.24746468840205441 0 -0.2371596800173508 -0.23301361964223161 0 -0.24327031017957049 -0.23541801204320789 0 -0.23442911476228809 -0.24683612341654529 0 -0.24233717299785959 -0.25960849866204011 0 -0.24327031017957049 -0.23541801204320789 0 -0.2371596800173508 -0.23301361964223161 0 -0.22025275826160279 -0.2471257797298928 0 -0.2371596800173508 -0.23301361964223161 0 -0.23442911476228809 -0.24683612341654529 0 -0.22025275826160279 -0.2471257797298928 0 -0.22181314593257209 -0.22697511150882529 0 -0.2371596800173508 -0.23301361964223161 0 -0.22025275826160279 -0.2471257797298928 0 -0.21260261997950849 -0.1372892749024191 0 -0.20545486926977061 -0.1574859045201529 0 -0.21260261997950849 -0.1372892749024191 0 -0.20545486926977061 -0.1574859045201529 0 -0.22601880180638709 -0.14497793796819641 0 -0.21260261997950849 -0.1372892749024191 0 -0.20085213665154589 -0.13643960324073179 0 -0.20545486926977061 -0.1574859045201529 0 -0.21260261997950849 -0.1372892749024191 0 -0.2197503706892443 -0.1170926452846846 0 -0.20366324778073339 -0.1226314006036201 0 -0.21260261997950849 -0.1372892749024191 0 -0.2197503706892443 -0.1170926452846846 0 -0.21260261997950849 -0.1372892749024191 0 -0.20085213665154589 -0.13643960324073179 0 -0.20366324778073339 -0.1226314006036201 0 -0.20085213665154589 -0.13643960324073179 0 -0.1912596026832544 -0.12883579632457359 0 -0.20366324778073339 -0.1226314006036201 0 -0.20085213665154589 -0.13643960324073179 0 -0.1912596026832544 -0.12883579632457359 0 -0.1900158864605431 -0.1418606691544825 0 -0.1768933781993007 -0.15369608181255809 0 -0.1900158864605431 -0.1418606691544825 0 -0.20545486926977061 -0.1574859045201529 0 -0.1768933781993007 -0.15369608181255809 0 -0.20545486926977061 -0.1574859045201529 0 -0.20085213665154589 -0.13643960324073179 0 -0.1900158864605431 -0.1418606691544825 0 -0.20545486926977061 -0.1574859045201529 0 -0.1768933781993007 -0.15369608181255809 0 -0.19905977422349169 -0.1755558360643551 0 -0.20545486926977061 -0.1574859045201529 0 -0.19905977422349169 -0.1755558360643551 0 -0.20545486926977061 -0.1574859045201529 0 -0.19266467917721081 -0.1936257676085566 0 -0.19905977422349169 -0.1755558360643551 0 -0.19266467917721081 -0.1936257676085566 0 -0.19905977422349169 -0.1755558360643551 0 -0.2083219237785757 -0.1873320277690235 0 -0.17993745220376059 -0.17895489523397801 0 -0.19266467917721081 -0.1936257676085566 0 -0.19905977422349169 -0.1755558360643551 0 -0.21897926871800019 -0.19669337567287831 0 -0.2083219237785757 -0.1873320277690235 0 -0.21860002285518379 -0.17692462022396371 0 -0.19905977422349169 -0.1755558360643551 0 -0.2083219237785757 -0.1873320277690235 0 -0.21860002285518379 -0.17692462022396371 0 -0.19905977422349169 -0.1755558360643551 0 -0.21860002285518379 -0.17692462022396371 0 -0.20545486926977061 -0.1574859045201529 0 -0.21860002285518379 -0.17692462022396371 0 -0.20545486926977061 -0.1574859045201529 0 -0.2334194436613071 -0.16119652238585741 0 -0.20545486926977061 -0.1574859045201529 0 -0.2334194436613071 -0.16119652238585741 0 -0.21860002285518379 -0.17692462022396371 0 -0.2334194436613071 -0.16119652238585741 0 -0.23313215691775949 -0.18450877018534409 0 -0.21897926871800019 -0.19669337567287831 0 -0.21860002285518379 -0.17692462022396371 0 -0.23313215691775949 -0.18450877018534409 0 -0.2448317244682672 -0.19494017856122331 0 -0.24561243161261531 -0.1747012618202311 0 -0.2448317244682672 -0.19494017856122331 0 -0.23313215691775949 -0.18450877018534409 0 -0.24561243161261531 -0.1747012618202311 0 -0.2334194436613071 -0.16119652238585741 0 -0.23313215691775949 -0.18450877018534409 0 -0.24561243161261531 -0.1747012618202311 0 -0.2334194436613071 -0.16119652238585741 0 -0.24768759332024501 -0.15288591991307249 0 -0.26138401805284373 -0.16490714025156239 0 -0.2334194436613071 -0.16119652238585741 0 -0.24561243161261531 -0.1747012618202311 0 -0.26138401805284373 -0.16490714025156239 0 -0.2334194436613071 -0.16119652238585741 0 -0.26138401805284373 -0.16490714025156239 0 -0.24768759332024501 -0.15288591991307249 0 -0.24035206963199701 -0.13773520297616959 0 -0.25066558347885931 -0.13251764995053431 0 -0.23716828236838119 -0.14842713651880179 0 -0.22601880180638709 -0.14497793796819641 0 -0.24035206963199701 -0.13773520297616959 0 -0.24768759332024501 -0.15288591991307249 0 -0.23716828236838119 -0.14842713651880179 0 -0.24035206963199701 -0.13773520297616959 0 -0.2334194436613071 -0.16119652238585741 0 -0.24768759332024501 -0.15288591991307249 0 -0.23716828236838119 -0.14842713651880179 0 -0.20545486926977061 -0.1574859045201529 0 -0.2334194436613071 -0.16119652238585741 0 -0.22601880180638709 -0.14497793796819641 0 -0.2334194436613071 -0.16119652238585741 0 -0.23716828236838119 -0.14842713651880179 0 -0.22601880180638709 -0.14497793796819641 0 -0.21260261997950849 -0.1372892749024191 0 -0.22701037204806629 -0.12800517972509859 0 -0.2197503706892443 -0.1170926452846846 0 -0.22601880180638709 -0.14497793796819641 0 -0.22701037204806629 -0.12800517972509859 0 -0.24035206963199701 -0.13773520297616959 0 -0.21260261997950849 -0.1372892749024191 0 -0.22601880180638709 -0.14497793796819641 0 -0.22701037204806629 -0.12800517972509859 0 -0.22701037204806629 -0.12800517972509859 0 -0.23833475363582929 -0.12699719077821001 0 -0.24035206963199701 -0.13773520297616959 0 -0.23833475363582929 -0.12699719077821001 0 -0.24035206963199701 -0.13773520297616959 0 -0.25066558347885931 -0.13251764995053431 0 -0.23833475363582929 -0.12699719077821001 0 -0.2466021228926524 -0.1215603100838341 0 -0.25066558347885931 -0.13251764995053431 0 -0.2466021228926524 -0.1215603100838341 0 -0.23420880670407421 -0.115344861449812 0 -0.25028307647261949 -0.1119170655065333 0 -0.23833475363582929 -0.12699719077821001 0 -0.2466021228926524 -0.1215603100838341 0 -0.23420880670407421 -0.115344861449812 0 -0.23975108867161321 -0.096745383671773488 0 -0.23420880670407421 -0.115344861449812 0 -0.25028307647261949 -0.1119170655065333 0 -0.23975108867161321 -0.096745383671773488 0 -0.25028307647261949 -0.1119170655065333 0 -0.25454071313255938 -0.097810231909066098 0 -0.23975108867161321 -0.096745383671773488 0 -0.22550089202944229 -0.1008440162637169 0 -0.23125141336964011 -0.084595387242749231 0 -0.23975108867161321 -0.096745383671773488 0 -0.22550089202944229 -0.1008440162637169 0 -0.23420880670407421 -0.115344861449812 0 -0.22550089202944229 -0.1008440162637169 0 -0.23125141336964011 -0.084595387242749231 0 -0.20770402821161371 -0.098985744105056478 0 -0.22550089202944229 -0.1008440162637169 0 -0.2197503706892443 -0.1170926452846846 0 -0.22550089202944229 -0.1008440162637169 0 -0.2197503706892443 -0.1170926452846846 0 -0.23420880670407421 -0.115344861449812 0 -0.22701037204806629 -0.12800517972509859 0 -0.2197503706892443 -0.1170926452846846 0 -0.22701037204806629 -0.12800517972509859 0 -0.2197503706892443 -0.1170926452846846 0 -0.23420880670407421 -0.115344861449812 0 -0.22701037204806629 -0.12800517972509859 0 -0.23833475363582929 -0.12699719077821001 0 -0.23420880670407421 -0.115344861449812 0 -0.24621250417125429 -0.067242688607955695 0 -0.2359213828018043 -0.071399957410672343 0 -0.2460442741291925 -0.056732515276429897 0 -0.24101683233652779 -0.07862751170581421 0 -0.252754029676304 -0.071454636367457428 0 -0.24621250417125429 -0.067242688607955695 0 -0.24101683233652779 -0.07862751170581421 0 -0.252754029676304 -0.071454636367457428 0 -0.2359213828018043 -0.071399957410672343 0 -0.24101683233652779 -0.07862751170581421 0 -0.24621250417125429 -0.067242688607955695 0 -0.2359213828018043 -0.071399957410672343 0 -0.24101683233652779 -0.07862751170581421 0 -0.24101683233652779 -0.07862751170581421 0 -0.25454071313255938 -0.097810231909066098 0 -0.23975108867161321 -0.096745383671773488 0 -0.24101683233652779 -0.07862751170581421 0 -0.25454071313255938 -0.097810231909066098 0 -0.23975108867161321 -0.096745383671773488 0 -0.24101683233652779 -0.07862751170581421 0 -0.23125141336964011 -0.084595387242749231 0 -0.24101683233652779 -0.07862751170581421 0 -0.23125141336964011 -0.084595387242749231 0 -0.2359213828018043 -0.071399957410672343 0 -0.24101683233652779 -0.07862751170581421 0 -0.23125141336964011 -0.084595387242749231 0 -0.23125141336964011 -0.084595387242749231 0 -0.2244703125416819 -0.072794076224461268 0 -0.21310247649950159 -0.079773441579648038 0 -0.23125141336964011 -0.084595387242749231 0 -0.20770402821161371 -0.098985744105056478 0 -0.22550089202944229 -0.1008440162637169 0 -0.23125141336964011 -0.084595387242749231 0 -0.2359213828018043 -0.071399957410672343 0 -0.2235514570548072 -0.053854045248439182 0 -0.2244703125416819 -0.072794076224461268 0 -0.21482267827762841 -0.069082647852091478 0 -0.2235514570548072 -0.053854045248439182 0 -0.2359213828018043 -0.071399957410672343 0 -0.2244703125416819 -0.072794076224461268 0 -0.2235514570548072 -0.053854045248439182 0 -0.2359213828018043 -0.071399957410672343 0 -0.23125141336964011 -0.084595387242749231 0 -0.2244703125416819 -0.072794076224461268 0 -0.2359213828018043 -0.071399957410672343 0 -0.23125141336964011 -0.084595387242749231 0 -0.20472732395068391 -0.070425609547595483 0 -0.21310247649950159 -0.079773441579648038 0 -0.1942101978544846 -0.078703118630565005 0 -0.21482267827762841 -0.069082647852091478 0 -0.20472732395068391 -0.070425609547595483 0 -0.20783277774853701 -0.056374475910446593 0 -0.2244703125416819 -0.072794076224461268 0 -0.21482267827762841 -0.069082647852091478 0 -0.21310247649950159 -0.079773441579648038 0 -0.21482267827762841 -0.069082647852091478 0 -0.20472732395068391 -0.070425609547595483 0 -0.21310247649950159 -0.079773441579648038 0 -0.23125141336964011 -0.084595387242749231 0 -0.21310247649950159 -0.079773441579648038 0 -0.20770402821161371 -0.098985744105056478 0 -0.21310247649950159 -0.079773441579648038 0 -0.1942101978544846 -0.078703118630565005 0 -0.20770402821161371 -0.098985744105056478 0 -0.1942101978544846 -0.078703118630565005 0 -0.20770402821161371 -0.098985744105056478 0 -0.1942101978544846 -0.078703118630565005 0 -0.20770402821161371 -0.098985744105056478 0 -0.19331927689223261 -0.094690670375105077 0 -0.1942101978544846 -0.078703118630565005 0 -0.19331927689223261 -0.094690670375105077 0 -0.1804061946459036 -0.0975656506999769 0 -0.1942101978544846 -0.078703118630565005 0 -0.1807163674973549 -0.058420493156073998 0 -0.19569491766720151 -0.061370611856350392 0 -0.20472732395068391 -0.070425609547595483 0 -0.1942101978544846 -0.078703118630565005 0 -0.19569491766720151 -0.061370611856350392 0 -0.20472732395068391 -0.070425609547595483 0 -0.19569491766720151 -0.061370611856350392 0 -0.20783277774853701 -0.056374475910446593 0 -0.2197503706892443 -0.1170926452846846 0 -0.20366324778073339 -0.1226314006036201 0 -0.20770402821161371 -0.098985744105056478 0 -0.22550089202944229 -0.1008440162637169 0 -0.2197503706892443 -0.1170926452846846 0 -0.20770402821161371 -0.098985744105056478 0 -0.2197503706892443 -0.1170926452846846 0 -0.20770402821161371 -0.098985744105056478 0 -0.20770402821161371 -0.098985744105056478 0 -0.19331927689223261 -0.094690670375105077 0 -0.18400427859456039 -0.1134692144457318 0 -0.20770402821161371 -0.098985744105056478 0 -0.18400427859456039 -0.1134692144457318 0 -0.20770402821161371 -0.098985744105056478 0 -0.19170728544238649 -0.1194909919475228 0 -0.18400427859456039 -0.1134692144457318 0 -0.20366324778073339 -0.1226314006036201 0 -0.20770402821161371 -0.098985744105056478 0 -0.19170728544238649 -0.1194909919475228 0 -0.1912596026832544 -0.12883579632457359 0 -0.20366324778073339 -0.1226314006036201 0 -0.19170728544238649 -0.1194909919475228 0 -0.1912596026832544 -0.12883579632457359 0 -0.19170728544238649 -0.1194909919475228 0 -0.18212358698306741 -0.12142770117184561 0 -0.18212358698306741 -0.12142770117184561 0 -0.18400427859456039 -0.1134692144457318 0 -0.1804061946459036 -0.0975656506999769 0 -0.18212358698306741 -0.12142770117184561 0 -0.17231042801981861 -0.11010941660198729 0 -0.1804061946459036 -0.0975656506999769 0 -0.19170728544238649 -0.1194909919475228 0 -0.18212358698306741 -0.12142770117184561 0 -0.18400427859456039 -0.1134692144457318 0 -0.18212358698306741 -0.12142770117184561 0 -0.1804061946459036 -0.0975656506999769 0 -0.18212358698306741 -0.12142770117184561 0 -0.17231042801981861 -0.11010941660198729 0 -0.16904936396502779 -0.1225698900008125 0 -0.16904936396502779 -0.1225698900008125 0 -0.16303186383997401 -0.11054530689275879 0 -0.1531014227808439 -0.1221458571451004 0 -0.16303186383997401 -0.11054530689275879 0 -0.1531014227808439 -0.1221458571451004 0 -0.15302467802266631 -0.099964594768007481 0 -0.17231042801981861 -0.11010941660198729 0 -0.16904936396502779 -0.1225698900008125 0 -0.16303186383997401 -0.11054530689275879 0 -0.16694113066512001 -0.098438534244542714 0 -0.1583311292500037 -0.086155785580523059 0 -0.15302467802266631 -0.099964594768007481 0 -0.16303186383997401 -0.11054530689275879 0 -0.16694113066512001 -0.098438534244542714 0 -0.15302467802266631 -0.099964594768007481 0 -0.17231042801981861 -0.11010941660198729 0 -0.16303186383997401 -0.11054530689275879 0 -0.16694113066512001 -0.098438534244542714 0 -0.16694113066512001 -0.098438534244542714 0 -0.1804061946459036 -0.0975656506999769 0 -0.1699979234477183 -0.086164615643162509 0 -0.19331927689223261 -0.094690670375105077 0 -0.18400427859456039 -0.1134692144457318 0 -0.1804061946459036 -0.0975656506999769 0 -0.17231042801981861 -0.11010941660198729 0 -0.16694113066512001 -0.098438534244542714 0 -0.1804061946459036 -0.0975656506999769 0 -0.1942101978544846 -0.078703118630565005 0 -0.1804061946459036 -0.0975656506999769 0 -0.17868880230873979 -0.073703600228108263 0 -0.1804061946459036 -0.0975656506999769 0 -0.17868880230873979 -0.073703600228108263 0 -0.1804061946459036 -0.0975656506999769 0 -0.17868880230873979 -0.073703600228108263 0 -0.1699979234477183 -0.086164615643162509 0 -0.1942101978544846 -0.078703118630565005 0 -0.17868880230873979 -0.073703600228108263 0 -0.1807163674973549 -0.058420493156073998 0 -0.1942101978544846 -0.078703118630565005 0 -0.1807163674973549 -0.058420493156073998 0 -0.17868880230873979 -0.073703600228108263 0 -0.16456215259537851 -0.07423447470758808 0 -0.1687761726195266 -0.062055246708151823 0 -0.16456215259537851 -0.07423447470758808 0 -0.1601060057786266 -0.063048208625582775 0 -0.1687761726195266 -0.062055246708151823 0 -0.17868880230873979 -0.073703600228108263 0 -0.16456215259537851 -0.07423447470758808 0 -0.1699979234477183 -0.086164615643162509 0 -0.16456215259537851 -0.07423447470758808 0 -0.1601060057786266 -0.063048208625582775 0 -0.15147288216765581 -0.074279391460000108 0 -0.16694113066512001 -0.098438534244542714 0 -0.1699979234477183 -0.086164615643162509 0 -0.1583311292500037 -0.086155785580523059 0 -0.16456215259537851 -0.07423447470758808 0 -0.1699979234477183 -0.086164615643162509 0 -0.1583311292500037 -0.086155785580523059 0 -0.16456215259537851 -0.07423447470758808 0 -0.1583311292500037 -0.086155785580523059 0 -0.15147288216765581 -0.074279391460000108 0 -0.1583311292500037 -0.086155785580523059 0 -0.1406917504718985 -0.083199174386461974 0 -0.15147288216765581 -0.074279391460000108 0 -0.1583311292500037 -0.086155785580523059 0 -0.1406917504718985 -0.083199174386461974 0 -0.15302467802266631 -0.099964594768007481 0 -0.1601060057786266 -0.063048208625582775 0 -0.15147288216765581 -0.074279391460000108 0 -0.14916280428309589 -0.053864076679432472 0 -0.15147288216765581 -0.074279391460000108 0 -0.13891648936515211 -0.064472249171247775 0 -0.14916280428309589 -0.053864076679432472 0 -0.1406917504718985 -0.083199174386461974 0 -0.15147288216765581 -0.074279391460000108 0 -0.13891648936515211 -0.064472249171247775 0 -0.12197003300458489 -0.067133964797042034 0 -0.1406917504718985 -0.083199174386461974 0 -0.13891648936515211 -0.064472249171247775 0 -0.121811479392537 -0.084095963505499416 0 -0.12197003300458489 -0.067133964797042034 0 -0.1406917504718985 -0.083199174386461974 0 -0.121811479392537 -0.084095963505499416 0 -0.1406917504718985 -0.083199174386461974 0 -0.13931556210068971 -0.10629227142291391 0 -0.11605893441195141 -0.10185107539240761 0 -0.121811479392537 -0.084095963505499416 0 -0.13931556210068971 -0.10629227142291391 0 -0.11422347955810171 -0.1204243593602408 0 -0.13931556210068971 -0.10629227142291391 0 -0.11422347955810171 -0.1204243593602408 0 -0.13445671698849809 -0.1291024538471422 0 -0.13931556210068971 -0.10629227142291391 0 -0.13445671698849809 -0.1291024538471422 0 -0.13931556210068971 -0.10629227142291391 0 -0.1531014227808439 -0.1221458571451004 0 -0.13931556210068971 -0.10629227142291391 0 -0.1531014227808439 -0.1221458571451004 0 -0.15302467802266631 -0.099964594768007481 0 -0.1406917504718985 -0.083199174386461974 0 -0.13931556210068971 -0.10629227142291391 0 -0.15302467802266631 -0.099964594768007481 0 -0.14079925107272581 -0.02334449083682992 0 -0.15349169287978739 -0.035208883327978051 0 -0.15939520176274349 -0.015620398581745401 0 -0.14079925107272581 -0.02334449083682992 0 -0.14275634286812811 -0.006203461430080404 0 -0.15939520176274349 -0.015620398581745401 0 -0.14275634286812811 -0.006203461430080404 0 -0.15939520176274349 -0.015620398581745401 0 -0.15796117991031841 -0.00029962151665172479 0 -0.14079925107272581 -0.02334449083682992 0 -0.14275634286812811 -0.006203461430080404 0 -0.1278640484455188 -0.012334690821253821 0 -0.14275634286812811 -0.006203461430080404 0 -0.1278640484455188 -0.012334690821253821 0 -0.1273771369441013 0.0023450629401116992 0 -0.12411398995058071 -0.026208981462584841 0 -0.14079925107272581 -0.02334449083682992 0 -0.1278640484455188 -0.012334690821253821 0 -0.12411398995058071 -0.026208981462584841 0 -0.14079925107272581 -0.02334449083682992 0 -0.13241258759658719 -0.044529255409706578 0 -0.13891648936515211 -0.064472249171247775 0 -0.13241258759658719 -0.044529255409706578 0 -0.14916280428309589 -0.053864076679432472 0 -0.12197003300458489 -0.067133964797042034 0 -0.13891648936515211 -0.064472249171247775 0 -0.13241258759658719 -0.044529255409706578 0 -0.14079925107272581 -0.02334449083682992 0 -0.13241258759658719 -0.044529255409706578 0 -0.15349169287978739 -0.035208883327978051 0 -0.14916280428309589 -0.053864076679432472 0 -0.15349169287978739 -0.035208883327978051 0 -0.16249228466986629 -0.048723367468166891 0 -0.13241258759658719 -0.044529255409706578 0 -0.14916280428309589 -0.053864076679432472 0 -0.15349169287978739 -0.035208883327978051 0 -0.15349169287978739 -0.035208883327978051 0 -0.16249228466986629 -0.048723367468166891 0 -0.17525401763441231 -0.025979499284370731 0 -0.16249228466986629 -0.048723367468166891 0 -0.17697140997157609 -0.049841549756239563 0 -0.17525401763441231 -0.025979499284370731 0 -0.1601060057786266 -0.063048208625582775 0 -0.14916280428309589 -0.053864076679432472 0 -0.16249228466986629 -0.048723367468166891 0 -0.1601060057786266 -0.063048208625582775 0 -0.16249228466986629 -0.048723367468166891 0 -0.1687761726195266 -0.062055246708151823 0 -0.16249228466986629 -0.048723367468166891 0 -0.1687761726195266 -0.062055246708151823 0 -0.17697140997157609 -0.049841549756239563 0 -0.17868880230873979 -0.073703600228108263 0 -0.17697140997157609 -0.049841549756239563 0 -0.17868880230873979 -0.073703600228108263 0 -0.17697140997157609 -0.049841549756239563 0 -0.1807163674973549 -0.058420493156073998 0 -0.17868880230873979 -0.073703600228108263 0 -0.1687761726195266 -0.062055246708151823 0 -0.17697140997157609 -0.049841549756239563 0 -0.17697140997157609 -0.049841549756239563 0 -0.187061179232277 -0.050545000195171969 0 -0.1807163674973549 -0.058420493156073998 0 -0.17697140997157609 -0.049841549756239563 0 -0.17525401763441231 -0.025979499284370731 0 -0.17697140997157609 -0.049841549756239563 0 -0.1844822702309237 -0.037308153316215523 0 -0.17525401763441231 -0.025979499284370731 0 -0.17697140997157609 -0.049841549756239563 0 -0.187061179232277 -0.050545000195171969 0 -0.1844822702309237 -0.037308153316215523 0 -0.1844822702309237 -0.037308153316215523 0 -0.17525401763441231 -0.025979499284370731 0 -0.19881160556081021 -0.01876222092397466 0 -0.17525401763441231 -0.025979499284370731 0 -0.17967452986780849 -0.0030086181600807401 0 -0.19881160556081021 -0.01876222092397466 0 -0.15349169287978739 -0.035208883327978051 0 -0.17525401763441231 -0.025979499284370731 0 -0.15939520176274349 -0.015620398581745401 0 -0.17525401763441231 -0.025979499284370731 0 -0.15939520176274349 -0.015620398581745401 0 -0.17967452986780849 -0.0030086181600807401 0 -0.15939520176274349 -0.015620398581745401 0 -0.15796117991031841 -0.00029962151665172479 0 -0.17967452986780849 -0.0030086181600807401 0 -0.17967452986780849 -0.0030086181600807401 0 -0.19881160556081021 -0.01876222092397466 0 -0.20680301002479959 -0.0020434230711429339 0 -0.1844822702309237 -0.037308153316215523 0 -0.19881160556081021 -0.01876222092397466 0 -0.19797908447346779 -0.034540675054344362 0 -0.19881160556081021 -0.01876222092397466 0 -0.19797908447346779 -0.034540675054344362 0 -0.2111815313078087 -0.036308133086206937 0 -0.19881160556081021 -0.01876222092397466 0 -0.2111815313078087 -0.036308133086206937 0 -0.19881160556081021 -0.01876222092397466 0 -0.2111815313078087 -0.036308133086206937 0 -0.21993326537292579 -0.016570742696256829 0 -0.19881160556081021 -0.01876222092397466 0 -0.20680301002479959 -0.0020434230711429339 0 -0.21993326537292579 -0.016570742696256829 0 -0.20680301002479959 -0.0020434230711429339 0 -0.21993326537292579 -0.016570742696256829 0 -0.22850437187820721 0.00061554774341724197 0 -0.187061179232277 -0.050545000195171969 0 -0.1807163674973549 -0.058420493156073998 0 -0.19569491766720151 -0.061370611856350392 0 -0.187061179232277 -0.050545000195171969 0 -0.19569491766720151 -0.061370611856350392 0 -0.1974409307943287 -0.045784192890980333 0 -0.19569491766720151 -0.061370611856350392 0 -0.1974409307943287 -0.045784192890980333 0 -0.20783277774853701 -0.056374475910446593 0 -0.187061179232277 -0.050545000195171969 0 -0.1844822702309237 -0.037308153316215523 0 -0.1974409307943287 -0.045784192890980333 0 -0.1844822702309237 -0.037308153316215523 0 -0.1974409307943287 -0.045784192890980333 0 -0.19797908447346779 -0.034540675054344362 0 -0.1974409307943287 -0.045784192890980333 0 -0.19797908447346779 -0.034540675054344362 0 -0.2111815313078087 -0.036308133086206937 0 -0.1974409307943287 -0.045784192890980333 0 -0.2111815313078087 -0.036308133086206937 0 -0.20783277774853701 -0.056374475910446593 0 -0.2111815313078087 -0.036308133086206937 0 -0.2235514570548072 -0.053854045248439182 0 -0.21482267827762841 -0.069082647852091478 0 -0.20783277774853701 -0.056374475910446593 0 -0.2235514570548072 -0.053854045248439182 0 -0.2111815313078087 -0.036308133086206937 0 -0.20783277774853701 -0.056374475910446593 0 -0.2235514570548072 -0.053854045248439182 0 -0.2359213828018043 -0.071399957410672343 0 -0.2235514570548072 -0.053854045248439182 0 -0.23385975453729951 -0.05448316257834377 0 -0.2235514570548072 -0.053854045248439182 0 -0.23385975453729951 -0.05448316257834377 0 -0.23195090370150159 -0.044148728843497582 0 -0.2111815313078087 -0.036308133086206937 0 -0.23195090370150159 -0.044148728843497582 0 -0.2330954250503823 -0.030605580137893669 0 -0.2111815313078087 -0.036308133086206937 0 -0.2235514570548072 -0.053854045248439182 0 -0.23195090370150159 -0.044148728843497582 0 -0.2440152745910836 -0.048529918810766987 0 -0.25210916638036568 -0.025659880210862549 0 -0.23195090370150159 -0.044148728843497582 0 -0.2440152745910836 -0.048529918810766987 0 -0.2330954250503823 -0.030605580137893669 0 -0.2440152745910836 -0.048529918810766987 0 -0.2330954250503823 -0.030605580137893669 0 -0.25210916638036568 -0.025659880210862549 0 -0.2359213828018043 -0.071399957410672343 0 -0.2440152745910836 -0.048529918810766987 0 -0.2460442741291925 -0.056732515276429897 0 -0.2359213828018043 -0.071399957410672343 0 -0.2440152745910836 -0.048529918810766987 0 -0.2359213828018043 -0.071399957410672343 0 -0.23385975453729951 -0.05448316257834377 0 -0.2440152745910836 -0.048529918810766987 0 -0.23385975453729951 -0.05448316257834377 0 -0.23195090370150159 -0.044148728843497582 0 -0.2440152745910836 -0.048529918810766987 0 -0.2440152745910836 -0.048529918810766987 0 -0.2460442741291925 -0.056732515276429897 0 -0.25586239660102372 -0.042106716883949957 0 -0.21993326537292579 -0.016570742696256829 0 -0.2409228609234593 -0.01213331886889705 0 -0.22850437187820721 0.00061554774341724197 0 -0.21993326537292579 -0.016570742696256829 0 -0.2330954250503823 -0.030605580137893669 0 -0.2409228609234593 -0.01213331886889705 0 -0.2111815313078087 -0.036308133086206937 0 -0.21993326537292579 -0.016570742696256829 0 -0.2330954250503823 -0.030605580137893669 0 -0.2330954250503823 -0.030605580137893669 0 -0.2409228609234593 -0.01213331886889705 0 -0.25210916638036568 -0.025659880210862549 0 -0.2409228609234593 -0.01213331886889705 0 -0.25132042997239518 0.0027134119798401068 0 -0.22850437187820721 0.00061554774341724197 0 -0.2409228609234593 -0.01213331886889705 0 -0.26431478179583978 -0.01186883573312463 0 -0.25132042997239518 0.0027134119798401068 0 -0.2409228609234593 -0.01213331886889705 0 -0.26431478179583978 -0.01186883573312463 0 -0.25210916638036568 -0.025659880210862549 0 -0.26431478179583978 -0.01186883573312463 0 -0.25210916638036568 -0.025659880210862549 0 -0.26885463380623098 -0.032431385670777198 0 -0.26431478179583978 -0.01186883573312463 0 -0.28272693982295583 -0.022072801118422261 0 -0.26885463380623098 -0.032431385670777198 0 -0.26431478179583978 -0.01186883573312463 0 -0.2820771903446922 -0.0013122005201030101 0 -0.28272693982295583 -0.022072801118422261 0 -0.26431478179583978 -0.01186883573312463 0 -0.2820771903446922 -0.0013122005201030101 0 -0.26646431581863778 0.01029557754540468 0 -0.2820771903446922 -0.0013122005201030101 0 -0.29531588189047731 -0.01459302740547606 0 -0.28272693982295583 -0.022072801118422261 0 -0.2820771903446922 -0.0013122005201030101 0 -0.29531588189047731 -0.01459302740547606 0 -0.30047775033007851 -0.00039401612408775783 0 -0.28272693982295583 -0.022072801118422261 0 -0.29548818451705972 -0.026431314805352931 0 -0.29006158744840338 -0.043009214960059237 0 -0.29531588189047731 -0.01459302740547606 0 -0.28272693982295583 -0.022072801118422261 0 -0.29548818451705972 -0.026431314805352931 0 -0.30546101391149699 -0.021623392358951481 0 -0.31536924438116293 -0.015921951660718081 0 -0.31269309410946189 -0.035953378537937578 0 -0.29531588189047731 -0.01459302740547606 0 -0.29548818451705972 -0.026431314805352931 0 -0.30546101391149699 -0.021623392358951481 0 -0.29548818451705972 -0.026431314805352931 0 -0.30546101391149699 -0.021623392358951481 0 -0.30306546886548719 -0.032455918975325043 0 -0.30546101391149699 -0.021623392358951481 0 -0.31269309410946189 -0.035953378537937578 0 -0.30546101391149699 -0.021623392358951481 0 -0.30306546886548719 -0.032455918975325043 0 -0.31269309410946189 -0.035953378537937578 0 -0.30546101391149699 -0.021623392358951481 0 -0.30702321298661528 -0.0098616365840560535 0 -0.31536924438116293 -0.015921951660718081 0 -0.30702321298661528 -0.0098616365840560535 0 -0.30047775033007851 -0.00039401612408775783 0 -0.31849217441985911 0.0032242046289520012 0 -0.29531588189047731 -0.01459302740547606 0 -0.30702321298661528 -0.0098616365840560535 0 -0.30047775033007851 -0.00039401612408775783 0 -0.29531588189047731 -0.01459302740547606 0 -0.30546101391149699 -0.021623392358951481 0 -0.30702321298661528 -0.0098616365840560535 0 -0.30785263576887473 -0.062005008750064983 0 -0.31269309410946189 -0.035953378537937578 0 -0.30785263576887473 -0.062005008750064983 0 -0.29006158744840338 -0.043009214960059237 0 -0.31269309410946189 -0.035953378537937578 0 -0.30306546886548719 -0.032455918975325043 0 -0.29006158744840338 -0.043009214960059237 0 -0.31269309410946189 -0.035953378537937578 0 -0.29006158744840338 -0.043009214960059237 0 -0.31269309410946189 -0.035953378537937578 0 -0.29548818451705972 -0.026431314805352931 0 -0.30306546886548719 -0.032455918975325043 0 -0.29006158744840338 -0.043009214960059237 0 -0.30785263576887473 -0.062005008750064983 0 -0.29006158744840338 -0.043009214960059237 0 -0.29043964680931811 -0.063340758069959313 0 -0.29006158744840338 -0.043009214960059237 0 -0.27571433008302992 -0.061323808156972907 0 -0.29043964680931811 -0.063340758069959313 0 -0.27571433008302992 -0.061323808156972907 0 -0.26805293078879788 -0.049870865118244581 0 -0.25908974683711639 -0.062912752445689821 0 -0.29006158744840338 -0.043009214960059237 0 -0.27571433008302992 -0.061323808156972907 0 -0.26805293078879788 -0.049870865118244581 0 -0.28272693982295583 -0.022072801118422261 0 -0.29006158744840338 -0.043009214960059237 0 -0.26885463380623098 -0.032431385670777198 0 -0.29006158744840338 -0.043009214960059237 0 -0.26805293078879788 -0.049870865118244581 0 -0.29006158744840338 -0.043009214960059237 0 -0.26805293078879788 -0.049870865118244581 0 -0.26885463380623098 -0.032431385670777198 0 -0.2440152745910836 -0.048529918810766987 0 -0.25210916638036568 -0.025659880210862549 0 -0.25586239660102372 -0.042106716883949957 0 -0.26805293078879788 -0.049870865118244581 0 -0.26885463380623098 -0.032431385670777198 0 -0.25586239660102372 -0.042106716883949957 0 -0.25210916638036568 -0.025659880210862549 0 -0.26885463380623098 -0.032431385670777198 0 -0.25586239660102372 -0.042106716883949957 0 -0.2460442741291925 -0.056732515276429897 0 -0.26805293078879788 -0.049870865118244581 0 -0.2460442741291925 -0.056732515276429897 0 -0.26805293078879788 -0.049870865118244581 0 -0.25908974683711639 -0.062912752445689821 0 -0.2460442741291925 -0.056732515276429897 0 -0.26805293078879788 -0.049870865118244581 0 -0.25586239660102372 -0.042106716883949957 0 -0.24621250417125429 -0.067242688607955695 0 -0.2460442741291925 -0.056732515276429897 0 -0.25908974683711639 -0.062912752445689821 0 -0.24621250417125429 -0.067242688607955695 0 -0.25908974683711639 -0.062912752445689821 0 -0.252754029676304 -0.071454636367457428 0 -0.24101683233652779 -0.07862751170581421 0 -0.252754029676304 -0.071454636367457428 0 -0.26402766811367417 -0.083484384069295273 0 -0.25908974683711639 -0.062912752445689821 0 -0.252754029676304 -0.071454636367457428 0 -0.26621243399467659 -0.070844567870559746 0 -0.252754029676304 -0.071454636367457428 0 -0.26402766811367417 -0.083484384069295273 0 -0.26621243399467659 -0.070844567870559746 0 -0.24101683233652779 -0.07862751170581421 0 -0.26402766811367417 -0.083484384069295273 0 -0.25454071313255938 -0.097810231909066098 0 -0.26402766811367417 -0.083484384069295273 0 -0.27094601368544552 -0.10060299140421709 0 -0.28369928052750421 -0.089996057638050242 0 -0.26402766811367417 -0.083484384069295273 0 -0.27947639526325851 -0.075047258313383283 0 -0.28369928052750421 -0.089996057638050242 0 -0.27571433008302992 -0.061323808156972907 0 -0.25908974683711639 -0.062912752445689821 0 -0.26621243399467659 -0.070844567870559746 0 -0.27571433008302992 -0.061323808156972907 0 -0.27947639526325851 -0.075047258313383283 0 -0.26621243399467659 -0.070844567870559746 0 -0.26402766811367417 -0.083484384069295273 0 -0.27947639526325851 -0.075047258313383283 0 -0.26621243399467659 -0.070844567870559746 0 -0.25700205454408459 -0.1228995308742117 0 -0.25028307647261949 -0.1119170655065333 0 -0.26806459392859111 -0.11699295211231781 0 -0.25700205454408459 -0.1228995308742117 0 -0.26806459392859111 -0.11699295211231781 0 -0.26633673802341562 -0.13121143084146969 0 -0.2466021228926524 -0.1215603100838341 0 -0.25700205454408459 -0.1228995308742117 0 -0.25028307647261949 -0.1119170655065333 0 -0.25454071313255938 -0.097810231909066098 0 -0.27094601368544552 -0.10060299140421709 0 -0.26806459392859111 -0.11699295211231781 0 -0.25028307647261949 -0.1119170655065333 0 -0.25454071313255938 -0.097810231909066098 0 -0.26806459392859111 -0.11699295211231781 0 -0.25454071313255938 -0.097810231909066098 0 -0.26806459392859111 -0.11699295211231781 0 -0.26402766811367417 -0.083484384069295273 0 -0.25454071313255938 -0.097810231909066098 0 -0.27094601368544552 -0.10060299140421709 0 -0.27094601368544552 -0.10060299140421709 0 -0.28498588272658609 -0.10953694176986691 0 -0.28369928052750421 -0.089996057638050242 0 -0.27094601368544552 -0.10060299140421709 0 -0.26806459392859111 -0.11699295211231781 0 -0.28498588272658609 -0.10953694176986691 0 -0.26806459392859111 -0.11699295211231781 0 -0.28498588272658609 -0.10953694176986691 0 -0.26633673802341562 -0.13121143084146969 0 -0.28498588272658609 -0.10953694176986691 0 -0.26633673802341562 -0.13121143084146969 0 -0.28390483366507108 -0.12795146285425149 0 -0.28498588272658609 -0.10953694176986691 0 -0.26633673802341562 -0.13121143084146969 0 -0.28498588272658609 -0.10953694176986691 0 -0.29939047470698632 -0.1138850881088251 0 -0.28390483366507108 -0.12795146285425149 0 -0.28498588272658609 -0.10953694176986691 0 -0.29939047470698632 -0.1138850881088251 0 -0.30363502742975002 -0.087862452698258112 0 -0.28498588272658609 -0.10953694176986691 0 -0.28369928052750421 -0.089996057638050242 0 -0.30363502742975002 -0.087862452698258112 0 -0.28498588272658609 -0.10953694176986691 0 -0.30363502742975002 -0.087862452698258112 0 -0.31112038415555038 -0.105912916312301 0 -0.30363502742975002 -0.087862452698258112 0 -0.31872509099925939 -0.09489525911115787 0 -0.29939047470698632 -0.1138850881088251 0 -0.30363502742975002 -0.087862452698258112 0 -0.31112038415555038 -0.105912916312301 0 -0.29939047470698632 -0.1138850881088251 0 -0.30363502742975002 -0.087862452698258112 0 -0.31112038415555038 -0.105912916312301 0 -0.29939047470698632 -0.1138850881088251 0 -0.3108150907057583 -0.123289039988229 0 -0.27571433008302992 -0.061323808156972907 0 -0.27947639526325851 -0.075047258313383283 0 -0.29043964680931811 -0.063340758069959313 0 -0.27947639526325851 -0.075047258313383283 0 -0.29326350469267087 -0.075637034816957854 0 -0.29043964680931811 -0.063340758069959313 0 -0.27947639526325851 -0.075047258313383283 0 -0.29326350469267087 -0.075637034816957854 0 -0.28369928052750421 -0.089996057638050242 0 -0.29326350469267087 -0.075637034816957854 0 -0.28369928052750421 -0.089996057638050242 0 -0.30363502742975002 -0.087862452698258112 0 -0.30363502742975002 -0.087862452698258112 0 -0.3147457864693044 -0.074949258596716542 0 -0.31872509099925939 -0.09489525911115787 0 -0.30363502742975002 -0.087862452698258112 0 -0.3147457864693044 -0.074949258596716542 0 -0.30785263576887473 -0.062005008750064983 0 -0.29326350469267087 -0.075637034816957854 0 -0.30363502742975002 -0.087862452698258112 0 -0.30785263576887473 -0.062005008750064983 0 -0.30363502742975002 -0.087862452698258112 0 -0.3147457864693044 -0.074949258596716542 0 -0.30785263576887473 -0.062005008750064983 0 -0.29326350469267087 -0.075637034816957854 0 -0.29043964680931811 -0.063340758069959313 0 -0.30785263576887473 -0.062005008750064983 0 -0.30363502742975002 -0.087862452698258112 0 -0.3147457864693044 -0.074949258596716542 0 -0.3258565455088529 -0.062036064495169851 0 -0.3147457864693044 -0.074949258596716542 0 -0.33306166037992252 -0.0763126202985034 0 -0.3258565455088529 -0.062036064495169851 0 -0.30785263576887473 -0.062005008750064983 0 -0.3147457864693044 -0.074949258596716542 0 -0.3258565455088529 -0.062036064495169851 0 -0.3147457864693044 -0.074949258596716542 0 -0.32890001459834822 -0.087516828956376788 0 -0.31872509099925939 -0.09489525911115787 0 -0.3147457864693044 -0.074949258596716542 0 -0.32890001459834822 -0.087516828956376788 0 -0.33306166037992252 -0.0763126202985034 0 -0.32890001459834822 -0.087516828956376788 0 -0.34026677525099192 -0.090589176101837157 0 -0.33306166037992252 -0.0763126202985034 0 -0.34026677525099192 -0.090589176101837157 0 -0.33306166037992252 -0.0763126202985034 0 -0.34026677525099192 -0.090589176101837157 0 -0.33306166037992252 -0.0763126202985034 0 -0.34512097989852569 -0.077376017677512551 0 -0.3363426704622316 -0.065040097883454634 0 -0.33306166037992252 -0.0763126202985034 0 -0.34512097989852569 -0.077376017677512551 0 -0.3363426704622316 -0.065040097883454634 0 -0.34775082305034588 -0.06364522302323769 0 -0.34512097989852569 -0.077376017677512551 0 -0.33306166037992252 -0.0763126202985034 0 -0.3258565455088529 -0.062036064495169851 0 -0.3363426704622316 -0.065040097883454634 0 -0.33306166037992252 -0.0763126202985034 0 -0.3258565455088529 -0.062036064495169851 0 -0.31112038415555038 -0.105912916312301 0 -0.3108150907057583 -0.123289039988229 0 -0.32269556115348802 -0.1134475374517785 0 -0.32269556115348802 -0.1134475374517785 0 -0.33213803149032362 -0.1206207689722909 0 -0.32288905220234743 -0.1288405143651869 0 -0.3108150907057583 -0.123289039988229 0 -0.32269556115348802 -0.1134475374517785 0 -0.32288905220234743 -0.1288405143651869 0 -0.32269556115348802 -0.1134475374517785 0 -0.31872509099925939 -0.09489525911115787 0 -0.33360553934550968 -0.1041906416325506 0 -0.31112038415555038 -0.105912916312301 0 -0.32269556115348802 -0.1134475374517785 0 -0.31872509099925939 -0.09489525911115787 0 -0.32890001459834822 -0.087516828956376788 0 -0.31872509099925939 -0.09489525911115787 0 -0.33360553934550968 -0.1041906416325506 0 -0.3434725512788051 -0.1026137903417853 0 -0.33360553934550968 -0.1041906416325506 0 -0.3466874303271234 -0.11958926053505441 0 -0.32890001459834822 -0.087516828956376788 0 -0.34026677525099192 -0.090589176101837157 0 -0.33360553934550968 -0.1041906416325506 0 -0.34026677525099192 -0.090589176101837157 0 -0.3434725512788051 -0.1026137903417853 0 -0.33360553934550968 -0.1041906416325506 0 -0.33360553934550968 -0.1041906416325506 0 -0.33213803149032362 -0.1206207689722909 0 -0.3466874303271234 -0.11958926053505441 0 -0.32269556115348802 -0.1134475374517785 0 -0.33360553934550968 -0.1041906416325506 0 -0.33213803149032362 -0.1206207689722909 0 -0.3466874303271234 -0.11958926053505441 0 -0.36980343247362518 -0.1100922289949047 0 -0.35999293180258313 -0.1258522389537349 0 -0.3466874303271234 -0.11958926053505441 0 -0.35333046019159542 -0.096086083097699004 0 -0.36980343247362518 -0.1100922289949047 0 -0.3434725512788051 -0.1026137903417853 0 -0.3466874303271234 -0.11958926053505441 0 -0.35333046019159542 -0.096086083097699004 0 -0.3466874303271234 -0.11958926053505441 0 -0.35333046019159542 -0.096086083097699004 0 -0.34026677525099192 -0.090589176101837157 0 -0.3434725512788051 -0.1026137903417853 0 -0.35333046019159542 -0.096086083097699004 0 -0.35333046019159542 -0.096086083097699004 0 -0.36980343247362518 -0.1100922289949047 0 -0.37347114863240299 -0.089088331268139143 0 -0.36980343247362518 -0.1100922289949047 0 -0.35999293180258313 -0.1258522389537349 0 -0.37152802352755399 -0.13164580699010159 0 -0.36980343247362518 -0.1100922289949047 0 -0.37152802352755399 -0.13164580699010159 0 -0.38235470820745771 -0.123978498660336 0 -0.34775082305034588 -0.06364522302323769 0 -0.35997349005606738 -0.07258290566034345 0 -0.36099236519079719 -0.058965157594587259 0 -0.34775082305034588 -0.06364522302323769 0 -0.34512097989852569 -0.077376017677512551 0 -0.35997349005606738 -0.07258290566034345 0 -0.35333046019159542 -0.096086083097699004 0 -0.35997349005606738 -0.07258290566034345 0 -0.35333046019159542 -0.096086083097699004 0 -0.34512097989852569 -0.077376017677512551 0 -0.35997349005606738 -0.07258290566034345 0 -0.34026677525099192 -0.090589176101837157 0 -0.35333046019159542 -0.096086083097699004 0 -0.34512097989852569 -0.077376017677512551 0 -0.35333046019159542 -0.096086083097699004 0 -0.37347114863240299 -0.089088331268139143 0 -0.35997349005606738 -0.07258290566034345 0 -0.37347114863240299 -0.089088331268139143 0 -0.35997349005606738 -0.07258290566034345 0 -0.37513495807632252 -0.068027960422620465 0 -0.35997349005606738 -0.07258290566034345 0 -0.36099236519079719 -0.058965157594587259 0 -0.37513495807632252 -0.068027960422620465 0 -0.37357085562444819 -0.050327950541553881 0 -0.36099236519079719 -0.058965157594587259 0 -0.37513495807632252 -0.068027960422620465 0 -0.37357085562444819 -0.050327950541553881 0 -0.36080282922430701 -0.047544586661118063 0 -0.36099236519079719 -0.058965157594587259 0 -0.34775082305034588 -0.06364522302323769 0 -0.36099236519079719 -0.058965157594587259 0 -0.34872123511329239 -0.051662319258650009 0 -0.36080282922430701 -0.047544586661118063 0 -0.36099236519079719 -0.058965157594587259 0 -0.34872123511329239 -0.051662319258650009 0 -0.34775082305034588 -0.06364522302323769 0 -0.34872123511329239 -0.051662319258650009 0 -0.33906118872719399 -0.055758100993783748 0 -0.35023980363822049 -0.040197400203048239 0 -0.3638826905141766 -0.035463803005797899 0 -0.34258176142245139 -0.029723406047678591 0 -0.35023980363822049 -0.040197400203048239 0 -0.34258176142245139 -0.029723406047678591 0 -0.35023980363822049 -0.040197400203048239 0 -0.34258176142245139 -0.029723406047678591 0 -0.33960488145915169 -0.038902248398748569 0 -0.34872123511329239 -0.051662319258650009 0 -0.35023980363822049 -0.040197400203048239 0 -0.33950963895876157 -0.046563850177851397 0 -0.36080282922430701 -0.047544586661118063 0 -0.35023980363822049 -0.040197400203048239 0 -0.3638826905141766 -0.035463803005797899 0 -0.36080282922430701 -0.047544586661118063 0 -0.34872123511329239 -0.051662319258650009 0 -0.35023980363822049 -0.040197400203048239 0 -0.37357085562444819 -0.050327950541553881 0 -0.3638826905141766 -0.035463803005797899 0 -0.38712728366555788 -0.02974425569958293 0 -0.37357085562444819 -0.050327950541553881 0 -0.36080282922430701 -0.047544586661118063 0 -0.3638826905141766 -0.035463803005797899 0 -0.3638826905141766 -0.035463803005797899 0 -0.36897360951007507 -0.015245218881805699 0 -0.38712728366555788 -0.02974425569958293 0 -0.36897360951007507 -0.015245218881805699 0 -0.38465333842141641 -0.0066435457767305304 0 -0.36979036210562988 0.0025511841975563729 0 -0.36897360951007507 -0.015245218881805699 0 -0.35319748844548088 -0.0026450940697062141 0 -0.36979036210562988 0.0025511841975563729 0 -0.36897360951007507 -0.015245218881805699 0 -0.35319748844548088 -0.0026450940697062141 0 -0.36897360951007507 -0.015245218881805699 0 -0.35319748844548088 -0.0026450940697062141 0 -0.34557514790129729 -0.01385186480739395 0 -0.35319748844548088 -0.0026450940697062141 0 -0.34557514790129729 -0.01385186480739395 0 -0.33742136738088668 0.0099550307423931228 0 -0.36897360951007507 -0.015245218881805699 0 -0.34557514790129729 -0.01385186480739395 0 -0.34258176142245139 -0.029723406047678591 0 -0.3638826905141766 -0.035463803005797899 0 -0.36897360951007507 -0.015245218881805699 0 -0.34258176142245139 -0.029723406047678591 0 -0.36897360951007507 -0.015245218881805699 0 -0.34258176142245139 -0.029723406047678591 0 -0.34258176142245139 -0.029723406047678591 0 -0.33053696792115572 -0.013249600709362951 0 -0.34557514790129729 -0.01385186480739395 0 -0.34258176142245139 -0.029723406047678591 0 -0.33053696792115572 -0.013249600709362951 0 -0.34258176142245139 -0.029723406047678591 0 -0.33123792958382192 -0.02655418191443467 0 -0.33053696792115572 -0.013249600709362951 0 -0.33123792958382192 -0.02655418191443467 0 -0.33053696792115572 -0.013249600709362951 0 -0.32518110448499649 -0.02265309324021984 0 -0.33123792958382192 -0.02655418191443467 0 -0.32494971957893121 -0.032132124138264453 0 -0.33294009451157502 -0.035012685436647553 0 -0.34258176142245139 -0.029723406047678591 0 -0.33123792958382192 -0.02655418191443467 0 -0.33294009451157502 -0.035012685436647553 0 -0.33053696792115572 -0.013249600709362951 0 -0.31849217441985911 0.0032242046289520012 0 -0.33742136738088668 0.0099550307423931228 0 -0.34557514790129729 -0.01385186480739395 0 -0.33053696792115572 -0.013249600709362951 0 -0.33742136738088668 0.0099550307423931228 0 -0.30702321298661528 -0.0098616365840560535 0 -0.31536924438116293 -0.015921951660718081 0 -0.31849217441985911 0.0032242046289520012 0 -0.31536924438116293 -0.015921951660718081 0 -0.31849217441985911 0.0032242046289520012 0 -0.33053696792115572 -0.013249600709362951 0 -0.31849217441985911 0.0032242046289520012 0 -0.33053696792115572 -0.013249600709362951 0 -0.31536924438116293 -0.015921951660718081 0 -0.31849217441985911 0.0032242046289520012 0 -0.31536924438116293 -0.015921951660718081 0 -0.31269309410946189 -0.035953378537937578 0 -0.31536924438116293 -0.015921951660718081 0 -0.3196636581113782 -0.026330909640423061 0 -0.31269309410946189 -0.035953378537937578 0 -0.33123792958382192 -0.02655418191443467 0 -0.32518110448499649 -0.02265309324021984 0 -0.32494971957893121 -0.032132124138264453 0 -0.32518110448499649 -0.02265309324021984 0 -0.3196636581113782 -0.026330909640423061 0 -0.32494971957893121 -0.032132124138264453 0 -0.33053696792115572 -0.013249600709362951 0 -0.32518110448499649 -0.02265309324021984 0 -0.31536924438116293 -0.015921951660718081 0 -0.32518110448499649 -0.02265309324021984 0 -0.31536924438116293 -0.015921951660718081 0 -0.3196636581113782 -0.026330909640423061 0 -0.31269309410946189 -0.035953378537937578 0 -0.32494971957893121 -0.032132124138264453 0 -0.3196636581113782 -0.026330909640423061 0 -0.31269309410946189 -0.035953378537937578 0 -0.32494971957893121 -0.032132124138264453 0 -0.32589239144387999 -0.038804272667940308 0 -0.32494971957893121 -0.032132124138264453 0 -0.33294009451157502 -0.035012685436647553 0 -0.31269309410946189 -0.035953378537937578 0 -0.32589239144387999 -0.038804272667940308 0 -0.32494971957893121 -0.032132124138264453 0 -0.31269309410946189 -0.035953378537937578 0 -0.32589239144387999 -0.038804272667940308 0 -0.32612594025468172 -0.0479092750983348 0 -0.31269309410946189 -0.035953378537937578 0 -0.3258565455088529 -0.062036064495169851 0 -0.32612594025468172 -0.0479092750983348 0 -0.30785263576887473 -0.062005008750064983 0 -0.31269309410946189 -0.035953378537937578 0 -0.3258565455088529 -0.062036064495169851 0 -0.31269309410946189 -0.035953378537937578 0 -0.3258565455088529 -0.062036064495169851 0 -0.3258565455088529 -0.062036064495169851 0 -0.32612594025468172 -0.0479092750983348 0 -0.32948021068586231 -0.057824552786275359 0 -0.3258565455088529 -0.062036064495169851 0 -0.32948021068586231 -0.057824552786275359 0 -0.33273312926745618 -0.050000536382928867 0 -0.32948021068586231 -0.057824552786275359 0 -0.33906118872719399 -0.055758100993783748 0 -0.32612594025468172 -0.0479092750983348 0 -0.33273312926745618 -0.050000536382928867 0 -0.32948021068586231 -0.057824552786275359 0 -0.32612594025468172 -0.0479092750983348 0 -0.33273312926745618 -0.050000536382928867 0 -0.33275310876475001 -0.043013900128517107 0 -0.3363426704622316 -0.065040097883454634 0 -0.32948021068586231 -0.057824552786275359 0 -0.33906118872719399 -0.055758100993783748 0 -0.3363426704622316 -0.065040097883454634 0 -0.3258565455088529 -0.062036064495169851 0 -0.32948021068586231 -0.057824552786275359 0 -0.3363426704622316 -0.065040097883454634 0 -0.34775082305034588 -0.06364522302323769 0 -0.33906118872719399 -0.055758100993783748 0 -0.34872123511329239 -0.051662319258650009 0 -0.33906118872719399 -0.055758100993783748 0 -0.33950963895876157 -0.046563850177851397 0 -0.33273312926745618 -0.050000536382928867 0 -0.33906118872719399 -0.055758100993783748 0 -0.33950963895876157 -0.046563850177851397 0 -0.35023980363822049 -0.040197400203048239 0 -0.33950963895876157 -0.046563850177851397 0 -0.33960488145915169 -0.038902248398748569 0 -0.33950963895876157 -0.046563850177851397 0 -0.33960488145915169 -0.038902248398748569 0 -0.33275310876475001 -0.043013900128517107 0 -0.34258176142245139 -0.029723406047678591 0 -0.33294009451157502 -0.035012685436647553 0 -0.34258176142245139 -0.029723406047678591 0 -0.33960488145915169 -0.038902248398748569 0 -0.33294009451157502 -0.035012685436647553 0 -0.32589239144387999 -0.038804272667940308 0 -0.33294009451157502 -0.035012685436647553 0 -0.33275310876475001 -0.043013900128517107 0 -0.33960488145915169 -0.038902248398748569 0 -0.33294009451157502 -0.035012685436647553 0 -0.33275310876475001 -0.043013900128517107 0 -0.32589239144387999 -0.038804272667940308 0 -0.32612594025468172 -0.0479092750983348 0 -0.33275310876475001 -0.043013900128517107 0 -0.33273312926745618 -0.050000536382928867 0 -0.33950963895876157 -0.046563850177851397 0 -0.33275310876475001 -0.043013900128517107 0 -0.3072444938386063 -0.24298546540808871 0 -0.29465074886808879 -0.2402547820199166 0 -0.31547147842988582 -0.2330670094454039 0 -0.29465074886808879 -0.2402547820199166 0 -0.31547147842988582 -0.2330670094454039 0 -0.31283906540333922 -0.25031215033235238 0 -0.3072444938386063 -0.24298546540808871 0 -0.31547147842988582 -0.2330670094454039 0 -0.29948497002523827 -0.2483657822867901 0 -0.3072444938386063 -0.24298546540808871 0 -0.29465074886808879 -0.2402547820199166 0 -0.29948497002523827 -0.2483657822867901 0 -0.3072444938386063 -0.24298546540808871 0 -0.30623861516307299 -0.24935013043731349 0 -0.31283906540333922 -0.25031215033235238 0 -0.3072444938386063 -0.24298546540808871 0 -0.30623861516307299 -0.24935013043731349 0 -0.30340245666429422 -0.2199120115188499 0 -0.29465074886808879 -0.2402547820199166 0 -0.31547147842988582 -0.2330670094454039 0 -0.30340245666429422 -0.2199120115188499 0 -0.31790591229007997 -0.21133065133653661 0 -0.31547147842988582 -0.2330670094454039 0 -0.30340245666429422 -0.2199120115188499 0 -0.29465074886808879 -0.2402547820199166 0 -0.28241226381596191 -0.21797562975109799 0 -0.29465074886808879 -0.2402547820199166 0 -0.27816771109320582 -0.2439982651616662 0 -0.28241226381596191 -0.21797562975109799 0 -0.29465074886808879 -0.2402547820199166 0 -0.27383001930629169 -0.24744255459442921 0 -0.28942662192718172 -0.25357945894426132 0 -0.29465074886808879 -0.2402547820199166 0 -0.27383001930629169 -0.24744255459442921 0 -0.29465074886808879 -0.2402547820199166 0 -0.27816771109320582 -0.2439982651616662 0 -0.27383001930629169 -0.24744255459442921 0 -0.28942662192718172 -0.25357945894426132 0 -0.29948497002523827 -0.2483657822867901 0 -0.29465074886808879 -0.2402547820199166 0 -0.27816771109320582 -0.2439982651616662 0 -0.27383001930629169 -0.24744255459442921 0 -0.26926560585898118 -0.2360615599669478 0 -0.27383001930629169 -0.24744255459442921 0 -0.26926560585898118 -0.2360615599669478 0 -0.25855016474293108 -0.24143028331881861 0 -0.27383001930629169 -0.24744255459442921 0 -0.25855016474293108 -0.24143028331881861 0 -0.2565674865322034 -0.25340195958415102 0 -0.27383001930629169 -0.24744255459442921 0 -0.25855016474293108 -0.24143028331881861 0 -0.26926560585898118 -0.2360615599669478 0 -0.25855016474293108 -0.24143028331881861 0 -0.25588924886857078 -0.22577026586403889 0 -0.24327031017957049 -0.23541801204320789 0 -0.25855016474293108 -0.24143028331881861 0 -0.24327031017957049 -0.23541801204320789 0 -0.25855016474293108 -0.24143028331881861 0 -0.25018128361314113 -0.24746468840205441 0 -0.2565674865322034 -0.25340195958415102 0 -0.25855016474293108 -0.24143028331881861 0 -0.25018128361314113 -0.24746468840205441 0 -0.24327031017957049 -0.23541801204320789 0 -0.25855016474293108 -0.24143028331881861 0 -0.25588924886857078 -0.22577026586403889 0 -0.26926560585898118 -0.2360615599669478 0 -0.25588924886857078 -0.22577026586403889 0 -0.26783798195298542 -0.22189041659364681 0 -0.27816771109320582 -0.2439982651616662 0 -0.26926560585898118 -0.2360615599669478 0 -0.28241226381596191 -0.21797562975109799 0 -0.26926560585898118 -0.2360615599669478 0 -0.26783798195298542 -0.22189041659364681 0 -0.28241226381596191 -0.21797562975109799 0 -0.27816771109320582 -0.2439982651616662 0 -0.28241226381596191 -0.21797562975109799 0 -0.26378480926842768 -0.2077542107925027 0 -0.286656816538718 -0.19195299434052959 0 -0.28241226381596191 -0.21797562975109799 0 -0.26783798195298542 -0.22189041659364681 0 -0.26378480926842768 -0.2077542107925027 0 -0.28241226381596191 -0.21797562975109799 0 -0.25588924886857078 -0.22577026586403889 0 -0.26783798195298542 -0.22189041659364681 0 -0.26378480926842768 -0.2077542107925027 0 -0.2448317244682672 -0.19494017856122331 0 -0.24405101732391901 -0.2151790953022156 0 -0.26378480926842768 -0.2077542107925027 0 -0.24405101732391901 -0.2151790953022156 0 -0.25588924886857078 -0.22577026586403889 0 -0.26378480926842768 -0.2077542107925027 0 -0.2448317244682672 -0.19494017856122331 0 -0.26378480926842768 -0.2077542107925027 0 -0.26312512204060101 -0.18530650416748581 0 -0.26378480926842768 -0.2077542107925027 0 -0.286656816538718 -0.19195299434052959 0 -0.26312512204060101 -0.18530650416748581 0 -0.286656816538718 -0.19195299434052959 0 -0.28241226381596191 -0.21797562975109799 0 -0.30591086076688379 -0.19847336016990141 0 -0.286656816538718 -0.19195299434052959 0 -0.28241226381596191 -0.21797562975109799 0 -0.30340245666429422 -0.2199120115188499 0 -0.28241226381596191 -0.21797562975109799 0 -0.30591086076688379 -0.19847336016990141 0 -0.30340245666429422 -0.2199120115188499 0 -0.30591086076688379 -0.19847336016990141 0 -0.31790591229007997 -0.21133065133653661 0 -0.286656816538718 -0.19195299434052959 0 -0.30591086076688379 -0.19847336016990141 0 -0.31180552805921091 -0.17430838359622669 0 -0.31180552805921091 -0.17430838359622669 0 -0.29090136926147409 -0.16593035892996141 0 -0.30878195228896921 -0.15303576335633209 0 -0.286656816538718 -0.19195299434052959 0 -0.29090136926147409 -0.16593035892996141 0 -0.286656816538718 -0.19195299434052959 0 -0.31180552805921091 -0.17430838359622669 0 -0.29090136926147409 -0.16593035892996141 0 -0.286656816538718 -0.19195299434052959 0 -0.29090136926147409 -0.16593035892996141 0 -0.27584707269233227 -0.1739466899300364 0 -0.27584707269233227 -0.1739466899300364 0 -0.26312512204060101 -0.18530650416748581 0 -0.26138401805284373 -0.16490714025156239 0 -0.286656816538718 -0.19195299434052959 0 -0.27584707269233227 -0.1739466899300364 0 -0.26312512204060101 -0.18530650416748581 0 -0.2448317244682672 -0.19494017856122331 0 -0.24561243161261531 -0.1747012618202311 0 -0.26312512204060101 -0.18530650416748581 0 -0.24561243161261531 -0.1747012618202311 0 -0.26312512204060101 -0.18530650416748581 0 -0.26138401805284373 -0.16490714025156239 0 -0.27584707269233227 -0.1739466899300364 0 -0.26138401805284373 -0.16490714025156239 0 -0.27641132505293098 -0.14990407015019561 0 -0.29090136926147409 -0.16593035892996141 0 -0.27584707269233227 -0.1739466899300364 0 -0.27641132505293098 -0.14990407015019561 0 -0.27641132505293098 -0.14990407015019561 0 -0.26295491861235881 -0.14972714028907499 0 -0.26633673802341562 -0.13121143084146969 0 -0.26138401805284373 -0.16490714025156239 0 -0.27641132505293098 -0.14990407015019561 0 -0.26295491861235881 -0.14972714028907499 0 -0.24768759332024501 -0.15288591991307249 0 -0.26633673802341562 -0.13121143084146969 0 -0.24768759332024501 -0.15288591991307249 0 -0.26295491861235881 -0.14972714028907499 0 -0.26633673802341562 -0.13121143084146969 0 -0.24768759332024501 -0.15288591991307249 0 -0.26138401805284373 -0.16490714025156239 0 -0.26295491861235881 -0.14972714028907499 0 -0.25700205454408459 -0.1228995308742117 0 -0.25066558347885931 -0.13251764995053431 0 -0.26633673802341562 -0.13121143084146969 0 -0.24768759332024501 -0.15288591991307249 0 -0.25066558347885931 -0.13251764995053431 0 -0.26633673802341562 -0.13121143084146969 0 -0.2466021228926524 -0.1215603100838341 0 -0.25700205454408459 -0.1228995308742117 0 -0.25066558347885931 -0.13251764995053431 0 -0.27641132505293098 -0.14990407015019561 0 -0.26633673802341562 -0.13121143084146969 0 -0.28390483366507108 -0.12795146285425149 0 -0.27641132505293098 -0.14990407015019561 0 -0.29514592198423018 -0.13990772351939329 0 -0.28390483366507108 -0.12795146285425149 0 -0.29939047470698632 -0.1138850881088251 0 -0.29514592198423018 -0.13990772351939329 0 -0.28390483366507108 -0.12795146285425149 0 -0.29090136926147409 -0.16593035892996141 0 -0.27641132505293098 -0.14990407015019561 0 -0.29514592198423018 -0.13990772351939329 0 -0.29090136926147409 -0.16593035892996141 0 -0.29514592198423018 -0.13990772351939329 0 -0.29514592198423018 -0.13990772351939329 0 -0.30878195228896921 -0.15303576335633209 0 -0.31204687939749698 -0.1371714365216575 0 -0.29090136926147409 -0.16593035892996141 0 -0.29514592198423018 -0.13990772351939329 0 -0.30878195228896921 -0.15303576335633209 0 -0.3108150907057583 -0.123289039988229 0 -0.29514592198423018 -0.13990772351939329 0 -0.31204687939749698 -0.1371714365216575 0 -0.29939047470698632 -0.1138850881088251 0 -0.3108150907057583 -0.123289039988229 0 -0.29514592198423018 -0.13990772351939329 0 -0.29939047470698632 -0.1138850881088251 0 -0.29514592198423018 -0.13990772351939329 0 -0.32288905220234743 -0.1288405143651869 0 -0.32258299715563782 -0.14068177926995709 0 -0.33321030378869931 -0.13646686722665249 0 -0.3108150907057583 -0.123289039988229 0 -0.31204687939749698 -0.1371714365216575 0 -0.32288905220234743 -0.1288405143651869 0 -0.31204687939749698 -0.1371714365216575 0 -0.32288905220234743 -0.1288405143651869 0 -0.32258299715563782 -0.14068177926995709 0 -0.30878195228896921 -0.15303576335633209 0 -0.32482557091518699 -0.15217937608711771 0 -0.32258299715563782 -0.14068177926995709 0 -0.30878195228896921 -0.15303576335633209 0 -0.31204687939749698 -0.1371714365216575 0 -0.32258299715563782 -0.14068177926995709 0 -0.32482557091518699 -0.15217937608711771 0 -0.32258299715563782 -0.14068177926995709 0 -0.33321030378869931 -0.13646686722665249 0 -0.32482557091518699 -0.15217937608711771 0 -0.34004440046265172 -0.14309243797241011 0 -0.33321030378869931 -0.13646686722665249 0 -0.34004440046265172 -0.14309243797241011 0 -0.35498504575946821 -0.15757720561970059 0 -0.3332048416520596 -0.1672909388971599 0 -0.34004440046265172 -0.14309243797241011 0 -0.3332048416520596 -0.1672909388971599 0 -0.32482557091518699 -0.15217937608711771 0 -0.34004440046265172 -0.14309243797241011 0 -0.3332048416520596 -0.1672909388971599 0 -0.3466874303271234 -0.11958926053505441 0 -0.34004440046265172 -0.14309243797241011 0 -0.33213803149032362 -0.1206207689722909 0 -0.32288905220234743 -0.1288405143651869 0 -0.33321030378869931 -0.13646686722665249 0 -0.33213803149032362 -0.1206207689722909 0 -0.3466874303271234 -0.11958926053505441 0 -0.33321030378869931 -0.13646686722665249 0 -0.3466874303271234 -0.11958926053505441 0 -0.34004440046265172 -0.14309243797241011 0 -0.33321030378869931 -0.13646686722665249 0 -0.34004440046265172 -0.14309243797241011 0 -0.33321030378869931 -0.13646686722665249 0 -0.3466874303271234 -0.11958926053505441 0 -0.35676717686891291 -0.14006723761877321 0 -0.35999293180258313 -0.1258522389537349 0 -0.3466874303271234 -0.11958926053505441 0 -0.34004440046265172 -0.14309243797241011 0 -0.35676717686891291 -0.14006723761877321 0 -0.35676717686891291 -0.14006723761877321 0 -0.37152802352755399 -0.13164580699010159 0 -0.37069541475874412 -0.1487336244607225 0 -0.35676717686891291 -0.14006723761877321 0 -0.35999293180258313 -0.1258522389537349 0 -0.37152802352755399 -0.13164580699010159 0 -0.35676717686891291 -0.14006723761877321 0 -0.37069541475874412 -0.1487336244607225 0 -0.35498504575946821 -0.15757720561970059 0 -0.37069541475874412 -0.1487336244607225 0 -0.35498504575946821 -0.15757720561970059 0 -0.37692746124962329 -0.16011968929401549 0 -0.37152802352755399 -0.13164580699010159 0 -0.37069541475874412 -0.1487336244607225 0 -0.38190833683646341 -0.1417380771930716 0 -0.34004440046265172 -0.14309243797241011 0 -0.35676717686891291 -0.14006723761877321 0 -0.35498504575946821 -0.15757720561970059 0 -0.34004440046265172 -0.14309243797241011 0 -0.35498504575946821 -0.15757720561970059 0 -0.35102499454429859 -0.17065527247529391 0 -0.35498504575946821 -0.15757720561970059 0 -0.36992569105628492 -0.1720619732669908 0 -0.35102499454429859 -0.17065527247529391 0 -0.35498504575946821 -0.15757720561970059 0 -0.3332048416520596 -0.1672909388971599 0 -0.35498504575946821 -0.15757720561970059 0 -0.36992569105628492 -0.1720619732669908 0 -0.37692746124962329 -0.16011968929401549 0 -0.35498504575946821 -0.15757720561970059 0 -0.36992569105628492 -0.1720619732669908 0 -0.36802329911298681 -0.18587483615006681 0 -0.36992569105628492 -0.1720619732669908 0 -0.38452179946839471 -0.1862127167391712 0 -0.36802329911298681 -0.18587483615006681 0 -0.36992569105628492 -0.1720619732669908 0 -0.34598439970938172 -0.18569097211732419 0 -0.35102499454429859 -0.17065527247529391 0 -0.36992569105628492 -0.1720619732669908 0 -0.34598439970938172 -0.18569097211732419 0 -0.36992569105628492 -0.1720619732669908 0 -0.34598439970938172 -0.18569097211732419 0 -0.35102499454429859 -0.17065527247529391 0 -0.34598439970938172 -0.18569097211732419 0 -0.3332048416520596 -0.1672909388971599 0 -0.34598439970938172 -0.18569097211732419 0 -0.3332048416520596 -0.1672909388971599 0 -0.32636528284146782 -0.19148943982190991 0 -0.3332048416520596 -0.1672909388971599 0 -0.32636528284146782 -0.19148943982190991 0 -0.31180552805921091 -0.17430838359622669 0 -0.32482557091518699 -0.15217937608711771 0 -0.3332048416520596 -0.1672909388971599 0 -0.31180552805921091 -0.17430838359622669 0 -0.30878195228896921 -0.15303576335633209 0 -0.32482557091518699 -0.15217937608711771 0 -0.31180552805921091 -0.17430838359622669 0 -0.3332048416520596 -0.1672909388971599 0 -0.32636528284146782 -0.19148943982190991 0 -0.30591086076688379 -0.19847336016990141 0 -0.32636528284146782 -0.19148943982190991 0 -0.31790591229007997 -0.21133065133653661 0 -0.30591086076688379 -0.19847336016990141 0 -0.31180552805921091 -0.17430838359622669 0 -0.32636528284146782 -0.19148943982190991 0 -0.32636528284146782 -0.19148943982190991 0 -0.31790591229007997 -0.21133065133653661 0 -0.33039187961118982 -0.20742389982875531 0 -0.31790591229007997 -0.21133065133653661 0 -0.33039187961118982 -0.20742389982875531 0 -0.32870803705144969 -0.21844997174213321 0 -0.33039187961118982 -0.20742389982875531 0 -0.32870803705144969 -0.21844997174213321 0 -0.33850246058748812 -0.21389845468103499 0 -0.32870803705144969 -0.21844997174213321 0 -0.33850246058748812 -0.21389845468103499 0 -0.33596699493009807 -0.21993263715474329 0 -0.33850246058748812 -0.21389845468103499 0 -0.34687159193856038 -0.2183762197826761 0 -0.3403652740897718 -0.22150288532491411 0 -0.33850246058748812 -0.21389845468103499 0 -0.3403652740897718 -0.22150288532491411 0 -0.33596699493009807 -0.21993263715474329 0 -0.33039187961118982 -0.20742389982875531 0 -0.33850246058748812 -0.21389845468103499 0 -0.34047770528546362 -0.2019509815621614 0 -0.33850246058748812 -0.21389845468103499 0 -0.34047770528546362 -0.2019509815621614 0 -0.34737571748628571 -0.2101963969508848 0 -0.34598439970938172 -0.18569097211732419 0 -0.32636528284146782 -0.19148943982190991 0 -0.34047770528546362 -0.2019509815621614 0 -0.32636528284146782 -0.19148943982190991 0 -0.33039187961118982 -0.20742389982875531 0 -0.34047770528546362 -0.2019509815621614 0 -0.34598439970938172 -0.18569097211732419 0 -0.35303310702934909 -0.20231631441727971 0 -0.36343771537771569 -0.19566750525459251 0 -0.34598439970938172 -0.18569097211732419 0 -0.34047770528546362 -0.2019509815621614 0 -0.35303310702934909 -0.20231631441727971 0 -0.36802329911298681 -0.18587483615006681 0 -0.34598439970938172 -0.18569097211732419 0 -0.36343771537771569 -0.19566750525459251 0 -0.35303310702934909 -0.20231631441727971 0 -0.36343771537771569 -0.19566750525459251 0 -0.36388592792924168 -0.20758305467352059 0 -0.36343771537771569 -0.19566750525459251 0 -0.37301156641091737 -0.20337184000283479 0 -0.36388592792924168 -0.20758305467352059 0 -0.36343771537771569 -0.19566750525459251 0 -0.37438048369549509 -0.19384422148204511 0 -0.37301156641091737 -0.20337184000283479 0 -0.36802329911298681 -0.18587483615006681 0 -0.36343771537771569 -0.19566750525459251 0 -0.37438048369549509 -0.19384422148204511 0 -0.37273312771996808 -0.21396345107145709 0 -0.37301156641091737 -0.20337184000283479 0 -0.36388592792924168 -0.20758305467352059 0 -0.37273312771996808 -0.21396345107145709 0 -0.36388592792924168 -0.20758305467352059 0 -0.36460053442081081 -0.21946742083422599 0 -0.36388592792924168 -0.20758305467352059 0 -0.35626724818121019 -0.21440977701126371 0 -0.36460053442081081 -0.21946742083422599 0 -0.35626724818121019 -0.21440977701126371 0 -0.34687159193856038 -0.2183762197826761 0 -0.35361393690670712 -0.22275298964725909 0 -0.35303310702934909 -0.20231631441727971 0 -0.36388592792924168 -0.20758305467352059 0 -0.35626724818121019 -0.21440977701126371 0 -0.35303310702934909 -0.20231631441727971 0 -0.35626724818121019 -0.21440977701126371 0 -0.34737571748628571 -0.2101963969508848 0 -0.34047770528546362 -0.2019509815621614 0 -0.35303310702934909 -0.20231631441727971 0 -0.34737571748628571 -0.2101963969508848 0 -0.33850246058748812 -0.21389845468103499 0 -0.34737571748628571 -0.2101963969508848 0 -0.34687159193856038 -0.2183762197826761 0 -0.35626724818121019 -0.21440977701126371 0 -0.34737571748628571 -0.2101963969508848 0 -0.34687159193856038 -0.2183762197826761 0 -0.34687159193856038 -0.2183762197826761 0 -0.3448729074691318 -0.22568858673477191 0 -0.3403652740897718 -0.22150288532491411 0 -0.34687159193856038 -0.2183762197826761 0 -0.3448729074691318 -0.22568858673477191 0 -0.35361393690670712 -0.22275298964725909 0 -0.3448729074691318 -0.22568858673477191 0 -0.35311939258201253 -0.23120947699362049 0 -0.35361393690670712 -0.22275298964725909 0 -0.3448729074691318 -0.22568858673477191 0 -0.35311939258201253 -0.23120947699362049 0 -0.3466300329275056 -0.23782645962689411 0 -0.35311939258201253 -0.23120947699362049 0 -0.35361393690670712 -0.22275298964725909 0 -0.36278739720748587 -0.22937453583313699 0 -0.35311939258201253 -0.23120947699362049 0 -0.36278739720748587 -0.22937453583313699 0 -0.35743223323550471 -0.2390192939344549 0 -0.35626724818121019 -0.21440977701126371 0 -0.35361393690670712 -0.22275298964725909 0 -0.36460053442081081 -0.21946742083422599 0 -0.36460053442081081 -0.21946742083422599 0 -0.36278739720748587 -0.22937453583313699 0 -0.37306962678156358 -0.22430756502184571 0 -0.35361393690670712 -0.22275298964725909 0 -0.36460053442081081 -0.21946742083422599 0 -0.36278739720748587 -0.22937453583313699 0 -0.36278739720748587 -0.22937453583313699 0 -0.37393716339703942 -0.23401667981853819 0 -0.37306962678156358 -0.22430756502184571 0 -0.36278739720748587 -0.22937453583313699 0 -0.37393716339703942 -0.23401667981853819 0 -0.36594725961251939 -0.23889039006825119 0 -0.37273312771996808 -0.21396345107145709 0 -0.36460053442081081 -0.21946742083422599 0 -0.37306962678156358 -0.22430756502184571 0 -0.37393540655460039 -0.25504906339868932 0 -0.37362469669529808 -0.24416340610428999 0 -0.363557814049559 -0.2486896754833777 0 -0.37362469669529808 -0.24416340610428999 0 -0.36594725961251939 -0.23889039006825119 0 -0.363557814049559 -0.2486896754833777 0 -0.37393716339703942 -0.23401667981853819 0 -0.37362469669529808 -0.24416340610428999 0 -0.36594725961251939 -0.23889039006825119 0 -0.36278739720748587 -0.22937453583313699 0 -0.36594725961251939 -0.23889039006825119 0 -0.35743223323550471 -0.2390192939344549 0 -0.36594725961251939 -0.23889039006825119 0 -0.363557814049559 -0.2486896754833777 0 -0.35743223323550471 -0.2390192939344549 0 -0.363557814049559 -0.2486896754833777 0 -0.35255150303394622 -0.24812522560144931 0 -0.35743223323550471 -0.2390192939344549 0 -0.35311939258201253 -0.23120947699362049 0 -0.35743223323550471 -0.2390192939344549 0 -0.3466300329275056 -0.23782645962689411 0 -0.35255150303394622 -0.24812522560144931 0 -0.35743223323550471 -0.2390192939344549 0 -0.3466300329275056 -0.23782645962689411 0 -0.35255150303394622 -0.24812522560144931 0 -0.3466300329275056 -0.23782645962689411 0 -0.3420777495351906 -0.24844208584564559 0 -0.33131030172746923 -0.25321851497678438 0 -0.33373364759712132 -0.2373308373461466 0 -0.32202724095639168 -0.2495658441092535 0 -0.33131030172746923 -0.25321851497678438 0 -0.33373364759712132 -0.2373308373461466 0 -0.33131030172746923 -0.25321851497678438 0 -0.3420777495351906 -0.24844208584564559 0 -0.33373364759712132 -0.2373308373461466 0 -0.3466300329275056 -0.23782645962689411 0 -0.3420777495351906 -0.24844208584564559 0 -0.33373364759712132 -0.2373308373461466 0 -0.3448729074691318 -0.22568858673477191 0 -0.33373364759712132 -0.2373308373461466 0 -0.33513500532203722 -0.22814340766163391 0 -0.3448729074691318 -0.22568858673477191 0 -0.33373364759712132 -0.2373308373461466 0 -0.3448729074691318 -0.22568858673477191 0 -0.3466300329275056 -0.23782645962689411 0 -0.33373364759712132 -0.2373308373461466 0 -0.3362922079916828 -0.22587923687089109 0 -0.33513500532203722 -0.22814340766163391 0 -0.31547147842988582 -0.2330670094454039 0 -0.3448729074691318 -0.22568858673477191 0 -0.3362922079916828 -0.22587923687089109 0 -0.33513500532203722 -0.22814340766163391 0 -0.3448729074691318 -0.22568858673477191 0 -0.3403652740897718 -0.22150288532491411 0 -0.3362922079916828 -0.22587923687089109 0 -0.3403652740897718 -0.22150288532491411 0 -0.3362922079916828 -0.22587923687089109 0 -0.33596699493009807 -0.21993263715474329 0 -0.32870803705144969 -0.21844997174213321 0 -0.3362922079916828 -0.22587923687089109 0 -0.33596699493009807 -0.21993263715474329 0 -0.33373364759712132 -0.2373308373461466 0 -0.33513500532203722 -0.22814340766163391 0 -0.31790591229007997 -0.21133065133653661 0 -0.32870803705144969 -0.21844997174213321 0 -0.31547147842988582 -0.2330670094454039 0 -0.3362922079916828 -0.22587923687089109 0 -0.31547147842988582 -0.2330670094454039 0 -0.32870803705144969 -0.21844997174213321 0 -0.3362922079916828 -0.22587923687089109 0 -0.31547147842988582 -0.2330670094454039 0 -0.33373364759712132 -0.2373308373461466 0 -0.33513500532203722 -0.22814340766163391 0 -0.31547147842988582 -0.2330670094454039 0 -0.33373364759712132 -0.2373308373461466 0 -0.31547147842988582 -0.2330670094454039 0 -0.32202724095639168 -0.2495658441092535 0 -0.31283906540333922 -0.25031215033235238 0 -0.31547147842988582 -0.2330670094454039 0 -0.32202724095639168 -0.2495658441092535 0 -0.33373364759712132 -0.2373308373461466 0 -0.32202724095639168 -0.2495658441092535 0 -0.42931567121415071 -0.25028064732030619 0 -0.41974440223132548 -0.2277223948390894 0 -0.42931567121415071 -0.25028064732030619 0 -0.43665732485841618 -0.24137016429136929 0 -0.41974440223132548 -0.2277223948390894 0 -0.43487007995442373 -0.25384069753834382 0 -0.42931567121415071 -0.25028064732030619 0 -0.43665732485841618 -0.24137016429136929 0 -0.43665732485841618 -0.24137016429136929 0 -0.41974440223132548 -0.2277223948390894 0 -0.44277641758923081 -0.23102430468348881 0 -0.43377720402095787 -0.21991138490827611 0 -0.41974440223132548 -0.2277223948390894 0 -0.44277641758923081 -0.23102430468348881 0 -0.43377720402095787 -0.21991138490827611 0 -0.41974440223132548 -0.2277223948390894 0 -0.42075205755079043 -0.21398522646416529 0 -0.41974440223132548 -0.2277223948390894 0 -0.40847937369743209 -0.24258689873782929 0 -0.40379864078896821 -0.22147517947459039 0 -0.42931567121415071 -0.25028064732030619 0 -0.41974440223132548 -0.2277223948390894 0 -0.40847937369743209 -0.24258689873782929 0 -0.3945867816951415 -0.25828321704239809 0 -0.40847937369743209 -0.24258689873782929 0 -0.3933004523496676 -0.24484402304582939 0 -0.40847937369743209 -0.24258689873782929 0 -0.3933004523496676 -0.24484402304582939 0 -0.39478669289115392 -0.23309544567896751 0 -0.3933004523496676 -0.24484402304582939 0 -0.38349803953804651 -0.2389949919606586 0 -0.38258347849844832 -0.24967798674395081 0 -0.3933004523496676 -0.24484402304582939 0 -0.38349803953804651 -0.2389949919606586 0 -0.39478669289115392 -0.23309544567896751 0 -0.37393716339703942 -0.23401667981853819 0 -0.37362469669529808 -0.24416340610428999 0 -0.38349803953804651 -0.2389949919606586 0 -0.37393540655460039 -0.25504906339868932 0 -0.37362469669529808 -0.24416340610428999 0 -0.38258347849844832 -0.24967798674395081 0 -0.37362469669529808 -0.24416340610428999 0 -0.38349803953804651 -0.2389949919606586 0 -0.38258347849844832 -0.24967798674395081 0 -0.37306962678156358 -0.22430756502184571 0 -0.38469596054732291 -0.22836918992304631 0 -0.38295547739377761 -0.21861943378263729 0 -0.37273312771996808 -0.21396345107145709 0 -0.37306962678156358 -0.22430756502184571 0 -0.38295547739377761 -0.21861943378263729 0 -0.37393716339703942 -0.23401667981853819 0 -0.38349803953804651 -0.2389949919606586 0 -0.38469596054732291 -0.22836918992304631 0 -0.37393716339703942 -0.23401667981853819 0 -0.37306962678156358 -0.22430756502184571 0 -0.38469596054732291 -0.22836918992304631 0 -0.38349803953804651 -0.2389949919606586 0 -0.38469596054732291 -0.22836918992304631 0 -0.39478669289115392 -0.23309544567896751 0 -0.38469596054732291 -0.22836918992304631 0 -0.39264909581396568 -0.2229573829789786 0 -0.38295547739377761 -0.21861943378263729 0 -0.39264909581396568 -0.2229573829789786 0 -0.39478669289115392 -0.23309544567896751 0 -0.40379864078896821 -0.22147517947459039 0 -0.40847937369743209 -0.24258689873782929 0 -0.39478669289115392 -0.23309544567896751 0 -0.40379864078896821 -0.22147517947459039 0 -0.40847937369743209 -0.24258689873782929 0 -0.40379864078896821 -0.22147517947459039 0 -0.39264909581396568 -0.2229573829789786 0 -0.40379864078896821 -0.22147517947459039 0 -0.39247153470499518 -0.2129117927155128 0 -0.38469596054732291 -0.22836918992304631 0 -0.39264909581396568 -0.2229573829789786 0 -0.39478669289115392 -0.23309544567896751 0 -0.40379864078896821 -0.22147517947459039 0 -0.39911790788050461 -0.2003634602113514 0 -0.40379864078896821 -0.22147517947459039 0 -0.39247153470499518 -0.2129117927155128 0 -0.39911790788050461 -0.2003634602113514 0 -0.40379864078896821 -0.22147517947459039 0 -0.40520524043689871 -0.20626505254016059 0 -0.39911790788050461 -0.2003634602113514 0 -0.40520524043689871 -0.20626505254016059 0 -0.39911790788050461 -0.2003634602113514 0 -0.41017313324850019 -0.2051641423578727 0 -0.40520524043689871 -0.20626505254016059 0 -0.39911790788050461 -0.2003634602113514 0 -0.39247153470499518 -0.2129117927155128 0 -0.38971867217429529 -0.20303686442097379 0 -0.39911790788050461 -0.2003634602113514 0 -0.39247153470499518 -0.2129117927155128 0 -0.38295547739377761 -0.21861943378263729 0 -0.38211351879485039 -0.2092072209849834 0 -0.39264909581396568 -0.2229573829789786 0 -0.39247153470499518 -0.2129117927155128 0 -0.38295547739377761 -0.21861943378263729 0 -0.38211351879485039 -0.2092072209849834 0 -0.38151862494823319 -0.19996558655041019 0 -0.38971867217429529 -0.20303686442097379 0 -0.39247153470499518 -0.2129117927155128 0 -0.38211351879485039 -0.2092072209849834 0 -0.38971867217429529 -0.20303686442097379 0 -0.37273312771996808 -0.21396345107145709 0 -0.37301156641091737 -0.20337184000283479 0 -0.38211351879485039 -0.2092072209849834 0 -0.37301156641091737 -0.20337184000283479 0 -0.38211351879485039 -0.2092072209849834 0 -0.38151862494823319 -0.19996558655041019 0 -0.37273312771996808 -0.21396345107145709 0 -0.38295547739377761 -0.21861943378263729 0 -0.38211351879485039 -0.2092072209849834 0 -0.36802329911298681 -0.18587483615006681 0 -0.37438048369549509 -0.19384422148204511 0 -0.38452179946839471 -0.1862127167391712 0 -0.38151862494823319 -0.19996558655041019 0 -0.38971867217429529 -0.20303686442097379 0 -0.38452179946839471 -0.1862127167391712 0 -0.37438048369549509 -0.19384422148204511 0 -0.38151862494823319 -0.19996558655041019 0 -0.38452179946839471 -0.1862127167391712 0 -0.37438048369549509 -0.19384422148204511 0 -0.37301156641091737 -0.20337184000283479 0 -0.38151862494823319 -0.19996558655041019 0 -0.39911790788050461 -0.2003634602113514 0 -0.39550730918059213 -0.18407841519480589 0 -0.38452179946839471 -0.1862127167391712 0 -0.39911790788050461 -0.2003634602113514 0 -0.40135005364381798 -0.19305297691017151 0 -0.39550730918059213 -0.18407841519480589 0 -0.39911790788050461 -0.2003634602113514 0 -0.39550730918059213 -0.18407841519480589 0 -0.38971867217429529 -0.20303686442097379 0 -0.39911790788050461 -0.2003634602113514 0 -0.38452179946839471 -0.1862127167391712 0 -0.41017313324850019 -0.2051641423578727 0 -0.40060186426567512 -0.18260588987665591 0 -0.40135005364381798 -0.19305297691017151 0 -0.41017313324850019 -0.2051641423578727 0 -0.40060186426567512 -0.18260588987665591 0 -0.39911790788050461 -0.2003634602113514 0 -0.38452179946839471 -0.1862127167391712 0 -0.39911790788050461 -0.2003634602113514 0 -0.40135005364381798 -0.19305297691017151 0 -0.41017313324850019 -0.2051641423578727 0 -0.40882722491020068 -0.19324634934951379 0 -0.40670914653930851 -0.1871811045826946 0 -0.40060186426567512 -0.18260588987665591 0 -0.40882722491020068 -0.19324634934951379 0 -0.41182634361573828 -0.18846823012601879 0 -0.40670914653930851 -0.1871811045826946 0 -0.40882722491020068 -0.19324634934951379 0 -0.41017313324850019 -0.2051641423578727 0 -0.40060186426567512 -0.18260588987665591 0 -0.40882722491020068 -0.19324634934951379 0 -0.41332632127240471 -0.19520135196246871 0 -0.41182634361573828 -0.18846823012601879 0 -0.41182634361573828 -0.18846823012601879 0 -0.42015528071935893 -0.19373976728588371 0 -0.42086010939994178 -0.18624419393877539 0 -0.41332632127240471 -0.19520135196246871 0 -0.41182634361573828 -0.18846823012601879 0 -0.42015528071935893 -0.19373976728588371 0 -0.42015528071935893 -0.19373976728588371 0 -0.41596892406105851 -0.2005599774501266 0 -0.4250272884910265 -0.2012921483654643 0 -0.41596892406105851 -0.2005599774501266 0 -0.41798035083784391 -0.20525037365940721 0 -0.4250272884910265 -0.2012921483654643 0 -0.41332632127240471 -0.19520135196246871 0 -0.42015528071935893 -0.19373976728588371 0 -0.41596892406105851 -0.2005599774501266 0 -0.41596892406105851 -0.2005599774501266 0 -0.41190905555667651 -0.19876129696974801 0 -0.41017313324850019 -0.2051641423578727 0 -0.40882722491020068 -0.19324634934951379 0 -0.41190905555667651 -0.19876129696974801 0 -0.41017313324850019 -0.2051641423578727 0 -0.40882722491020068 -0.19324634934951379 0 -0.41332632127240471 -0.19520135196246871 0 -0.41190905555667651 -0.19876129696974801 0 -0.41332632127240471 -0.19520135196246871 0 -0.41596892406105851 -0.2005599774501266 0 -0.41190905555667651 -0.19876129696974801 0 -0.41974440223132548 -0.2277223948390894 0 -0.40379864078896821 -0.22147517947459039 0 -0.41017313324850019 -0.2051641423578727 0 -0.41974440223132548 -0.2277223948390894 0 -0.41017313324850019 -0.2051641423578727 0 -0.42075205755079043 -0.21398522646416529 0 -0.40379864078896821 -0.22147517947459039 0 -0.40520524043689871 -0.20626505254016059 0 -0.41017313324850019 -0.2051641423578727 0 -0.41974440223132548 -0.2277223948390894 0 -0.41017313324850019 -0.2051641423578727 0 -0.41017313324850019 -0.2051641423578727 0 -0.42075205755079043 -0.21398522646416529 0 -0.41798035083784391 -0.20525037365940721 0 -0.42075205755079043 -0.21398522646416529 0 -0.41798035083784391 -0.20525037365940721 0 -0.4250272884910265 -0.2012921483654643 0 -0.41596892406105851 -0.2005599774501266 0 -0.41017313324850019 -0.2051641423578727 0 -0.41798035083784391 -0.20525037365940721 0 -0.42075205755079043 -0.21398522646416529 0 -0.43601245252430942 -0.20793643678791121 0 -0.4250272884910265 -0.2012921483654643 0 -0.43377720402095787 -0.21991138490827611 0 -0.42075205755079043 -0.21398522646416529 0 -0.43601245252430942 -0.20793643678791121 0 -0.42704416580793209 -0.1915833167308334 0 -0.4250272884910265 -0.2012921483654643 0 -0.43829012180726529 -0.19322062900912909 0 -0.43601245252430942 -0.20793643678791121 0 -0.4250272884910265 -0.2012921483654643 0 -0.43829012180726529 -0.19322062900912909 0 -0.42704416580793209 -0.1915833167308334 0 -0.43088802862206788 -0.18341984505491449 0 -0.43829012180726529 -0.19322062900912909 0 -0.42015528071935893 -0.19373976728588371 0 -0.42704416580793209 -0.1915833167308334 0 -0.42086010939994178 -0.18624419393877539 0 -0.42015528071935893 -0.19373976728588371 0 -0.42704416580793209 -0.1915833167308334 0 -0.4250272884910265 -0.2012921483654643 0 -0.4285734277027195 -0.1734756855885477 0 -0.43088802862206788 -0.18341984505491449 0 -0.41995474680429618 -0.17713819565942951 0 -0.42704416580793209 -0.1915833167308334 0 -0.43088802862206788 -0.18341984505491449 0 -0.42086010939994178 -0.18624419393877539 0 -0.43088802862206788 -0.18341984505491449 0 -0.41995474680429618 -0.17713819565942951 0 -0.42086010939994178 -0.18624419393877539 0 -0.43088802862206788 -0.18341984505491449 0 -0.44104422433457419 -0.1777922577957152 0 -0.43829012180726529 -0.19322062900912909 0 -0.4285734277027195 -0.1734756855885477 0 -0.43088802862206788 -0.18341984505491449 0 -0.44104422433457419 -0.1777922577957152 0 -0.4285734277027195 -0.1734756855885477 0 -0.4344270590450659 -0.1609053943072484 0 -0.44104422433457419 -0.1777922577957152 0 -0.4285734277027195 -0.1734756855885477 0 -0.4344270590450659 -0.1609053943072484 0 -0.4151480566294905 -0.1680004084026471 0 -0.4151480566294905 -0.1680004084026471 0 -0.40323096316088519 -0.16793215078578741 0 -0.41306883257355248 -0.1475019853524365 0 -0.4344270590450659 -0.1609053943072484 0 -0.4151480566294905 -0.1680004084026471 0 -0.41306883257355248 -0.1475019853524365 0 -0.4151480566294905 -0.1680004084026471 0 -0.40690801218449152 -0.1762036959065488 0 -0.40323096316088519 -0.16793215078578741 0 -0.4151480566294905 -0.1680004084026471 0 -0.40690801218449152 -0.1762036959065488 0 -0.4136865446123984 -0.1757543503219206 0 -0.40690801218449152 -0.1762036959065488 0 -0.4136865446123984 -0.1757543503219206 0 -0.41273536283131562 -0.1816751013190569 0 -0.4151480566294905 -0.1680004084026471 0 -0.4136865446123984 -0.1757543503219206 0 -0.41995474680429618 -0.17713819565942951 0 -0.4285734277027195 -0.1734756855885477 0 -0.4151480566294905 -0.1680004084026471 0 -0.41995474680429618 -0.17713819565942951 0 -0.4136865446123984 -0.1757543503219206 0 -0.41995474680429618 -0.17713819565942951 0 -0.41273536283131562 -0.1816751013190569 0 -0.41995474680429618 -0.17713819565942951 0 -0.42086010939994178 -0.18624419393877539 0 -0.41273536283131562 -0.1816751013190569 0 -0.41182634361573828 -0.18846823012601879 0 -0.42086010939994178 -0.18624419393877539 0 -0.41273536283131562 -0.1816751013190569 0 -0.41182634361573828 -0.18846823012601879 0 -0.41273536283131562 -0.1816751013190569 0 -0.4077561458873058 -0.18322680436219499 0 -0.40690801218449152 -0.1762036959065488 0 -0.41273536283131562 -0.1816751013190569 0 -0.4077561458873058 -0.18322680436219499 0 -0.41182634361573828 -0.18846823012601879 0 -0.4077561458873058 -0.18322680436219499 0 -0.40670914653930851 -0.1871811045826946 0 -0.39550730918059213 -0.18407841519480589 0 -0.38736231178750308 -0.177259124355894 0 -0.39189671048067998 -0.1677933701782604 0 -0.40135005364381798 -0.19305297691017151 0 -0.40060186426567512 -0.18260588987665591 0 -0.39550730918059213 -0.18407841519480589 0 -0.4077561458873058 -0.18322680436219499 0 -0.40670914653930851 -0.1871811045826946 0 -0.40060186426567512 -0.18260588987665591 0 -0.39550730918059213 -0.18407841519480589 0 -0.39189671048067998 -0.1677933701782604 0 -0.40060186426567512 -0.18260588987665591 0 -0.39550730918059213 -0.18407841519480589 0 -0.39189671048067998 -0.1677933701782604 0 -0.40690801218449152 -0.1762036959065488 0 -0.4077561458873058 -0.18322680436219499 0 -0.40060186426567512 -0.18260588987665591 0 -0.40690801218449152 -0.1762036959065488 0 -0.40060186426567512 -0.18260588987665591 0 -0.40323096316088519 -0.16793215078578741 0 -0.36992569105628492 -0.1720619732669908 0 -0.38736231178750308 -0.177259124355894 0 -0.39189671048067998 -0.1677933701782604 0 -0.36992569105628492 -0.1720619732669908 0 -0.38452179946839471 -0.1862127167391712 0 -0.38736231178750308 -0.177259124355894 0 -0.39550730918059213 -0.18407841519480589 0 -0.38452179946839471 -0.1862127167391712 0 -0.38736231178750308 -0.177259124355894 0 -0.36992569105628492 -0.1720619732669908 0 -0.38452179946839471 -0.1862127167391712 0 -0.36992569105628492 -0.1720619732669908 0 -0.37692746124962329 -0.16011968929401549 0 -0.39103059528285172 -0.16004763739543851 0 -0.36992569105628492 -0.1720619732669908 0 -0.39189671048067998 -0.1677933701782604 0 -0.39103059528285172 -0.16004763739543851 0 -0.36992569105628492 -0.1720619732669908 0 -0.39103059528285172 -0.16004763739543851 0 -0.37692746124962329 -0.16011968929401549 0 -0.39103059528285172 -0.16004763739543851 0 -0.38828980922767731 -0.15358795645443499 0 -0.39103059528285172 -0.16004763739543851 0 -0.38828980922767731 -0.15358795645443499 0 -0.40060186426567512 -0.18260588987665591 0 -0.39103059528285172 -0.16004763739543851 0 -0.40323096316088519 -0.16793215078578741 0 -0.40060186426567512 -0.18260588987665591 0 -0.39189671048067998 -0.1677933701782604 0 -0.39103059528285172 -0.16004763739543851 0 -0.40060186426567512 -0.18260588987665591 0 -0.39103059528285172 -0.16004763739543851 0 -0.39103059528285172 -0.16004763739543851 0 -0.40323096316088519 -0.16793215078578741 0 -0.41306883257355248 -0.1475019853524365 0 -0.39103059528285172 -0.16004763739543851 0 -0.39795981207507403 -0.14502431583870179 0 -0.41306883257355248 -0.1475019853524365 0 -0.39795981207507403 -0.14502431583870179 0 -0.40633267592073652 -0.13102661860532899 0 -0.41306883257355248 -0.1475019853524365 0 -0.39103059528285172 -0.16004763739543851 0 -0.41306883257355248 -0.1475019853524365 0 -0.39103059528285172 -0.16004763739543851 0 -0.39795981207507403 -0.14502431583870179 0 -0.38828980922767731 -0.15358795645443499 0 -0.39795981207507403 -0.14502431583870179 0 -0.38828980922767731 -0.15358795645443499 0 -0.38190833683646341 -0.1417380771930716 0 -0.38828980922767731 -0.15358795645443499 0 -0.38190833683646341 -0.1417380771930716 0 -0.37945525551812698 -0.15104483685056111 0 -0.37069541475874412 -0.1487336244607225 0 -0.38190833683646341 -0.1417380771930716 0 -0.37945525551812698 -0.15104483685056111 0 -0.37692746124962329 -0.16011968929401549 0 -0.38828980922767731 -0.15358795645443499 0 -0.37945525551812698 -0.15104483685056111 0 -0.37069541475874412 -0.1487336244607225 0 -0.37692746124962329 -0.16011968929401549 0 -0.37945525551812698 -0.15104483685056111 0 -0.37152802352755399 -0.13164580699010159 0 -0.38190833683646341 -0.1417380771930716 0 -0.38235470820745771 -0.123978498660336 0 -0.38190833683646341 -0.1417380771930716 0 -0.39228294530364349 -0.13316426080004001 0 -0.38235470820745771 -0.123978498660336 0 -0.39228294530364349 -0.13316426080004001 0 -0.40633267592073652 -0.13102661860532899 0 -0.39306930808202878 -0.1142539450673672 0 -0.39795981207507403 -0.14502431583870179 0 -0.38190833683646341 -0.1417380771930716 0 -0.39228294530364349 -0.13316426080004001 0 -0.39795981207507403 -0.14502431583870179 0 -0.39228294530364349 -0.13316426080004001 0 -0.40633267592073652 -0.13102661860532899 0 -0.40633267592073652 -0.13102661860532899 0 -0.42371591628165239 -0.12841039464220819 0 -0.41294233195137359 -0.116724400289887 0 -0.40633267592073652 -0.13102661860532899 0 -0.41306883257355248 -0.1475019853524365 0 -0.42371591628165239 -0.12841039464220819 0 -0.4344270590450659 -0.1609053943072484 0 -0.41306883257355248 -0.1475019853524365 0 -0.43782831476482847 -0.1415704877041897 0 -0.41306883257355248 -0.1475019853524365 0 -0.42371591628165239 -0.12841039464220819 0 -0.43782831476482847 -0.1415704877041897 0 -0.42371591628165239 -0.12841039464220819 0 -0.43782831476482847 -0.1415704877041897 0 -0.44295770465017009 -0.12292285668534771 0 -0.43782831476482847 -0.1415704877041897 0 -0.45407528277834919 -0.1346042898317954 0 -0.44295770465017009 -0.12292285668534771 0 -0.43782831476482847 -0.1415704877041897 0 -0.45305184803309972 -0.15210272433296521 0 -0.45407528277834919 -0.1346042898317954 0 -0.4344270590450659 -0.1609053943072484 0 -0.43782831476482847 -0.1415704877041897 0 -0.45305184803309972 -0.15210272433296521 0 -0.45305184803309972 -0.15210272433296521 0 -0.45407528277834919 -0.1346042898317954 0 -0.47213782278640881 -0.13623393318828281 0 -0.45305184803309972 -0.15210272433296521 0 -0.47213782278640881 -0.13623393318828281 0 -0.46702369577757719 -0.16066454859793791 0 -0.45407528277834919 -0.1346042898317954 0 -0.47213782278640881 -0.13623393318828281 0 -0.46296805171726468 -0.11640170438458371 0 -0.47213782278640881 -0.13623393318828281 0 -0.5 -0.14556247672259531 0 -0.48245330698995931 -0.121898764666846 0 -0.5 -0.14556247672259531 0 -0.48245330698995931 -0.121898764666846 0 -0.50000000000000089 -0.1198938119733675 0 -0.47213782278640881 -0.13623393318828281 0 -0.5 -0.14556247672259531 0 -0.48142521519093828 -0.15645589086587239 0 -0.47213782278640881 -0.13623393318828281 0 -0.48142521519093828 -0.15645589086587239 0 -0.47213782278640881 -0.13623393318828281 0 -0.48142521519093828 -0.15645589086587239 0 -0.46702369577757719 -0.16066454859793791 0 -0.48142521519093828 -0.15645589086587239 0 -0.47632052375980027 -0.17461649056753861 0 -0.46702369577757719 -0.16066454859793791 0 -0.48142521519093828 -0.15645589086587239 0 -0.49071260759546798 -0.17667784854346191 0 -0.47632052375980027 -0.17461649056753861 0 -0.47632052375980027 -0.17461649056753861 0 -0.46570520523623959 -0.1757931846103527 0 -0.46702369577757719 -0.16066454859793791 0 -0.48142521519093828 -0.15645589086587239 0 -0.49071260759546798 -0.17667784854346191 0 -0.5 -0.14556247672259531 0 -0.48142521519093828 -0.15645589086587239 0 -0.5 -0.17123114147182319 0 -0.48142521519093828 -0.15645589086587239 0 -0.5 -0.17123114147182319 0 -0.49071260759546798 -0.17667784854346191 0 -0.49071260759546798 -0.17667784854346191 0 -0.49999999999999861 -0.19689980622105099 0 -0.5 -0.17123114147182319 0 -0.49071260759546798 -0.17667784854346191 0 -0.49999999999999861 -0.19689980622105099 0 -0.49071260759546798 -0.17667784854346191 0 -0.47632052375980027 -0.17461649056753861 0 -0.47993034859498662 -0.18922987045237161 0 -0.47632052375980027 -0.17461649056753861 0 -0.46763136520864318 -0.18653340036078911 0 -0.46570520523623959 -0.1757931846103527 0 -0.47632052375980027 -0.17461649056753861 0 -0.46763136520864318 -0.18653340036078911 0 -0.47993034859498662 -0.18922987045237161 0 -0.46570520523623959 -0.1757931846103527 0 -0.45350155965897682 -0.1687850680226157 0 -0.45596312027128949 -0.18794868189772959 0 -0.46763136520864318 -0.18653340036078911 0 -0.46570520523623959 -0.1757931846103527 0 -0.45596312027128949 -0.18794868189772959 0 -0.45305184803309972 -0.15210272433296521 0 -0.46702369577757719 -0.16066454859793791 0 -0.45350155965897682 -0.1687850680226157 0 -0.46570520523623959 -0.1757931846103527 0 -0.46702369577757719 -0.16066454859793791 0 -0.45350155965897682 -0.1687850680226157 0 -0.4344270590450659 -0.1609053943072484 0 -0.45305184803309972 -0.15210272433296521 0 -0.45350155965897682 -0.1687850680226157 0 -0.4344270590450659 -0.1609053943072484 0 -0.45350155965897682 -0.1687850680226157 0 -0.44104422433457419 -0.1777922577957152 0 -0.45350155965897682 -0.1687850680226157 0 -0.44104422433457419 -0.1777922577957152 0 -0.45596312027128949 -0.18794868189772959 0 -0.44104422433457419 -0.1777922577957152 0 -0.43829012180726529 -0.19322062900912909 0 -0.45596312027128949 -0.18794868189772959 0 -0.45013906333809789 -0.2009404811944836 0 -0.43829012180726529 -0.19322062900912909 0 -0.45596312027128949 -0.18794868189772959 0 -0.43601245252430942 -0.20793643678791121 0 -0.45013906333809789 -0.2009404811944836 0 -0.43829012180726529 -0.19322062900912909 0 -0.43377720402095787 -0.21991138490827611 0 -0.43601245252430942 -0.20793643678791121 0 -0.45297794936819918 -0.2159919965998246 0 -0.43601245252430942 -0.20793643678791121 0 -0.45013906333809789 -0.2009404811944836 0 -0.45297794936819918 -0.2159919965998246 0 -0.45013906333809789 -0.2009404811944836 0 -0.45297794936819918 -0.2159919965998246 0 -0.46745167271942573 -0.1996046616778234 0 -0.45297794936819918 -0.2159919965998246 0 -0.46745167271942573 -0.1996046616778234 0 -0.46956062781061803 -0.21704188818370149 0 -0.45013906333809789 -0.2009404811944836 0 -0.46745167271942573 -0.1996046616778234 0 -0.45596312027128949 -0.18794868189772959 0 -0.46763136520864318 -0.18653340036078911 0 -0.46745167271942573 -0.1996046616778234 0 -0.45596312027128949 -0.18794868189772959 0 -0.46745167271942573 -0.1996046616778234 0 -0.47993034859498662 -0.18922987045237161 0 -0.48475058775642699 -0.21058337118561141 0 -0.46763136520864318 -0.18653340036078911 0 -0.46745167271942573 -0.1996046616778234 0 -0.47993034859498662 -0.18922987045237161 0 -0.47993034859498662 -0.18922987045237161 0 -0.49999999999999861 -0.19689980622105099 0 -0.48475058775642699 -0.21058337118561141 0 -0.49071260759546798 -0.17667784854346191 0 -0.47993034859498662 -0.18922987045237161 0 -0.49999999999999861 -0.19689980622105099 0 -0.49999999999999861 -0.19689980622105099 0 -0.48475058775642699 -0.21058337118561141 0 -0.50000000000000355 -0.22426693615016591 0 -0.46745167271942573 -0.1996046616778234 0 -0.48475058775642699 -0.21058337118561141 0 -0.46956062781061803 -0.21704188818370149 0 -0.46956062781061803 -0.21704188818370149 0 -0.47829002665147741 -0.2341248566128927 0 -0.46279731583591321 -0.22891002208815581 0 -0.48475058775642699 -0.21058337118561141 0 -0.46956062781061803 -0.21704188818370149 0 -0.47829002665147741 -0.2341248566128927 0 -0.47829002665147741 -0.2341248566128927 0 -0.49757451855253881 -0.23053548086278239 0 -0.50000000000000355 -0.22426693615016591 0 -0.48475058775642699 -0.21058337118561141 0 -0.47829002665147741 -0.2341248566128927 0 -0.50000000000000355 -0.22426693615016591 0 -0.47829002665147741 -0.2341248566128927 0 -0.50000000000000355 -0.22426693615016591 0 -0.47829002665147741 -0.2341248566128927 0 -0.49757451855253881 -0.23053548086278239 0 -0.47793059070477772 -0.24540990329775009 0 -0.5 -0.25006354863638108 0 -0.49757451855253881 -0.23053548086278239 0 -0.49068252501969761 -0.24549971615663649 0 -0.49757451855253881 -0.23053548086278239 0 -0.49068252501969761 -0.24549971615663649 0 -0.47793059070477772 -0.24540990329775009 0 -0.49757451855253881 -0.23053548086278239 0 -0.47793059070477772 -0.24540990329775009 0 -0.5 -0.25006354863638108 0 -0.49757451855253881 -0.23053548086278239 0 -0.50000000000000355 -0.22426693615016591 0 -0.4872249908214738 -0.25598993182963242 0 -0.49068252501969761 -0.24549971615663649 0 -0.47793059070477772 -0.24540990329775009 0 -0.47829002665147741 -0.2341248566128927 0 -0.47793059070477772 -0.24540990329775009 0 -0.45658005330295048 -0.2439827770756183 0 -0.45658005330295048 -0.2439827770756183 0 -0.46279731583591321 -0.22891002208815581 0 -0.44277641758923081 -0.23102430468348881 0 -0.47829002665147741 -0.2341248566128927 0 -0.45658005330295048 -0.2439827770756183 0 -0.45828666285701658 -0.26028432573271792 0 -0.47793059070477772 -0.24540990329775009 0 -0.45658005330295048 -0.2439827770756183 0 -0.47829002665147741 -0.2341248566128927 0 -0.45658005330295048 -0.2439827770756183 0 -0.46279731583591321 -0.22891002208815581 0 -0.45297794936819918 -0.2159919965998246 0 -0.46956062781061803 -0.21704188818370149 0 -0.46279731583591321 -0.22891002208815581 0 -0.45297794936819918 -0.2159919965998246 0 -0.46279731583591321 -0.22891002208815581 0 -0.44277641758923081 -0.23102430468348881 0 -0.43377720402095787 -0.21991138490827611 0 -0.45297794936819918 -0.2159919965998246 0 -0.44277641758923081 -0.23102430468348881 0 -0.43487007995442373 -0.25384069753834382 0 -0.45658005330295048 -0.2439827770756183 0 -0.43487007995442373 -0.25384069753834382 0 -0.43665732485841618 -0.24137016429136929 0 -0.45658005330295048 -0.2439827770756183 0 -0.43665732485841618 -0.24137016429136929 0 -0.45658005330295048 -0.2439827770756183 0 -0.44277641758923081 -0.23102430468348881 0 -0.42837915354319411 -0.040827216461995969 0 -0.4199205163048339 -0.024265820886729 0 -0.40528095782104068 -0.044243292517360297 0 -0.42343463197652342 -0.05874232933513765 0 -0.42837915354319411 -0.040827216461995969 0 -0.40528095782104068 -0.044243292517360297 0 -0.42343463197652342 -0.05874232933513765 0 -0.40528095782104068 -0.044243292517360297 0 -0.42343463197652342 -0.05874232933513765 0 -0.40528095782104068 -0.044243292517360297 0 -0.40670414160736479 -0.063195666982337848 0 -0.42343463197652342 -0.05874232933513765 0 -0.42837915354319411 -0.040827216461995969 0 -0.44094154444346079 -0.04995238034171972 0 -0.42343463197652342 -0.05874232933513765 0 -0.44158830613200611 -0.073241366152915127 0 -0.44094154444346079 -0.04995238034171972 0 -0.42837915354319411 -0.040827216461995969 0 -0.4342900889778567 -0.026770694848987801 0 -0.4453801544960031 -0.037531923181514312 0 -0.4342900889778567 -0.026770694848987801 0 -0.43033724725149269 -0.0037964727450953309 0 -0.4199205163048339 -0.024265820886729 0 -0.4342900889778567 -0.026770694848987801 0 -0.43033724725149269 -0.0037964727450953309 0 -0.44743337329375982 -0.027432040969604381 0 -0.42837915354319411 -0.040827216461995969 0 -0.4342900889778567 -0.026770694848987801 0 -0.4199205163048339 -0.024265820886729 0 -0.43033724725149269 -0.0037964727450953309 0 -0.4131572459017161 -0.004875649818797438 0 -0.4199205163048339 -0.024265820886729 0 -0.4131572459017161 -0.004875649818797438 0 -0.4199205163048339 -0.024265820886729 0 -0.40195427741026962 -0.018113178269922089 0 -0.4199205163048339 -0.024265820886729 0 -0.40195427741026962 -0.018113178269922089 0 -0.40528095782104068 -0.044243292517360297 0 -0.40195427741026962 -0.018113178269922089 0 -0.38465333842141641 -0.0066435457767305304 0 -0.38712728366555788 -0.02974425569958293 0 -0.40195427741026962 -0.018113178269922089 0 -0.38712728366555788 -0.02974425569958293 0 -0.40528095782104068 -0.044243292517360297 0 -0.40195427741026962 -0.018113178269922089 0 -0.38465333842141641 -0.0066435457767305304 0 -0.40033306733275759 0.0019581273283447299 0 -0.4131572459017161 -0.004875649818797438 0 -0.40195427741026962 -0.018113178269922089 0 -0.40033306733275759 0.0019581273283447299 0 -0.38465333842141641 -0.0066435457767305304 0 -0.40033306733275759 0.0019581273283447299 0 -0.36897360951007507 -0.015245218881805699 0 -0.38465333842141641 -0.0066435457767305304 0 -0.36897360951007507 -0.015245218881805699 0 -0.38465333842141641 -0.0066435457767305304 0 -0.38712728366555788 -0.02974425569958293 0 -0.36897360951007507 -0.015245218881805699 0 -0.38712728366555788 -0.02974425569958293 0 -0.37357085562444819 -0.050327950541553881 0 -0.38712728366555788 -0.02974425569958293 0 -0.39147992867528753 -0.058279446621744307 0 -0.38712728366555788 -0.02974425569958293 0 -0.40528095782104068 -0.044243292517360297 0 -0.38712728366555788 -0.02974425569958293 0 -0.40528095782104068 -0.044243292517360297 0 -0.39147992867528753 -0.058279446621744307 0 -0.40528095782104068 -0.044243292517360297 0 -0.39147992867528753 -0.058279446621744307 0 -0.40670414160736479 -0.063195666982337848 0 -0.37357085562444819 -0.050327950541553881 0 -0.39147992867528753 -0.058279446621744307 0 -0.37513495807632252 -0.068027960422620465 0 -0.39147992867528753 -0.058279446621744307 0 -0.37513495807632252 -0.068027960422620465 0 -0.3944429598887787 -0.078419500118194568 0 -0.37347114863240299 -0.089088331268139143 0 -0.37513495807632252 -0.068027960422620465 0 -0.3944429598887787 -0.078419500118194568 0 -0.37347114863240299 -0.089088331268139143 0 -0.3944429598887787 -0.078419500118194568 0 -0.38844874713165228 -0.097169733216879689 0 -0.3944429598887787 -0.078419500118194568 0 -0.38844874713165228 -0.097169733216879689 0 -0.40907098738890341 -0.097978282768044114 0 -0.39147992867528753 -0.058279446621744307 0 -0.3944429598887787 -0.078419500118194568 0 -0.40670414160736479 -0.063195666982337848 0 -0.3944429598887787 -0.078419500118194568 0 -0.41749625226094061 -0.077358517460495352 0 -0.40670414160736479 -0.063195666982337848 0 -0.39228294530364349 -0.13316426080004001 0 -0.38235470820745771 -0.123978498660336 0 -0.39306930808202878 -0.1142539450673672 0 -0.36980343247362518 -0.1100922289949047 0 -0.38235470820745771 -0.123978498660336 0 -0.39306930808202878 -0.1142539450673672 0 -0.36980343247362518 -0.1100922289949047 0 -0.37347114863240299 -0.089088331268139143 0 -0.38844874713165228 -0.097169733216879689 0 -0.36980343247362518 -0.1100922289949047 0 -0.38844874713165228 -0.097169733216879689 0 -0.39306930808202878 -0.1142539450673672 0 -0.38844874713165228 -0.097169733216879689 0 -0.39306930808202878 -0.1142539450673672 0 -0.40907098738890341 -0.097978282768044114 0 -0.39306930808202878 -0.1142539450673672 0 -0.41294233195137359 -0.116724400289887 0 -0.40907098738890341 -0.097978282768044114 0 -0.40633267592073652 -0.13102661860532899 0 -0.39306930808202878 -0.1142539450673672 0 -0.41294233195137359 -0.116724400289887 0 -0.41294233195137359 -0.116724400289887 0 -0.40907098738890341 -0.097978282768044114 0 -0.42916563782925382 -0.1107160192160596 0 -0.42916563782925382 -0.1107160192160596 0 -0.42904349786494111 -0.093106334976964328 0 -0.44668080241849201 -0.10304266906569499 0 -0.40907098738890341 -0.097978282768044114 0 -0.42916563782925382 -0.1107160192160596 0 -0.42904349786494111 -0.093106334976964328 0 -0.42371591628165239 -0.12841039464220819 0 -0.42916563782925382 -0.1107160192160596 0 -0.44295770465017009 -0.12292285668534771 0 -0.42371591628165239 -0.12841039464220819 0 -0.41294233195137359 -0.116724400289887 0 -0.42916563782925382 -0.1107160192160596 0 -0.42343463197652342 -0.05874232933513765 0 -0.41749625226094061 -0.077358517460495352 0 -0.40670414160736479 -0.063195666982337848 0 -0.40907098738890341 -0.097978282768044114 0 -0.41749625226094061 -0.077358517460495352 0 -0.42904349786494111 -0.093106334976964328 0 -0.3944429598887787 -0.078419500118194568 0 -0.40907098738890341 -0.097978282768044114 0 -0.41749625226094061 -0.077358517460495352 0 -0.41749625226094061 -0.077358517460495352 0 -0.42904349786494111 -0.093106334976964328 0 -0.44158830613200611 -0.073241366152915127 0 -0.42904349786494111 -0.093106334976964328 0 -0.44158830613200611 -0.073241366152915127 0 -0.42343463197652342 -0.05874232933513765 0 -0.44158830613200611 -0.073241366152915127 0 -0.42343463197652342 -0.05874232933513765 0 -0.41749625226094061 -0.077358517460495352 0 -0.44158830613200611 -0.073241366152915127 0 -0.44158830613200611 -0.073241366152915127 0 -0.46118581313569179 -0.071431252447136412 0 -0.45067286806919349 -0.058855770468984832 0 -0.44158830613200611 -0.073241366152915127 0 -0.45067286806919349 -0.058855770468984832 0 -0.44158830613200611 -0.073241366152915127 0 -0.44459286929252761 -0.089545637905493386 0 -0.46105887075467122 -0.088792181426399025 0 -0.42904349786494111 -0.093106334976964328 0 -0.44158830613200611 -0.073241366152915127 0 -0.44459286929252761 -0.089545637905493386 0 -0.44158830613200611 -0.073241366152915127 0 -0.46105887075467122 -0.088792181426399025 0 -0.46105887075467122 -0.088792181426399025 0 -0.46118581313569179 -0.071431252447136412 0 -0.48115195350555812 -0.076249636056848105 0 -0.44158830613200611 -0.073241366152915127 0 -0.46105887075467122 -0.088792181426399025 0 -0.46118581313569179 -0.071431252447136412 0 -0.44295770465017009 -0.12292285668534771 0 -0.44668080241849201 -0.10304266906569499 0 -0.46296805171726468 -0.11640170438458371 0 -0.42916563782925382 -0.1107160192160596 0 -0.44295770465017009 -0.12292285668534771 0 -0.44668080241849201 -0.10304266906569499 0 -0.44459286929252761 -0.089545637905493386 0 -0.46105887075467122 -0.088792181426399025 0 -0.44668080241849201 -0.10304266906569499 0 -0.42904349786494111 -0.093106334976964328 0 -0.44459286929252761 -0.089545637905493386 0 -0.44668080241849201 -0.10304266906569499 0 -0.46105887075467122 -0.088792181426399025 0 -0.46296805171726468 -0.11640170438458371 0 -0.48052943537733628 -0.1043429966998831 0 -0.46105887075467122 -0.088792181426399025 0 -0.44668080241849201 -0.10304266906569499 0 -0.46296805171726468 -0.11640170438458371 0 -0.45407528277834919 -0.1346042898317954 0 -0.44295770465017009 -0.12292285668534771 0 -0.46296805171726468 -0.11640170438458371 0 -0.46296805171726468 -0.11640170438458371 0 -0.48245330698995931 -0.121898764666846 0 -0.48052943537733628 -0.1043429966998831 0 -0.47213782278640881 -0.13623393318828281 0 -0.46296805171726468 -0.11640170438458371 0 -0.48245330698995931 -0.121898764666846 0 -0.46105887075467122 -0.088792181426399025 0 -0.48052943537733628 -0.1043429966998831 0 -0.48052943537733628 -0.1043429966998831 0 -0.50000000000000089 -0.1198938119733675 0 -0.5 -0.090898883536528308 0 -0.48245330698995931 -0.121898764666846 0 -0.48052943537733628 -0.1043429966998831 0 -0.50000000000000089 -0.1198938119733675 0 -0.48052943537733628 -0.1043429966998831 0 -0.50000000000000089 -0.1198938119733675 0 -0.46118581313569179 -0.071431252447136412 0 -0.48115195350555812 -0.076249636056848105 0 -0.46833584839527592 -0.05632992550213807 0 -0.48115195350555812 -0.076249636056848105 0 -0.48490864188954641 -0.055044389119401932 0 -0.46833584839527592 -0.05632992550213807 0 -0.46105887075467122 -0.088792181426399025 0 -0.48052943537733628 -0.1043429966998831 0 -0.48115195350555812 -0.076249636056848105 0 -0.48052943537733628 -0.1043429966998831 0 -0.48115195350555812 -0.076249636056848105 0 -0.5 -0.090898883536528308 0 -0.48115195350555812 -0.076249636056848105 0 -0.5 -0.090898883536528308 0 -0.5 -0.061903955099689163 0 -0.48115195350555812 -0.076249636056848105 0 -0.5 -0.061903955099689163 0 -0.48490864188954641 -0.055044389119401932 0 -0.5 -0.061903955099689163 0 -0.48490864188954641 -0.055044389119401932 0 -0.5 -0.032909026662849998 0 -0.48490864188954641 -0.055044389119401932 0 -0.5 -0.032909026662849998 0 -0.47623700986288742 -0.042296174380792313 0 -0.47623700986288742 -0.042296174380792313 0 -0.45975743000638192 -0.044470174785055258 0 -0.47133789178420182 -0.026132268992706809 0 -0.5 -0.032909026662849998 0 -0.47623700986288742 -0.042296174380792313 0 -0.47133789178420182 -0.026132268992706809 0 -0.48490864188954641 -0.055044389119401932 0 -0.47623700986288742 -0.042296174380792313 0 -0.46833584839527592 -0.05632992550213807 0 -0.46118581313569179 -0.071431252447136412 0 -0.46833584839527592 -0.05632992550213807 0 -0.45067286806919349 -0.058855770468984832 0 -0.47623700986288742 -0.042296174380792313 0 -0.46833584839527592 -0.05632992550213807 0 -0.45975743000638192 -0.044470174785055258 0 -0.46833584839527592 -0.05632992550213807 0 -0.45975743000638192 -0.044470174785055258 0 -0.45067286806919349 -0.058855770468984832 0 -0.45975743000638192 -0.044470174785055258 0 -0.45067286806919349 -0.058855770468984832 0 -0.46833584839527592 -0.05632992550213807 0 -0.45975743000638192 -0.044470174785055258 0 -0.45964620516156041 -0.031574428691672249 0 -0.45975743000638192 -0.044470174785055258 0 -0.44743337329375982 -0.027432040969604381 0 -0.45975743000638192 -0.044470174785055258 0 -0.44743337329375982 -0.027432040969604381 0 -0.45975743000638192 -0.044470174785055258 0 -0.47133789178420182 -0.026132268992706809 0 -0.45964620516156041 -0.031574428691672249 0 -0.45975743000638192 -0.044470174785055258 0 -0.47133789178420182 -0.026132268992706809 0 -0.45975743000638192 -0.044470174785055258 0 -0.4453801544960031 -0.037531923181514312 0 -0.44743337329375982 -0.027432040969604381 0 -0.45975743000638192 -0.044470174785055258 0 -0.4453801544960031 -0.037531923181514312 0 -0.44094154444346079 -0.04995238034171972 0 -0.42837915354319411 -0.040827216461995969 0 -0.4453801544960031 -0.037531923181514312 0 -0.44094154444346079 -0.04995238034171972 0 -0.4453801544960031 -0.037531923181514312 0 -0.44743337329375982 -0.027432040969604381 0 -0.44158830613200611 -0.073241366152915127 0 -0.44094154444346079 -0.04995238034171972 0 -0.45067286806919349 -0.058855770468984832 0 -0.45975743000638192 -0.044470174785055258 0 -0.44094154444346079 -0.04995238034171972 0 -0.45067286806919349 -0.058855770468984832 0 -0.43033724725149269 -0.0037964727450953309 0 -0.45268467479845531 -0.00160063580491273 0 -0.44743337329375982 -0.027432040969604381 0 -0.45268467479845531 -0.00160063580491273 0 -0.44743337329375982 -0.027432040969604381 0 -0.43033724725149269 -0.0037964727450953309 0 -0.44743337329375982 -0.027432040969604381 0 -0.4342900889778567 -0.026770694848987801 0 -0.4453801544960031 -0.037531923181514312 0 -0.44743337329375982 -0.027432040969604381 0 -0.45964620516156041 -0.031574428691672249 0 -0.44743337329375982 -0.027432040969604381 0 -0.46065164258955998 -0.015998841515816709 0 -0.45964620516156041 -0.031574428691672249 0 -0.46065164258955998 -0.015998841515816709 0 -0.47133789178420182 -0.026132268992706809 0 -0.45268467479845531 -0.00160063580491273 0 -0.46065164258955998 -0.015998841515816709 0 -0.47044579822050858 0.003730308873902122 0 -0.45268467479845531 -0.00160063580491273 0 -0.44743337329375982 -0.027432040969604381 0 -0.46065164258955998 -0.015998841515816709 0 -0.46065164258955998 -0.015998841515816709 0 -0.48291835356202167 -0.0077943632003582772 0 -0.47044579822050858 0.003730308873902122 0 -0.46065164258955998 -0.015998841515816709 0 -0.48291835356202167 -0.0077943632003582772 0 -0.47133789178420182 -0.026132268992706809 0 -0.48291835356202167 -0.0077943632003582772 0 -0.47133789178420182 -0.026132268992706809 0 -0.5 -0.032909026662849998 0 -0.48291835356202167 -0.0077943632003582772 0 -0.47133789178420182 -0.026132268992706809 0 -0.5 -0.032909026662849998 0 -0.48291835356202167 -0.0077943632003582772 0 -0.5 -0.0039140982260107426 0 -0.48291835356202167 -0.0077943632003582772 0 -0.5 -0.0039140982260107426 0 -0.48656778433615411 0.0071434676601368312 0 -0.5 -0.0039140982260107426 0 -0.48656778433615411 0.0071434676601368312 0 -0.5 0.02508083021082835 0 -0.5 0.02508083021082835 0 -0.47947476989823978 0.0186146606423227 0 -0.48053744464613157 0.038241937480116027 0 -0.48656778433615411 0.0071434676601368312 0 -0.5 0.02508083021082835 0 -0.47947476989823978 0.0186146606423227 0 -0.47947476989823978 0.0186146606423227 0 -0.48053744464613157 0.038241937480116027 0 -0.45793597630314969 0.024230769359779091 0 -0.48656778433615411 0.0071434676601368312 0 -0.47947476989823978 0.0186146606423227 0 -0.47044579822050858 0.003730308873902122 0 -0.48291835356202167 -0.0077943632003582772 0 -0.48656778433615411 0.0071434676601368312 0 -0.47044579822050858 0.003730308873902122 0 -0.47947476989823978 0.0186146606423227 0 -0.47044579822050858 0.003730308873902122 0 -0.45793597630314969 0.024230769359779091 0 -0.5 0.05407575864766756 0 -0.48053744464613157 0.038241937480116027 0 -0.48160115767747708 0.06010989829645641 0 -0.5 0.02508083021082835 0 -0.5 0.05407575864766756 0 -0.48053744464613157 0.038241937480116027 0 -0.48053744464613157 0.038241937480116027 0 -0.48160115767747708 0.06010989829645641 0 -0.4631872778078443 0.050062174524471058 0 -0.48160115767747708 0.06010989829645641 0 -0.4631872778078443 0.050062174524471058 0 -0.46843857931253879 0.07589357968916309 0 -0.4631872778078443 0.050062174524471058 0 -0.4467001814262947 0.061097152827744368 0 -0.46843857931253879 0.07589357968916309 0 -0.48053744464613157 0.038241937480116027 0 -0.4631872778078443 0.050062174524471058 0 -0.45793597630314969 0.024230769359779091 0 -0.4631872778078443 0.050062174524471058 0 -0.45793597630314969 0.024230769359779091 0 -0.4631872778078443 0.050062174524471058 0 -0.44755765064800451 0.039790068000500847 0 -0.45793597630314969 0.024230769359779091 0 -0.44755765064800451 0.039790068000500847 0 -0.43523671041618939 0.023434885238954581 0 -0.43070758581248142 0.047053180835022322 0 -0.4631872778078443 0.050062174524471058 0 -0.44755765064800451 0.039790068000500847 0 -0.4467001814262947 0.061097152827744368 0 -0.44755765064800451 0.039790068000500847 0 -0.4467001814262947 0.061097152827744368 0 -0.43070758581248142 0.047053180835022322 0 -0.45268467479845531 -0.00160063580491273 0 -0.45793597630314969 0.024230769359779091 0 -0.45268467479845531 -0.00160063580491273 0 -0.47044579822050858 0.003730308873902122 0 -0.45793597630314969 0.024230769359779091 0 -0.44755765064800451 0.039790068000500847 0 -0.45793597630314969 0.024230769359779091 0 -0.43523671041618939 0.023434885238954581 0 -0.45268467479845531 -0.00160063580491273 0 -0.45793597630314969 0.024230769359779091 0 -0.43523671041618939 0.023434885238954581 0 -0.43033724725149269 -0.0037964727450953309 0 -0.45268467479845531 -0.00160063580491273 0 -0.43523671041618939 0.023434885238954581 0 -0.43033724725149269 -0.0037964727450953309 0 -0.41324112120922679 0.019839095479414509 0 -0.43523671041618939 0.023434885238954581 0 -0.4131572459017161 -0.004875649818797438 0 -0.41324112120922679 0.019839095479414509 0 -0.40033306733275759 0.0019581273283447299 0 -0.43033724725149269 -0.0037964727450953309 0 -0.4131572459017161 -0.004875649818797438 0 -0.41324112120922679 0.019839095479414509 0 -0.43033724725149269 -0.0037964727450953309 0 -0.41324112120922679 0.019839095479414509 0 -0.41324112120922679 0.019839095479414509 0 -0.43523671041618939 0.023434885238954581 0 -0.4159879611894004 0.038538653043845933 0 -0.43523671041618939 0.023434885238954581 0 -0.43070758581248142 0.047053180835022322 0 -0.4159879611894004 0.038538653043845933 0 -0.4467001814262947 0.061097152827744368 0 -0.43070758581248142 0.047053180835022322 0 -0.43187545736445182 0.065921103617004775 0 -0.43070758581248142 0.047053180835022322 0 -0.41322656597679058 0.058941655142102069 0 -0.43187545736445182 0.065921103617004775 0 -0.43070758581248142 0.047053180835022322 0 -0.41322656597679058 0.058941655142102069 0 -0.4159879611894004 0.038538653043845933 0 -0.41322656597679058 0.058941655142102069 0 -0.4159879611894004 0.038538653043845933 0 -0.39614499516696089 0.04347466370392436 0 -0.41324112120922679 0.019839095479414509 0 -0.4159879611894004 0.038538653043845933 0 -0.39614499516696089 0.04347466370392436 0 -0.41324112120922679 0.019839095479414509 0 -0.39614499516696089 0.04347466370392436 0 -0.39614499516696089 0.04347466370392436 0 -0.37904886912469499 0.067110231928434197 0 -0.39695674231957478 0.074929810419583368 0 -0.41322656597679058 0.058941655142102069 0 -0.39614499516696089 0.04347466370392436 0 -0.39695674231957478 0.074929810419583368 0 -0.39614499516696089 0.04347466370392436 0 -0.37904886912469499 0.067110231928434197 0 -0.39614499516696089 0.04347466370392436 0 -0.37830855690199738 0.048851891747440382 0 -0.37904886912469499 0.067110231928434197 0 -0.37830855690199738 0.048851891747440382 0 -0.37904886912469499 0.067110231928434197 0 -0.37119345183321822 0.058853827639881867 0 -0.39614499516696089 0.04347466370392436 0 -0.37753126207020948 0.034899308803226177 0 -0.39262774316901877 0.02112007510405265 0 -0.39614499516696089 0.04347466370392436 0 -0.37830855690199738 0.048851891747440382 0 -0.37753126207020948 0.034899308803226177 0 -0.38389636562500351 0.0078670615218947963 0 -0.39262774316901877 0.02112007510405265 0 -0.37274578052696178 0.01868977009819147 0 -0.37753126207020948 0.034899308803226177 0 -0.39262774316901877 0.02112007510405265 0 -0.37274578052696178 0.01868977009819147 0 -0.38465333842141641 -0.0066435457767305304 0 -0.38389636562500351 0.0078670615218947963 0 -0.40033306733275759 0.0019581273283447299 0 -0.38389636562500351 0.0078670615218947963 0 -0.37274578052696178 0.01868977009819147 0 -0.36979036210562988 0.0025511841975563729 0 -0.38465333842141641 -0.0066435457767305304 0 -0.38389636562500351 0.0078670615218947963 0 -0.36979036210562988 0.0025511841975563729 0 -0.38389636562500351 0.0078670615218947963 0 -0.40033306733275759 0.0019581273283447299 0 -0.39262774316901877 0.02112007510405265 0 -0.41324112120922679 0.019839095479414509 0 -0.40033306733275759 0.0019581273283447299 0 -0.39262774316901877 0.02112007510405265 0 -0.41324112120922679 0.019839095479414509 0 -0.39614499516696089 0.04347466370392436 0 -0.39262774316901877 0.02112007510405265 0 -0.38940712396436111 0.098535478259042519 0 -0.39976920250104669 0.086913075381088473 0 -0.40655062222011962 0.096340958868671334 0 -0.39063101314785642 0.1199442217017349 0 -0.40655062222011962 0.096340958868671334 0 -0.40795026737523371 0.1101441825861223 0 -0.39063101314785642 0.1199442217017349 0 -0.38940712396436111 0.098535478259042519 0 -0.40655062222011962 0.096340958868671334 0 -0.39063101314785642 0.1199442217017349 0 -0.40655062222011962 0.096340958868671334 0 -0.39063101314785642 0.1199442217017349 0 -0.40795026737523371 0.1101441825861223 0 -0.40406865080306442 0.1250183431131778 0 -0.39063101314785642 0.1199442217017349 0 -0.37896648635229202 0.10715504183998489 0 -0.36716541190589658 0.118616890008602 0 -0.39063101314785642 0.1199442217017349 0 -0.37896648635229202 0.10715504183998489 0 -0.38940712396436111 0.098535478259042519 0 -0.37896648635229202 0.10715504183998489 0 -0.38940712396436111 0.098535478259042519 0 -0.37643332436138899 0.09558572737664002 0 -0.38119130922167832 0.078766060501995444 0 -0.3856317933390121 0.08567132342606161 0 -0.39695674231957478 0.074929810419583368 0 -0.37643332436138899 0.09558572737664002 0 -0.3856317933390121 0.08567132342606161 0 -0.37016311523106599 0.083751267223082917 0 -0.38119130922167832 0.078766060501995444 0 -0.3856317933390121 0.08567132342606161 0 -0.37016311523106599 0.083751267223082917 0 -0.38940712396436111 0.098535478259042519 0 -0.37643332436138899 0.09558572737664002 0 -0.3856317933390121 0.08567132342606161 0 -0.39695674231957478 0.074929810419583368 0 -0.37201358599706058 0.070711840939253895 0 -0.38119130922167832 0.078766060501995444 0 -0.39695674231957478 0.074929810419583368 0 -0.37201358599706058 0.070711840939253895 0 -0.37904886912469499 0.067110231928434197 0 -0.39695674231957478 0.074929810419583368 0 -0.37201358599706058 0.070711840939253895 0 -0.39695674231957478 0.074929810419583368 0 -0.39976920250104669 0.086913075381088473 0 -0.42189989864208899 0.079147779899912826 0 -0.38940712396436111 0.098535478259042519 0 -0.3856317933390121 0.08567132342606161 0 -0.39976920250104669 0.086913075381088473 0 -0.3856317933390121 0.08567132342606161 0 -0.39695674231957478 0.074929810419583368 0 -0.39976920250104669 0.086913075381088473 0 -0.42189989864208899 0.079147779899912826 0 -0.41823283762125668 0.10021421029095 0 -0.40655062222011962 0.096340958868671334 0 -0.39976920250104669 0.086913075381088473 0 -0.42189989864208899 0.079147779899912826 0 -0.40655062222011962 0.096340958868671334 0 -0.39695674231957478 0.074929810419583368 0 -0.42189989864208899 0.079147779899912826 0 -0.41322656597679058 0.058941655142102069 0 -0.39695674231957478 0.074929810419583368 0 -0.42189989864208899 0.079147779899912826 0 -0.43187545736445182 0.065921103617004775 0 -0.42189989864208899 0.079147779899912826 0 -0.44684305496460319 0.083365749380242285 0 -0.41322656597679058 0.058941655142102069 0 -0.43187545736445182 0.065921103617004775 0 -0.42189989864208899 0.079147779899912826 0 -0.42189989864208899 0.079147779899912826 0 -0.43230900050581528 0.10074033507248679 0 -0.44684305496460319 0.083365749380242285 0 -0.42189989864208899 0.079147779899912826 0 -0.43230900050581528 0.10074033507248679 0 -0.41823283762125668 0.10021421029095 0 -0.42189989864208899 0.079147779899912826 0 -0.44684305496460319 0.083365749380242285 0 -0.43230900050581528 0.10074033507248679 0 -0.41823283762125668 0.10021421029095 0 -0.42245439936302609 0.1146977950275566 0 -0.41823283762125668 0.10021421029095 0 -0.40795026737523371 0.1101441825861223 0 -0.42245439936302609 0.1146977950275566 0 -0.41823283762125668 0.10021421029095 0 -0.40655062222011962 0.096340958868671334 0 -0.40795026737523371 0.1101441825861223 0 -0.40795026737523371 0.1101441825861223 0 -0.42245439936302609 0.1146977950275566 0 -0.41854804079657681 0.1335618185962307 0 -0.40795026737523371 0.1101441825861223 0 -0.41854804079657681 0.1335618185962307 0 -0.40795026737523371 0.1101441825861223 0 -0.41854804079657681 0.1335618185962307 0 -0.40406865080306442 0.1250183431131778 0 -0.4361514068569779 0.1212930370016405 0 -0.42245439936302609 0.1146977950275566 0 -0.41854804079657681 0.1335618185962307 0 -0.43230900050581528 0.10074033507248679 0 -0.4361514068569779 0.1212930370016405 0 -0.42245439936302609 0.1146977950275566 0 -0.4361514068569779 0.1212930370016405 0 -0.45131059104818438 0.10389771754541841 0 -0.45603072582896947 0.12415654782577901 0 -0.43230900050581528 0.10074033507248679 0 -0.4361514068569779 0.1212930370016405 0 -0.45131059104818438 0.10389771754541841 0 -0.43230900050581528 0.10074033507248679 0 -0.45131059104818438 0.10389771754541841 0 -0.44684305496460319 0.083365749380242285 0 -0.45131059104818438 0.10389771754541841 0 -0.46040635620489312 0.091287960740373597 0 -0.47503319949424611 0.10199479634667059 0 -0.45131059104818438 0.10389771754541841 0 -0.45603072582896947 0.12415654782577901 0 -0.47503319949424611 0.10199479634667059 0 -0.4467001814262947 0.061097152827744368 0 -0.43187545736445182 0.065921103617004775 0 -0.44684305496460319 0.083365749380242285 0 -0.45131059104818438 0.10389771754541841 0 -0.44684305496460319 0.083365749380242285 0 -0.46040635620489312 0.091287960740373597 0 -0.46040635620489312 0.091287960740373597 0 -0.46843857931253879 0.07589357968916309 0 -0.47503319949424611 0.10199479634667059 0 -0.44684305496460319 0.083365749380242285 0 -0.46040635620489312 0.091287960740373597 0 -0.46843857931253879 0.07589357968916309 0 -0.4631872778078443 0.050062174524471058 0 -0.46843857931253879 0.07589357968916309 0 -0.4467001814262947 0.061097152827744368 0 -0.44684305496460319 0.083365749380242285 0 -0.46843857931253879 0.07589357968916309 0 -0.48160115767747708 0.06010989829645641 0 -0.46843857931253879 0.07589357968916309 0 -0.5 0.083070687084506711 0 -0.46843857931253879 0.07589357968916309 0 -0.5 0.083070687084506711 0 -0.47503319949424611 0.10199479634667059 0 -0.5 0.05407575864766756 0 -0.48160115767747708 0.06010989829645641 0 -0.5 0.083070687084506711 0 -0.45603072582896947 0.12415654782577901 0 -0.47503319949424611 0.10199479634667059 0 -0.47840746745339868 0.1318715347448986 0 -0.5 0.083070687084506711 0 -0.47503319949424611 0.10199479634667059 0 -0.5 0.11206561552134579 0 -0.47503319949424611 0.10199479634667059 0 -0.5 0.11206561552134579 0 -0.47840746745339868 0.1318715347448986 0 -0.5 0.11206561552134579 0 -0.47840746745339868 0.1318715347448986 0 -0.5 0.14106054395818479 0 -0.47840746745339868 0.1318715347448986 0 -0.4813713775429343 0.15534342778339541 0 -0.45584990199199521 0.14839652371063539 0 -0.47840746745339868 0.1318715347448986 0 -0.4813713775429343 0.15534342778339541 0 -0.5 0.14106054395818479 0 -0.4813713775429343 0.15534342778339541 0 -0.5 0.14106054395818479 0 -0.5 0.17005547239502389 0 -0.4813713775429343 0.15534342778339541 0 -0.5 0.17005547239502389 0 -0.47888983910924399 0.1833910978263659 0 -0.5 0.17005547239502389 0 -0.47888983910924399 0.1833910978263659 0 -0.49999999999999639 0.19905040083186301 0 -0.4813713775429343 0.15534342778339541 0 -0.47888983910924399 0.1833910978263659 0 -0.46013732273498392 0.17116473448995881 0 -0.4813713775429343 0.15534342778339541 0 -0.47888983910924399 0.1833910978263659 0 -0.4813713775429343 0.15534342778339541 0 -0.46013732273498392 0.17116473448995881 0 -0.45584990199199521 0.14839652371063539 0 -0.47888983910924399 0.1833910978263659 0 -0.46013732273498392 0.17116473448995881 0 -0.4553652866229031 0.19812390853730849 0 -0.46013732273498392 0.17116473448995881 0 -0.43974358763926291 0.18039709061644729 0 -0.4553652866229031 0.19812390853730849 0 -0.46013732273498392 0.17116473448995881 0 -0.45584990199199521 0.14839652371063539 0 -0.42914581421791992 0.156979454606339 0 -0.46013732273498392 0.17116473448995881 0 -0.43974358763926291 0.18039709061644729 0 -0.42914581421791992 0.156979454606339 0 -0.43890233478009338 0.1378395493323826 0 -0.45584990199199521 0.14839652371063539 0 -0.42914581421791992 0.156979454606339 0 -0.4361514068569779 0.1212930370016405 0 -0.45603072582896947 0.12415654782577901 0 -0.43890233478009338 0.1378395493323826 0 -0.45603072582896947 0.12415654782577901 0 -0.43890233478009338 0.1378395493323826 0 -0.45584990199199521 0.14839652371063539 0 -0.45603072582896947 0.12415654782577901 0 -0.47840746745339868 0.1318715347448986 0 -0.45584990199199521 0.14839652371063539 0 -0.48510068849613291 0.2464952989699998 0 -0.5 0.22952651967534751 0 -0.5 0.27058277969487637 0 -0.48510068849613291 0.2464952989699998 0 -0.47450648191078398 0.23293413722231679 0 -0.4662317729600568 0.24711617116125539 0 -0.48510068849613291 0.2464952989699998 0 -0.5 0.22952651967534751 0 -0.47450648191078398 0.23293413722231679 0 -0.5 0.22952651967534751 0 -0.47450648191078398 0.23293413722231679 0 -0.47640830067555312 0.21143876786933641 0 -0.47450648191078398 0.23293413722231679 0 -0.47640830067555312 0.21143876786933641 0 -0.47640830067555312 0.21143876786933641 0 -0.49999999999999639 0.19905040083186301 0 -0.5 0.22952651967534751 0 -0.47640830067555312 0.21143876786933641 0 -0.49999999999999639 0.19905040083186301 0 -0.47888983910924399 0.1833910978263659 0 -0.47640830067555312 0.21143876786933641 0 -0.49999999999999639 0.19905040083186301 0 -0.47888983910924399 0.1833910978263659 0 -0.47640830067555312 0.21143876786933641 0 -0.47888983910924399 0.1833910978263659 0 -0.47640830067555312 0.21143876786933641 0 -0.4553652866229031 0.19812390853730849 0 -0.43974358763926291 0.18039709061644729 0 -0.4553652866229031 0.19812390853730849 0 -0.43067986422853077 0.20940139548392031 0 -0.4553652866229031 0.19812390853730849 0 -0.45283971357182312 0.22381499832142371 0 -0.43067986422853077 0.20940139548392031 0 -0.47640830067555312 0.21143876786933641 0 -0.4553652866229031 0.19812390853730849 0 -0.45283971357182312 0.22381499832142371 0 -0.47640830067555312 0.21143876786933641 0 -0.45283971357182312 0.22381499832142371 0 -0.47450648191078398 0.23293413722231679 0 -0.45283971357182312 0.22381499832142371 0 -0.45078000859246359 0.24156244513336969 0 -0.47450648191078398 0.23293413722231679 0 -0.47640830067555312 0.21143876786933641 0 -0.45283971357182312 0.22381499832142371 0 -0.45283971357182312 0.22381499832142371 0 -0.43294786837480398 0.2404538296894207 0 -0.42927112646809362 0.23619122877351181 0 -0.45283971357182312 0.22381499832142371 0 -0.42927112646809362 0.23619122877351181 0 -0.45283971357182312 0.22381499832142371 0 -0.42927112646809362 0.23619122877351181 0 -0.43067986422853077 0.20940139548392031 0 -0.45283971357182312 0.22381499832142371 0 -0.45078000859246359 0.24156244513336969 0 -0.43294786837480398 0.2404538296894207 0 -0.43294786837480398 0.2404538296894207 0 -0.44957601688056159 0.25938839971938082 0 -0.45078000859246359 0.24156244513336969 0 -0.43294786837480398 0.2404538296894207 0 -0.44957601688056159 0.25938839971938082 0 -0.45078000859246359 0.24156244513336969 0 -0.4662317729600568 0.24711617116125539 0 -0.44957601688056159 0.25938839971938082 0 -0.47450648191078398 0.23293413722231679 0 -0.45078000859246359 0.24156244513336969 0 -0.4662317729600568 0.24711617116125539 0 -0.42927112646809362 0.23619122877351181 0 -0.40439403923729561 0.237116777479636 0 -0.40570253936436479 0.24856745922560119 0 -0.42927112646809362 0.23619122877351181 0 -0.40570253936436479 0.24856745922560119 0 -0.43294786837480398 0.2404538296894207 0 -0.42927112646809362 0.23619122877351181 0 -0.40570253936436479 0.24856745922560119 0 -0.42927112646809362 0.23619122877351181 0 -0.41099867150134572 0.22378265931279079 0 -0.43067986422853077 0.20940139548392031 0 -0.42927112646809362 0.23619122877351181 0 -0.41099867150134572 0.22378265931279079 0 -0.40439403923729561 0.237116777479636 0 -0.40693149157881192 0.20854646138297669 0 -0.43067986422853077 0.20940139548392031 0 -0.41468845130467291 0.19268004053423909 0 -0.41099867150134572 0.22378265931279079 0 -0.40693149157881192 0.20854646138297669 0 -0.43067986422853077 0.20940139548392031 0 -0.43974358763926291 0.18039709061644729 0 -0.43067986422853077 0.20940139548392031 0 -0.41468845130467291 0.19268004053423909 0 -0.40693149157881192 0.20854646138297669 0 -0.41468845130467291 0.19268004053423909 0 -0.3971577940731173 0.19827573187671929 0 -0.41468845130467291 0.19268004053423909 0 -0.3971577940731173 0.19827573187671929 0 -0.39721082993519219 0.18448993107768991 0 -0.3971577940731173 0.19827573187671929 0 -0.38589476142810619 0.19424352100093389 0 -0.39721082993519219 0.18448993107768991 0 -0.38589476142810619 0.19424352100093389 0 -0.37633455857784293 0.18261391494179069 0 -0.37360736010814782 0.20134128663860251 0 -0.38589476142810619 0.19424352100093389 0 -0.388204088430469 0.2080493245121296 0 -0.37360736010814782 0.20134128663860251 0 -0.3971577940731173 0.19827573187671929 0 -0.38589476142810619 0.19424352100093389 0 -0.388204088430469 0.2080493245121296 0 -0.388204088430469 0.2080493245121296 0 -0.37752279527241261 0.21261086987475841 0 -0.37360736010814782 0.20134128663860251 0 -0.388204088430469 0.2080493245121296 0 -0.39698893960476778 0.22105750592270679 0 -0.38334950790794681 0.2216260941536595 0 -0.388204088430469 0.2080493245121296 0 -0.37752279527241261 0.21261086987475841 0 -0.38334950790794681 0.2216260941536595 0 -0.40693149157881192 0.20854646138297669 0 -0.3971577940731173 0.19827573187671929 0 -0.388204088430469 0.2080493245121296 0 -0.40693149157881192 0.20854646138297669 0 -0.388204088430469 0.2080493245121296 0 -0.39698893960476778 0.22105750592270679 0 -0.41099867150134572 0.22378265931279079 0 -0.40693149157881192 0.20854646138297669 0 -0.39698893960476778 0.22105750592270679 0 -0.41099867150134572 0.22378265931279079 0 -0.39817935363044121 0.2307605800777236 0 -0.39698893960476778 0.22105750592270679 0 -0.41099867150134572 0.22378265931279079 0 -0.39817935363044121 0.2307605800777236 0 -0.40439403923729561 0.237116777479636 0 -0.39817935363044121 0.2307605800777236 0 -0.39698893960476778 0.22105750592270679 0 -0.38938082192181989 0.23429513208400299 0 -0.39698893960476778 0.22105750592270679 0 -0.38334950790794681 0.2216260941536595 0 -0.38938082192181989 0.23429513208400299 0 -0.37752279527241261 0.21261086987475841 0 -0.38334950790794681 0.2216260941536595 0 -0.37349668708843092 0.2226496950895116 0 -0.38334950790794681 0.2216260941536595 0 -0.37780308712422273 0.23309721308500589 0 -0.37349668708843092 0.2226496950895116 0 -0.38334950790794681 0.2216260941536595 0 -0.37780308712422273 0.23309721308500589 0 -0.38938082192181989 0.23429513208400299 0 -0.37780308712422273 0.23309721308500589 0 -0.38938082192181989 0.23429513208400299 0 -0.38455494932564349 0.24416718140159829 0 -0.38938082192181989 0.23429513208400299 0 -0.38455494932564349 0.24416718140159829 0 -0.39556747567899392 0.24292135359640349 0 -0.37780308712422273 0.23309721308500589 0 -0.37552267705158737 0.2431978490864326 0 -0.38455494932564349 0.24416718140159829 0 -0.37552267705158737 0.2431978490864326 0 -0.38455494932564349 0.24416718140159829 0 -0.37675611103540763 0.25409865512553548 0 -0.38455494932564349 0.24416718140159829 0 -0.39556747567899392 0.24292135359640349 0 -0.38900306751682168 0.25733661077056619 0 -0.39556747567899392 0.24292135359640349 0 -0.40570253936436479 0.24856745922560119 0 -0.38900306751682168 0.25733661077056619 0 -0.39817935363044121 0.2307605800777236 0 -0.38938082192181989 0.23429513208400299 0 -0.39556747567899392 0.24292135359640349 0 -0.39817935363044121 0.2307605800777236 0 -0.39556747567899392 0.24292135359640349 0 -0.40439403923729561 0.237116777479636 0 -0.39556747567899392 0.24292135359640349 0 -0.40439403923729561 0.237116777479636 0 -0.40570253936436479 0.24856745922560119 0 -0.40439403923729561 0.237116777479636 0 -0.40570253936436479 0.24856745922560119 0 -0.41854804079657681 0.1335618185962307 0 -0.42914581421791992 0.156979454606339 0 -0.40043471814444209 0.15516303321545699 0 -0.41854804079657681 0.1335618185962307 0 -0.39914528189259102 0.13642314956862331 0 -0.40406865080306442 0.1250183431131778 0 -0.4361514068569779 0.1212930370016405 0 -0.43890233478009338 0.1378395493323826 0 -0.41854804079657681 0.1335618185962307 0 -0.41854804079657681 0.1335618185962307 0 -0.42914581421791992 0.156979454606339 0 -0.43890233478009338 0.1378395493323826 0 -0.41854804079657681 0.1335618185962307 0 -0.42914581421791992 0.156979454606339 0 -0.43974358763926291 0.18039709061644729 0 -0.42914581421791992 0.156979454606339 0 -0.43974358763926291 0.18039709061644729 0 -0.42914581421791992 0.156979454606339 0 -0.41320507520050959 0.17295104721716609 0 -0.43974358763926291 0.18039709061644729 0 -0.41468845130467291 0.19268004053423909 0 -0.41320507520050959 0.17295104721716609 0 -0.41468845130467291 0.19268004053423909 0 -0.41320507520050959 0.17295104721716609 0 -0.39721082993519219 0.18448993107768991 0 -0.42914581421791992 0.156979454606339 0 -0.41320507520050959 0.17295104721716609 0 -0.40043471814444209 0.15516303321545699 0 -0.41320507520050959 0.17295104721716609 0 -0.39020731289493082 0.17075062011690681 0 -0.40043471814444209 0.15516303321545699 0 -0.41320507520050959 0.17295104721716609 0 -0.39721082993519219 0.18448993107768991 0 -0.39020731289493082 0.17075062011690681 0 -0.38589476142810619 0.19424352100093389 0 -0.39721082993519219 0.18448993107768991 0 -0.37633455857784293 0.18261391494179069 0 -0.39721082993519219 0.18448993107768991 0 -0.37633455857784293 0.18261391494179069 0 -0.39020731289493082 0.17075062011690681 0 -0.37604315808934557 0.1616159605326225 0 -0.39020731289493082 0.17075062011690681 0 -0.40043471814444209 0.15516303321545699 0 -0.37633455857784293 0.18261391494179069 0 -0.37604315808934557 0.1616159605326225 0 -0.39020731289493082 0.17075062011690681 0 -0.37604315808934557 0.1616159605326225 0 -0.40043471814444209 0.15516303321545699 0 -0.37471140407559322 0.1435474845347986 0 -0.40043471814444209 0.15516303321545699 0 -0.39914528189259102 0.13642314956862331 0 -0.37471140407559322 0.1435474845347986 0 -0.41854804079657681 0.1335618185962307 0 -0.40043471814444209 0.15516303321545699 0 -0.39914528189259102 0.13642314956862331 0 -0.39063101314785642 0.1199442217017349 0 -0.39914528189259102 0.13642314956862331 0 -0.40406865080306442 0.1250183431131778 0 -0.39063101314785642 0.1199442217017349 0 -0.37471140407559322 0.1435474845347986 0 -0.39063101314785642 0.1199442217017349 0 -0.39914528189259102 0.13642314956862331 0 -0.37471140407559322 0.1435474845347986 0 -0.39063101314785642 0.1199442217017349 0 -0.37471140407559322 0.1435474845347986 0 -0.36716541190589658 0.118616890008602 0 -0.35994195951422209 0.1344452768815545 0 -0.37471140407559322 0.1435474845347986 0 -0.36716541190589658 0.118616890008602 0 -0.35994195951422209 0.1344452768815545 0 -0.36716541190589658 0.118616890008602 0 -0.35352278934268327 0.12307152153672141 0 -0.34641309729257957 0.13731862859844601 0 -0.34013489564456101 0.1359120708212119 0 -0.34492978578452338 0.1096826786703838 0 -0.35994195951422209 0.1344452768815545 0 -0.34641309729257957 0.13731862859844601 0 -0.35352278934268327 0.12307152153672141 0 -0.35994195951422209 0.1344452768815545 0 -0.34641309729257957 0.13731862859844601 0 -0.35789709495435779 0.14967185972920441 0 -0.34641309729257957 0.13731862859844601 0 -0.34789640880063583 0.16495457852650819 0 -0.34475730797662613 0.16425129963789131 0 -0.34641309729257957 0.13731862859844601 0 -0.34789640880063583 0.16495457852650819 0 -0.34641309729257957 0.13731862859844601 0 -0.35789709495435779 0.14967185972920441 0 -0.34789640880063583 0.16495457852650819 0 -0.34641309729257957 0.13731862859844601 0 -0.34475730797662613 0.16425129963789131 0 -0.34013489564456101 0.1359120708212119 0 -0.35994195951422209 0.1344452768815545 0 -0.35789709495435779 0.14967185972920441 0 -0.37471140407559322 0.1435474845347986 0 -0.37471140407559322 0.1435474845347986 0 -0.35879179500333003 0.16715074736786231 0 -0.35789709495435779 0.14967185972920441 0 -0.37471140407559322 0.1435474845347986 0 -0.35879179500333003 0.16715074736786231 0 -0.37604315808934557 0.1616159605326225 0 -0.37471140407559322 0.1435474845347986 0 -0.35879179500333003 0.16715074736786231 0 -0.37604315808934557 0.1616159605326225 0 -0.36770080355277779 0.17295393471821821 0 -0.35879179500333003 0.16715074736786231 0 -0.37633455857784293 0.18261391494179069 0 -0.37604315808934557 0.1616159605326225 0 -0.36770080355277779 0.17295393471821821 0 -0.37633455857784293 0.18261391494179069 0 -0.36024484160731629 0.17922248672973989 0 -0.36412185028301147 0.19234279238731111 0 -0.37633455857784293 0.18261391494179069 0 -0.36770080355277779 0.17295393471821821 0 -0.36024484160731629 0.17922248672973989 0 -0.36770080355277779 0.17295393471821821 0 -0.36024484160731629 0.17922248672973989 0 -0.35879179500333003 0.16715074736786231 0 -0.34475730797662613 0.16425129963789131 0 -0.34937972030869158 0.1925905284545705 0 -0.34475730797662613 0.16425129963789131 0 -0.33955964773429331 0.17429409395644799 0 -0.34937972030869158 0.1925905284545705 0 -0.34789640880063583 0.16495457852650819 0 -0.34937972030869158 0.1925905284545705 0 -0.36024484160731629 0.17922248672973989 0 -0.34789640880063583 0.16495457852650819 0 -0.34937972030869158 0.1925905284545705 0 -0.34789640880063583 0.16495457852650819 0 -0.34475730797662613 0.16425129963789131 0 -0.34937972030869158 0.1925905284545705 0 -0.35789709495435779 0.14967185972920441 0 -0.35879179500333003 0.16715074736786231 0 -0.34789640880063583 0.16495457852650819 0 -0.36024484160731629 0.17922248672973989 0 -0.35879179500333003 0.16715074736786231 0 -0.34789640880063583 0.16495457852650819 0 -0.34475730797662613 0.16425129963789131 0 -0.33718479128260948 0.15937809544746401 0 -0.33738994680948231 0.15124435901621999 0 -0.34475730797662613 0.16425129963789131 0 -0.33718479128260948 0.15937809544746401 0 -0.33813633189250208 0.16634522180797001 0 -0.34475730797662613 0.16425129963789131 0 -0.33813633189250208 0.16634522180797001 0 -0.33955964773429331 0.17429409395644799 0 -0.33813633189250208 0.16634522180797001 0 -0.33104358057647992 0.16745739819007679 0 -0.33955964773429331 0.17429409395644799 0 -0.33718479128260948 0.15937809544746401 0 -0.33813633189250208 0.16634522180797001 0 -0.33104358057647992 0.16745739819007679 0 -0.33718479128260948 0.15937809544746401 0 -0.33104358057647992 0.16745739819007679 0 -0.33026858376101731 0.15190637449176561 0 -0.33104358057647992 0.16745739819007679 0 -0.33403331992976748 0.18227938602527921 0 -0.31962491903722229 0.18594758427241961 0 -0.33955964773429331 0.17429409395644799 0 -0.33403331992976748 0.18227938602527921 0 -0.34937972030869158 0.1925905284545705 0 -0.33104358057647992 0.16745739819007679 0 -0.33955964773429331 0.17429409395644799 0 -0.33403331992976748 0.18227938602527921 0 -0.31962491903722229 0.18594758427241961 0 -0.31796283648197832 0.1633337389314328 0 -0.30596240671843039 0.18080678990447141 0 -0.31962491903722229 0.18594758427241961 0 -0.31796283648197832 0.1633337389314328 0 -0.33104358057647992 0.16745739819007679 0 -0.31962491903722229 0.18594758427241961 0 -0.31796283648197832 0.1633337389314328 0 -0.33104358057647992 0.16745739819007679 0 -0.31796283648197832 0.1633337389314328 0 -0.33026858376101731 0.15190637449176561 0 -0.31796283648197832 0.1633337389314328 0 -0.31630075392673418 0.14071989359044609 0 -0.31796283648197832 0.1633337389314328 0 -0.31630075392673418 0.14071989359044609 0 -0.33026858376101731 0.15190637449176561 0 -0.31630075392673418 0.14071989359044609 0 -0.32855297285770901 0.13997743418302819 0 -0.33026858376101731 0.15190637449176561 0 -0.31630075392673418 0.14071989359044609 0 -0.30835875028686138 0.12836861128214669 0 -0.32196666651361477 0.12487749701900901 0 -0.31630075392673418 0.14071989359044609 0 -0.32855297285770901 0.13997743418302819 0 -0.32196666651361477 0.12487749701900901 0 -0.32855297285770901 0.13997743418302819 0 -0.33106980320980312 0.1246503866679774 0 -0.32196666651361477 0.12487749701900901 0 -0.32855297285770901 0.13997743418302819 0 -0.34013489564456101 0.1359120708212119 0 -0.3346041553825978 0.14477395468276741 0 -0.32855297285770901 0.13997743418302819 0 -0.34013489564456101 0.1359120708212119 0 -0.33106980320980312 0.1246503866679774 0 -0.34475730797662613 0.16425129963789131 0 -0.34013489564456101 0.1359120708212119 0 -0.34013489564456101 0.1359120708212119 0 -0.33738994680948231 0.15124435901621999 0 -0.3346041553825978 0.14477395468276741 0 -0.34475730797662613 0.16425129963789131 0 -0.34013489564456101 0.1359120708212119 0 -0.33738994680948231 0.15124435901621999 0 -0.33718479128260948 0.15937809544746401 0 -0.33738994680948231 0.15124435901621999 0 -0.33026858376101731 0.15190637449176561 0 -0.33738994680948231 0.15124435901621999 0 -0.33026858376101731 0.15190637449176561 0 -0.3346041553825978 0.14477395468276741 0 -0.32855297285770901 0.13997743418302819 0 -0.33026858376101731 0.15190637449176561 0 -0.3346041553825978 0.14477395468276741 0 -0.35208907389890948 0.24306917690434299 0 -0.33787454055877381 0.24529314191448051 0 -0.34142207509263922 0.25572960106260723 0 -0.35208907389890948 0.24306917690434299 0 -0.34508884738596168 0.2342440782649087 0 -0.33787454055877381 0.24529314191448051 0 -0.35689366634974828 0.23865726176967661 0 -0.35926376548055328 0.2486735779402334 0 -0.35208907389890948 0.24306917690434299 0 -0.35926376548055328 0.2486735779402334 0 -0.36665925593476811 0.2402392529692276 0 -0.36723308052532222 0.25309369692869038 0 -0.35689366634974828 0.23865726176967661 0 -0.35926376548055328 0.2486735779402334 0 -0.36665925593476811 0.2402392529692276 0 -0.37552267705158737 0.2431978490864326 0 -0.36665925593476811 0.2402392529692276 0 -0.36723308052532222 0.25309369692869038 0 -0.37780308712422273 0.23309721308500589 0 -0.37552267705158737 0.2431978490864326 0 -0.36665925593476811 0.2402392529692276 0 -0.37780308712422273 0.23309721308500589 0 -0.36665925593476811 0.2402392529692276 0 -0.36843053074319038 0.2307028505946831 0 -0.3637449320256837 0.23462317477255459 0 -0.36665925593476811 0.2402392529692276 0 -0.36843053074319038 0.2307028505946831 0 -0.35689366634974828 0.23865726176967661 0 -0.3637449320256837 0.23462317477255459 0 -0.36304404037139409 0.23042929735762199 0 -0.35689366634974828 0.23865726176967661 0 -0.3637449320256837 0.23462317477255459 0 -0.36665925593476811 0.2402392529692276 0 -0.35689366634974828 0.23865726176967661 0 -0.36304404037139409 0.23042929735762199 0 -0.36041387714694573 0.22521835140317789 0 -0.36304404037139409 0.23042929735762199 0 -0.36843053074319038 0.2307028505946831 0 -0.36573719559140289 0.222944848248018 0 -0.3637449320256837 0.23462317477255459 0 -0.36304404037139409 0.23042929735762199 0 -0.36843053074319038 0.2307028505946831 0 -0.37780308712422273 0.23309721308500589 0 -0.36843053074319038 0.2307028505946831 0 -0.37349668708843092 0.2226496950895116 0 -0.36843053074319038 0.2307028505946831 0 -0.37349668708843092 0.2226496950895116 0 -0.36573719559140289 0.222944848248018 0 -0.37349668708843092 0.2226496950895116 0 -0.36573719559140289 0.222944848248018 0 -0.36813700589141007 0.21491629458094519 0 -0.36304404037139409 0.23042929735762199 0 -0.36573719559140289 0.222944848248018 0 -0.36041387714694573 0.22521835140317789 0 -0.36573719559140289 0.222944848248018 0 -0.36041387714694573 0.22521835140317789 0 -0.36096209089537368 0.21759825830877291 0 -0.36041387714694573 0.22521835140317789 0 -0.35785158193032179 0.22427444164843771 0 -0.36096209089537368 0.21759825830877291 0 -0.35689366634974828 0.23865726176967661 0 -0.35785158193032179 0.22427444164843771 0 -0.35313669332921982 0.21562389511212349 0 -0.35785158193032179 0.22427444164843771 0 -0.35313669332921982 0.21562389511212349 0 -0.36096209089537368 0.21759825830877291 0 -0.35689366634974828 0.23865726176967661 0 -0.35313669332921982 0.21562389511212349 0 -0.35208907389890948 0.24306917690434299 0 -0.34508884738596168 0.2342440782649087 0 -0.35073439710380072 0.2178298526794567 0 -0.34508884738596168 0.2342440782649087 0 -0.35073439710380072 0.2178298526794567 0 -0.33965737798236312 0.2307841415613546 0 -0.35208907389890948 0.24306917690434299 0 -0.35073439710380072 0.2178298526794567 0 -0.35689366634974828 0.23865726176967661 0 -0.35073439710380072 0.2178298526794567 0 -0.35313669332921982 0.21562389511212349 0 -0.35689366634974828 0.23865726176967661 0 -0.35208907389890948 0.24306917690434299 0 -0.35073439710380072 0.2178298526794567 0 -0.35689366634974828 0.23865726176967661 0 -0.36041387714694573 0.22521835140317789 0 -0.35785158193032179 0.22427444164843771 0 -0.35073439710380072 0.2178298526794567 0 -0.34937972030869158 0.1925905284545705 0 -0.35313669332921982 0.21562389511212349 0 -0.36104277081305908 0.20594574517185199 0 -0.34937972030869158 0.1925905284545705 0 -0.35073439710380072 0.2178298526794567 0 -0.35313669332921982 0.21562389511212349 0 -0.34937972030869158 0.1925905284545705 0 -0.35313669332921982 0.21562389511212349 0 -0.34937972030869158 0.1925905284545705 0 -0.35073439710380072 0.2178298526794567 0 -0.34937972030869158 0.1925905284545705 0 -0.34310613959102931 0.2055031457500841 0 -0.35073439710380072 0.2178298526794567 0 -0.34310613959102931 0.2055031457500841 0 -0.34102096872395049 0.21330790674795511 0 -0.35073439710380072 0.2178298526794567 0 -0.34102096872395049 0.21330790674795511 0 -0.34050958406480097 0.2204489809667724 0 -0.35313669332921982 0.21562389511212349 0 -0.36096209089537368 0.21759825830877291 0 -0.36104277081305908 0.20594574517185199 0 -0.36573719559140289 0.222944848248018 0 -0.36096209089537368 0.21759825830877291 0 -0.36813700589141007 0.21491629458094519 0 -0.36096209089537368 0.21759825830877291 0 -0.36813700589141007 0.21491629458094519 0 -0.36104277081305908 0.20594574517185199 0 -0.37752279527241261 0.21261086987475841 0 -0.37349668708843092 0.2226496950895116 0 -0.36813700589141007 0.21491629458094519 0 -0.37752279527241261 0.21261086987475841 0 -0.36813700589141007 0.21491629458094519 0 -0.37360736010814782 0.20134128663860251 0 -0.36813700589141007 0.21491629458094519 0 -0.36104277081305908 0.20594574517185199 0 -0.37360736010814782 0.20134128663860251 0 -0.37633455857784293 0.18261391494179069 0 -0.37360736010814782 0.20134128663860251 0 -0.36412185028301147 0.19234279238731111 0 -0.36104277081305908 0.20594574517185199 0 -0.37360736010814782 0.20134128663860251 0 -0.36412185028301147 0.19234279238731111 0 -0.36024484160731629 0.17922248672973989 0 -0.36412185028301147 0.19234279238731111 0 -0.34937972030869158 0.1925905284545705 0 -0.36104277081305908 0.20594574517185199 0 -0.36412185028301147 0.19234279238731111 0 -0.34937972030869158 0.1925905284545705 0 -0.33403331992976748 0.18227938602527921 0 -0.34937972030869158 0.1925905284545705 0 -0.33132558757267788 0.19645560619981381 0 -0.34937972030869158 0.1925905284545705 0 -0.33132558757267788 0.19645560619981381 0 -0.34310613959102931 0.2055031457500841 0 -0.33132558757267788 0.19645560619981381 0 -0.33206760714527173 0.20694684499318661 0 -0.34310613959102931 0.2055031457500841 0 -0.33403331992976748 0.18227938602527921 0 -0.31962491903722229 0.18594758427241961 0 -0.33132558757267788 0.19645560619981381 0 -0.31962491903722229 0.18594758427241961 0 -0.33132558757267788 0.19645560619981381 0 -0.32128700159246643 0.2085614296134064 0 -0.31962491903722229 0.18594758427241961 0 -0.32128700159246643 0.2085614296134064 0 -0.31094130810426679 0.20146887601233149 0 -0.31962491903722229 0.18594758427241961 0 -0.32128700159246643 0.2085614296134064 0 -0.32128700159246643 0.2085614296134064 0 -0.30991457648112369 0.2265504040794763 0 -0.30833129431909739 0.21334832502430981 0 -0.32128700159246643 0.2085614296134064 0 -0.30833129431909739 0.21334832502430981 0 -0.31094130810426679 0.20146887601233149 0 -0.32128700159246643 0.2085614296134064 0 -0.334517009846864 0.21514148884522391 0 -0.33414886994078158 0.22469785659874761 0 -0.334517009846864 0.21514148884522391 0 -0.33206760714527173 0.20694684499318661 0 -0.34102096872395049 0.21330790674795511 0 -0.33132558757267788 0.19645560619981381 0 -0.32128700159246643 0.2085614296134064 0 -0.33206760714527173 0.20694684499318661 0 -0.32128700159246643 0.2085614296134064 0 -0.334517009846864 0.21514148884522391 0 -0.33206760714527173 0.20694684499318661 0 -0.33206760714527173 0.20694684499318661 0 -0.34310613959102931 0.2055031457500841 0 -0.34102096872395049 0.21330790674795511 0 -0.334517009846864 0.21514148884522391 0 -0.34102096872395049 0.21330790674795511 0 -0.34050958406480097 0.2204489809667724 0 -0.33965737798236312 0.2307841415613546 0 -0.33414886994078158 0.22469785659874761 0 -0.32294908414771051 0.231175274954393 0 -0.34050958406480097 0.2204489809667724 0 -0.33965737798236312 0.2307841415613546 0 -0.33414886994078158 0.22469785659874761 0 -0.334517009846864 0.21514148884522391 0 -0.34050958406480097 0.2204489809667724 0 -0.33414886994078158 0.22469785659874761 0 -0.35073439710380072 0.2178298526794567 0 -0.34050958406480097 0.2204489809667724 0 -0.33965737798236312 0.2307841415613546 0 -0.32128700159246643 0.2085614296134064 0 -0.33414886994078158 0.22469785659874761 0 -0.32294908414771051 0.231175274954393 0 -0.32128700159246643 0.2085614296134064 0 -0.32294908414771051 0.231175274954393 0 -0.32128700159246643 0.2085614296134064 0 -0.32294908414771051 0.231175274954393 0 -0.30991457648112369 0.2265504040794763 0 -0.32294908414771051 0.231175274954393 0 -0.30659471691689572 0.242716670786389 0 -0.30991457648112369 0.2265504040794763 0 -0.32294908414771051 0.231175274954393 0 -0.30659471691689572 0.242716670786389 0 -0.32493898666941562 0.25370598596143412 0 -0.33965737798236312 0.2307841415613546 0 -0.32294908414771051 0.231175274954393 0 -0.33787454055877381 0.24529314191448051 0 -0.32294908414771051 0.231175274954393 0 -0.33787454055877381 0.24529314191448051 0 -0.32493898666941562 0.25370598596143412 0 -0.34508884738596168 0.2342440782649087 0 -0.33965737798236312 0.2307841415613546 0 -0.33787454055877381 0.24529314191448051 0 -0.28392805579818597 0.24584677119781029 0 -0.30659471691689572 0.242716670786389 0 -0.29475597619187288 0.23283261746471121 0 -0.28392805579818597 0.24584677119781029 0 -0.29475597619187288 0.23283261746471121 0 -0.28109078806307641 0.23123665432302171 0 -0.30991457648112369 0.2265504040794763 0 -0.2995127007984647 0.22240216811521779 0 -0.29475597619187288 0.23283261746471121 0 -0.30659471691689572 0.242716670786389 0 -0.30991457648112369 0.2265504040794763 0 -0.29475597619187288 0.23283261746471121 0 -0.30991457648112369 0.2265504040794763 0 -0.2995127007984647 0.22240216811521779 0 -0.30833129431909739 0.21334832502430981 0 -0.2995127007984647 0.22240216811521779 0 -0.29475597619187288 0.23283261746471121 0 -0.28658767146556752 0.2208426317688808 0 -0.29475597619187288 0.23283261746471121 0 -0.28658767146556752 0.2208426317688808 0 -0.28109078806307641 0.23123665432302171 0 -0.28658767146556752 0.2208426317688808 0 -0.28549164962408852 0.20589081089837991 0 -0.27599235506858921 0.213338138612501 0 -0.2995127007984647 0.22240216811521779 0 -0.28658767146556752 0.2208426317688808 0 -0.29782091388006071 0.2077851852193662 0 -0.28658767146556752 0.2208426317688808 0 -0.28549164962408852 0.20589081089837991 0 -0.29782091388006071 0.2077851852193662 0 -0.2995127007984647 0.22240216811521779 0 -0.30833129431909739 0.21334832502430981 0 -0.29782091388006071 0.2077851852193662 0 -0.30833129431909739 0.21334832502430981 0 -0.29782091388006071 0.2077851852193662 0 -0.31094130810426679 0.20146887601233149 0 -0.31094130810426679 0.20146887601233149 0 -0.28918285092023371 0.18809301854234381 0 -0.30596240671843039 0.18080678990447141 0 -0.31094130810426679 0.20146887601233149 0 -0.28918285092023371 0.18809301854234381 0 -0.31962491903722229 0.18594758427241961 0 -0.31094130810426679 0.20146887601233149 0 -0.30596240671843039 0.18080678990447141 0 -0.29782091388006071 0.2077851852193662 0 -0.31094130810426679 0.20146887601233149 0 -0.28918285092023371 0.18809301854234381 0 -0.28549164962408852 0.20589081089837991 0 -0.28918285092023371 0.18809301854234381 0 -0.27469451239495962 0.19856643751398209 0 -0.28549164962408852 0.20589081089837991 0 -0.29782091388006071 0.2077851852193662 0 -0.28918285092023371 0.18809301854234381 0 -0.27469451239495962 0.19856643751398209 0 -0.25846339158769432 0.19477026040294029 0 -0.26742439373620053 0.1747171610723561 0 -0.27469451239495962 0.19856643751398209 0 -0.25846339158769432 0.19477026040294029 0 -0.26373521695980739 0.20854805576629271 0 -0.25846339158769432 0.19477026040294029 0 -0.25264776582176801 0.2054066783297176 0 -0.24512564856919611 0.1966003761625241 0 -0.25846339158769432 0.19477026040294029 0 -0.26373521695980739 0.20854805576629271 0 -0.25264776582176801 0.2054066783297176 0 -0.26373521695980739 0.20854805576629271 0 -0.25264776582176801 0.2054066783297176 0 -0.25326648915379463 0.21765104414027969 0 -0.26373521695980739 0.20854805576629271 0 -0.25326648915379463 0.21765104414027969 0 -0.26696116117740232 0.2188897629996385 0 -0.26373521695980739 0.20854805576629271 0 -0.27599235506858921 0.213338138612501 0 -0.26696116117740232 0.2188897629996385 0 -0.27469451239495962 0.19856643751398209 0 -0.26373521695980739 0.20854805576629271 0 -0.27599235506858921 0.213338138612501 0 -0.28549164962408852 0.20589081089837991 0 -0.27469451239495962 0.19856643751398209 0 -0.27599235506858921 0.213338138612501 0 -0.28658767146556752 0.2208426317688808 0 -0.27599235506858921 0.213338138612501 0 -0.27366575233363138 0.22408994750137051 0 -0.28658767146556752 0.2208426317688808 0 -0.27366575233363138 0.22408994750137051 0 -0.28109078806307641 0.23123665432302171 0 -0.27366575233363138 0.22408994750137051 0 -0.28109078806307641 0.23123665432302171 0 -0.26613842301448931 0.22948780180005629 0 -0.27366575233363138 0.22408994750137051 0 -0.26613842301448931 0.22948780180005629 0 -0.27599235506858921 0.213338138612501 0 -0.27366575233363138 0.22408994750137051 0 -0.26696116117740232 0.2188897629996385 0 -0.27366575233363138 0.22408994750137051 0 -0.26613842301448931 0.22948780180005629 0 -0.26696116117740232 0.2188897629996385 0 -0.25326648915379463 0.21765104414027969 0 -0.26613842301448931 0.22948780180005629 0 -0.25326648915379463 0.21765104414027969 0 -0.26613842301448931 0.22948780180005629 0 -0.26696116117740232 0.2188897629996385 0 -0.26613842301448931 0.22948780180005629 0 -0.25250373055295899 0.22903132158689779 0 -0.2468893326351202 0.24329134098969171 0 -0.25326648915379463 0.21765104414027969 0 -0.26613842301448931 0.22948780180005629 0 -0.25250373055295899 0.22903132158689779 0 -0.26613842301448931 0.22948780180005629 0 -0.2468893326351202 0.24329134098969171 0 -0.26613842301448931 0.22948780180005629 0 -0.26514282027817931 0.24842266601513599 0 -0.2468893326351202 0.24329134098969171 0 -0.28392805579818597 0.24584677119781029 0 -0.26613842301448931 0.22948780180005629 0 -0.26514282027817931 0.24842266601513599 0 -0.28392805579818597 0.24584677119781029 0 -0.26613842301448931 0.22948780180005629 0 -0.28392805579818597 0.24584677119781029 0 -0.28109078806307641 0.23123665432302171 0 -0.26613842301448931 0.22948780180005629 0 -0.29674228528268098 0.14167201189203629 0 -0.29210011904845101 0.16519073176382951 0 -0.2788144627000812 0.14703818685698561 0 -0.29674228528268098 0.14167201189203629 0 -0.2788144627000812 0.14703818685698561 0 -0.2804226891664876 0.12940513594623221 0 -0.29674228528268098 0.14167201189203629 0 -0.2804226891664876 0.12940513594623221 0 -0.29563289833704792 0.1211109261551389 0 -0.29674228528268098 0.14167201189203629 0 -0.30835875028686138 0.12836861128214669 0 -0.29563289833704792 0.1211109261551389 0 -0.31630075392673418 0.14071989359044609 0 -0.29674228528268098 0.14167201189203629 0 -0.30835875028686138 0.12836861128214669 0 -0.31796283648197832 0.1633337389314328 0 -0.31630075392673418 0.14071989359044609 0 -0.29674228528268098 0.14167201189203629 0 -0.31796283648197832 0.1633337389314328 0 -0.30596240671843039 0.18080678990447141 0 -0.29210011904845101 0.16519073176382951 0 -0.31796283648197832 0.1633337389314328 0 -0.29674228528268098 0.14167201189203629 0 -0.29210011904845101 0.16519073176382951 0 -0.28918285092023371 0.18809301854234381 0 -0.30596240671843039 0.18080678990447141 0 -0.29210011904845101 0.16519073176382951 0 -0.28918285092023371 0.18809301854234381 0 -0.29210011904845101 0.16519073176382951 0 -0.26742439373620053 0.1747171610723561 0 -0.29210011904845101 0.16519073176382951 0 -0.26645859331151961 0.15770478106228089 0 -0.2788144627000812 0.14703818685698561 0 -0.29210011904845101 0.16519073176382951 0 -0.26645859331151961 0.15770478106228089 0 -0.26742439373620053 0.1747171610723561 0 -0.28918285092023371 0.18809301854234381 0 -0.27469451239495962 0.19856643751398209 0 -0.26742439373620053 0.1747171610723561 0 -0.28918285092023371 0.18809301854234381 0 -0.26742439373620053 0.1747171610723561 0 -0.25846339158769432 0.19477026040294029 0 -0.26742439373620053 0.1747171610723561 0 -0.2425545525554833 0.18325607046718431 0 -0.26742439373620053 0.1747171610723561 0 -0.24566593655216731 0.1613413036023684 0 -0.2425545525554833 0.18325607046718431 0 -0.26742439373620053 0.1747171610723561 0 -0.24566593655216731 0.1613413036023684 0 -0.26645859331151961 0.15770478106228089 0 -0.26742439373620053 0.1747171610723561 0 -0.24566593655216731 0.1613413036023684 0 -0.26645859331151961 0.15770478106228089 0 -0.26077588748637798 0.14053443996503889 0 -0.24566593655216731 0.1613413036023684 0 -0.26645859331151961 0.15770478106228089 0 -0.2788144627000812 0.14703818685698561 0 -0.26077588748637798 0.14053443996503889 0 -0.2788144627000812 0.14703818685698561 0 -0.2804226891664876 0.12940513594623221 0 -0.26077588748637798 0.14053443996503889 0 -0.2804226891664876 0.12940513594623221 0 -0.26077588748637798 0.14053443996503889 0 -0.26620622488190782 0.1187168322113534 0 -0.26077588748637798 0.14053443996503889 0 -0.25033803458298193 0.12914144363467839 0 -0.2394413917758374 0.14053574488666021 0 -0.26077588748637798 0.14053443996503889 0 -0.25033803458298193 0.12914144363467839 0 -0.26620622488190782 0.1187168322113534 0 -0.25033803458298193 0.12914144363467839 0 -0.25364395357421121 0.10678394025260531 0 -0.26620622488190782 0.1187168322113534 0 -0.25364395357421121 0.10678394025260531 0 -0.26910496068450029 0.10059928658519129 0 -0.26340159681891351 0.087305486383429762 0 -0.25364395357421121 0.10678394025260531 0 -0.26910496068450029 0.10059928658519129 0 -0.26620622488190782 0.1187168322113534 0 -0.26910496068450029 0.10059928658519129 0 -0.28436437631082973 0.10735841859683989 0 -0.28176033911896858 0.090840469038767704 0 -0.26910496068450029 0.10059928658519129 0 -0.26620622488190782 0.1187168322113534 0 -0.28436437631082973 0.10735841859683989 0 -0.2804226891664876 0.12940513594623221 0 -0.26620622488190782 0.1187168322113534 0 -0.28436437631082973 0.10735841859683989 0 -0.2804226891664876 0.12940513594623221 0 -0.29563289833704792 0.1211109261551389 0 -0.28436437631082973 0.10735841859683989 0 -0.29563289833704792 0.1211109261551389 0 -0.28436437631082973 0.10735841859683989 0 -0.30333203744139958 0.1018092028156232 0 -0.28436437631082973 0.10735841859683989 0 -0.30333203744139958 0.1018092028156232 0 -0.29505738772415852 0.092466809089677027 0 -0.28436437631082973 0.10735841859683989 0 -0.29505738772415852 0.092466809089677027 0 -0.28176033911896858 0.090840469038767704 0 -0.30333203744139958 0.1018092028156232 0 -0.31115114737422961 0.1134627277541034 0 -0.31621893882499519 0.096173217231134644 0 -0.29563289833704792 0.1211109261551389 0 -0.30333203744139958 0.1018092028156232 0 -0.31115114737422961 0.1134627277541034 0 -0.30835875028686138 0.12836861128214669 0 -0.29563289833704792 0.1211109261551389 0 -0.31115114737422961 0.1134627277541034 0 -0.2988364877494265 0.069896585727329402 0 -0.3095990562077543 0.082833834969606807 0 -0.31708477734686968 0.066938799678275263 0 -0.2988364877494265 0.069896585727329402 0 -0.30266664287706341 0.054708362279179482 0 -0.31708477734686968 0.066938799678275263 0 -0.2988364877494265 0.069896585727329402 0 -0.28935545939309398 0.062964548691125152 0 -0.30266664287706341 0.054708362279179482 0 -0.30333203744139958 0.1018092028156232 0 -0.3095990562077543 0.082833834969606807 0 -0.31621893882499519 0.096173217231134644 0 -0.30333203744139958 0.1018092028156232 0 -0.3095990562077543 0.082833834969606807 0 -0.29505738772415852 0.092466809089677027 0 -0.3095990562077543 0.082833834969606807 0 -0.29687345717375091 0.081902945336330912 0 -0.29505738772415852 0.092466809089677027 0 -0.2988364877494265 0.069896585727329402 0 -0.3095990562077543 0.082833834969606807 0 -0.29687345717375091 0.081902945336330912 0 -0.29687345717375091 0.081902945336330912 0 -0.28176033911896858 0.090840469038767704 0 -0.2804463735768567 0.075556206852953223 0 -0.29687345717375091 0.081902945336330912 0 -0.29505738772415852 0.092466809089677027 0 -0.28176033911896858 0.090840469038767704 0 -0.2988364877494265 0.069896585727329402 0 -0.28935545939309398 0.062964548691125152 0 -0.2804463735768567 0.075556206852953223 0 -0.2988364877494265 0.069896585727329402 0 -0.29687345717375091 0.081902945336330912 0 -0.2804463735768567 0.075556206852953223 0 -0.28935545939309398 0.062964548691125152 0 -0.28020443427428848 0.065937434716272045 0 -0.28232948387749679 0.060243429622273227 0 -0.28935545939309398 0.062964548691125152 0 -0.28020443427428848 0.065937434716272045 0 -0.2804463735768567 0.075556206852953223 0 -0.2804463735768567 0.075556206852953223 0 -0.26340159681891351 0.087305486383429762 0 -0.26195798501385009 0.070226375813507561 0 -0.28020443427428848 0.065937434716272045 0 -0.26195798501385009 0.070226375813507561 0 -0.2800946942601637 0.055740888585776333 0 -0.28020443427428848 0.065937434716272045 0 -0.2804463735768567 0.075556206852953223 0 -0.26195798501385009 0.070226375813507561 0 -0.26195798501385009 0.070226375813507561 0 -0.2800946942601637 0.055740888585776333 0 -0.26910496068450029 0.10059928658519129 0 -0.28176033911896858 0.090840469038767704 0 -0.26340159681891351 0.087305486383429762 0 -0.28176033911896858 0.090840469038767704 0 -0.2804463735768567 0.075556206852953223 0 -0.26340159681891351 0.087305486383429762 0 -0.26340159681891351 0.087305486383429762 0 -0.26195798501385009 0.070226375813507561 0 -0.24382127576753621 0.084711863041238192 0 -0.25364395357421121 0.10678394025260531 0 -0.26340159681891351 0.087305486383429762 0 -0.24382127576753621 0.084711863041238192 0 -0.26195798501385009 0.070226375813507561 0 -0.24382127576753621 0.084711863041238192 0 -0.26195798501385009 0.070226375813507561 0 -0.26253060434091768 0.04486583530805522 0 -0.24534917185526489 0.049526218608574313 0 -0.26253060434091768 0.04486583530805522 0 -0.25642639863326749 0.02710060176493858 0 -0.24534917185526489 0.049526218608574313 0 -0.26253060434091768 0.04486583530805522 0 -0.27431483662099609 0.037465275048419483 0 -0.25642639863326749 0.02710060176493858 0 -0.26253060434091768 0.04486583530805522 0 -0.27431483662099609 0.037465275048419483 0 -0.2800946942601637 0.055740888585776333 0 -0.26195798501385009 0.070226375813507561 0 -0.26253060434091768 0.04486583530805522 0 -0.2800946942601637 0.055740888585776333 0 -0.28020443427428848 0.065937434716272045 0 -0.2800946942601637 0.055740888585776333 0 -0.28232948387749679 0.060243429622273227 0 -0.26431478179583978 -0.01186883573312463 0 -0.25132042997239518 0.0027134119798401068 0 -0.26646431581863778 0.01029557754540468 0 -0.25132042997239518 0.0027134119798401068 0 -0.25642639863326749 0.02710060176493858 0 -0.26646431581863778 0.01029557754540468 0 -0.27431483662099609 0.037465275048419483 0 -0.25642639863326749 0.02710060176493858 0 -0.27962863155723588 0.021383722316491719 0 -0.25642639863326749 0.02710060176493858 0 -0.27962863155723588 0.021383722316491719 0 -0.26646431581863778 0.01029557754540468 0 -0.2820771903446922 -0.0013122005201030101 0 -0.27962863155723588 0.021383722316491719 0 -0.26646431581863778 0.01029557754540468 0 -0.2820771903446922 -0.0013122005201030101 0 -0.30047775033007851 -0.00039401612408775783 0 -0.29196914664965867 0.01010181790504874 0 -0.2820771903446922 -0.0013122005201030101 0 -0.27962863155723588 0.021383722316491719 0 -0.29196914664965867 0.01010181790504874 0 -0.27962863155723588 0.021383722316491719 0 -0.29196914664965867 0.01010181790504874 0 -0.3056930143666281 0.020729765947894 0 -0.27962863155723588 0.021383722316491719 0 -0.3056930143666281 0.020729765947894 0 -0.2928938543133956 0.038235327266834943 0 -0.3056930143666281 0.020729765947894 0 -0.2928938543133956 0.038235327266834943 0 -0.3056930143666281 0.020729765947894 0 -0.30086997028822832 0.039148022070134687 0 -0.32164524631629432 0.022555155554494829 0 -0.30086997028822832 0.039148022070134687 0 -0.32164524631629432 0.022555155554494829 0 -0.3056930143666281 0.020729765947894 0 -0.31849217441985911 0.0032242046289520012 0 -0.30047775033007851 -0.00039401612408775783 0 -0.3056930143666281 0.020729765947894 0 -0.31849217441985911 0.0032242046289520012 0 -0.30047775033007851 -0.00039401612408775783 0 -0.29196914664965867 0.01010181790504874 0 -0.3056930143666281 0.020729765947894 0 -0.2800946942601637 0.055740888585776333 0 -0.30086997028822832 0.039148022070134687 0 -0.28935545939309398 0.062964548691125152 0 -0.2800946942601637 0.055740888585776333 0 -0.30266664287706341 0.054708362279179482 0 -0.2800946942601637 0.055740888585776333 0 -0.2928938543133956 0.038235327266834943 0 -0.2800946942601637 0.055740888585776333 0 -0.30086997028822832 0.039148022070134687 0 -0.30266664287706341 0.054708362279179482 0 -0.28935545939309398 0.062964548691125152 0 -0.2800946942601637 0.055740888585776333 0 -0.28232948387749679 0.060243429622273227 0 -0.2800946942601637 0.055740888585776333 0 -0.2928938543133956 0.038235327266834943 0 -0.30086997028822832 0.039148022070134687 0 -0.27431483662099609 0.037465275048419483 0 -0.27962863155723588 0.021383722316491719 0 -0.2928938543133956 0.038235327266834943 0 -0.27431483662099609 0.037465275048419483 0 -0.2800946942601637 0.055740888585776333 0 -0.2928938543133956 0.038235327266834943 0 -0.3056930143666281 0.020729765947894 0 -0.2928938543133956 0.038235327266834943 0 -0.30086997028822832 0.039148022070134687 0 -0.30086997028822832 0.039148022070134687 0 -0.30266664287706341 0.054708362279179482 0 -0.3262676586483656 0.050894384371173287 0 -0.30266664287706341 0.054708362279179482 0 -0.3262676586483656 0.050894384371173287 0 -0.31708477734686968 0.066938799678275263 0 -0.3262676586483656 0.050894384371173287 0 -0.32164524631629432 0.022555155554494829 0 -0.30086997028822832 0.039148022070134687 0 -0.3262676586483656 0.050894384371173287 0 -0.32164524631629432 0.022555155554494829 0 -0.3262676586483656 0.050894384371173287 0 -0.32164524631629432 0.022555155554494829 0 -0.34047985126035502 0.026774828886197279 0 -0.3419631627684111 0.054410778814259472 0 -0.34047985126035502 0.026774828886197279 0 -0.3262676586483656 0.050894384371173287 0 -0.3419631627684111 0.054410778814259472 0 -0.34047985126035502 0.026774828886197279 0 -0.3262676586483656 0.050894384371173287 0 -0.3419631627684111 0.054410778814259472 0 -0.33089007098043072 0.079233613187852742 0 -0.3056930143666281 0.020729765947894 0 -0.31849217441985911 0.0032242046289520012 0 -0.32164524631629432 0.022555155554494829 0 -0.31849217441985911 0.0032242046289520012 0 -0.32164524631629432 0.022555155554494829 0 -0.33742136738088668 0.0099550307423931228 0 -0.31849217441985911 0.0032242046289520012 0 -0.32164524631629432 0.022555155554494829 0 -0.32164524631629432 0.022555155554494829 0 -0.33742136738088668 0.0099550307423931228 0 -0.32164524631629432 0.022555155554494829 0 -0.34047985126035502 0.026774828886197279 0 -0.33742136738088668 0.0099550307423931228 0 -0.35319748844548088 -0.0026450940697062141 0 -0.33742136738088668 0.0099550307423931228 0 -0.35319748844548088 -0.0026450940697062141 0 -0.33742136738088668 0.0099550307423931228 0 -0.35568472126330458 0.01398178967161531 0 -0.34047985126035502 0.026774828886197279 0 -0.35568472126330458 0.01398178967161531 0 -0.36050468596179641 0.029201478886372499 0 -0.34047985126035502 0.026774828886197279 0 -0.33742136738088668 0.0099550307423931228 0 -0.35568472126330458 0.01398178967161531 0 -0.35568472126330458 0.01398178967161531 0 -0.36050468596179641 0.029201478886372499 0 -0.37274578052696178 0.01868977009819147 0 -0.37753126207020948 0.034899308803226177 0 -0.36050468596179641 0.029201478886372499 0 -0.37274578052696178 0.01868977009819147 0 -0.35319748844548088 -0.0026450940697062141 0 -0.35568472126330458 0.01398178967161531 0 -0.36979036210562988 0.0025511841975563729 0 -0.35568472126330458 0.01398178967161531 0 -0.37274578052696178 0.01868977009819147 0 -0.36979036210562988 0.0025511841975563729 0 -0.35367539322405089 0.052192583201526178 0 -0.35229578078182711 0.042127528613546239 0 -0.36485581069452189 0.048057973279375742 0 -0.35367539322405089 0.052192583201526178 0 -0.36174043644781612 0.059537200304905107 0 -0.34707042967454638 0.066493871458924422 0 -0.3419631627684111 0.054410778814259472 0 -0.35367539322405089 0.052192583201526178 0 -0.34707042967454638 0.066493871458924422 0 -0.3419631627684111 0.054410778814259472 0 -0.35367539322405089 0.052192583201526178 0 -0.35229578078182711 0.042127528613546239 0 -0.34047985126035502 0.026774828886197279 0 -0.36050468596179641 0.029201478886372499 0 -0.35229578078182711 0.042127528613546239 0 -0.3419631627684111 0.054410778814259472 0 -0.34047985126035502 0.026774828886197279 0 -0.35229578078182711 0.042127528613546239 0 -0.36050468596179641 0.029201478886372499 0 -0.35229578078182711 0.042127528613546239 0 -0.36485581069452189 0.048057973279375742 0 -0.37753126207020948 0.034899308803226177 0 -0.36050468596179641 0.029201478886372499 0 -0.36485581069452189 0.048057973279375742 0 -0.37830855690199738 0.048851891747440382 0 -0.37753126207020948 0.034899308803226177 0 -0.36485581069452189 0.048057973279375742 0 -0.37830855690199738 0.048851891747440382 0 -0.36485581069452189 0.048057973279375742 0 -0.37119345183321822 0.058853827639881867 0 -0.35367539322405089 0.052192583201526178 0 -0.36485581069452189 0.048057973279375742 0 -0.36174043644781612 0.059537200304905107 0 -0.36485581069452189 0.048057973279375742 0 -0.36174043644781612 0.059537200304905107 0 -0.37119345183321822 0.058853827639881867 0 -0.37201358599706058 0.070711840939253895 0 -0.36026946930678239 0.075913175113325196 0 -0.34707042967454638 0.066493871458924422 0 -0.37904886912469499 0.067110231928434197 0 -0.37119345183321822 0.058853827639881867 0 -0.37201358599706058 0.070711840939253895 0 -0.37201358599706058 0.070711840939253895 0 -0.34707042967454638 0.066493871458924422 0 -0.36174043644781612 0.059537200304905107 0 -0.37119345183321822 0.058853827639881867 0 -0.37201358599706058 0.070711840939253895 0 -0.36174043644781612 0.059537200304905107 0 -0.37201358599706058 0.070711840939253895 0 -0.34707042967454638 0.066493871458924422 0 -0.37201358599706058 0.070711840939253895 0 -0.36026946930678239 0.075913175113325196 0 -0.37016311523106599 0.083751267223082917 0 -0.38119130922167832 0.078766060501995444 0 -0.37201358599706058 0.070711840939253895 0 -0.37016311523106599 0.083751267223082917 0 -0.3419631627684111 0.054410778814259472 0 -0.34707042967454638 0.066493871458924422 0 -0.34344647427646718 0.082046728742321648 0 -0.36026946930678239 0.075913175113325196 0 -0.35274187612612162 0.077211514003190262 0 -0.34707042967454638 0.066493871458924422 0 -0.35274187612612162 0.077211514003190262 0 -0.34707042967454638 0.066493871458924422 0 -0.34344647427646718 0.082046728742321648 0 -0.35295667425925747 0.085123838591775802 0 -0.35001973748798287 0.095551702326820934 0 -0.34344647427646718 0.082046728742321648 0 -0.35274187612612162 0.077211514003190262 0 -0.35295667425925747 0.085123838591775802 0 -0.34344647427646718 0.082046728742321648 0 -0.35274187612612162 0.077211514003190262 0 -0.35295667425925747 0.085123838591775802 0 -0.35935833950511731 0.08139738194217451 0 -0.35295667425925747 0.085123838591775802 0 -0.35935833950511731 0.08139738194217451 0 -0.35921694390059838 0.089411865944371699 0 -0.36026946930678239 0.075913175113325196 0 -0.35274187612612162 0.077211514003190262 0 -0.35935833950511731 0.08139738194217451 0 -0.35295667425925747 0.085123838591775802 0 -0.35921694390059838 0.089411865944371699 0 -0.35001973748798287 0.095551702326820934 0 -0.35921694390059838 0.089411865944371699 0 -0.37016311523106599 0.083751267223082917 0 -0.36611800641667808 0.094109198156665408 0 -0.36026946930678239 0.075913175113325196 0 -0.35935833950511731 0.08139738194217451 0 -0.37016311523106599 0.083751267223082917 0 -0.35935833950511731 0.08139738194217451 0 -0.35921694390059838 0.089411865944371699 0 -0.37016311523106599 0.083751267223082917 0 -0.37643332436138899 0.09558572737664002 0 -0.37016311523106599 0.083751267223082917 0 -0.36611800641667808 0.094109198156665408 0 -0.37643332436138899 0.09558572737664002 0 -0.36831342086492491 0.1042920553550029 0 -0.36611800641667808 0.094109198156665408 0 -0.37896648635229202 0.10715504183998489 0 -0.37643332436138899 0.09558572737664002 0 -0.36831342086492491 0.1042920553550029 0 -0.36831342086492491 0.1042920553550029 0 -0.35948680904503588 0.10793893666500461 0 -0.35938862515943509 0.099383552161339872 0 -0.35921694390059838 0.089411865944371699 0 -0.35938862515943509 0.099383552161339872 0 -0.36611800641667808 0.094109198156665408 0 -0.36831342086492491 0.1042920553550029 0 -0.35938862515943509 0.099383552161339872 0 -0.36611800641667808 0.094109198156665408 0 -0.37896648635229202 0.10715504183998489 0 -0.36831342086492491 0.1042920553550029 0 -0.36716541190589658 0.118616890008602 0 -0.36831342086492491 0.1042920553550029 0 -0.35948680904503588 0.10793893666500461 0 -0.36716541190589658 0.118616890008602 0 -0.35948680904503588 0.10793893666500461 0 -0.36716541190589658 0.118616890008602 0 -0.35375916145188291 0.11350041634001019 0 -0.34641309729257957 0.13731862859844601 0 -0.34492978578452338 0.1096826786703838 0 -0.34641309729257957 0.13731862859844601 0 -0.35352278934268327 0.12307152153672141 0 -0.34492978578452338 0.1096826786703838 0 -0.36716541190589658 0.118616890008602 0 -0.35352278934268327 0.12307152153672141 0 -0.35375916145188291 0.11350041634001019 0 -0.35375916145188291 0.11350041634001019 0 -0.34492978578452338 0.1096826786703838 0 -0.35317683324139082 0.10499755452017361 0 -0.35352278934268327 0.12307152153672141 0 -0.35375916145188291 0.11350041634001019 0 -0.34492978578452338 0.1096826786703838 0 -0.34492978578452338 0.1096826786703838 0 -0.35001973748798287 0.095551702326820934 0 -0.34344647427646718 0.082046728742321648 0 -0.34492978578452338 0.1096826786703838 0 -0.34344647427646718 0.082046728742321648 0 -0.35921694390059838 0.089411865944371699 0 -0.35938862515943509 0.099383552161339872 0 -0.35001973748798287 0.095551702326820934 0 -0.35938862515943509 0.099383552161339872 0 -0.35317683324139082 0.10499755452017361 0 -0.35001973748798287 0.095551702326820934 0 -0.35948680904503588 0.10793893666500461 0 -0.35938862515943509 0.099383552161339872 0 -0.35317683324139082 0.10499755452017361 0 -0.35948680904503588 0.10793893666500461 0 -0.35375916145188291 0.11350041634001019 0 -0.35317683324139082 0.10499755452017361 0 -0.34492978578452338 0.1096826786703838 0 -0.35317683324139082 0.10499755452017361 0 -0.35001973748798287 0.095551702326820934 0 -0.33551248331249578 0.10757284200453231 0 -0.32636827877939262 0.096437598311714251 0 -0.33089007098043072 0.079233613187852742 0 -0.34492978578452338 0.1096826786703838 0 -0.33551248331249578 0.10757284200453231 0 -0.34344647427646718 0.082046728742321648 0 -0.34013489564456101 0.1359120708212119 0 -0.33551248331249578 0.10757284200453231 0 -0.33106980320980312 0.1246503866679774 0 -0.33551248331249578 0.10757284200453231 0 -0.33106980320980312 0.1246503866679774 0 -0.3276422557938925 0.11637059862038419 0 -0.34013489564456101 0.1359120708212119 0 -0.33551248331249578 0.10757284200453231 0 -0.34013489564456101 0.1359120708212119 0 -0.34492978578452338 0.1096826786703838 0 -0.33551248331249578 0.10757284200453231 0 -0.33551248331249578 0.10757284200453231 0 -0.3276422557938925 0.11637059862038419 0 -0.32202007013965611 0.108381668790018 0 -0.31115114737422961 0.1134627277541034 0 -0.32196666651361477 0.12487749701900901 0 -0.32202007013965611 0.108381668790018 0 -0.32196666651361477 0.12487749701900901 0 -0.3276422557938925 0.11637059862038419 0 -0.32202007013965611 0.108381668790018 0 -0.33106980320980312 0.1246503866679774 0 -0.32196666651361477 0.12487749701900901 0 -0.3276422557938925 0.11637059862038419 0 -0.30835875028686138 0.12836861128214669 0 -0.31115114737422961 0.1134627277541034 0 -0.32196666651361477 0.12487749701900901 0 -0.31115114737422961 0.1134627277541034 0 -0.32202007013965611 0.108381668790018 0 -0.31621893882499519 0.096173217231134644 0 -0.32636827877939262 0.096437598311714251 0 -0.32202007013965611 0.108381668790018 0 -0.31621893882499519 0.096173217231134644 0 -0.33551248331249578 0.10757284200453231 0 -0.32636827877939262 0.096437598311714251 0 -0.32202007013965611 0.108381668790018 0 -0.32636827877939262 0.096437598311714251 0 -0.3206518095107353 0.086423961441370711 0 -0.33089007098043072 0.079233613187852742 0 -0.3095990562077543 0.082833834969606807 0 -0.31621893882499519 0.096173217231134644 0 -0.3206518095107353 0.086423961441370711 0 -0.32636827877939262 0.096437598311714251 0 -0.31621893882499519 0.096173217231134644 0 -0.3206518095107353 0.086423961441370711 0 -0.3206518095107353 0.086423961441370711 0 -0.3195564285114475 0.078857552319276381 0 -0.33089007098043072 0.079233613187852742 0 -0.3095990562077543 0.082833834969606807 0 -0.3206518095107353 0.086423961441370711 0 -0.3195564285114475 0.078857552319276381 0 -0.3095990562077543 0.082833834969606807 0 -0.3195564285114475 0.078857552319276381 0 -0.31708477734686968 0.066938799678275263 0 -0.3262676586483656 0.050894384371173287 0 -0.31708477734686968 0.066938799678275263 0 -0.33089007098043072 0.079233613187852742 0 -0.3195564285114475 0.078857552319276381 0 -0.31708477734686968 0.066938799678275263 0 -0.33089007098043072 0.079233613187852742 0 -0.3262676586483656 0.050894384371173287 0 -0.33089007098043072 0.079233613187852742 0 -0.3419631627684111 0.054410778814259472 0 -0.34344647427646718 0.082046728742321648 0 -0.3419631627684111 0.054410778814259472 0 -0.34344647427646718 0.082046728742321648 0 -0.33089007098043072 0.079233613187852742 0 -0.33551248331249578 0.10757284200453231 0 -0.34344647427646718 0.082046728742321648 0 -0.33089007098043072 0.079233613187852742 0 -0.33551248331249578 0.10757284200453231 0 -0.33089007098043072 0.079233613187852742 0 -0.38413367002432852 0.48466820949397371 0 -0.39197467039505129 0.46611734068214988 0 -0.41460981883164078 0.48516798004791117 0 -0.3981750166650535 0.50000000000000056 0 -0.38413367002432852 0.48466820949397371 0 -0.41460981883164078 0.48516798004791117 0 -0.3981750166650535 0.50000000000000056 0 -0.38413367002432852 0.48466820949397371 0 -0.37107410569903487 0.5 0 -0.39197467039505129 0.46611734068214988 0 -0.36482960672615539 0.47476559140937902 0 -0.38413367002432852 0.48466820949397371 0 -0.39197467039505129 0.46611734068214988 0 -0.36580706476392733 0.47631646954851292 0 -0.38785270990024268 0.44600589254376838 0 -0.39197467039505129 0.46611734068214988 0 -0.37006527051019528 0.45259743283909409 0 -0.39197467039505129 0.46611734068214988 0 -0.37006527051019528 0.45259743283909409 0 -0.36482960672615539 0.47476559140937902 0 -0.38785270990024268 0.44600589254376838 0 -0.37388199021079188 0.43349662060099697 0 -0.37006527051019528 0.45259743283909409 0 -0.38785270990024268 0.44600589254376838 0 -0.40320620376676342 0.45007503942677379 0 -0.39595691431975 0.42995942871021692 0 -0.38785270990024268 0.44600589254376838 0 -0.40320620376676342 0.45007503942677379 0 -0.39197467039505129 0.46611734068214988 0 -0.40320620376676342 0.45007503942677379 0 -0.39197467039505129 0.46611734068214988 0 -0.41277096383307582 0.46532813801804862 0 -0.40320620376676342 0.45007503942677379 0 -0.42781315099835598 0.44205737320498029 0 -0.39595691431975 0.42995942871021692 0 -0.40320620376676342 0.45007503942677379 0 -0.41277096383307582 0.46532813801804862 0 -0.42781315099835598 0.44205737320498029 0 -0.42781315099835598 0.44205737320498029 0 -0.43466730821188831 0.46706657063262308 0 -0.44460389203804629 0.44806533343805571 0 -0.42781315099835598 0.44205737320498029 0 -0.4310446209982266 0.47033596009582029 0 -0.42781315099835598 0.44205737320498029 0 -0.43466730821188831 0.46706657063262308 0 -0.4310446209982266 0.47033596009582029 0 -0.41277096383307582 0.46532813801804862 0 -0.42781315099835598 0.44205737320498029 0 -0.4310446209982266 0.47033596009582029 0 -0.43466730821188831 0.46706657063262308 0 -0.4310446209982266 0.47033596009582029 0 -0.4310446209982266 0.47033596009582029 0 -0.43443441043131342 0.50000000000000755 0 -0.4447827686264566 0.47926022536349122 0 -0.4310446209982266 0.47033596009582029 0 -0.41460981883164078 0.48516798004791117 0 -0.4310446209982266 0.47033596009582029 0 -0.41460981883164078 0.48516798004791117 0 -0.42409839095234109 0.48887598503593521 0 -0.43466730821188831 0.46706657063262308 0 -0.4310446209982266 0.47033596009582029 0 -0.4447827686264566 0.47926022536349122 0 -0.39197467039505129 0.46611734068214988 0 -0.41277096383307582 0.46532813801804862 0 -0.41460981883164078 0.48516798004791117 0 -0.41277096383307582 0.46532813801804862 0 -0.4310446209982266 0.47033596009582029 0 -0.41460981883164078 0.48516798004791117 0 -0.3981750166650535 0.50000000000000056 0 -0.41460981883164078 0.48516798004791117 0 -0.3981750166650535 0.50000000000000056 0 -0.41460981883164078 0.48516798004791117 0 -0.41630471354818338 0.5 0 -0.41460981883164078 0.48516798004791117 0 -0.41630471354818338 0.5 0 -0.42409839095234109 0.48887598503593521 0 -0.41630471354818338 0.5 0 -0.43443441043131342 0.50000000000000755 0 -0.42409839095234109 0.48887598503593521 0 -0.4310446209982266 0.47033596009582029 0 -0.43443441043131342 0.50000000000000755 0 -0.4310446209982266 0.47033596009582029 0 -0.43443441043131342 0.50000000000000755 0 -0.42409839095234109 0.48887598503593521 0 -0.43443441043131342 0.50000000000000755 0 -0.4447827686264566 0.47926022536349122 0 -0.4595127163698095 0.50000000000000022 0 -0.5 0.5 0 -0.47335596745111108 0.44169355163120572 0 -0.5 0.40038011321019712 0 -0.43466730821188831 0.46706657063262308 0 -0.4447827686264566 0.47926022536349122 0 -0.44899911668232212 0.46303481381032341 0 -0.4447827686264566 0.47926022536349122 0 -0.46015144363500948 0.47359397987248231 0 -0.44899911668232212 0.46303481381032341 0 -0.4447827686264566 0.47926022536349122 0 -0.46015144363500948 0.47359397987248231 0 -0.4595127163698095 0.50000000000000022 0 -0.46015144363500948 0.47359397987248231 0 -0.4595127163698095 0.50000000000000022 0 -0.46015144363500948 0.47359397987248231 0 -0.4595127163698095 0.50000000000000022 0 -0.5 0.5 0 -0.46015144363500948 0.47359397987248231 0 -0.5 0.5 0 -0.47335596745111108 0.44169355163120572 0 -0.46015144363500948 0.47359397987248231 0 -0.47335596745111108 0.44169355163120572 0 -0.46079017090020952 0.44718795974496428 0 -0.46079017090020952 0.44718795974496428 0 -0.44460389203804629 0.44806533343805571 0 -0.45590269758544211 0.43346995798949911 0 -0.47335596745111108 0.44169355163120572 0 -0.46079017090020952 0.44718795974496428 0 -0.45590269758544211 0.43346995798949911 0 -0.46015144363500948 0.47359397987248231 0 -0.46079017090020952 0.44718795974496428 0 -0.44899911668232212 0.46303481381032341 0 -0.46015144363500948 0.47359397987248231 0 -0.46079017090020952 0.44718795974496428 0 -0.43466730821188831 0.46706657063262308 0 -0.44899911668232212 0.46303481381032341 0 -0.44460389203804629 0.44806533343805571 0 -0.42781315099835598 0.44205737320498029 0 -0.44460389203804629 0.44806533343805571 0 -0.44268906624812487 0.42665452579602331 0 -0.46079017090020952 0.44718795974496428 0 -0.44899911668232212 0.46303481381032341 0 -0.44460389203804629 0.44806533343805571 0 -0.44460389203804629 0.44806533343805571 0 -0.44268906624812487 0.42665452579602331 0 -0.45590269758544211 0.43346995798949911 0 -0.44268906624812487 0.42665452579602331 0 -0.45186506472241439 0.42144574071262142 0 -0.45590269758544211 0.43346995798949911 0 -0.44268906624812487 0.42665452579602331 0 -0.45186506472241439 0.42144574071262142 0 -0.44576315445017062 0.40546276927260178 0 -0.44268906624812487 0.42665452579602331 0 -0.44576315445017062 0.40546276927260178 0 -0.42458168099848842 0.41377878631413989 0 -0.46310534060592018 0.42019570979236182 0 -0.47346151536459102 0.41731684507507272 0 -0.46374026742882618 0.39151162716981691 0 -0.45186506472241439 0.42144574071262142 0 -0.46310534060592018 0.42019570979236182 0 -0.44576315445017062 0.40546276927260178 0 -0.47335596745111108 0.44169355163120572 0 -0.46310534060592018 0.42019570979236182 0 -0.45590269758544211 0.43346995798949911 0 -0.45186506472241439 0.42144574071262142 0 -0.46310534060592018 0.42019570979236182 0 -0.45590269758544211 0.43346995798949911 0 -0.47335596745111108 0.44169355163120572 0 -0.46310534060592018 0.42019570979236182 0 -0.47346151536459102 0.41731684507507272 0 -0.47335596745111108 0.44169355163120572 0 -0.47346151536459102 0.41731684507507272 0 -0.5 0.40038011321019712 0 -0.47346151536459102 0.41731684507507272 0 -0.5 0.40038011321019712 0 -0.47533567507008778 0.39330498401591851 0 -0.47346151536459102 0.41731684507507272 0 -0.47533567507008778 0.39330498401591851 0 -0.47346151536459102 0.41731684507507272 0 -0.47533567507008778 0.39330498401591851 0 -0.46374026742882618 0.39151162716981691 0 -0.5 0.40038011321019712 0 -0.47533567507008778 0.39330498401591851 0 -0.47720983477558448 0.36929312295676431 0 -0.47533567507008778 0.39330498401591851 0 -0.47720983477558448 0.36929312295676431 0 -0.47533567507008778 0.39330498401591851 0 -0.46374026742882618 0.39151162716981691 0 -0.47720983477558448 0.36929312295676431 0 -0.46374026742882618 0.39151162716981691 0 -0.45297946443592813 0.37787116286410599 0 -0.46437519425173218 0.36282754454727217 0 -0.46374026742882618 0.39151162716981691 0 -0.45297946443592813 0.37787116286410599 0 -0.44807155782876301 0.39051600802545461 0 -0.46374026742882618 0.39151162716981691 0 -0.46437519425173218 0.36282754454727217 0 -0.46310534060592018 0.42019570979236182 0 -0.46374026742882618 0.39151162716981691 0 -0.46310534060592018 0.42019570979236182 0 -0.46374026742882618 0.39151162716981691 0 -0.44576315445017062 0.40546276927260178 0 -0.46374026742882618 0.39151162716981691 0 -0.44576315445017062 0.40546276927260178 0 -0.44807155782876301 0.39051600802545461 0 -0.44576315445017062 0.40546276927260178 0 -0.44807155782876301 0.39051600802545461 0 -0.43603237714897469 0.39502180629923989 0 -0.45297946443592813 0.37787116286410599 0 -0.44807155782876301 0.39051600802545461 0 -0.44039528146883089 0.37985126846070372 0 -0.44807155782876301 0.39051600802545461 0 -0.44039528146883089 0.37985126846070372 0 -0.43603237714897469 0.39502180629923989 0 -0.44039528146883089 0.37985126846070372 0 -0.42135021099862069 0.38550019942329938 0 -0.43603237714897469 0.39502180629923989 0 -0.44039528146883089 0.37985126846070372 0 -0.42135021099862069 0.38550019942329938 0 -0.43330693618304927 0.36743111704715392 0 -0.42135021099862069 0.38550019942329938 0 -0.3928737426436214 0.38288862872844909 0 -0.41811874099875312 0.35722161253245888 0 -0.42135021099862069 0.38550019942329938 0 -0.42458168099848842 0.41377878631413989 0 -0.40302940150938782 0.40252809503019821 0 -0.44576315445017062 0.40546276927260178 0 -0.43603237714897469 0.39502180629923989 0 -0.42458168099848842 0.41377878631413989 0 -0.42135021099862069 0.38550019942329938 0 -0.42458168099848842 0.41377878631413989 0 -0.42135021099862069 0.38550019942329938 0 -0.43603237714897469 0.39502180629923989 0 -0.42458168099848842 0.41377878631413989 0 -0.42781315099835598 0.44205737320498029 0 -0.42458168099848842 0.41377878631413989 0 -0.39595691431975 0.42995942871021692 0 -0.42781315099835598 0.44205737320498029 0 -0.44268906624812487 0.42665452579602331 0 -0.42458168099848842 0.41377878631413989 0 -0.42781315099835598 0.44205737320498029 0 -0.42458168099848842 0.41377878631413989 0 -0.42458168099848842 0.41377878631413989 0 -0.39595691431975 0.42995942871021692 0 -0.40302940150938782 0.40252809503019821 0 -0.39595691431975 0.42995942871021692 0 -0.38133644129271771 0.41060795377957438 0 -0.40302940150938782 0.40252809503019821 0 -0.39595691431975 0.42995942871021692 0 -0.38133644129271771 0.41060795377957438 0 -0.37388199021079188 0.43349662060099697 0 -0.38785270990024268 0.44600589254376838 0 -0.39595691431975 0.42995942871021692 0 -0.37388199021079188 0.43349662060099697 0 -0.39595691431975 0.42995942871021692 0 -0.38133644129271771 0.41060795377957438 0 -0.38133644129271771 0.41060795377957438 0 -0.3928737426436214 0.38288862872844909 0 -0.36671596826568531 0.39125647884893172 0 -0.3928737426436214 0.38288862872844909 0 -0.37126589511329411 0.37377724987418581 0 -0.36671596826568531 0.39125647884893172 0 -0.42135021099862069 0.38550019942329938 0 -0.3928737426436214 0.38288862872844909 0 -0.40302940150938782 0.40252809503019821 0 -0.38133644129271771 0.41060795377957438 0 -0.3928737426436214 0.38288862872844909 0 -0.40302940150938782 0.40252809503019821 0 -0.39068435811404417 0.36093702398180222 0 -0.39395667907880888 0.34326368506717603 0 -0.41811874099875312 0.35722161253245888 0 -0.3928737426436214 0.38288862872844909 0 -0.39068435811404417 0.36093702398180222 0 -0.41811874099875312 0.35722161253245888 0 -0.3928737426436214 0.38288862872844909 0 -0.39068435811404417 0.36093702398180222 0 -0.37126589511329411 0.37377724987418581 0 -0.39068435811404417 0.36093702398180222 0 -0.37302608715873109 0.35758434449273291 0 -0.37126589511329411 0.37377724987418581 0 -0.39395667907880888 0.34326368506717603 0 -0.37302608715873109 0.35758434449273291 0 -0.39068435811404417 0.36093702398180222 0 -0.39395667907880888 0.34326368506717603 0 -0.37302608715873109 0.35758434449273291 0 -0.37563375498023588 0.33893957100260502 0 -0.39395667907880888 0.34326368506717603 0 -0.37302608715873109 0.35758434449273291 0 -0.37563375498023588 0.33893957100260502 0 -0.3809584867257152 0.31995934924364311 0 -0.39395667907880888 0.34326368506717603 0 -0.3809584867257152 0.31995934924364311 0 -0.40019053093036899 0.31727751782089808 0 -0.39395667907880888 0.34326368506717603 0 -0.40019053093036899 0.31727751782089808 0 -0.39395667907880888 0.34326368506717603 0 -0.414887270998886 0.32894302564161831 0 -0.39395667907880888 0.34326368506717603 0 -0.414887270998886 0.32894302564161831 0 -0.414887270998886 0.32894302564161831 0 -0.41811874099875312 0.35722161253245888 0 -0.39395667907880888 0.34326368506717603 0 -0.414887270998886 0.32894302564161831 0 -0.41811874099875312 0.35722161253245888 0 -0.414887270998886 0.32894302564161831 0 -0.4287524947490482 0.33739992334137159 0 -0.41811874099875312 0.35722161253245888 0 -0.414887270998886 0.32894302564161831 0 -0.42784370751339318 0.3200782636988328 0 -0.41182569378737999 0.30215117016961263 0 -0.414887270998886 0.32894302564161831 0 -0.41182569378737999 0.30215117016961263 0 -0.40019053093036899 0.31727751782089808 0 -0.414887270998886 0.32894302564161831 0 -0.41182569378737999 0.30215117016961263 0 -0.414887270998886 0.32894302564161831 0 -0.42784370751339318 0.3200782636988328 0 -0.42784370751339318 0.3200782636988328 0 -0.44080014402789969 0.3112135017560464 0 -0.414887270998886 0.32894302564161831 0 -0.42784370751339318 0.3200782636988328 0 -0.4287524947490482 0.33739992334137159 0 -0.42784370751339318 0.3200782636988328 0 -0.4287524947490482 0.33739992334137159 0 -0.44455732798665581 0.33082357613192309 0 -0.4287524947490482 0.33739992334137159 0 -0.43835542624755341 0.34993313870202492 0 -0.44455732798665581 0.33082357613192309 0 -0.4287524947490482 0.33739992334137159 0 -0.41811874099875312 0.35722161253245888 0 -0.43835542624755341 0.34993313870202492 0 -0.41811874099875312 0.35722161253245888 0 -0.43330693618304927 0.36743111704715392 0 -0.43835542624755341 0.34993313870202492 0 -0.42135021099862069 0.38550019942329938 0 -0.41811874099875312 0.35722161253245888 0 -0.42135021099862069 0.38550019942329938 0 -0.41811874099875312 0.35722161253245888 0 -0.43330693618304927 0.36743111704715392 0 -0.44039528146883089 0.37985126846070372 0 -0.43330693618304927 0.36743111704715392 0 -0.44831502120148831 0.36464936611728249 0 -0.5 0.40038011321019712 0 -0.47720983477558448 0.36929312295676431 0 -0.5 0.32588146503443682 0 -0.43330693618304927 0.36743111704715392 0 -0.44831502120148831 0.36464936611728249 0 -0.43835542624755341 0.34993313870202492 0 -0.45297946443592813 0.37787116286410599 0 -0.44039528146883089 0.37985126846070372 0 -0.44831502120148831 0.36464936611728249 0 -0.44831502120148831 0.36464936611728249 0 -0.45212261815241361 0.34847541748464589 0 -0.43835542624755341 0.34993313870202492 0 -0.46437519425173218 0.36282754454727217 0 -0.46501012107463818 0.3341434619247271 0 -0.45212261815241361 0.34847541748464589 0 -0.46437519425173218 0.36282754454727217 0 -0.46501012107463818 0.3341434619247271 0 -0.44831502120148831 0.36464936611728249 0 -0.45212261815241361 0.34847541748464589 0 -0.46437519425173218 0.36282754454727217 0 -0.45297946443592813 0.37787116286410599 0 -0.44831502120148831 0.36464936611728249 0 -0.46437519425173218 0.36282754454727217 0 -0.46374026742882618 0.39151162716981691 0 -0.46437519425173218 0.36282754454727217 0 -0.47720983477558448 0.36929312295676431 0 -0.47720983477558448 0.36929312295676431 0 -0.4790839944810813 0.34528126189761021 0 -0.5 0.32588146503443682 0 -0.46437519425173218 0.36282754454727217 0 -0.47720983477558448 0.36929312295676431 0 -0.4790839944810813 0.34528126189761021 0 -0.46437519425173218 0.36282754454727217 0 -0.4790839944810813 0.34528126189761021 0 -0.46501012107463818 0.3341434619247271 0 -0.47720983477558448 0.36929312295676431 0 -0.4790839944810813 0.34528126189761021 0 -0.5 0.32588146503443682 0 -0.48095815418657811 0.32126940083845601 0 -0.48438341280173691 0.2990237851864897 0 -0.4790839944810813 0.34528126189761021 0 -0.5 0.32588146503443682 0 -0.48095815418657811 0.32126940083845601 0 -0.4790839944810813 0.34528126189761021 0 -0.48095815418657811 0.32126940083845601 0 -0.4790839944810813 0.34528126189761021 0 -0.48095815418657811 0.32126940083845601 0 -0.46501012107463818 0.3341434619247271 0 -0.48095815418657811 0.32126940083845601 0 -0.46501012107463818 0.3341434619247271 0 -0.46564504789754418 0.30545937930218209 0 -0.46501012107463818 0.3341434619247271 0 -0.46564504789754418 0.30545937930218209 0 -0.45334860311094782 0.31584311053598302 0 -0.46501012107463818 0.3341434619247271 0 -0.44455732798665581 0.33082357613192309 0 -0.45334860311094782 0.31584311053598302 0 -0.46501012107463818 0.3341434619247271 0 -0.46564504789754418 0.30545937930218209 0 -0.45212261815241361 0.34847541748464589 0 -0.46501012107463818 0.3341434619247271 0 -0.44455732798665581 0.33082357613192309 0 -0.45212261815241361 0.34847541748464589 0 -0.43835542624755341 0.34993313870202492 0 -0.44455732798665581 0.33082357613192309 0 -0.45334860311094782 0.31584311053598302 0 -0.44455732798665581 0.33082357613192309 0 -0.44080014402789969 0.3112135017560464 0 -0.42784370751339318 0.3200782636988328 0 -0.44455732798665581 0.33082357613192309 0 -0.44080014402789969 0.3112135017560464 0 -0.45334860311094782 0.31584311053598302 0 -0.44080014402789969 0.3112135017560464 0 -0.45212090372732222 0.29751224224269018 0 -0.44080014402789969 0.3112135017560464 0 -0.45212090372732222 0.29751224224269018 0 -0.43098419661848369 0.29848737705662681 0 -0.45212090372732222 0.29751224224269018 0 -0.44106680473088589 0.27968718865599468 0 -0.43098419661848369 0.29848737705662681 0 -0.45212090372732222 0.29751224224269018 0 -0.46878861662768212 0.293945894508436 0 -0.46620416538631942 0.27832296974934079 0 -0.45212090372732222 0.29751224224269018 0 -0.46620416538631942 0.27832296974934079 0 -0.44106680473088589 0.27968718865599468 0 -0.45334860311094782 0.31584311053598302 0 -0.45212090372732222 0.29751224224269018 0 -0.46564504789754418 0.30545937930218209 0 -0.45212090372732222 0.29751224224269018 0 -0.46564504789754418 0.30545937930218209 0 -0.46878861662768212 0.293945894508436 0 -0.48095815418657811 0.32126940083845601 0 -0.46564504789754418 0.30545937930218209 0 -0.47422271850004488 0.30257989257828583 0 -0.48095815418657811 0.32126940083845601 0 -0.48283231389207593 0.29725753977930192 0 -0.48095815418657811 0.32126940083845601 0 -0.48283231389207593 0.29725753977930192 0 -0.48438341280173691 0.2990237851864897 0 -0.48095815418657811 0.32126940083845601 0 -0.48283231389207593 0.29725753977930192 0 -0.47422271850004488 0.30257989257828583 0 -0.5 0.32588146503443682 0 -0.48438341280173691 0.2990237851864897 0 -0.5 0.27058277969487637 0 -0.48283231389207593 0.29725753977930192 0 -0.48438341280173691 0.2990237851864897 0 -0.48283231389207593 0.29725753977930192 0 -0.47422271850004488 0.30257989257828583 0 -0.46878861662768212 0.293945894508436 0 -0.46564504789754418 0.30545937930218209 0 -0.47422271850004488 0.30257989257828583 0 -0.46878861662768212 0.293945894508436 0 -0.48283231389207593 0.29725753977930192 0 -0.46620416538631942 0.27832296974934079 0 -0.4832665619079245 0.29169392479429618 0 -0.48272378290968532 0.2745465744653578 0 -0.46620416538631942 0.27832296974934079 0 -0.48283231389207593 0.29725753977930192 0 -0.46878861662768212 0.293945894508436 0 -0.46620416538631942 0.27832296974934079 0 -0.48283231389207593 0.29725753977930192 0 -0.4832665619079245 0.29169392479429618 0 -0.46620416538631942 0.27832296974934079 0 -0.48283231389207593 0.29725753977930192 0 -0.4832665619079245 0.29169392479429618 0 -0.48438341280173691 0.2990237851864897 0 -0.48283231389207593 0.29725753977930192 0 -0.4832665619079245 0.29169392479429618 0 -0.4832665619079245 0.29169392479429618 0 -0.48438341280173691 0.2990237851864897 0 -0.5 0.27058277969487637 0 -0.48510068849613291 0.2464952989699998 0 -0.5 0.27058277969487637 0 -0.47736829551405641 0.25971614189080378 0 -0.4832665619079245 0.29169392479429618 0 -0.5 0.27058277969487637 0 -0.48272378290968532 0.2745465744653578 0 -0.5 0.27058277969487637 0 -0.48272378290968532 0.2745465744653578 0 -0.47736829551405641 0.25971614189080378 0 -0.48272378290968532 0.2745465744653578 0 -0.47736829551405641 0.25971614189080378 0 -0.46620416538631942 0.27832296974934079 0 -0.48510068849613291 0.2464952989699998 0 -0.4662317729600568 0.24711617116125539 0 -0.47736829551405641 0.25971614189080378 0 -0.4662317729600568 0.24711617116125539 0 -0.47736829551405641 0.25971614189080378 0 -0.44957601688056159 0.25938839971938082 0 -0.47736829551405641 0.25971614189080378 0 -0.46620416538631942 0.27832296974934079 0 -0.44957601688056159 0.25938839971938082 0 -0.46620416538631942 0.27832296974934079 0 -0.44957601688056159 0.25938839971938082 0 -0.46620416538631942 0.27832296974934079 0 -0.44106680473088589 0.27968718865599468 0 -0.44957601688056159 0.25938839971938082 0 -0.44106680473088589 0.27968718865599468 0 -0.44957601688056159 0.25938839971938082 0 -0.42702456861835142 0.26373592368695459 0 -0.43294786837480398 0.2404538296894207 0 -0.44957601688056159 0.25938839971938082 0 -0.42702456861835142 0.26373592368695459 0 -0.43294786837480398 0.2404538296894207 0 -0.40570253936436479 0.24856745922560119 0 -0.42702456861835142 0.26373592368695459 0 -0.40570253936436479 0.24856745922560119 0 -0.40876411657587441 0.27535931469760672 0 -0.40570253936436479 0.24856745922560119 0 -0.42702456861835142 0.26373592368695459 0 -0.40876411657587441 0.27535931469760672 0 -0.42702456861835142 0.26373592368695459 0 -0.40876411657587441 0.27535931469760672 0 -0.42393307606619501 0.28388419485335897 0 -0.44106680473088589 0.27968718865599468 0 -0.42702456861835142 0.26373592368695459 0 -0.42393307606619501 0.28388419485335897 0 -0.44106680473088589 0.27968718865599468 0 -0.42393307606619501 0.28388419485335897 0 -0.43098419661848369 0.29848737705662681 0 -0.42393307606619501 0.28388419485335897 0 -0.43098419661848369 0.29848737705662681 0 -0.41182569378737999 0.30215117016961263 0 -0.42784370751339318 0.3200782636988328 0 -0.44080014402789969 0.3112135017560464 0 -0.43098419661848369 0.29848737705662681 0 -0.42784370751339318 0.3200782636988328 0 -0.43098419661848369 0.29848737705662681 0 -0.41182569378737999 0.30215117016961263 0 -0.40876411657587441 0.27535931469760672 0 -0.42393307606619501 0.28388419485335897 0 -0.41182569378737999 0.30215117016961263 0 -0.40876411657587441 0.27535931469760672 0 -0.41182569378737999 0.30215117016961263 0 -0.40876411657587441 0.27535931469760672 0 -0.41182569378737999 0.30215117016961263 0 -0.38942632587964537 0.29641120061531351 0 -0.40876411657587441 0.27535931469760672 0 -0.38942632587964537 0.29641120061531351 0 -0.38778179087320769 0.27529621765694001 0 -0.40019053093036899 0.31727751782089808 0 -0.41182569378737999 0.30215117016961263 0 -0.38942632587964537 0.29641120061531351 0 -0.3809584867257152 0.31995934924364311 0 -0.38942632587964537 0.29641120061531351 0 -0.36990774782730562 0.30465198401604282 0 -0.3809584867257152 0.31995934924364311 0 -0.40019053093036899 0.31727751782089808 0 -0.38942632587964537 0.29641120061531351 0 -0.38942632587964537 0.29641120061531351 0 -0.38778179087320769 0.27529621765694001 0 -0.37124129201382 0.2841753332327091 0 -0.38942632587964537 0.29641120061531351 0 -0.37124129201382 0.2841753332327091 0 -0.36990774782730562 0.30465198401604282 0 -0.38778179087320769 0.27529621765694001 0 -0.37230359566927929 0.26610576231553251 0 -0.37124129201382 0.2841753332327091 0 -0.38778179087320769 0.27529621765694001 0 -0.38900306751682168 0.25733661077056619 0 -0.37230359566927929 0.26610576231553251 0 -0.38900306751682168 0.25733661077056619 0 -0.37230359566927929 0.26610576231553251 0 -0.37675611103540763 0.25409865512553548 0 -0.38900306751682168 0.25733661077056619 0 -0.37230359566927929 0.26610576231553251 0 -0.38455494932564349 0.24416718140159829 0 -0.37675611103540763 0.25409865512553548 0 -0.38900306751682168 0.25733661077056619 0 -0.40570253936436479 0.24856745922560119 0 -0.40876411657587441 0.27535931469760672 0 -0.38900306751682168 0.25733661077056619 0 -0.40570253936436479 0.24856745922560119 0 -0.38900306751682168 0.25733661077056619 0 -0.40876411657587441 0.27535931469760672 0 -0.38778179087320769 0.27529621765694001 0 -0.38900306751682168 0.25733661077056619 0 -0.35344375069401829 0.26830850112922933 0 -0.35479842748912699 0.29354782535411539 0 -0.33783775680192157 0.27023153782616838 0 -0.35344375069401829 0.26830850112922933 0 -0.35479842748912699 0.29354782535411539 0 -0.35926376548055328 0.2486735779402334 0 -0.35208907389890948 0.24306917690434299 0 -0.35344375069401829 0.26830850112922933 0 -0.35208907389890948 0.24306917690434299 0 -0.35344375069401829 0.26830850112922933 0 -0.34142207509263922 0.25572960106260723 0 -0.35208907389890948 0.24306917690434299 0 -0.35344375069401829 0.26830850112922933 0 -0.35344375069401829 0.26830850112922933 0 -0.33783775680192157 0.27023153782616838 0 -0.34142207509263922 0.25572960106260723 0 -0.35344375069401829 0.26830850112922933 0 -0.36723308052532222 0.25309369692869038 0 -0.37230359566927929 0.26610576231553251 0 -0.35926376548055328 0.2486735779402334 0 -0.35344375069401829 0.26830850112922933 0 -0.36723308052532222 0.25309369692869038 0 -0.37552267705158737 0.2431978490864326 0 -0.37675611103540763 0.25409865512553548 0 -0.36723308052532222 0.25309369692869038 0 -0.37675611103540763 0.25409865512553548 0 -0.36723308052532222 0.25309369692869038 0 -0.37230359566927929 0.26610576231553251 0 -0.35344375069401829 0.26830850112922933 0 -0.37230359566927929 0.26610576231553251 0 -0.37124129201382 0.2841753332327091 0 -0.37124129201382 0.2841753332327091 0 -0.36990774782730562 0.30465198401604282 0 -0.35479842748912699 0.29354782535411539 0 -0.35344375069401829 0.26830850112922933 0 -0.37124129201382 0.2841753332327091 0 -0.35479842748912699 0.29354782535411539 0 -0.36990774782730562 0.30465198401604282 0 -0.35479842748912699 0.29354782535411539 0 -0.35615310428423591 0.31878714957900162 0 -0.35479842748912699 0.29354782535411539 0 -0.35615310428423591 0.31878714957900162 0 -0.35479842748912699 0.29354782535411539 0 -0.33790089425573833 0.30106400074382289 0 -0.35615310428423591 0.31878714957900162 0 -0.35479842748912699 0.29354782535411539 0 -0.32994760687178648 0.28429515218691809 0 -0.33783775680192157 0.27023153782616838 0 -0.35479842748912699 0.29354782535411539 0 -0.32994760687178648 0.28429515218691809 0 -0.33790089425573833 0.30106400074382289 0 -0.33790089425573833 0.30106400074382289 0 -0.31376474629655843 0.30225304786416751 0 -0.33257481532433891 0.31836647764434117 0 -0.32994760687178648 0.28429515218691809 0 -0.33790089425573833 0.30106400074382289 0 -0.31376474629655843 0.30225304786416751 0 -0.32994760687178648 0.28429515218691809 0 -0.31376474629655843 0.30225304786416751 0 -0.30745975664346697 0.28108303278283259 0 -0.32994760687178648 0.28429515218691809 0 -0.32025265357816562 0.27050697347699348 0 -0.30745975664346697 0.28108303278283259 0 -0.32994760687178648 0.28429515218691809 0 -0.32025265357816562 0.27050697347699348 0 -0.33783775680192157 0.27023153782616838 0 -0.33783775680192157 0.27023153782616838 0 -0.34142207509263922 0.25572960106260723 0 -0.32493898666941562 0.25370598596143412 0 -0.33787454055877381 0.24529314191448051 0 -0.34142207509263922 0.25572960106260723 0 -0.32493898666941562 0.25370598596143412 0 -0.32025265357816562 0.27050697347699348 0 -0.32493898666941562 0.25370598596143412 0 -0.3017176885818823 0.26220574059556451 0 -0.32025265357816562 0.27050697347699348 0 -0.33783775680192157 0.27023153782616838 0 -0.32493898666941562 0.25370598596143412 0 -0.28392805579818597 0.24584677119781029 0 -0.30659471691689572 0.242716670786389 0 -0.3017176885818823 0.26220574059556451 0 -0.30659471691689572 0.242716670786389 0 -0.32493898666941562 0.25370598596143412 0 -0.3017176885818823 0.26220574059556451 0 -0.32025265357816562 0.27050697347699348 0 -0.3017176885818823 0.26220574059556451 0 -0.30745975664346697 0.28108303278283259 0 -0.3017176885818823 0.26220574059556451 0 -0.30745975664346697 0.28108303278283259 0 -0.28581088023419748 0.27213864639403801 0 -0.28392805579818597 0.24584677119781029 0 -0.3017176885818823 0.26220574059556451 0 -0.28392805579818597 0.24584677119781029 0 -0.3017176885818823 0.26220574059556451 0 -0.28581088023419748 0.27213864639403801 0 -0.28392805579818597 0.24584677119781029 0 -0.28581088023419748 0.27213864639403801 0 -0.26655259030946182 0.26726307071448002 0 -0.28392805579818597 0.24584677119781029 0 -0.26514282027817931 0.24842266601513599 0 -0.26655259030946182 0.26726307071448002 0 -0.28581088023419748 0.27213864639403801 0 -0.26655259030946182 0.26726307071448002 0 -0.26709784128719349 0.28662765883125513 0 -0.26655259030946182 0.26726307071448002 0 -0.26709784128719349 0.28662765883125513 0 -0.24190471242523851 0.27972751922608308 0 -0.26655259030946182 0.26726307071448002 0 -0.24943129659764751 0.26000894523212309 0 -0.24190471242523851 0.27972751922608308 0 -0.26514282027817931 0.24842266601513599 0 -0.26655259030946182 0.26726307071448002 0 -0.24943129659764751 0.26000894523212309 0 -0.26514282027817931 0.24842266601513599 0 -0.24943129659764751 0.26000894523212309 0 -0.2468893326351202 0.24329134098969171 0 -0.25616918259472732 0.30236015827283808 0 -0.26709784128719349 0.28662765883125513 0 -0.24190471242523851 0.27972751922608308 0 -0.28581088023419748 0.27213864639403801 0 -0.26709784128719349 0.28662765883125513 0 -0.29016097772449478 0.2935014559625142 0 -0.26709784128719349 0.28662765883125513 0 -0.27491611994182802 0.30516871221215541 0 -0.29016097772449478 0.2935014559625142 0 -0.25616918259472732 0.30236015827283808 0 -0.27491611994182802 0.30516871221215541 0 -0.27043365276421599 0.32499279731959319 0 -0.25616918259472732 0.30236015827283808 0 -0.26709784128719349 0.28662765883125513 0 -0.27491611994182802 0.30516871221215541 0 -0.27491611994182802 0.30516871221215541 0 -0.29016097772449478 0.2935014559625142 0 -0.29169578744288521 0.31398791816734961 0 -0.30745975664346697 0.28108303278283259 0 -0.28581088023419748 0.27213864639403801 0 -0.29016097772449478 0.2935014559625142 0 -0.31376474629655843 0.30225304786416751 0 -0.30745975664346697 0.28108303278283259 0 -0.29016097772449478 0.2935014559625142 0 -0.31376474629655843 0.30225304786416751 0 -0.29016097772449478 0.2935014559625142 0 -0.29169578744288521 0.31398791816734961 0 -0.31376474629655843 0.30225304786416751 0 -0.31074538478735791 0.32738191455196902 0 -0.29169578744288521 0.31398791816734961 0 -0.31074538478735791 0.32738191455196902 0 -0.29170910681836448 0.3316805874579164 0 -0.29169578744288521 0.31398791816734961 0 -0.31074538478735791 0.32738191455196902 0 -0.30097258616365841 0.34441487088432199 0 -0.31556783578130437 0.34561409599239279 0 -0.31074538478735791 0.32738191455196902 0 -0.29170910681836448 0.3316805874579164 0 -0.30097258616365841 0.34441487088432199 0 -0.29170910681836448 0.3316805874579164 0 -0.28469812293370489 0.34762543636634829 0 -0.30097258616365841 0.34441487088432199 0 -0.29170910681836448 0.3316805874579164 0 -0.27043365276421599 0.32499279731959319 0 -0.28469812293370489 0.34762543636634829 0 -0.29170910681836448 0.3316805874579164 0 -0.29169578744288521 0.31398791816734961 0 -0.27043365276421599 0.32499279731959319 0 -0.27491611994182802 0.30516871221215541 0 -0.29169578744288521 0.31398791816734961 0 -0.27043365276421599 0.32499279731959319 0 -0.27043365276421599 0.32499279731959319 0 -0.26243222306204511 0.35090504016953772 0 -0.28469812293370489 0.34762543636634829 0 -0.27043365276421599 0.32499279731959319 0 -0.28469812293370489 0.34762543636634829 0 -0.27043365276421599 0.32499279731959319 0 -0.25002058798003007 0.3320526588471332 0 -0.26243222306204511 0.35090504016953772 0 -0.25616918259472732 0.30236015827283808 0 -0.27043365276421599 0.32499279731959319 0 -0.25616918259472732 0.30236015827283808 0 -0.27043365276421599 0.32499279731959319 0 -0.25002058798003007 0.3320526588471332 0 -0.25717133997193298 0.37426095615225607 0 -0.26243222306204511 0.35090504016953772 0 -0.27169383631612543 0.36953364855257259 0 -0.25717133997193298 0.37426095615225607 0 -0.26243222306204511 0.35090504016953772 0 -0.24481421723968019 0.36490975255658048 0 -0.27524778858216448 0.35766291394235578 0 -0.28324842690769031 0.36508823660180101 0 -0.28469812293370489 0.34762543636634829 0 -0.26243222306204511 0.35090504016953772 0 -0.27524778858216448 0.35766291394235578 0 -0.27169383631612543 0.36953364855257259 0 -0.26243222306204511 0.35090504016953772 0 -0.27524778858216448 0.35766291394235578 0 -0.28469812293370489 0.34762543636634829 0 -0.27524778858216448 0.35766291394235578 0 -0.27169383631612543 0.36953364855257259 0 -0.28324842690769031 0.36508823660180101 0 -0.27169383631612543 0.36953364855257259 0 -0.28324842690769031 0.36508823660180101 0 -0.28209338532393202 0.38222600668133688 0 -0.28324842690769031 0.36508823660180101 0 -0.28469812293370489 0.34762543636634829 0 -0.29896259310319367 0.37025807541310352 0 -0.28324842690769031 0.36508823660180101 0 -0.29896259310319367 0.37025807541310352 0 -0.28209338532393202 0.38222600668133688 0 -0.28469812293370489 0.34762543636634829 0 -0.29896259310319367 0.37025807541310352 0 -0.28469812293370489 0.34762543636634829 0 -0.30097258616365841 0.34441487088432199 0 -0.29896259310319367 0.37025807541310352 0 -0.30097258616365841 0.34441487088432199 0 -0.30971140611047582 0.35873879640362499 0 -0.29896259310319367 0.37025807541310352 0 -0.30097258616365841 0.34441487088432199 0 -0.29896259310319367 0.37025807541310352 0 -0.30097258616365841 0.34441487088432199 0 -0.30971140611047582 0.35873879640362499 0 -0.31556783578130437 0.34561409599239279 0 -0.30971140611047582 0.35873879640362499 0 -0.29896259310319367 0.37025807541310352 0 -0.31229554397435733 0.37005867265250031 0 -0.29896259310319367 0.37025807541310352 0 -0.31229554397435733 0.37005867265250031 0 -0.30732872976294823 0.38353215772995369 0 -0.31229554397435733 0.37005867265250031 0 -0.32118050234516199 0.36201264788746418 0 -0.32091897818789411 0.37757395005697603 0 -0.30971140611047582 0.35873879640362499 0 -0.31229554397435733 0.37005867265250031 0 -0.32118050234516199 0.36201264788746418 0 -0.32118050234516199 0.36201264788746418 0 -0.33508210951592582 0.36870163953731322 0 -0.32091897818789411 0.37757395005697603 0 -0.33508210951592582 0.36870163953731322 0 -0.35209549523865291 0.37190500391828912 0 -0.33393211710626841 0.38433234248782061 0 -0.32118050234516199 0.36201264788746418 0 -0.33508210951592582 0.36870163953731322 0 -0.33321476088078839 0.35466849371962073 0 -0.33508210951592582 0.36870163953731322 0 -0.33321476088078839 0.35466849371962073 0 -0.34577529297467657 0.36353966338233001 0 -0.33321476088078839 0.35466849371962073 0 -0.34577529297467657 0.36353966338233001 0 -0.34447532111727192 0.34884924989517158 0 -0.33321476088078839 0.35466849371962073 0 -0.33003563329740881 0.33925758124412497 0 -0.34447532111727192 0.34884924989517158 0 -0.32118050234516199 0.36201264788746418 0 -0.33321476088078839 0.35466849371962073 0 -0.31556783578130437 0.34561409599239279 0 -0.30971140611047582 0.35873879640362499 0 -0.32118050234516199 0.36201264788746418 0 -0.31556783578130437 0.34561409599239279 0 -0.33321476088078839 0.35466849371962073 0 -0.31556783578130437 0.34561409599239279 0 -0.33003563329740881 0.33925758124412497 0 -0.31074538478735791 0.32738191455196902 0 -0.33257481532433891 0.31836647764434117 0 -0.33003563329740881 0.33925758124412497 0 -0.31074538478735791 0.32738191455196902 0 -0.31556783578130437 0.34561409599239279 0 -0.33003563329740881 0.33925758124412497 0 -0.31376474629655843 0.30225304786416751 0 -0.31074538478735791 0.32738191455196902 0 -0.33257481532433891 0.31836647764434117 0 -0.33790089425573833 0.30106400074382289 0 -0.33257481532433891 0.31836647764434117 0 -0.35615310428423591 0.31878714957900162 0 -0.33257481532433891 0.31836647764434117 0 -0.33003563329740881 0.33925758124412497 0 -0.34490357793898208 0.33379293979876401 0 -0.33003563329740881 0.33925758124412497 0 -0.34490357793898208 0.33379293979876401 0 -0.34447532111727192 0.34884924989517158 0 -0.34490357793898208 0.33379293979876401 0 -0.34447532111727192 0.34884924989517158 0 -0.35750778107934472 0.34402647380388779 0 -0.35615310428423591 0.31878714957900162 0 -0.35750778107934472 0.34402647380388779 0 -0.34490357793898208 0.33379293979876401 0 -0.35615310428423591 0.31878714957900162 0 -0.35750778107934472 0.34402647380388779 0 -0.33257481532433891 0.31836647764434117 0 -0.34490357793898208 0.33379293979876401 0 -0.35615310428423591 0.31878714957900162 0 -0.3809584867257152 0.31995934924364311 0 -0.36990774782730562 0.30465198401604282 0 -0.35615310428423591 0.31878714957900162 0 -0.37563375498023588 0.33893957100260502 0 -0.3809584867257152 0.31995934924364311 0 -0.35615310428423591 0.31878714957900162 0 -0.37563375498023588 0.33893957100260502 0 -0.35615310428423591 0.31878714957900162 0 -0.35750778107934472 0.34402647380388779 0 -0.37563375498023588 0.33893957100260502 0 -0.37302608715873109 0.35758434449273291 0 -0.35750778107934472 0.34402647380388779 0 -0.37302608715873109 0.35758434449273291 0 -0.35750778107934472 0.34402647380388779 0 -0.35541488053243109 0.35781034742230239 0 -0.37302608715873109 0.35758434449273291 0 -0.35209549523865291 0.37190500391828912 0 -0.35541488053243109 0.35781034742230239 0 -0.37302608715873109 0.35758434449273291 0 -0.37126589511329411 0.37377724987418581 0 -0.35209549523865291 0.37190500391828912 0 -0.37302608715873109 0.35758434449273291 0 -0.35209549523865291 0.37190500391828912 0 -0.33508210951592582 0.36870163953731322 0 -0.35209549523865291 0.37190500391828912 0 -0.34577529297467657 0.36353966338233001 0 -0.35209549523865291 0.37190500391828912 0 -0.34577529297467657 0.36353966338233001 0 -0.35209549523865291 0.37190500391828912 0 -0.34577529297467657 0.36353966338233001 0 -0.35541488053243109 0.35781034742230239 0 -0.34577529297467657 0.36353966338233001 0 -0.34447532111727192 0.34884924989517158 0 -0.35541488053243109 0.35781034742230239 0 -0.34447532111727192 0.34884924989517158 0 -0.35750778107934472 0.34402647380388779 0 -0.35541488053243109 0.35781034742230239 0 -0.35026082972236822 0.40458613969335172 0 -0.34862050747833878 0.38874946299455448 0 -0.33552343261133938 0.40009846525415782 0 -0.35026082972236822 0.40458613969335172 0 -0.34862050747833878 0.38874946299455448 0 -0.36671596826568531 0.39125647884893172 0 -0.35209549523865291 0.37190500391828912 0 -0.34862050747833878 0.38874946299455448 0 -0.33393211710626841 0.38433234248782061 0 -0.35209549523865291 0.37190500391828912 0 -0.34862050747833878 0.38874946299455448 0 -0.36671596826568531 0.39125647884893172 0 -0.35209549523865291 0.37190500391828912 0 -0.36671596826568531 0.39125647884893172 0 -0.37126589511329411 0.37377724987418581 0 -0.35209549523865291 0.37190500391828912 0 -0.36671596826568531 0.39125647884893172 0 -0.38133644129271771 0.41060795377957438 0 -0.36671596826568531 0.39125647884893172 0 -0.35026082972236822 0.40458613969335172 0 -0.36671596826568531 0.39125647884893172 0 -0.36333227490387549 0.41594406858258898 0 -0.38133644129271771 0.41060795377957438 0 -0.36671596826568531 0.39125647884893172 0 -0.36333227490387549 0.41594406858258898 0 -0.38133644129271771 0.41060795377957438 0 -0.36333227490387549 0.41594406858258898 0 -0.37388199021079188 0.43349662060099697 0 -0.36333227490387549 0.41594406858258898 0 -0.37388199021079188 0.43349662060099697 0 -0.35906691460358248 0.43302642702751659 0 -0.36333227490387549 0.41594406858258898 0 -0.35906691460358248 0.43302642702751659 0 -0.35160825139420282 0.41805423523185442 0 -0.35906691460358248 0.43302642702751659 0 -0.34586475289765162 0.42738691828786168 0 -0.34964894770477822 0.45067928662270329 0 -0.35906691460358248 0.43302642702751659 0 -0.34586475289765162 0.42738691828786168 0 -0.35160825139420282 0.41805423523185442 0 -0.35026082972236822 0.40458613969335172 0 -0.36333227490387549 0.41594406858258898 0 -0.35160825139420282 0.41805423523185442 0 -0.34586475289765162 0.42738691828786168 0 -0.35160825139420282 0.41805423523185442 0 -0.33955069738530769 0.4144169953609998 0 -0.35026082972236822 0.40458613969335172 0 -0.35160825139420282 0.41805423523185442 0 -0.33955069738530769 0.4144169953609998 0 -0.35026082972236822 0.40458613969335172 0 -0.33955069738530769 0.4144169953609998 0 -0.33552343261133938 0.40009846525415782 0 -0.33446828868340289 0.42659298183602629 0 -0.325081577553051 0.41169961094141633 0 -0.33955069738530769 0.4144169953609998 0 -0.33446828868340289 0.42659298183602629 0 -0.325081577553051 0.41169961094141633 0 -0.33955069738530769 0.4144169953609998 0 -0.325081577553051 0.41169961094141633 0 -0.33552343261133938 0.40009846525415782 0 -0.33446828868340289 0.42659298183602629 0 -0.32353211865850812 0.43458959004027897 0 -0.33054677899099522 0.44587833955602901 0 -0.34586475289765162 0.42738691828786168 0 -0.33446828868340289 0.42659298183602629 0 -0.34964894770477822 0.45067928662270329 0 -0.34586475289765162 0.42738691828786168 0 -0.33446828868340289 0.42659298183602629 0 -0.34586475289765162 0.42738691828786168 0 -0.33955069738530769 0.4144169953609998 0 -0.33446828868340289 0.42659298183602629 0 -0.33446828868340289 0.42659298183602629 0 -0.31463215430362917 0.42521109444957261 0 -0.33446828868340289 0.42659298183602629 0 -0.31463215430362917 0.42521109444957261 0 -0.32353211865850812 0.43458959004027897 0 -0.31463215430362917 0.42521109444957261 0 -0.32353211865850812 0.43458959004027897 0 -0.30632691414132052 0.4383163993433048 0 -0.325081577553051 0.41169961094141633 0 -0.31576873897388319 0.39675968105735149 0 -0.30808160252936673 0.4121977433748496 0 -0.31463215430362917 0.42521109444957261 0 -0.325081577553051 0.41169961094141633 0 -0.30808160252936673 0.4121977433748496 0 -0.33446828868340289 0.42659298183602629 0 -0.31463215430362917 0.42521109444957261 0 -0.325081577553051 0.41169961094141633 0 -0.325081577553051 0.41169961094141633 0 -0.31576873897388319 0.39675968105735149 0 -0.33552343261133938 0.40009846525415782 0 -0.325081577553051 0.41169961094141633 0 -0.31576873897388319 0.39675968105735149 0 -0.34862050747833878 0.38874946299455448 0 -0.33552343261133938 0.40009846525415782 0 -0.33393211710626841 0.38433234248782061 0 -0.31576873897388319 0.39675968105735149 0 -0.33552343261133938 0.40009846525415782 0 -0.33393211710626841 0.38433234248782061 0 -0.35209549523865291 0.37190500391828912 0 -0.33393211710626841 0.38433234248782061 0 -0.33508210951592582 0.36870163953731322 0 -0.33393211710626841 0.38433234248782061 0 -0.32091897818789411 0.37757395005697603 0 -0.31576873897388319 0.39675968105735149 0 -0.32091897818789411 0.37757395005697603 0 -0.30732872976294823 0.38353215772995369 0 -0.31576873897388319 0.39675968105735149 0 -0.33393211710626841 0.38433234248782061 0 -0.31576873897388319 0.39675968105735149 0 -0.33393211710626841 0.38433234248782061 0 -0.32091897818789411 0.37757395005697603 0 -0.31229554397435733 0.37005867265250031 0 -0.32091897818789411 0.37757395005697603 0 -0.30732872976294823 0.38353215772995369 0 -0.29896259310319367 0.37025807541310352 0 -0.30732872976294823 0.38353215772995369 0 -0.29700674132229032 0.39540516601558717 0 -0.29896259310319367 0.37025807541310352 0 -0.29700674132229032 0.39540516601558717 0 -0.31576873897388319 0.39675968105735149 0 -0.30732872976294823 0.38353215772995369 0 -0.29896259310319367 0.37025807541310352 0 -0.30732872976294823 0.38353215772995369 0 -0.29700674132229032 0.39540516601558717 0 -0.30259284054109448 0.40478096048040529 0 -0.29641605771867308 0.41403951143914192 0 -0.31576873897388319 0.39675968105735149 0 -0.29700674132229032 0.39540516601558717 0 -0.30259284054109448 0.40478096048040529 0 -0.31576873897388319 0.39675968105735149 0 -0.30732872976294823 0.38353215772995369 0 -0.29700674132229032 0.39540516601558717 0 -0.31576873897388319 0.39675968105735149 0 -0.30259284054109448 0.40478096048040529 0 -0.30808160252936673 0.4121977433748496 0 -0.29700674132229032 0.39540516601558717 0 -0.28209338532393202 0.38222600668133688 0 -0.27839968129949771 0.4031848713431353 0 -0.29896259310319367 0.37025807541310352 0 -0.29700674132229032 0.39540516601558717 0 -0.28209338532393202 0.38222600668133688 0 -0.27169383631612543 0.36953364855257259 0 -0.28209338532393202 0.38222600668133688 0 -0.26324903299479457 0.38988604216182182 0 -0.27839968129949771 0.4031848713431353 0 -0.26324903299479457 0.38988604216182182 0 -0.26044543261494202 0.40722350202507612 0 -0.28209338532393202 0.38222600668133688 0 -0.27839968129949771 0.4031848713431353 0 -0.26324903299479457 0.38988604216182182 0 -0.26324903299479457 0.38988604216182182 0 -0.26044543261494202 0.40722350202507612 0 -0.24448809762487089 0.40050868906775772 0 -0.25717133997193298 0.37426095615225607 0 -0.26324903299479457 0.38988604216182182 0 -0.24074374520667241 0.38242687998337299 0 -0.25717133997193298 0.37426095615225607 0 -0.27169383631612543 0.36953364855257259 0 -0.26324903299479457 0.38988604216182182 0 -0.25382358621835049 0.43542260228310259 0 -0.27015352040741047 0.42211248350195679 0 -0.2459368307481366 0.42042542405070832 0 -0.27015352040741047 0.42211248350195679 0 -0.2459368307481366 0.42042542405070832 0 -0.26044543261494202 0.40722350202507612 0 -0.2459368307481366 0.42042542405070832 0 -0.24448809762487089 0.40050868906775772 0 -0.26044543261494202 0.40722350202507612 0 -0.27015352040741047 0.42211248350195679 0 -0.2459368307481366 0.42042542405070832 0 -0.27839968129949771 0.4031848713431353 0 -0.26044543261494202 0.40722350202507612 0 -0.27015352040741047 0.42211248350195679 0 -0.27839968129949771 0.4031848713431353 0 -0.27015352040741047 0.42211248350195679 0 -0.2950508895413867 0.42055225661807089 0 -0.25382358621835049 0.43542260228310259 0 -0.27015352040741047 0.42211248350195679 0 -0.27451598641054692 0.44016370142941202 0 -0.27015352040741047 0.42211248350195679 0 -0.28251112199335982 0.43211478794536817 0 -0.27451598641054692 0.44016370142941202 0 -0.28251112199335982 0.43211478794536817 0 -0.29479601992385501 0.42382920706312738 0 -0.29069111349206073 0.44135124015641658 0 -0.29479601992385501 0.42382920706312738 0 -0.29069111349206073 0.44135124015641658 0 -0.27015352040741047 0.42211248350195679 0 -0.28251112199335982 0.43211478794536817 0 -0.29479601992385501 0.42382920706312738 0 -0.27015352040741047 0.42211248350195679 0 -0.29479601992385501 0.42382920706312738 0 -0.27015352040741047 0.42211248350195679 0 -0.29479601992385501 0.42382920706312738 0 -0.2950508895413867 0.42055225661807089 0 -0.29479601992385501 0.42382920706312738 0 -0.2950508895413867 0.42055225661807089 0 -0.29700674132229032 0.39540516601558717 0 -0.2950508895413867 0.42055225661807089 0 -0.29641605771867308 0.41403951143914192 0 -0.29700674132229032 0.39540516601558717 0 -0.27839968129949771 0.4031848713431353 0 -0.2950508895413867 0.42055225661807089 0 -0.29700674132229032 0.39540516601558717 0 -0.2950508895413867 0.42055225661807089 0 -0.2950508895413867 0.42055225661807089 0 -0.29641605771867308 0.41403951143914192 0 -0.31463215430362917 0.42521109444957261 0 -0.2950508895413867 0.42055225661807089 0 -0.30808160252936673 0.4121977433748496 0 -0.30259284054109448 0.40478096048040529 0 -0.29641605771867308 0.41403951143914192 0 -0.30808160252936673 0.4121977433748496 0 -0.2950508895413867 0.42055225661807089 0 -0.29641605771867308 0.41403951143914192 0 -0.30808160252936673 0.4121977433748496 0 -0.31463215430362917 0.42521109444957261 0 -0.29479601992385501 0.42382920706312738 0 -0.2950508895413867 0.42055225661807089 0 -0.31463215430362917 0.42521109444957261 0 -0.29479601992385501 0.42382920706312738 0 -0.30632691414132052 0.4383163993433048 0 -0.29479601992385501 0.42382920706312738 0 -0.30632691414132052 0.4383163993433048 0 -0.29069111349206073 0.44135124015641658 0 -0.31463215430362917 0.42521109444957261 0 -0.29479601992385501 0.42382920706312738 0 -0.30632691414132052 0.4383163993433048 0 -0.3106014077299023 0.45452137664490028 0 -0.31918078655937843 0.44538174228416588 0 -0.30632691414132052 0.4383163993433048 0 -0.29796494780926752 0.45236230629258078 0 -0.3106014077299023 0.45452137664490028 0 -0.30632691414132052 0.4383163993433048 0 -0.29796494780926752 0.45236230629258078 0 -0.29069111349206073 0.44135124015641658 0 -0.3106014077299023 0.45452137664490028 0 -0.30192672627001949 0.46374394226332799 0 -0.31684143562260331 0.46858494716702748 0 -0.30192672627001949 0.46374394226332799 0 -0.31684143562260331 0.46858494716702748 0 -0.29796494780926752 0.45236230629258078 0 -0.3106014077299023 0.45452137664490028 0 -0.30192672627001949 0.46374394226332799 0 -0.28701201691743577 0.45890293735962839 0 -0.28352738281579593 0.4755269213664215 0 -0.30192672627001949 0.46374394226332799 0 -0.28701201691743577 0.45890293735962839 0 -0.30030559437380339 0.47420586516231239 0 -0.30192672627001949 0.46374394226332799 0 -0.28701201691743577 0.45890293735962839 0 -0.29796494780926752 0.45236230629258078 0 -0.30192672627001949 0.46374394226332799 0 -0.28701201691743577 0.45890293735962839 0 -0.28701201691743577 0.45890293735962839 0 -0.29069111349206073 0.44135124015641658 0 -0.28701201691743577 0.45890293735962839 0 -0.29069111349206073 0.44135124015641658 0 -0.27451598641054692 0.44016370142941202 0 -0.29796494780926752 0.45236230629258078 0 -0.28701201691743577 0.45890293735962839 0 -0.29069111349206073 0.44135124015641658 0 -0.28251112199335982 0.43211478794536817 0 -0.29069111349206073 0.44135124015641658 0 -0.27451598641054692 0.44016370142941202 0 -0.28701201691743577 0.45890293735962839 0 -0.27451598641054692 0.44016370142941202 0 -0.2629045594346644 0.45107815732999917 0 -0.28701201691743577 0.45890293735962839 0 -0.2629045594346644 0.45107815732999917 0 -0.28701201691743577 0.45890293735962839 0 -0.27023974482395158 0.46466667776273851 0 -0.28352738281579593 0.4755269213664215 0 -0.28701201691743577 0.45890293735962839 0 -0.27023974482395158 0.46466667776273851 0 -0.2629045594346644 0.45107815732999917 0 -0.27023974482395158 0.46466667776273851 0 -0.2629045594346644 0.45107815732999917 0 -0.2489120775907421 0.45611132706247232 0 -0.27023974482395158 0.46466667776273851 0 -0.24576275637927339 0.47027392540463459 0 -0.2489120775907421 0.45611132706247232 0 -0.25382358621835049 0.43542260228310259 0 -0.2629045594346644 0.45107815732999917 0 -0.2387971019518931 0.44325337730036979 0 -0.2629045594346644 0.45107815732999917 0 -0.2387971019518931 0.44325337730036979 0 -0.2629045594346644 0.45107815732999917 0 -0.2387971019518931 0.44325337730036979 0 -0.2489120775907421 0.45611132706247232 0 -0.25382358621835049 0.43542260228310259 0 -0.27451598641054692 0.44016370142941202 0 -0.2629045594346644 0.45107815732999917 0 -0.26267046183496029 0.5 0 -0.26550391405888962 0.48189416376756322 0 -0.24740973726578031 0.48747235416832729 0 -0.26550391405888962 0.48189416376756322 0 -0.24576275637927339 0.47027392540463459 0 -0.24740973726578031 0.48747235416832729 0 -0.27023974482395158 0.46466667776273851 0 -0.26550391405888962 0.48189416376756322 0 -0.24576275637927339 0.47027392540463459 0 -0.27023974482395158 0.46466667776273851 0 -0.26550391405888962 0.48189416376756322 0 -0.28352738281579593 0.4755269213664215 0 -0.26550391405888962 0.48189416376756322 0 -0.28004274871415491 0.49215090537321432 0 -0.28352738281579593 0.4755269213664215 0 -0.26267046183496029 0.5 0 -0.26550391405888962 0.48189416376756322 0 -0.28004274871415491 0.49215090537321432 0 -0.26267046183496029 0.5 0 -0.28004274871415491 0.49215090537321432 0 -0.28977137280097909 0.5 0 -0.28004274871415491 0.49215090537321432 0 -0.29422506909847679 0.48481709335143458 0 -0.28977137280097909 0.5 0 -0.29422506909847679 0.48481709335143458 0 -0.28977137280097909 0.5 0 -0.30059562840125281 0.49523014277448563 0 -0.29422506909847679 0.48481709335143458 0 -0.28352738281579593 0.4755269213664215 0 -0.30030559437380339 0.47420586516231239 0 -0.28004274871415491 0.49215090537321432 0 -0.29422506909847679 0.48481709335143458 0 -0.28352738281579593 0.4755269213664215 0 -0.28701201691743577 0.45890293735962839 0 -0.28352738281579593 0.4755269213664215 0 -0.30030559437380339 0.47420586516231239 0 -0.28004274871415491 0.49215090537321432 0 -0.28352738281579593 0.4755269213664215 0 -0.30192672627001949 0.46374394226332799 0 -0.30030559437380339 0.47420586516231239 0 -0.31684143562260331 0.46858494716702748 0 -0.30030559437380339 0.47420586516231239 0 -0.3087338265938282 0.48140676030859753 0 -0.31684143562260331 0.46858494716702748 0 -0.29422506909847679 0.48481709335143458 0 -0.30030559437380339 0.47420586516231239 0 -0.3087338265938282 0.48140676030859753 0 -0.28977137280097909 0.5 0 -0.30059562840125281 0.49523014277448563 0 -0.31687228376699761 0.5 0 -0.3087338265938282 0.48140676030859753 0 -0.30059562840125281 0.49523014277448563 0 -0.32200695450955369 0.48840862565278359 0 -0.30059562840125281 0.49523014277448563 0 -0.32200695450955369 0.48840862565278359 0 -0.29422506909847679 0.48481709335143458 0 -0.3087338265938282 0.48140676030859753 0 -0.30059562840125281 0.49523014277448563 0 -0.30059562840125281 0.49523014277448563 0 -0.31687228376699761 0.5 0 -0.32200695450955369 0.48840862565278359 0 -0.31687228376699761 0.5 0 -0.32200695450955369 0.48840862565278359 0 -0.33307541777069588 0.49179723018598798 0 -0.32200695450955369 0.48840862565278359 0 -0.34341828061785462 0.48158710853108161 0 -0.32200695450955369 0.48840862565278359 0 -0.33307541777069588 0.49179723018598798 0 -0.34341828061785462 0.48158710853108161 0 -0.33307541777069588 0.49179723018598798 0 -0.34341828061785462 0.48158710853108161 0 -0.34397319473301619 0.5 0 -0.31687228376699761 0.5 0 -0.33307541777069588 0.49179723018598798 0 -0.34397319473301619 0.5 0 -0.32200695450955369 0.48840862565278359 0 -0.34341828061785462 0.48158710853108161 0 -0.32987443399239552 0.47516769423785971 0 -0.34341828061785462 0.48158710853108161 0 -0.32987443399239552 0.47516769423785971 0 -0.34602126269748001 0.46829680282094799 0 -0.32987443399239552 0.47516769423785971 0 -0.31870391104731738 0.47862303310617538 0 -0.31684143562260331 0.46858494716702748 0 -0.32200695450955369 0.48840862565278359 0 -0.32987443399239552 0.47516769423785971 0 -0.31870391104731738 0.47862303310617538 0 -0.3087338265938282 0.48140676030859753 0 -0.32200695450955369 0.48840862565278359 0 -0.31870391104731738 0.47862303310617538 0 -0.3087338265938282 0.48140676030859753 0 -0.31870391104731738 0.47862303310617538 0 -0.31684143562260331 0.46858494716702748 0 -0.31684143562260331 0.46858494716702748 0 -0.32297313966047753 0.4563916054492167 0 -0.33347739267942988 0.46163483110378051 0 -0.32987443399239552 0.47516769423785971 0 -0.31684143562260331 0.46858494716702748 0 -0.33347739267942988 0.46163483110378051 0 -0.3106014077299023 0.45452137664490028 0 -0.31684143562260331 0.46858494716702748 0 -0.32297313966047753 0.4563916054492167 0 -0.32353211865850812 0.43458959004027897 0 -0.30632691414132052 0.4383163993433048 0 -0.31918078655937843 0.44538174228416588 0 -0.3106014077299023 0.45452137664490028 0 -0.32297313966047753 0.4563916054492167 0 -0.31918078655937843 0.44538174228416588 0 -0.32297313966047753 0.4563916054492167 0 -0.31918078655937843 0.44538174228416588 0 -0.33054677899099522 0.44587833955602901 0 -0.32353211865850812 0.43458959004027897 0 -0.31918078655937843 0.44538174228416588 0 -0.33054677899099522 0.44587833955602901 0 -0.33054677899099522 0.44587833955602901 0 -0.33347739267942988 0.46163483110378051 0 -0.34964894770477822 0.45067928662270329 0 -0.33446828868340289 0.42659298183602629 0 -0.34964894770477822 0.45067928662270329 0 -0.33446828868340289 0.42659298183602629 0 -0.33054677899099522 0.44587833955602901 0 -0.34964894770477822 0.45067928662270329 0 -0.32297313966047753 0.4563916054492167 0 -0.33054677899099522 0.44587833955602901 0 -0.33347739267942988 0.46163483110378051 0 -0.33347739267942988 0.46163483110378051 0 -0.34602126269748001 0.46829680282094799 0 -0.34964894770477822 0.45067928662270329 0 -0.32987443399239552 0.47516769423785971 0 -0.33347739267942988 0.46163483110378051 0 -0.34602126269748001 0.46829680282094799 0 -0.34964894770477822 0.45067928662270329 0 -0.36482960672615539 0.47476559140937902 0 -0.34602126269748001 0.46829680282094799 0 -0.34964894770477822 0.45067928662270329 0 -0.36482960672615539 0.47476559140937902 0 -0.37388199021079188 0.43349662060099697 0 -0.35906691460358248 0.43302642702751659 0 -0.37006527051019528 0.45259743283909409 0 -0.35906691460358248 0.43302642702751659 0 -0.34964894770477822 0.45067928662270329 0 -0.37006527051019528 0.45259743283909409 0 -0.34964894770477822 0.45067928662270329 0 -0.37006527051019528 0.45259743283909409 0 -0.36482960672615539 0.47476559140937902 0 -0.39197467039505129 0.46611734068214988 0 -0.36580706476392733 0.47631646954851292 0 -0.36482960672615539 0.47476559140937902 0 -0.38413367002432852 0.48466820949397371 0 -0.36580706476392733 0.47631646954851292 0 -0.36922226322768142 0.48798439540463678 0 -0.36580706476392733 0.47631646954851292 0 -0.36482960672615539 0.47476559140937902 0 -0.36580706476392733 0.47631646954851292 0 -0.36011621247549508 0.48220740160321018 0 -0.36922226322768142 0.48798439540463678 0 -0.36580706476392733 0.47631646954851292 0 -0.36482960672615539 0.47476559140937902 0 -0.36011621247549508 0.48220740160321018 0 -0.38413367002432852 0.48466820949397371 0 -0.36922226322768142 0.48798439540463678 0 -0.37107410569903487 0.5 0 -0.36922226322768142 0.48798439540463678 0 -0.37107410569903487 0.5 0 -0.35730384704185653 0.49038344312244059 0 -0.36011621247549508 0.48220740160321018 0 -0.36922226322768142 0.48798439540463678 0 -0.35730384704185653 0.49038344312244059 0 -0.34341828061785462 0.48158710853108161 0 -0.36011621247549508 0.48220740160321018 0 -0.35730384704185653 0.49038344312244059 0 -0.37107410569903487 0.5 0 -0.35730384704185653 0.49038344312244059 0 -0.34397319473301619 0.5 0 -0.34341828061785462 0.48158710853108161 0 -0.35730384704185653 0.49038344312244059 0 -0.34397319473301619 0.5 0 -0.34341828061785462 0.48158710853108161 0 -0.36482960672615539 0.47476559140937902 0 -0.36011621247549508 0.48220740160321018 0 -0.34341828061785462 0.48158710853108161 0 -0.34602126269748001 0.46829680282094799 0 -0.36482960672615539 0.47476559140937902 0 -0.34341828061785462 0.48158710853108161 0 -0.36482960672615539 0.47476559140937902 0 -0.14108182703901029 0.47856052106912539 0 -0.15218575011213231 0.48928026053456308 0 -0.15838645381207381 0.47784012782054008 0 -0.14108182703901029 0.47856052106912539 0 -0.15141758041572639 0.46790752156545012 0 -0.15838645381207381 0.47784012782054008 0 -0.14108182703901029 0.47856052106912539 0 -0.15218575011213231 0.48928026053456308 0 -0.14103512141071931 0.48261116844817892 0 -0.14108182703901029 0.47856052106912539 0 -0.15218575011213231 0.48928026053456308 0 -0.14103512141071931 0.48261116844817892 0 -0.14108182703901029 0.47856052106912539 0 -0.15218575011213231 0.48928026053456308 0 -0.14247376316698551 0.5 0 -0.1632896731852537 0.50000000000000155 0 -0.15218575011213231 0.48928026053456308 0 -0.14247376316698551 0.5 0 -0.14194011071192181 0.49099964735320722 0 -0.14103512141071931 0.48261116844817892 0 -0.15218575011213231 0.48928026053456308 0 -0.14194011071192181 0.49099964735320722 0 -0.14247376316698551 0.5 0 -0.13206580815784999 0.49210716043008701 0 -0.1216578531487173 0.50000000000000155 0 -0.13206580815784999 0.49210716043008701 0 -0.1215246548466888 0.48036061179670092 0 -0.1216578531487173 0.50000000000000155 0 -0.14103512141071931 0.48261116844817892 0 -0.13206580815784999 0.49210716043008701 0 -0.1215246548466888 0.48036061179670092 0 -0.14103512141071931 0.48261116844817892 0 -0.14194011071192181 0.49099964735320722 0 -0.13206580815784999 0.49210716043008701 0 -0.14247376316698551 0.5 0 -0.14194011071192181 0.49099964735320722 0 -0.13206580815784999 0.49210716043008701 0 -0.14103512141071931 0.48261116844817892 0 -0.14108182703901029 0.47856052106912539 0 -0.1215246548466888 0.48036061179670092 0 -0.14108182703901029 0.47856052106912539 0 -0.11987972175203609 0.45809198546251739 0 -0.1215246548466888 0.48036061179670092 0 -0.14108182703901029 0.47856052106912539 0 -0.14131813266979709 0.45806640035822538 0 -0.11987972175203609 0.45809198546251739 0 -0.14108182703901029 0.47856052106912539 0 -0.11987972175203609 0.45809198546251739 0 -0.12509104342100061 0.44188941827772182 0 -0.14131813266979709 0.45806640035822538 0 -0.11987972175203609 0.45809198546251739 0 -0.12509104342100061 0.44188941827772182 0 -0.14155443830058789 0.43757227964732542 0 -0.14131813266979709 0.45806640035822538 0 -0.14155443830058789 0.43757227964732542 0 -0.1590732886589914 0.44456462379371309 0 -0.14157918638415079 0.43542594817740249 0 -0.1590732886589914 0.44456462379371309 0 -0.1665175895587078 0.4467511244817659 0 -0.14157918638415079 0.43542594817740249 0 -0.1665175895587078 0.4467511244817659 0 -0.15486041744653839 0.43233395996053492 0 -0.14157918638415079 0.43542594817740249 0 -0.14155443830058789 0.43757227964732542 0 -0.14890115189103559 0.44846787442591368 0 -0.1590732886589914 0.44456462379371309 0 -0.1665175895587078 0.4467511244817659 0 -0.14157918638415079 0.43542594817740249 0 -0.14155443830058789 0.43757227964732542 0 -0.14890115189103559 0.44846787442591368 0 -0.14131813266979709 0.45806640035822538 0 -0.14155443830058789 0.43757227964732542 0 -0.1590732886589914 0.44456462379371309 0 -0.14155443830058789 0.43757227964732542 0 -0.14131813266979709 0.45806640035822538 0 -0.14890115189103559 0.44846787442591368 0 -0.15489186999573309 0.45643812449532861 0 -0.1590732886589914 0.44456462379371309 0 -0.14108182703901029 0.47856052106912539 0 -0.14131813266979709 0.45806640035822538 0 -0.14108182703901029 0.47856052106912539 0 -0.14131813266979709 0.45806640035822538 0 -0.15141758041572639 0.46790752156545012 0 -0.14890115189103559 0.44846787442591368 0 -0.14131813266979709 0.45806640035822538 0 -0.15489186999573309 0.45643812449532861 0 -0.14131813266979709 0.45806640035822538 0 -0.15489186999573309 0.45643812449532861 0 -0.15141758041572639 0.46790752156545012 0 -0.15489186999573309 0.45643812449532861 0 -0.15141758041572639 0.46790752156545012 0 -0.1637083375647361 0.46571847743475431 0 -0.15489186999573309 0.45643812449532861 0 -0.1637083375647361 0.46571847743475431 0 -0.16576602081972819 0.45650349861697093 0 -0.1637083375647361 0.46571847743475431 0 -0.1745644688617857 0.46423929942095737 0 -0.17520348646433229 0.47613194070040032 0 -0.1637083375647361 0.46571847743475431 0 -0.16576602081972819 0.45650349861697093 0 -0.1745644688617857 0.46423929942095737 0 -0.1590732886589914 0.44456462379371309 0 -0.17659213901739471 0.45155696794010108 0 -0.1590732886589914 0.44456462379371309 0 -0.1665175895587078 0.4467511244817659 0 -0.17659213901739471 0.45155696794010108 0 -0.16576602081972819 0.45650349861697093 0 -0.1590732886589914 0.44456462379371309 0 -0.17659213901739471 0.45155696794010108 0 -0.1665175895587078 0.4467511244817659 0 -0.1659354897241099 0.43449929542802312 0 -0.15486041744653839 0.43233395996053492 0 -0.15489186999573309 0.45643812449532861 0 -0.16576602081972819 0.45650349861697093 0 -0.1590732886589914 0.44456462379371309 0 -0.1665175895587078 0.4467511244817659 0 -0.1740586998674569 0.43899754936367941 0 -0.1659354897241099 0.43449929542802312 0 -0.1740586998674569 0.43899754936367941 0 -0.17659213901739471 0.45155696794010108 0 -0.1868590329817707 0.43357197228301869 0 -0.1665175895587078 0.4467511244817659 0 -0.1740586998674569 0.43899754936367941 0 -0.17659213901739471 0.45155696794010108 0 -0.1745644688617857 0.46423929942095737 0 -0.18738907724301901 0.4651958722260251 0 -0.17520348646433229 0.47613194070040032 0 -0.17659213901739471 0.45155696794010108 0 -0.1745644688617857 0.46423929942095737 0 -0.18738907724301901 0.4651958722260251 0 -0.16576602081972819 0.45650349861697093 0 -0.17659213901739471 0.45155696794010108 0 -0.1745644688617857 0.46423929942095737 0 -0.17520348646433229 0.47613194070040032 0 -0.17737148462513211 0.4885994124146576 0 -0.1949767913905355 0.48049775525153071 0 -0.18738907724301901 0.4651958722260251 0 -0.17520348646433229 0.47613194070040032 0 -0.1949767913905355 0.48049775525153071 0 -0.17520348646433229 0.47613194070040032 0 -0.1660045063390565 0.48636736612135473 0 -0.17737148462513211 0.4885994124146576 0 -0.17520348646433229 0.47613194070040032 0 -0.15838645381207381 0.47784012782054008 0 -0.1660045063390565 0.48636736612135473 0 -0.1637083375647361 0.46571847743475431 0 -0.17520348646433229 0.47613194070040032 0 -0.15838645381207381 0.47784012782054008 0 -0.15141758041572639 0.46790752156545012 0 -0.1637083375647361 0.46571847743475431 0 -0.15838645381207381 0.47784012782054008 0 -0.15218575011213231 0.48928026053456308 0 -0.1632896731852537 0.50000000000000155 0 -0.15218575011213231 0.48928026053456308 0 -0.15838645381207381 0.47784012782054008 0 -0.1660045063390565 0.48636736612135473 0 -0.15218575011213231 0.48928026053456308 0 -0.1632896731852537 0.50000000000000155 0 -0.1660045063390565 0.48636736612135473 0 -0.1632896731852537 0.50000000000000155 0 -0.1660045063390565 0.48636736612135473 0 -0.17737148462513211 0.4885994124146576 0 -0.1632896731852537 0.50000000000000155 0 -0.18738296574648311 0.5 0 -0.17737148462513211 0.4885994124146576 0 -0.18738296574648311 0.5 0 -0.17737148462513211 0.4885994124146576 0 -0.1949767913905355 0.48049775525153071 0 -0.18738296574648311 0.5 0 -0.1949767913905355 0.48049775525153071 0 -0.21147625830771241 0.5 0 -0.1949767913905355 0.48049775525153071 0 -0.2193327115732171 0.47785732409434201 0 -0.2030958722774939 0.45571464818868052 0 -0.1949767913905355 0.48049775525153071 0 -0.21147625830771241 0.5 0 -0.2193327115732171 0.47785732409434201 0 -0.21147625830771241 0.5 0 -0.2193327115732171 0.47785732409434201 0 -0.23556955086894171 0.50000000000000278 0 -0.2193327115732171 0.47785732409434201 0 -0.24740973726578031 0.48747235416832729 0 -0.23556955086894171 0.50000000000000278 0 -0.2193327115732171 0.47785732409434201 0 -0.23556955086894171 0.50000000000000278 0 -0.2193327115732171 0.47785732409434201 0 -0.24576275637927339 0.47027392540463459 0 -0.24740973726578031 0.48747235416832729 0 -0.26267046183496029 0.5 0 -0.24740973726578031 0.48747235416832729 0 -0.23556955086894171 0.50000000000000278 0 -0.2387971019518931 0.44325337730036979 0 -0.2489120775907421 0.45611132706247232 0 -0.22784244863720851 0.45419089524536999 0 -0.24576275637927339 0.47027392540463459 0 -0.2489120775907421 0.45611132706247232 0 -0.22784244863720851 0.45419089524536999 0 -0.2193327115732171 0.47785732409434201 0 -0.24576275637927339 0.47027392540463459 0 -0.22784244863720851 0.45419089524536999 0 -0.2387971019518931 0.44325337730036979 0 -0.22784244863720851 0.45419089524536999 0 -0.22695118484456259 0.43760496865691229 0 -0.22784244863720851 0.45419089524536999 0 -0.22695118484456259 0.43760496865691229 0 -0.21077827595677989 0.43843038173964088 0 -0.2387971019518931 0.44325337730036979 0 -0.22695118484456259 0.43760496865691229 0 -0.23717077667227929 0.4322920750106754 0 -0.22784244863720851 0.45419089524536999 0 -0.21077827595677989 0.43843038173964088 0 -0.2030958722774939 0.45571464818868052 0 -0.2193327115732171 0.47785732409434201 0 -0.22784244863720851 0.45419089524536999 0 -0.2030958722774939 0.45571464818868052 0 -0.2193327115732171 0.47785732409434201 0 -0.2030958722774939 0.45571464818868052 0 -0.18738907724301901 0.4651958722260251 0 -0.1949767913905355 0.48049775525153071 0 -0.2030958722774939 0.45571464818868052 0 -0.17659213901739471 0.45155696794010108 0 -0.18738907724301901 0.4651958722260251 0 -0.2030958722774939 0.45571464818868052 0 -0.17659213901739471 0.45155696794010108 0 -0.2030958722774939 0.45571464818868052 0 -0.1868590329817707 0.43357197228301869 0 -0.21077827595677989 0.43843038173964088 0 -0.2030958722774939 0.45571464818868052 0 -0.1868590329817707 0.43357197228301869 0 -0.2030958722774939 0.45571464818868052 0 -0.1868590329817707 0.43357197228301869 0 -0.21077827595677989 0.43843038173964088 0 -0.20038953475864499 0.42285930103310698 0 -0.1868590329817707 0.43357197228301869 0 -0.20038953475864499 0.42285930103310698 0 -0.18865851951403981 0.41114723081592358 0 -0.1868590329817707 0.43357197228301869 0 -0.20038953475864499 0.42285930103310698 0 -0.18865851951403981 0.41114723081592358 0 -0.20316386533702549 0.40742415296633488 0 -0.20038953475864499 0.42285930103310698 0 -0.20316386533702549 0.40742415296633488 0 -0.22016732100465239 0.41985811398850509 0 -0.20316386533702549 0.40742415296633488 0 -0.22016732100465239 0.41985811398850509 0 -0.21769018938602511 0.40540249138439582 0 -0.20316386533702549 0.40742415296633488 0 -0.22016732100465239 0.41985811398850509 0 -0.21077827595677989 0.43843038173964088 0 -0.20038953475864499 0.42285930103310698 0 -0.22016732100465239 0.41985811398850509 0 -0.22695118484456259 0.43760496865691229 0 -0.22016732100465239 0.41985811398850509 0 -0.23717077667227929 0.4322920750106754 0 -0.22695118484456259 0.43760496865691229 0 -0.21077827595677989 0.43843038173964088 0 -0.22016732100465239 0.41985811398850509 0 -0.22016732100465239 0.41985811398850509 0 -0.23358788463652869 0.41983625247023992 0 -0.23717077667227929 0.4322920750106754 0 -0.22016732100465239 0.41985811398850509 0 -0.23717077667227929 0.4322920750106754 0 -0.22016732100465239 0.41985811398850509 0 -0.23115288141678619 0.40759276862782062 0 -0.21769018938602511 0.40540249138439582 0 -0.22016732100465239 0.41985811398850509 0 -0.23115288141678619 0.40759276862782062 0 -0.23358788463652869 0.41983625247023992 0 -0.23115288141678619 0.40759276862782062 0 -0.2459368307481366 0.42042542405070832 0 -0.24448809762487089 0.40050868906775772 0 -0.23115288141678619 0.40759276862782062 0 -0.23358788463652869 0.41983625247023992 0 -0.2459368307481366 0.42042542405070832 0 -0.25382358621835049 0.43542260228310259 0 -0.2459368307481366 0.42042542405070832 0 -0.23717077667227929 0.4322920750106754 0 -0.25382358621835049 0.43542260228310259 0 -0.2387971019518931 0.44325337730036979 0 -0.23717077667227929 0.4322920750106754 0 -0.23358788463652869 0.41983625247023992 0 -0.2459368307481366 0.42042542405070832 0 -0.23717077667227929 0.4322920750106754 0 -0.26324903299479457 0.38988604216182182 0 -0.24074374520667241 0.38242687998337299 0 -0.24448809762487089 0.40050868906775772 0 -0.24074374520667241 0.38242687998337299 0 -0.24448809762487089 0.40050868906775772 0 -0.22634736018434309 0.39356380059118778 0 -0.23115288141678619 0.40759276862782062 0 -0.24448809762487089 0.40050868906775772 0 -0.22634736018434309 0.39356380059118778 0 -0.23115288141678619 0.40759276862782062 0 -0.22634736018434309 0.39356380059118778 0 -0.21769018938602511 0.40540249138439582 0 -0.24074374520667241 0.38242687998337299 0 -0.22634736018434309 0.39356380059118778 0 -0.21798062289891881 0.38062313327343511 0 -0.24074374520667241 0.38242687998337299 0 -0.21798062289891881 0.38062313327343511 0 -0.22441740966967141 0.36662202833489849 0 -0.21798062289891881 0.38062313327343511 0 -0.2053182195646632 0.38898911660535768 0 -0.20402060209966261 0.36833430411321649 0 -0.22634736018434309 0.39356380059118778 0 -0.21798062289891881 0.38062313327343511 0 -0.2053182195646632 0.38898911660535768 0 -0.22634736018434309 0.39356380059118778 0 -0.2053182195646632 0.38898911660535768 0 -0.21769018938602511 0.40540249138439582 0 -0.20316386533702549 0.40742415296633488 0 -0.2053182195646632 0.38898911660535768 0 -0.21769018938602511 0.40540249138439582 0 -0.20316386533702549 0.40742415296633488 0 -0.2053182195646632 0.38898911660535768 0 -0.18616040966939809 0.39499019194416529 0 -0.20316386533702549 0.40742415296633488 0 -0.18616040966939809 0.39499019194416529 0 -0.18865851951403981 0.41114723081592358 0 -0.20316386533702549 0.40742415296633488 0 -0.18616040966939809 0.39499019194416529 0 -0.2053182195646632 0.38898911660535768 0 -0.1927326532436788 0.38193994064591369 0 -0.18616040966939809 0.39499019194416529 0 -0.2053182195646632 0.38898911660535768 0 -0.1927326532436788 0.38193994064591369 0 -0.20402060209966261 0.36833430411321649 0 -0.1927326532436788 0.38193994064591369 0 -0.18374665136976759 0.37937871402705908 0 -0.18616040966939809 0.39499019194416529 0 -0.1744309637910503 0.37769149803556362 0 -0.1642142843906749 0.3789418502636645 0 -0.1838985270783616 0.39091510453828221 0 -0.1642142843906749 0.3789418502636645 0 -0.18616040966939809 0.39499019194416529 0 -0.1838985270783616 0.39091510453828221 0 -0.1927326532436788 0.38193994064591369 0 -0.18374665136976759 0.37937871402705908 0 -0.18362379452965399 0.37004657989153639 0 -0.18374665136976759 0.37937871402705908 0 -0.1744309637910503 0.37769149803556362 0 -0.1838985270783616 0.39091510453828221 0 -0.1642142843906749 0.3789418502636645 0 -0.18616040966939809 0.39499019194416529 0 -0.18374665136976759 0.37937871402705908 0 -0.1744309637910503 0.37769149803556362 0 -0.18362379452965399 0.37004657989153639 0 -0.18374665136976759 0.37937871402705908 0 -0.18616040966939809 0.39499019194416529 0 -0.18374665136976759 0.37937871402705908 0 -0.1838985270783616 0.39091510453828221 0 -0.18374665136976759 0.37937871402705908 0 -0.18616040966939809 0.39499019194416529 0 -0.1838985270783616 0.39091510453828221 0 -0.1642142843906749 0.3789418502636645 0 -0.1639919076143399 0.3974747808383628 0 -0.1489802686125267 0.38257497248127392 0 -0.1642142843906749 0.3789418502636645 0 -0.1639919076143399 0.3974747808383628 0 -0.18616040966939809 0.39499019194416529 0 -0.1744309637910503 0.37769149803556362 0 -0.1642142843906749 0.3789418502636645 0 -0.15874130784498061 0.37213542046662212 0 -0.1639919076143399 0.3974747808383628 0 -0.17750104491285451 0.40432040146684922 0 -0.17119334285363949 0.41366940226894577 0 -0.18865851951403981 0.41114723081592358 0 -0.18616040966939809 0.39499019194416529 0 -0.18865851951403981 0.41114723081592358 0 -0.17750104491285451 0.40432040146684922 0 -0.18616040966939809 0.39499019194416529 0 -0.1639919076143399 0.3974747808383628 0 -0.17750104491285451 0.40432040146684922 0 -0.18616040966939809 0.39499019194416529 0 -0.18865851951403981 0.41114723081592358 0 -0.17750104491285451 0.40432040146684922 0 -0.17119334285363949 0.41366940226894577 0 -0.18865851951403981 0.41114723081592358 0 -0.17459283461559361 0.42601523789076512 0 -0.17119334285363949 0.41366940226894577 0 -0.18865851951403981 0.41114723081592358 0 -0.1868590329817707 0.43357197228301869 0 -0.17459283461559361 0.42601523789076512 0 -0.1740586998674569 0.43899754936367941 0 -0.1868590329817707 0.43357197228301869 0 -0.17459283461559361 0.42601523789076512 0 -0.1740586998674569 0.43899754936367941 0 -0.17459283461559361 0.42601523789076512 0 -0.1659354897241099 0.43449929542802312 0 -0.17459283461559361 0.42601523789076512 0 -0.1659354897241099 0.43449929542802312 0 -0.16085192275254509 0.42420597718500008 0 -0.1659354897241099 0.43449929542802312 0 -0.16085192275254509 0.42420597718500008 0 -0.15486041744653839 0.43233395996053492 0 -0.1639919076143399 0.3974747808383628 0 -0.17119334285363949 0.41366940226894577 0 -0.1558060921739825 0.41026488178479492 0 -0.17459283461559361 0.42601523789076512 0 -0.16085192275254509 0.42420597718500008 0 -0.17119334285363949 0.41366940226894577 0 -0.16085192275254509 0.42420597718500008 0 -0.17119334285363949 0.41366940226894577 0 -0.1558060921739825 0.41026488178479492 0 -0.1558060921739825 0.41026488178479492 0 -0.1418117271851779 0.41525834053060801 0 -0.14204426798620681 0.39509073288381358 0 -0.16085192275254509 0.42420597718500008 0 -0.1558060921739825 0.41026488178479492 0 -0.1418117271851779 0.41525834053060801 0 -0.1418117271851779 0.41525834053060801 0 -0.14157918638415079 0.43542594817740249 0 -0.16085192275254509 0.42420597718500008 0 -0.1418117271851779 0.41525834053060801 0 -0.15486041744653839 0.43233395996053492 0 -0.1418117271851779 0.41525834053060801 0 -0.15486041744653839 0.43233395996053492 0 -0.14157918638415079 0.43542594817740249 0 -0.14155443830058789 0.43757227964732542 0 -0.14157918638415079 0.43542594817740249 0 -0.14155443830058789 0.43757227964732542 0 -0.14157918638415079 0.43542594817740249 0 -0.12025274126089 0.42574105579372712 0 -0.14155443830058789 0.43757227964732542 0 -0.1161249595423428 0.42742254588607831 0 -0.14157918638415079 0.43542594817740249 0 -0.12025274126089 0.42574105579372712 0 -0.1418117271851779 0.41525834053060801 0 -0.14157918638415079 0.43542594817740249 0 -0.12025274126089 0.42574105579372712 0 -0.14155443830058789 0.43757227964732542 0 -0.12025274126089 0.42574105579372712 0 -0.1161249595423428 0.42742254588607831 0 -0.12509104342100061 0.44188941827772182 0 -0.14155443830058789 0.43757227964732542 0 -0.1161249595423428 0.42742254588607831 0 -0.1418117271851779 0.41525834053060801 0 -0.1277268958593005 0.40709158096490278 0 -0.12025274126089 0.42574105579372712 0 -0.1418117271851779 0.41525834053060801 0 -0.1277268958593005 0.40709158096490278 0 -0.14204426798620681 0.39509073288381358 0 -0.1277268958593005 0.40709158096490278 0 -0.14204426798620681 0.39509073288381358 0 -0.1224972888069677 0.39405447109156733 0 -0.13238272395945991 0.37847398983736519 0 -0.1224972888069677 0.39405447109156733 0 -0.13238272395945991 0.37847398983736519 0 -0.14204426798620681 0.39509073288381358 0 -0.1224972888069677 0.39405447109156733 0 -0.13238272395945991 0.37847398983736519 0 -0.1489802686125267 0.38257497248127392 0 -0.14204426798620681 0.39509073288381358 0 -0.1639919076143399 0.3974747808383628 0 -0.1558060921739825 0.41026488178479492 0 -0.14204426798620681 0.39509073288381358 0 -0.1639919076143399 0.3974747808383628 0 -0.1489802686125267 0.38257497248127392 0 -0.14204426798620681 0.39509073288381358 0 -0.1418117271851779 0.41525834053060801 0 -0.14204426798620681 0.39509073288381358 0 -0.15552397359905151 0.35856797270850038 0 -0.1422681591119519 0.36289350858316322 0 -0.15574239997404821 0.34165669361972989 0 -0.1422681591119519 0.36289350858316322 0 -0.15574239997404821 0.34165669361972989 0 -0.13774544015442541 0.3595862213862932 0 -0.1344905665345571 0.34689990383467079 0 -0.15574239997404821 0.34165669361972989 0 -0.1422681591119519 0.36289350858316322 0 -0.13774544015442541 0.3595862213862932 0 -0.15574239997404821 0.34165669361972989 0 -0.1642142843906749 0.3789418502636645 0 -0.1422681591119519 0.36289350858316322 0 -0.13238272395945991 0.37847398983736519 0 -0.1489802686125267 0.38257497248127392 0 -0.1422681591119519 0.36289350858316322 0 -0.1642142843906749 0.3789418502636645 0 -0.1422681591119519 0.36289350858316322 0 -0.15874130784498061 0.37213542046662212 0 -0.1642142843906749 0.3789418502636645 0 -0.1489802686125267 0.38257497248127392 0 -0.1422681591119519 0.36289350858316322 0 -0.15552397359905151 0.35856797270850038 0 -0.1422681591119519 0.36289350858316322 0 -0.15874130784498061 0.37213542046662212 0 -0.1422681591119519 0.36289350858316322 0 -0.13774544015442541 0.3595862213862932 0 -0.12881796099468981 0.36725667352730101 0 -0.13238272395945991 0.37847398983736519 0 -0.12881796099468981 0.36725667352730101 0 -0.114951385737499 0.37611001703161828 0 -0.1422681591119519 0.36289350858316322 0 -0.13774544015442541 0.3595862213862932 0 -0.13238272395945991 0.37847398983736519 0 -0.1422681591119519 0.36289350858316322 0 -0.13238272395945991 0.37847398983736519 0 -0.1422681591119519 0.36289350858316322 0 -0.12881796099468981 0.36725667352730101 0 -0.13774544015442541 0.3595862213862932 0 -0.12881796099468981 0.36725667352730101 0 -0.13085154266849261 0.35745626259395852 0 -0.12881796099468981 0.36725667352730101 0 -0.13085154266849261 0.35745626259395852 0 -0.1223522029902982 0.35608225162756879 0 -0.13085154266849261 0.35745626259395852 0 -0.1344905665345571 0.34689990383467079 0 -0.1223522029902982 0.35608225162756879 0 -0.1344905665345571 0.34689990383467079 0 -0.1215793900664241 0.33965542352680428 0 -0.1223522029902982 0.35608225162756879 0 -0.13774544015442541 0.3595862213862932 0 -0.13085154266849261 0.35745626259395852 0 -0.1344905665345571 0.34689990383467079 0 -0.13871584827508379 0.32805163350527011 0 -0.1213981112161233 0.32606083512094008 0 -0.1215793900664241 0.33965542352680428 0 -0.1344905665345571 0.34689990383467079 0 -0.13871584827508379 0.32805163350527011 0 -0.1215793900664241 0.33965542352680428 0 -0.13871584827508379 0.32805163350527011 0 -0.122665507124936 0.30739316482981133 0 -0.1213981112161233 0.32606083512094008 0 -0.13871584827508379 0.32805163350527011 0 -0.1433184724342442 0.30536206331891741 0 -0.122665507124936 0.30739316482981133 0 -0.13871584827508379 0.32805163350527011 0 -0.1692166408361446 0.32041987865629651 0 -0.1433184724342442 0.30536206331891741 0 -0.1344905665345571 0.34689990383467079 0 -0.13871584827508379 0.32805163350527011 0 -0.15574239997404821 0.34165669361972989 0 -0.13871584827508379 0.32805163350527011 0 -0.15574239997404821 0.34165669361972989 0 -0.1692166408361446 0.32041987865629651 0 -0.15574239997404821 0.34165669361972989 0 -0.16882657531294051 0.33343050367394028 0 -0.16727942812343491 0.34541839291957183 0 -0.16882657531294051 0.33343050367394028 0 -0.1740652221397718 0.31676208059972089 0 -0.17253785706623809 0.33742704001517521 0 -0.15574239997404821 0.34165669361972989 0 -0.1692166408361446 0.32041987865629651 0 -0.15574239997404821 0.34165669361972989 0 -0.16882657531294051 0.33343050367394028 0 -0.1692166408361446 0.32041987865629651 0 -0.17253785706623809 0.33742704001517521 0 -0.17248005025835489 0.34536210115862542 0 -0.16727942812343491 0.34541839291957183 0 -0.16882657531294051 0.33343050367394028 0 -0.17253785706623809 0.33742704001517521 0 -0.16727942812343491 0.34541839291957183 0 -0.16882657531294051 0.33343050367394028 0 -0.1692166408361446 0.32041987865629651 0 -0.1740652221397718 0.31676208059972089 0 -0.18300185264204469 0.32280423575908729 0 -0.1740652221397718 0.31676208059972089 0 -0.17819295282042311 0.34345902717413063 0 -0.18300185264204469 0.32280423575908729 0 -0.1740652221397718 0.31676208059972089 0 -0.18269088169824049 0.29918306369286279 0 -0.18300185264204469 0.32280423575908729 0 -0.17819295282042311 0.34345902717413063 0 -0.18331282358584941 0.34642540782531189 0 -0.1740652221397718 0.31676208059972089 0 -0.17819295282042311 0.34345902717413063 0 -0.1740652221397718 0.31676208059972089 0 -0.17253785706623809 0.33742704001517521 0 -0.17819295282042311 0.34345902717413063 0 -0.18300185264204469 0.32280423575908729 0 -0.18331282358584941 0.34642540782531189 0 -0.17253785706623809 0.33742704001517521 0 -0.17819295282042311 0.34345902717413063 0 -0.17248005025835489 0.34536210115862542 0 -0.17819295282042311 0.34345902717413063 0 -0.17266476351591969 0.35237730914779941 0 -0.18362379452965399 0.37004657989153639 0 -0.17819295282042311 0.34345902717413063 0 -0.18331282358584941 0.34642540782531189 0 -0.18362379452965399 0.37004657989153639 0 -0.17819295282042311 0.34345902717413063 0 -0.18362379452965399 0.37004657989153639 0 -0.18331282358584941 0.34642540782531189 0 -0.18362379452965399 0.37004657989153639 0 -0.19396205315185269 0.35773027909378607 0 -0.18331282358584941 0.34642540782531189 0 -0.18362379452965399 0.37004657989153639 0 -0.17819295282042311 0.34345902717413063 0 -0.17266476351591969 0.35237730914779941 0 -0.17248005025835489 0.34536210115862542 0 -0.17266476351591969 0.35237730914779941 0 -0.16727942812343491 0.34541839291957183 0 -0.16404697378228 0.35342911006401911 0 -0.15552397359905151 0.35856797270850038 0 -0.15574239997404821 0.34165669361972989 0 -0.16404697378228 0.35342911006401911 0 -0.17266476351591969 0.35237730914779941 0 -0.17248005025835489 0.34536210115862542 0 -0.16727942812343491 0.34541839291957183 0 -0.17266476351591969 0.35237730914779941 0 -0.1697011683865553 0.35883091161224728 0 -0.16404697378228 0.35342911006401911 0 -0.1697011683865553 0.35883091161224728 0 -0.16404697378228 0.35342911006401911 0 -0.1633701090946704 0.36372338037626623 0 -0.15552397359905151 0.35856797270850038 0 -0.16404697378228 0.35342911006401911 0 -0.1633701090946704 0.36372338037626623 0 -0.15574239997404821 0.34165669361972989 0 -0.16727942812343491 0.34541839291957183 0 -0.16404697378228 0.35342911006401911 0 -0.15874130784498061 0.37213542046662212 0 -0.18362379452965399 0.37004657989153639 0 -0.15874130784498061 0.37213542046662212 0 -0.1633701090946704 0.36372338037626623 0 -0.18362379452965399 0.37004657989153639 0 -0.15552397359905151 0.35856797270850038 0 -0.15874130784498061 0.37213542046662212 0 -0.1633701090946704 0.36372338037626623 0 -0.17266476351591969 0.35237730914779941 0 -0.1697011683865553 0.35883091161224728 0 -0.18362379452965399 0.37004657989153639 0 -0.1697011683865553 0.35883091161224728 0 -0.1633701090946704 0.36372338037626623 0 -0.18362379452965399 0.37004657989153639 0 -0.1744309637910503 0.37769149803556362 0 -0.15874130784498061 0.37213542046662212 0 -0.18362379452965399 0.37004657989153639 0 -0.18374665136976759 0.37937871402705908 0 -0.18362379452965399 0.37004657989153639 0 -0.1927326532436788 0.38193994064591369 0 -0.18362379452965399 0.37004657989153639 0 -0.20402060209966261 0.36833430411321649 0 -0.18362379452965399 0.37004657989153639 0 -0.20402060209966261 0.36833430411321649 0 -0.18362379452965399 0.37004657989153639 0 -0.19396205315185269 0.35773027909378607 0 -0.20402060209966261 0.36833430411321649 0 -0.19396205315185269 0.35773027909378607 0 -0.208999317395312 0.3446492875548014 0 -0.20402060209966261 0.36833430411321649 0 -0.18331282358584941 0.34642540782531189 0 -0.19396205315185269 0.35773027909378607 0 -0.208999317395312 0.3446492875548014 0 -0.208999317395312 0.3446492875548014 0 -0.20402060209966261 0.36833430411321649 0 -0.22441740966967141 0.36662202833489849 0 -0.20402060209966261 0.36833430411321649 0 -0.22441740966967141 0.36662202833489849 0 -0.21798062289891881 0.38062313327343511 0 -0.20402060209966261 0.36833430411321649 0 -0.22441740966967141 0.36662202833489849 0 -0.208999317395312 0.3446492875548014 0 -0.23479591562654789 0.35148704487088239 0 -0.2313273246892763 0.33558392302215828 0 -0.208999317395312 0.3446492875548014 0 -0.22441740966967141 0.36662202833489849 0 -0.23479591562654789 0.35148704487088239 0 -0.25002058798003007 0.3320526588471332 0 -0.26243222306204511 0.35090504016953772 0 -0.23479591562654789 0.35148704487088239 0 -0.26243222306204511 0.35090504016953772 0 -0.23479591562654789 0.35148704487088239 0 -0.24481421723968019 0.36490975255658048 0 -0.22441740966967141 0.36662202833489849 0 -0.24481421723968019 0.36490975255658048 0 -0.24074374520667241 0.38242687998337299 0 -0.22441740966967141 0.36662202833489849 0 -0.24481421723968019 0.36490975255658048 0 -0.22441740966967141 0.36662202833489849 0 -0.23479591562654789 0.35148704487088239 0 -0.24481421723968019 0.36490975255658048 0 -0.25717133997193298 0.37426095615225607 0 -0.24074374520667241 0.38242687998337299 0 -0.24481421723968019 0.36490975255658048 0 -0.25616918259472732 0.30236015827283808 0 -0.25002058798003007 0.3320526588471332 0 -0.23403114015321011 0.31709209002172778 0 -0.25002058798003007 0.3320526588471332 0 -0.23479591562654789 0.35148704487088239 0 -0.2313273246892763 0.33558392302215828 0 -0.25002058798003007 0.3320526588471332 0 -0.2313273246892763 0.33558392302215828 0 -0.23403114015321011 0.31709209002172778 0 -0.208999317395312 0.3446492875548014 0 -0.2313273246892763 0.33558392302215828 0 -0.21850591254547599 0.32628872173457818 0 -0.23403114015321011 0.31709209002172778 0 -0.21850591254547599 0.32628872173457818 0 -0.21603293622121081 0.30879617143541382 0 -0.2313273246892763 0.33558392302215828 0 -0.23403114015321011 0.31709209002172778 0 -0.21850591254547599 0.32628872173457818 0 -0.21850591254547599 0.32628872173457818 0 -0.20213884426837089 0.32532213663878978 0 -0.21603293622121081 0.30879617143541382 0 -0.20213884426837089 0.32532213663878978 0 -0.19725183072938909 0.30509230858372249 0 -0.21603293622121081 0.30879617143541382 0 -0.208999317395312 0.3446492875548014 0 -0.21850591254547599 0.32628872173457818 0 -0.20213884426837089 0.32532213663878978 0 -0.18331282358584941 0.34642540782531189 0 -0.208999317395312 0.3446492875548014 0 -0.20213884426837089 0.32532213663878978 0 -0.18300185264204469 0.32280423575908729 0 -0.18331282358584941 0.34642540782531189 0 -0.20213884426837089 0.32532213663878978 0 -0.18300185264204469 0.32280423575908729 0 -0.20213884426837089 0.32532213663878978 0 -0.19725183072938909 0.30509230858372249 0 -0.19725183072938909 0.30509230858372249 0 -0.1906964717749009 0.28656541518329992 0 -0.18269088169824049 0.29918306369286279 0 -0.18300185264204469 0.32280423575908729 0 -0.19725183072938909 0.30509230858372249 0 -0.18269088169824049 0.29918306369286279 0 -0.19725183072938909 0.30509230858372249 0 -0.1906964717749009 0.28656541518329992 0 -0.20894999777156681 0.28788282879288141 0 -0.1906964717749009 0.28656541518329992 0 -0.20894999777156681 0.28788282879288141 0 -0.19560748054403571 0.27391850694798181 0 -0.19725183072938909 0.30509230858372249 0 -0.20894999777156681 0.28788282879288141 0 -0.21603293622121081 0.30879617143541382 0 -0.20894999777156681 0.28788282879288141 0 -0.21603293622121081 0.30879617143541382 0 -0.23010937568771669 0.29589673977315029 0 -0.23403114015321011 0.31709209002172778 0 -0.21603293622121081 0.30879617143541382 0 -0.23010937568771669 0.29589673977315029 0 -0.20894999777156681 0.28788282879288141 0 -0.23010937568771669 0.29589673977315029 0 -0.2234747025956966 0.27824585991597089 0 -0.23010937568771669 0.29589673977315029 0 -0.24190471242523851 0.27972751922608308 0 -0.2234747025956966 0.27824585991597089 0 -0.25616918259472732 0.30236015827283808 0 -0.24190471242523851 0.27972751922608308 0 -0.25616918259472732 0.30236015827283808 0 -0.23010937568771669 0.29589673977315029 0 -0.24190471242523851 0.27972751922608308 0 -0.25616918259472732 0.30236015827283808 0 -0.23403114015321011 0.31709209002172778 0 -0.23010937568771669 0.29589673977315029 0 -0.24943129659764751 0.26000894523212309 0 -0.24190471242523851 0.27972751922608308 0 -0.22764024225575111 0.25709488017932702 0 -0.22764024225575111 0.25709488017932702 0 -0.2468893326351202 0.24329134098969171 0 -0.24943129659764751 0.26000894523212309 0 -0.22764024225575111 0.25709488017932702 0 -0.2468893326351202 0.24329134098969171 0 -0.24190471242523851 0.27972751922608308 0 -0.22764024225575111 0.25709488017932702 0 -0.24190471242523851 0.27972751922608308 0 -0.2234747025956966 0.27824585991597089 0 -0.22764024225575111 0.25709488017932702 0 -0.2234747025956966 0.27824585991597089 0 -0.22764024225575111 0.25709488017932702 0 -0.20876918483820989 0.27062733160841262 0 -0.22764024225575111 0.25709488017932702 0 -0.21239874098331929 0.25437807278244762 0 -0.20876918483820989 0.27062733160841262 0 -0.22764024225575111 0.25709488017932702 0 -0.20876918483820989 0.27062733160841262 0 -0.21239874098331929 0.25437807278244762 0 -0.20876918483820989 0.27062733160841262 0 -0.2025020270240801 0.26019521754276942 0 -0.21239874098331929 0.25437807278244762 0 -0.2025020270240801 0.26019521754276942 0 -0.2046840695697589 0.2451395929661444 0 -0.20894999777156681 0.28788282879288141 0 -0.2234747025956966 0.27824585991597089 0 -0.20876918483820989 0.27062733160841262 0 -0.20894999777156681 0.28788282879288141 0 -0.20876918483820989 0.27062733160841262 0 -0.19560748054403571 0.27391850694798181 0 -0.19560748054403571 0.27391850694798181 0 -0.18940688912330481 0.25610334311205268 0 -0.18232207730982461 0.27116889680334472 0 -0.20876918483820989 0.27062733160841262 0 -0.19560748054403571 0.27391850694798181 0 -0.2025020270240801 0.26019521754276942 0 -0.1906964717749009 0.28656541518329992 0 -0.19560748054403571 0.27391850694798181 0 -0.18232207730982461 0.27116889680334472 0 -0.19560748054403571 0.27391850694798181 0 -0.2025020270240801 0.26019521754276942 0 -0.18940688912330481 0.25610334311205268 0 -0.2025020270240801 0.26019521754276942 0 -0.18940688912330481 0.25610334311205268 0 -0.2046840695697589 0.2451395929661444 0 -0.18940688912330481 0.25610334311205268 0 -0.17508206900779469 0.25918785244088571 0 -0.18195408303730121 0.23534357450296481 0 -0.18940688912330481 0.25610334311205268 0 -0.17508206900779469 0.25918785244088571 0 -0.18232207730982461 0.27116889680334472 0 -0.16225317791305921 0.25358582624422438 0 -0.1601147340924314 0.27132493958040771 0 -0.14746997276257359 0.25293699741112718 0 -0.17508206900779469 0.25918785244088571 0 -0.16225317791305921 0.25358582624422438 0 -0.1601147340924314 0.27132493958040771 0 -0.1601147340924314 0.27132493958040771 0 -0.18232207730982461 0.27116889680334472 0 -0.1715163911286523 0.28419500503467149 0 -0.17508206900779469 0.25918785244088571 0 -0.1601147340924314 0.27132493958040771 0 -0.18232207730982461 0.27116889680334472 0 -0.1906964717749009 0.28656541518329992 0 -0.18232207730982461 0.27116889680334472 0 -0.18269088169824049 0.29918306369286279 0 -0.18232207730982461 0.27116889680334472 0 -0.18269088169824049 0.29918306369286279 0 -0.1715163911286523 0.28419500503467149 0 -0.18232207730982461 0.27116889680334472 0 -0.18269088169824049 0.29918306369286279 0 -0.1906964717749009 0.28656541518329992 0 -0.18269088169824049 0.29918306369286279 0 -0.18300185264204469 0.32280423575908729 0 -0.18269088169824049 0.29918306369286279 0 -0.1692166408361446 0.32041987865629651 0 -0.18269088169824049 0.29918306369286279 0 -0.1692166408361446 0.32041987865629651 0 -0.1740652221397718 0.31676208059972089 0 -0.18269088169824049 0.29918306369286279 0 -0.1692166408361446 0.32041987865629651 0 -0.16093787141411231 0.2951031200620709 0 -0.1433184724342442 0.30536206331891741 0 -0.1692166408361446 0.32041987865629651 0 -0.18269088169824049 0.29918306369286279 0 -0.16093787141411231 0.2951031200620709 0 -0.18269088169824049 0.29918306369286279 0 -0.1715163911286523 0.28419500503467149 0 -0.16093787141411231 0.2951031200620709 0 -0.1601147340924314 0.27132493958040771 0 -0.1715163911286523 0.28419500503467149 0 -0.16093787141411231 0.2951031200620709 0 -0.1601147340924314 0.27132493958040771 0 -0.16093787141411231 0.2951031200620709 0 -0.140940242444347 0.28770890845956881 0 -0.16093787141411231 0.2951031200620709 0 -0.140940242444347 0.28770890845956881 0 -0.16093787141411231 0.2951031200620709 0 -0.140940242444347 0.28770890845956881 0 -0.1433184724342442 0.30536206331891741 0 -0.1433184724342442 0.30536206331891741 0 -0.12743472451084159 0.29349567440048657 0 -0.122665507124936 0.30739316482981133 0 -0.140940242444347 0.28770890845956881 0 -0.1433184724342442 0.30536206331891741 0 -0.12743472451084159 0.29349567440048657 0 -0.140940242444347 0.28770890845956881 0 -0.1209426134745812 0.28031469685706822 0 -0.140940242444347 0.28770890845956881 0 -0.12743472451084159 0.29349567440048657 0 -0.1209426134745812 0.28031469685706822 0 -0.140940242444347 0.28770890845956881 0 -0.12748957136376979 0.2697364722205553 0 -0.1209426134745812 0.28031469685706822 0 -0.140940242444347 0.28770890845956881 0 -0.1385418352730507 0.26582091200169278 0 -0.12748957136376979 0.2697364722205553 0 -0.1385418352730507 0.26582091200169278 0 -0.1252623291810667 0.25912953992318971 0 -0.13357218109292621 0.2499317644564327 0 -0.1385418352730507 0.26582091200169278 0 -0.14746997276257359 0.25293699741112718 0 -0.13357218109292621 0.2499317644564327 0 -0.1385418352730507 0.26582091200169278 0 -0.12748957136376979 0.2697364722205553 0 -0.1252623291810667 0.25912953992318971 0 -0.1252623291810667 0.25912953992318971 0 -0.13357218109292621 0.2499317644564327 0 -0.1213089330464012 0.24626659804535689 0 -0.1601147340924314 0.27132493958040771 0 -0.1385418352730507 0.26582091200169278 0 -0.14746997276257359 0.25293699741112718 0 -0.1601147340924314 0.27132493958040771 0 -0.140940242444347 0.28770890845956881 0 -0.1385418352730507 0.26582091200169278 0 -0.095230237001734636 0.27080743213428882 0 -0.101831548476812 0.26048951589785008 0 -0.1165241005361865 0.26558405137515151 0 -0.095230237001734636 0.27080743213428882 0 -0.1209426134745812 0.28031469685706822 0 -0.095230237001734636 0.27080743213428882 0 -0.101831548476812 0.26048951589785008 0 -0.101831548476812 0.26048951589785008 0 -0.112097455783086 0.24444379951602521 0 -0.096974545082976191 0.25880538532589209 0 -0.101831548476812 0.26048951589785008 0 -0.112097455783086 0.24444379951602521 0 -0.095230237001734636 0.27080743213428882 0 -0.096974545082976191 0.25880538532589209 0 -0.101831548476812 0.26048951589785008 0 -0.096974545082976191 0.25880538532589209 0 -0.101831548476812 0.26048951589785008 0 -0.101831548476812 0.26048951589785008 0 -0.1165241005361865 0.26558405137515151 0 -0.101831548476812 0.26048951589785008 0 -0.11521273165378559 0.25497892835963998 0 -0.112097455783086 0.24444379951602521 0 -0.101831548476812 0.26048951589785008 0 -0.1165241005361865 0.26558405137515151 0 -0.11521273165378559 0.25497892835963998 0 -0.1252623291810667 0.25912953992318971 0 -0.11521273165378559 0.25497892835963998 0 -0.1213089330464012 0.24626659804535689 0 -0.12748957136376979 0.2697364722205553 0 -0.1252623291810667 0.25912953992318971 0 -0.1165241005361865 0.26558405137515151 0 -0.1252623291810667 0.25912953992318971 0 -0.1165241005361865 0.26558405137515151 0 -0.11521273165378559 0.25497892835963998 0 -0.12748957136376979 0.2697364722205553 0 -0.1165241005361865 0.26558405137515151 0 -0.11826192468166601 0.27279143104315778 0 -0.095230237001734636 0.27080743213428882 0 -0.1165241005361865 0.26558405137515151 0 -0.11826192468166601 0.27279143104315778 0 -0.095230237001734636 0.27080743213428882 0 -0.11826192468166601 0.27279143104315778 0 -0.1209426134745812 0.28031469685706822 0 -0.12748957136376979 0.2697364722205553 0 -0.11826192468166601 0.27279143104315778 0 -0.1209426134745812 0.28031469685706822 0 -0.1209426134745812 0.28031469685706822 0 -0.099156256926613839 0.29556062278638268 0 -0.12743472451084159 0.29349567440048657 0 -0.1209426134745812 0.28031469685706822 0 -0.099156256926613839 0.29556062278638268 0 -0.12743472451084159 0.29349567440048657 0 -0.122665507124936 0.30739316482981133 0 -0.099156256926613839 0.29556062278638268 0 -0.1041414057358224 0.31201579539373148 0 -0.099156256926613839 0.29556062278638268 0 -0.091673901452025128 0.31746800270450398 0 -0.122665507124936 0.30739316482981133 0 -0.1041414057358224 0.31201579539373148 0 -0.099156256926613839 0.29556062278638268 0 -0.095230237001734636 0.27080743213428882 0 -0.1209426134745812 0.28031469685706822 0 -0.099156256926613839 0.29556062278638268 0 -0.081993310338176556 0.29149688165626692 0 -0.071574905525993715 0.28647654560898889 0 -0.088307373389434785 0.26824767274871397 0 -0.095230237001734636 0.27080743213428882 0 -0.099156256926613839 0.29556062278638268 0 -0.081993310338176556 0.29149688165626692 0 -0.099156256926613839 0.29556062278638268 0 -0.0773699003786468 0.31080654871569757 0 -0.091673901452025128 0.31746800270450398 0 -0.099156256926613839 0.29556062278638268 0 -0.0773699003786468 0.31080654871569757 0 -0.081993310338176556 0.29149688165626692 0 -0.0773699003786468 0.31080654871569757 0 -0.099156256926613839 0.29556062278638268 0 -0.081993310338176556 0.29149688165626692 0 -0.0773699003786468 0.31080654871569757 0 -0.081993310338176556 0.29149688165626692 0 -0.0773699003786468 0.31080654871569757 0 -0.07000108740115632 0.31024084673351238 0 -0.081993310338176556 0.29149688165626692 0 -0.07000108740115632 0.31024084673351238 0 -0.07082691849754412 0.29686868922251758 0 -0.081993310338176556 0.29149688165626692 0 -0.07000108740115632 0.31024084673351238 0 -0.06406362287003417 0.30105685935529619 0 -0.07000108740115632 0.31024084673351238 0 -0.07082691849754412 0.29686868922251758 0 -0.06406362287003417 0.30105685935529619 0 -0.07000108740115632 0.31024084673351238 0 -0.05903493703298672 0.30842013861035528 0 -0.081993310338176556 0.29149688165626692 0 -0.071574905525993715 0.28647654560898889 0 -0.07082691849754412 0.29686868922251758 0 -0.071574905525993715 0.28647654560898889 0 -0.07082691849754412 0.29686868922251758 0 -0.064150197611200194 0.29028153745804169 0 -0.06406362287003417 0.30105685935529619 0 -0.07082691849754412 0.29686868922251758 0 -0.064150197611200194 0.29028153745804169 0 -0.071574905525993715 0.28647654560898889 0 -0.064150197611200194 0.29028153745804169 0 -0.066272470786091969 0.27951596978905408 0 -0.066272470786091969 0.27951596978905408 0 -0.064867048676514966 0.26815492676469338 0 -0.075116873927680253 0.27479103085629453 0 -0.066272470786091969 0.27951596978905408 0 -0.064867048676514966 0.26815492676469338 0 -0.056753075498150757 0.28085207326825551 0 -0.064867048676514966 0.26815492676469338 0 -0.075116873927680253 0.27479103085629453 0 -0.074399806026204385 0.26466482186588819 0 -0.075116873927680253 0.27479103085629453 0 -0.079975847673146208 0.26885948770409202 0 -0.074399806026204385 0.26466482186588819 0 -0.071574905525993715 0.28647654560898889 0 -0.066272470786091969 0.27951596978905408 0 -0.075116873927680253 0.27479103085629453 0 -0.095230237001734636 0.27080743213428882 0 -0.081993310338176556 0.29149688165626692 0 -0.095230237001734636 0.27080743213428882 0 -0.081993310338176556 0.29149688165626692 0 -0.088307373389434785 0.26824767274871397 0 -0.071574905525993715 0.28647654560898889 0 -0.088307373389434785 0.26824767274871397 0 -0.071574905525993715 0.28647654560898889 0 -0.075116873927680253 0.27479103085629453 0 -0.088307373389434785 0.26824767274871397 0 -0.079975847673146208 0.26885948770409202 0 -0.084329260359261832 0.26677674789216088 0 -0.074399806026204385 0.26466482186588819 0 -0.075116873927680253 0.27479103085629453 0 -0.079975847673146208 0.26885948770409202 0 -0.088307373389434785 0.26824767274871397 0 -0.079975847673146208 0.26885948770409202 0 -0.084329260359261832 0.26677674789216088 0 -0.088307373389434785 0.26824767274871397 0 -0.095230237001734636 0.27080743213428882 0 -0.096974545082976191 0.25880538532589209 0 -0.088307373389434785 0.26824767274871397 0 -0.084329260359261832 0.26677674789216088 0 -0.088307373389434785 0.26824767274871397 0 -0.095230237001734636 0.27080743213428882 0 -0.088307373389434785 0.26824767274871397 0 -0.096974545082976191 0.25880538532589209 0 -0.073553522625709841 0.25068431627396631 0 -0.088715331182393942 0.2449718195011524 0 -0.096974545082976191 0.25880538532589209 0 -0.084329260359261832 0.26677674789216088 0 -0.073553522625709841 0.25068431627396631 0 -0.096974545082976191 0.25880538532589209 0 -0.073553522625709841 0.25068431627396631 0 -0.096974545082976191 0.25880538532589209 0 -0.088307373389434785 0.26824767274871397 0 -0.096974545082976191 0.25880538532589209 0 -0.084329260359261832 0.26677674789216088 0 -0.088307373389434785 0.26824767274871397 0 -0.084329260359261832 0.26677674789216088 0 -0.073553522625709841 0.25068431627396631 0 -0.074399806026204385 0.26466482186588819 0 -0.064867048676514966 0.26815492676469338 0 -0.073553522625709841 0.25068431627396631 0 -0.050450936449665702 0.26047062327699849 0 -0.064867048676514966 0.26815492676469338 0 -0.073553522625709841 0.25068431627396631 0 -0.074399806026204385 0.26466482186588819 0 -0.073553522625709841 0.25068431627396631 0 -0.050450936449665702 0.26047062327699849 0 -0.050132500168443887 0.2425632472220397 0 -0.064867048676514966 0.26815492676469338 0 -0.050450936449665702 0.26047062327699849 0 -0.056753075498150757 0.28085207326825551 0 -0.050450936449665702 0.26047062327699849 0 -0.056753075498150757 0.28085207326825551 0 -0.041567118232982071 0.28155035039042642 0 -0.050450936449665702 0.26047062327699849 0 -0.032664289439585513 0.26886008103247921 0 -0.041567118232982071 0.28155035039042642 0 -0.032664289439585513 0.26886008103247921 0 -0.025724023578003428 0.28484302527062832 0 -0.041567118232982071 0.28155035039042642 0 -0.050450936449665702 0.26047062327699849 0 -0.032664289439585513 0.26886008103247921 0 -0.029881977245259539 0.25372898958001938 0 -0.050450936449665702 0.26047062327699849 0 -0.029881977245259539 0.25372898958001938 0 -0.050132500168443887 0.2425632472220397 0 -0.029881977245259539 0.25372898958001938 0 -0.019473314891880141 0.26767922737850353 0 -0.0082457657602449386 0.25246627485226031 0 -0.032664289439585513 0.26886008103247921 0 -0.029881977245259539 0.25372898958001938 0 -0.019473314891880141 0.26767922737850353 0 -0.019473314891880141 0.26767922737850353 0 -0.0042610585373493576 0.2771562680236046 0 -0.025724023578003428 0.28484302527062832 0 -0.032664289439585513 0.26886008103247921 0 -0.019473314891880141 0.26767922737850353 0 -0.025724023578003428 0.28484302527062832 0 -0.019473314891880141 0.26767922737850353 0 -0.0042610585373493576 0.2771562680236046 0 -0.0082457657602449386 0.25246627485226031 0 -0.0042610585373493576 0.2771562680236046 0 -0.0082457657602449386 0.25246627485226031 0 0.0071094060709509964 0.26564087220093879 0 -0.0069555348311276686 0.31079851600377723 0 -0.00058836015198596755 0.32088344941533808 0 0.0054341821912287152 0.30403492879740468 0 -0.013098506886936411 0.29875518722530359 0 -0.0069555348311276686 0.31079851600377723 0 0.0054341821912287152 0.30403492879740468 0 -0.013098506886936411 0.29875518722530359 0 -0.0069555348311276686 0.31079851600377723 0 -0.020687787070248039 0.31403805852116051 0 -0.0042610585373493576 0.2771562680236046 0 -0.013098506886936411 0.29875518722530359 0 -0.025724023578003428 0.28484302527062832 0 -0.0042610585373493576 0.2771562680236046 0 -0.013098506886936411 0.29875518722530359 0 0.0054341821912287152 0.30403492879740468 0 -0.013098506886936411 0.29875518722530359 0 -0.025724023578003428 0.28484302527062832 0 -0.02904570801181227 0.30414560716861699 0 -0.013098506886936411 0.29875518722530359 0 -0.02904570801181227 0.30414560716861699 0 -0.020687787070248039 0.31403805852116051 0 -0.02904570801181227 0.30414560716861699 0 -0.034308890996313193 0.31619803717231232 0 -0.020687787070248039 0.31403805852116051 0 -0.02904570801181227 0.30414560716861699 0 -0.04581664775108537 0.30961879620062571 0 -0.039958169045478269 0.29575445567546388 0 -0.02904570801181227 0.30414560716861699 0 -0.04581664775108537 0.30961879620062571 0 -0.034308890996313193 0.31619803717231232 0 -0.025724023578003428 0.28484302527062832 0 -0.02904570801181227 0.30414560716861699 0 -0.039958169045478269 0.29575445567546388 0 -0.025724023578003428 0.28484302527062832 0 -0.039958169045478269 0.29575445567546388 0 -0.041567118232982071 0.28155035039042642 0 -0.039958169045478269 0.29575445567546388 0 -0.041567118232982071 0.28155035039042642 0 -0.055410192489386563 0.29691908750413831 0 -0.056753075498150757 0.28085207326825551 0 -0.041567118232982071 0.28155035039042642 0 -0.055410192489386563 0.29691908750413831 0 -0.064150197611200194 0.29028153745804169 0 -0.056753075498150757 0.28085207326825551 0 -0.055410192489386563 0.29691908750413831 0 -0.06406362287003417 0.30105685935529619 0 -0.064150197611200194 0.29028153745804169 0 -0.055410192489386563 0.29691908750413831 0 -0.064150197611200194 0.29028153745804169 0 -0.066272470786091969 0.27951596978905408 0 -0.056753075498150757 0.28085207326825551 0 -0.04581664775108537 0.30961879620062571 0 -0.055410192489386563 0.29691908750413831 0 -0.05903493703298672 0.30842013861035528 0 -0.04581664775108537 0.30961879620062571 0 -0.039958169045478269 0.29575445567546388 0 -0.055410192489386563 0.29691908750413831 0 -0.06406362287003417 0.30105685935529619 0 -0.055410192489386563 0.29691908750413831 0 -0.05903493703298672 0.30842013861035528 0 -0.04581664775108537 0.30961879620062571 0 -0.05999398685661865 0.32296608029812152 0 -0.042756171354298787 0.3224483405388896 0 -0.05999398685661865 0.32296608029812152 0 -0.04261807333459134 0.33512561188054663 0 -0.042756171354298787 0.3224483405388896 0 -0.04581664775108537 0.30961879620062571 0 -0.05903493703298672 0.30842013861035528 0 -0.05999398685661865 0.32296608029812152 0 -0.05999398685661865 0.32296608029812152 0 -0.056804034856699187 0.33429177223338907 0 -0.04261807333459134 0.33512561188054663 0 -0.056804034856699187 0.33429177223338907 0 -0.046192251460743447 0.34598703554363702 0 -0.071259793987160716 0.33632540193228971 0 -0.046192251460743447 0.34598703554363702 0 -0.071259793987160716 0.33632540193228971 0 -0.05999398685661865 0.32296608029812152 0 -0.04261807333459134 0.33512561188054663 0 -0.05999398685661865 0.32296608029812152 0 -0.056804034856699187 0.33429177223338907 0 -0.064831017760781137 0.32924814232959693 0 -0.056804034856699187 0.33429177223338907 0 -0.04261807333459134 0.33512561188054663 0 -0.046192251460743447 0.34598703554363702 0 -0.04261807333459134 0.33512561188054663 0 -0.034276320251641283 0.34282206612864702 0 -0.046192251460743447 0.34598703554363702 0 -0.04261807333459134 0.33512561188054663 0 -0.034276320251641283 0.34282206612864702 0 -0.031043257832885369 0.32833317714284199 0 -0.04261807333459134 0.33512561188054663 0 -0.042756171354298787 0.3224483405388896 0 -0.031043257832885369 0.32833317714284199 0 -0.04581664775108537 0.30961879620062571 0 -0.042756171354298787 0.3224483405388896 0 -0.034308890996313193 0.31619803717231232 0 -0.042756171354298787 0.3224483405388896 0 -0.034308890996313193 0.31619803717231232 0 -0.031043257832885369 0.32833317714284199 0 -0.020687787070248039 0.31403805852116051 0 -0.031043257832885369 0.32833317714284199 0 -0.01426308592107553 0.32709781564023149 0 -0.034308890996313193 0.31619803717231232 0 -0.020687787070248039 0.31403805852116051 0 -0.031043257832885369 0.32833317714284199 0 -0.025032962324117471 0.33875149869244531 0 -0.01426308592107553 0.32709781564023149 0 -0.014716180493599089 0.34442071988127893 0 -0.031043257832885369 0.32833317714284199 0 -0.025032962324117471 0.33875149869244531 0 -0.01426308592107553 0.32709781564023149 0 -0.034276320251641283 0.34282206612864702 0 -0.025032962324117471 0.33875149869244531 0 -0.023787543000920942 0.34541073846433867 0 -0.034276320251641283 0.34282206612864702 0 -0.031043257832885369 0.32833317714284199 0 -0.025032962324117471 0.33875149869244531 0 -0.025032962324117471 0.33875149869244531 0 -0.014716180493599089 0.34442071988127893 0 -0.023787543000920942 0.34541073846433867 0 -0.0025616559074486049 0.3329031852911295 0 -0.01426308592107553 0.32709781564023149 0 -0.014716180493599089 0.34442071988127893 0 -0.0025616559074486049 0.3329031852911295 0 -0.002583240235104544 0.34489224502179239 0 -0.014716180493599089 0.34442071988127893 0 -0.0069555348311276686 0.31079851600377723 0 -0.020687787070248039 0.31403805852116051 0 -0.01426308592107553 0.32709781564023149 0 -0.0025616559074486049 0.3329031852911295 0 -0.00058836015198596755 0.32088344941533808 0 -0.01426308592107553 0.32709781564023149 0 -0.0069555348311276686 0.31079851600377723 0 -0.00058836015198596755 0.32088344941533808 0 -0.01426308592107553 0.32709781564023149 0 -0.012102714267097759 0.36590539057294968 0 -0.001064505034491721 0.37161458349227261 0 0.0039428335920915006 0.36531030276633031 0 -0.021124708934325921 0.35564866915498361 0 0.0039428335920915006 0.36531030276633031 0 -0.001064505034491721 0.37161458349227261 0 -0.017677659244944521 0.37122807787390621 0 -0.017803283764421592 0.37921609746689411 0 -0.012102714267097759 0.36590539057294968 0 -0.001064505034491721 0.37161458349227261 0 -0.017677659244944521 0.37122807787390621 0 -0.012102714267097759 0.36590539057294968 0 -0.021124708934325921 0.35564866915498361 0 0.0039428335920915006 0.36531030276633031 0 -0.0064988099748367559 0.35299106404641623 0 -0.021124708934325921 0.35564866915498361 0 0.0039428335920915006 0.36531030276633031 0 -0.0064988099748367559 0.35299106404641623 0 -0.002583240235104544 0.34489224502179239 0 0.0032447233134405931 0.35422125060834359 0 -0.0064988099748367559 0.35299106404641623 0 -0.002583240235104544 0.34489224502179239 0 -0.014716180493599089 0.34442071988127893 0 -0.0064988099748367559 0.35299106404641623 0 -0.014716180493599089 0.34442071988127893 0 -0.021124708934325921 0.35564866915498361 0 -0.021124708934325921 0.35564866915498361 0 -0.03312405361854439 0.36059385714354403 0 -0.039104805720823227 0.35618275869992938 0 -0.014716180493599089 0.34442071988127893 0 -0.021124708934325921 0.35564866915498361 0 -0.023787543000920942 0.34541073846433867 0 -0.034276320251641283 0.34282206612864702 0 -0.021124708934325921 0.35564866915498361 0 -0.023787543000920942 0.34541073846433867 0 -0.021124708934325921 0.35564866915498361 0 -0.0246585823330631 0.36616539344166837 0 -0.03312405361854439 0.36059385714354403 0 -0.0246585823330631 0.36616539344166837 0 -0.033447590357386023 0.36570071259042941 0 -0.03312405361854439 0.36059385714354403 0 -0.012102714267097759 0.36590539057294968 0 -0.021124708934325921 0.35564866915498361 0 -0.0246585823330631 0.36616539344166837 0 -0.017677659244944521 0.37122807787390621 0 -0.032897312064139907 0.37411907212457252 0 -0.017803283764421592 0.37921609746689411 0 -0.012102714267097759 0.36590539057294968 0 -0.0246585823330631 0.36616539344166837 0 -0.017677659244944521 0.37122807787390621 0 -0.0246585823330631 0.36616539344166837 0 -0.017677659244944521 0.37122807787390621 0 -0.032897312064139907 0.37411907212457252 0 -0.0246585823330631 0.36616539344166837 0 -0.032897312064139907 0.37411907212457252 0 -0.0246585823330631 0.36616539344166837 0 -0.032897312064139907 0.37411907212457252 0 -0.033447590357386023 0.36570071259042941 0 -0.032897312064139907 0.37411907212457252 0 -0.059723517795068168 0.36506026769318489 0 -0.032897312064139907 0.37411907212457252 0 -0.033447590357386023 0.36570071259042941 0 -0.04311041341379776 0.36192452765193173 0 -0.032897312064139907 0.37411907212457252 0 -0.046925961112427347 0.36446589286881009 0 -0.059723517795068168 0.36506026769318489 0 -0.032897312064139907 0.37411907212457252 0 -0.049098878804771373 0.3725140996878949 0 -0.043775979817191349 0.37615739516056462 0 -0.03312405361854439 0.36059385714354403 0 -0.04311041341379776 0.36192452765193173 0 -0.039104805720823227 0.35618275869992938 0 -0.033447590357386023 0.36570071259042941 0 -0.03312405361854439 0.36059385714354403 0 -0.04311041341379776 0.36192452765193173 0 -0.032897312064139907 0.37411907212457252 0 -0.04311041341379776 0.36192452765193173 0 -0.046925961112427347 0.36446589286881009 0 -0.034276320251641283 0.34282206612864702 0 -0.021124708934325921 0.35564866915498361 0 -0.046192251460743447 0.34598703554363702 0 -0.021124708934325921 0.35564866915498361 0 -0.039104805720823227 0.35618275869992938 0 -0.046192251460743447 0.34598703554363702 0 -0.021124708934325921 0.35564866915498361 0 -0.046192251460743447 0.34598703554363702 0 -0.039104805720823227 0.35618275869992938 0 -0.046192251460743447 0.34598703554363702 0 -0.051972601176704672 0.35675970400555063 0 -0.04311041341379776 0.36192452765193173 0 -0.039104805720823227 0.35618275869992938 0 -0.051972601176704672 0.35675970400555063 0 -0.046192251460743447 0.34598703554363702 0 -0.066911938965716039 0.35448421406914471 0 -0.071259793987160716 0.33632540193228971 0 -0.046192251460743447 0.34598703554363702 0 -0.051972601176704672 0.35675970400555063 0 -0.066911938965716039 0.35448421406914471 0 -0.051972601176704672 0.35675970400555063 0 -0.059723517795068168 0.36506026769318489 0 -0.066911938965716039 0.35448421406914471 0 -0.032897312064139907 0.37411907212457252 0 -0.049098878804771373 0.3725140996878949 0 -0.059723517795068168 0.36506026769318489 0 -0.049098878804771373 0.3725140996878949 0 -0.056089193364373929 0.37273715424054699 0 -0.050724207312953518 0.37700173675436199 0 -0.051972601176704672 0.35675970400555063 0 -0.046925961112427347 0.36446589286881009 0 -0.059723517795068168 0.36506026769318489 0 -0.04311041341379776 0.36192452765193173 0 -0.051972601176704672 0.35675970400555063 0 -0.046925961112427347 0.36446589286881009 0 -0.049098878804771373 0.3725140996878949 0 -0.059723517795068168 0.36506026769318489 0 -0.056089193364373929 0.37273715424054699 0 -0.059723517795068168 0.36506026769318489 0 -0.056089193364373929 0.37273715424054699 0 -0.062564083944274151 0.37264302620600032 0 -0.062075486208271788 0.37468365416042188 0 -0.062564083944274151 0.37264302620600032 0 -0.062075486208271788 0.37468365416042188 0 -0.062564083944274151 0.37264302620600032 0 -0.064607287490063475 0.3752877934920828 0 -0.069626031180744216 0.37451783031500979 0 -0.079039419043354958 0.3748493973737258 0 -0.082597891671162132 0.35089307241393791 0 -0.062564083944274151 0.37264302620600032 0 -0.066911938965716039 0.35448421406914471 0 -0.062564083944274151 0.37264302620600032 0 -0.069626031180744216 0.37451783031500979 0 -0.064607287490063475 0.3752877934920828 0 -0.062564083944274151 0.37264302620600032 0 -0.069626031180744216 0.37451783031500979 0 -0.082597891671162132 0.35089307241393791 0 -0.062564083944274151 0.37264302620600032 0 -0.082597891671162132 0.35089307241393791 0 -0.059723517795068168 0.36506026769318489 0 -0.062564083944274151 0.37264302620600032 0 -0.066911938965716039 0.35448421406914471 0 -0.090941745129797052 0.36956363188929697 0 -0.082597891671162132 0.35089307241393791 0 -0.097939085056313616 0.35825468271447503 0 -0.079039419043354958 0.3748493973737258 0 -0.090941745129797052 0.36956363188929697 0 -0.082597891671162132 0.35089307241393791 0 -0.082597891671162132 0.35089307241393791 0 -0.097939085056313616 0.35825468271447503 0 -0.099795521962392192 0.34663223796478099 0 -0.066911938965716039 0.35448421406914471 0 -0.071259793987160716 0.33632540193228971 0 -0.082597891671162132 0.35089307241393791 0 -0.066911938965716039 0.35448421406914471 0 -0.079003984513522238 0.34200566120660753 0 -0.066911938965716039 0.35448421406914471 0 -0.071259793987160716 0.33632540193228971 0 -0.079003984513522238 0.34200566120660753 0 -0.062564083944274151 0.37264302620600032 0 -0.082597891671162132 0.35089307241393791 0 -0.066911938965716039 0.35448421406914471 0 -0.056804034856699187 0.33429177223338907 0 -0.064831017760781137 0.32924814232959693 0 -0.071259793987160716 0.33632540193228971 0 -0.071259793987160716 0.33632540193228971 0 -0.079659291821908368 0.33308803351003258 0 -0.071259793987160716 0.33632540193228971 0 -0.079003984513522238 0.34200566120660753 0 -0.079659291821908368 0.33308803351003258 0 -0.0773699003786468 0.31080654871569757 0 -0.07000108740115632 0.31024084673351238 0 -0.05999398685661865 0.32296608029812152 0 -0.0773699003786468 0.31080654871569757 0 -0.071259793987160716 0.33632540193228971 0 -0.0773699003786468 0.31080654871569757 0 -0.071259793987160716 0.33632540193228971 0 -0.079659291821908368 0.33308803351003258 0 -0.0773699003786468 0.31080654871569757 0 -0.05999398685661865 0.32296608029812152 0 -0.0773699003786468 0.31080654871569757 0 -0.064831017760781137 0.32924814232959693 0 -0.071259793987160716 0.33632540193228971 0 -0.0773699003786468 0.31080654871569757 0 -0.05999398685661865 0.32296608029812152 0 -0.064831017760781137 0.32924814232959693 0 -0.07000108740115632 0.31024084673351238 0 -0.05903493703298672 0.30842013861035528 0 -0.05999398685661865 0.32296608029812152 0 -0.091673901452025128 0.31746800270450398 0 -0.079659291821908368 0.33308803351003258 0 -0.1026316993980491 0.32914311862187462 0 -0.0773699003786468 0.31080654871569757 0 -0.091673901452025128 0.31746800270450398 0 -0.079659291821908368 0.33308803351003258 0 -0.082597891671162132 0.35089307241393791 0 -0.1026316993980491 0.32914311862187462 0 -0.082597891671162132 0.35089307241393791 0 -0.079003984513522238 0.34200566120660753 0 -0.1026316993980491 0.32914311862187462 0 -0.079003984513522238 0.34200566120660753 0 -0.079659291821908368 0.33308803351003258 0 -0.1026316993980491 0.32914311862187462 0 -0.082597891671162132 0.35089307241393791 0 -0.1026316993980491 0.32914311862187462 0 -0.099795521962392192 0.34663223796478099 0 -0.1026316993980491 0.32914311862187462 0 -0.11309959964963499 0.35023802862820708 0 -0.099795521962392192 0.34663223796478099 0 -0.1041414057358224 0.31201579539373148 0 -0.091673901452025128 0.31746800270450398 0 -0.1026316993980491 0.32914311862187462 0 -0.122665507124936 0.30739316482981133 0 -0.1041414057358224 0.31201579539373148 0 -0.1026316993980491 0.32914311862187462 0 -0.122665507124936 0.30739316482981133 0 -0.1026316993980491 0.32914311862187462 0 -0.1213981112161233 0.32606083512094008 0 -0.122665507124936 0.30739316482981133 0 -0.1026316993980491 0.32914311862187462 0 -0.1026316993980491 0.32914311862187462 0 -0.1215793900664241 0.33965542352680428 0 -0.11309959964963499 0.35023802862820708 0 -0.1026316993980491 0.32914311862187462 0 -0.1213981112161233 0.32606083512094008 0 -0.1215793900664241 0.33965542352680428 0 -0.1215793900664241 0.33965542352680428 0 -0.11309959964963499 0.35023802862820708 0 -0.1223522029902982 0.35608225162756879 0 -0.11309959964963499 0.35023802862820708 0 -0.1223522029902982 0.35608225162756879 0 -0.1091573093543224 0.361674516205302 0 -0.12881796099468981 0.36725667352730101 0 -0.1223522029902982 0.35608225162756879 0 -0.11881971476920231 0.36528086459794751 0 -0.12881796099468981 0.36725667352730101 0 -0.11881971476920231 0.36528086459794751 0 -0.114951385737499 0.37611001703161828 0 -0.11881971476920231 0.36528086459794751 0 -0.1091573093543224 0.361674516205302 0 -0.114951385737499 0.37611001703161828 0 -0.1223522029902982 0.35608225162756879 0 -0.11881971476920231 0.36528086459794751 0 -0.1091573093543224 0.361674516205302 0 -0.1091573093543224 0.361674516205302 0 -0.1012990589455684 0.36953412384373102 0 -0.097939085056313616 0.35825468271447503 0 -0.1091573093543224 0.361674516205302 0 -0.1012990589455684 0.36953412384373102 0 -0.114951385737499 0.37611001703161828 0 -0.090941745129797052 0.36956363188929697 0 -0.1012990589455684 0.36953412384373102 0 -0.098890550417286477 0.38099249480062602 0 -0.090941745129797052 0.36956363188929697 0 -0.1012990589455684 0.36953412384373102 0 -0.097939085056313616 0.35825468271447503 0 -0.11309959964963499 0.35023802862820708 0 -0.097939085056313616 0.35825468271447503 0 -0.099795521962392192 0.34663223796478099 0 -0.11309959964963499 0.35023802862820708 0 -0.1091573093543224 0.361674516205302 0 -0.097939085056313616 0.35825468271447503 0 -0.094424665366596924 0.39634464281418252 0 -0.11202845405726 0.40531330452479791 0 -0.098926296137628822 0.41605616341005208 0 -0.1085605322944487 0.39079571404043828 0 -0.094424665366596924 0.39634464281418252 0 -0.11202845405726 0.40531330452479791 0 -0.1085605322944487 0.39079571404043828 0 -0.098890550417286477 0.38099249480062602 0 -0.114951385737499 0.37611001703161828 0 -0.1085605322944487 0.39079571404043828 0 -0.094424665366596924 0.39634464281418252 0 -0.098890550417286477 0.38099249480062602 0 -0.1012990589455684 0.36953412384373102 0 -0.098890550417286477 0.38099249480062602 0 -0.114951385737499 0.37611001703161828 0 -0.1085605322944487 0.39079571404043828 0 -0.114951385737499 0.37611001703161828 0 -0.1224972888069677 0.39405447109156733 0 -0.13238272395945991 0.37847398983736519 0 -0.114951385737499 0.37611001703161828 0 -0.1224972888069677 0.39405447109156733 0 -0.1277268958593005 0.40709158096490278 0 -0.1224972888069677 0.39405447109156733 0 -0.11202845405726 0.40531330452479791 0 -0.1085605322944487 0.39079571404043828 0 -0.1224972888069677 0.39405447109156733 0 -0.11202845405726 0.40531330452479791 0 -0.11202845405726 0.40531330452479791 0 -0.12025274126089 0.42574105579372712 0 -0.098926296137628822 0.41605616341005208 0 -0.12025274126089 0.42574105579372712 0 -0.098926296137628822 0.41605616341005208 0 -0.1277268958593005 0.40709158096490278 0 -0.11202845405726 0.40531330452479791 0 -0.12025274126089 0.42574105579372712 0 -0.12025274126089 0.42574105579372712 0 -0.1161249595423428 0.42742254588607831 0 -0.098926296137628822 0.41605616341005208 0 -0.12509104342100061 0.44188941827772182 0 -0.1161249595423428 0.42742254588607831 0 -0.098677616465060528 0.43762344985591101 0 -0.1161249595423428 0.42742254588607831 0 -0.090695480784097504 0.41727281212483158 0 -0.1161249595423428 0.42742254588607831 0 -0.090695480784097504 0.41727281212483158 0 -0.098677616465060528 0.43762344985591101 0 -0.1161249595423428 0.42742254588607831 0 -0.098926296137628822 0.41605616341005208 0 -0.090695480784097504 0.41727281212483158 0 -0.098926296137628822 0.41605616341005208 0 -0.077599851014367602 0.40637127102637732 0 -0.094424665366596924 0.39634464281418252 0 -0.098926296137628822 0.41605616341005208 0 -0.077599851014367602 0.40637127102637732 0 -0.098926296137628822 0.41605616341005208 0 -0.090695480784097504 0.41727281212483158 0 -0.077599851014367602 0.40637127102637732 0 -0.090695480784097504 0.41727281212483158 0 -0.077599851014367602 0.40637127102637732 0 -0.077475511178084946 0.4171549142493044 0 -0.077475511178084946 0.4171549142493044 0 -0.098677616465060528 0.43762344985591101 0 -0.090695480784097504 0.41727281212483158 0 -0.077475511178084946 0.4171549142493044 0 -0.098677616465060528 0.43762344985591101 0 -0.077475511178084946 0.4171549142493044 0 -0.078698858269308614 0.44343419105434712 0 -0.098677616465060528 0.43762344985591101 0 -0.077475511178084946 0.4171549142493044 0 -0.059178928229814701 0.4365201208845606 0 -0.055106871557328428 0.42305161159228227 0 -0.077475511178084946 0.4171549142493044 0 -0.059178928229814701 0.4365201208845606 0 -0.078698858269308614 0.44343419105434712 0 -0.077475511178084946 0.4171549142493044 0 -0.056273405891107527 0.39668637864269979 0 -0.077599851014367602 0.40637127102637732 0 -0.077475511178084946 0.4171549142493044 0 -0.056273405891107527 0.39668637864269979 0 -0.077599851014367602 0.40637127102637732 0 -0.056273405891107527 0.39668637864269979 0 -0.077599851014367602 0.40637127102637732 0 -0.078331801269405671 0.3911923311589619 0 -0.056273405891107527 0.39668637864269979 0 -0.094424665366596924 0.39634464281418252 0 -0.077599851014367602 0.40637127102637732 0 -0.078331801269405671 0.3911923311589619 0 -0.094424665366596924 0.39634464281418252 0 -0.078331801269405671 0.3911923311589619 0 -0.087166581823546807 0.38268142547449258 0 -0.079039419043354958 0.3748493973737258 0 -0.078331801269405671 0.3911923311589619 0 -0.087166581823546807 0.38268142547449258 0 -0.090941745129797052 0.36956363188929697 0 -0.098890550417286477 0.38099249480062602 0 -0.087166581823546807 0.38268142547449258 0 -0.094424665366596924 0.39634464281418252 0 -0.098890550417286477 0.38099249480062602 0 -0.087166581823546807 0.38268142547449258 0 -0.079039419043354958 0.3748493973737258 0 -0.090941745129797052 0.36956363188929697 0 -0.087166581823546807 0.38268142547449258 0 -0.078331801269405671 0.3911923311589619 0 -0.070241768304658683 0.38125320512289401 0 -0.062400115896225239 0.38328565763688038 0 -0.078331801269405671 0.3911923311589619 0 -0.047880784994249512 0.38858413326022379 0 -0.069626031180744216 0.37451783031500979 0 -0.079039419043354958 0.3748493973737258 0 -0.070241768304658683 0.38125320512289401 0 -0.078331801269405671 0.3911923311589619 0 -0.062400115896225239 0.38328565763688038 0 -0.047880784994249512 0.38858413326022379 0 -0.079039419043354958 0.3748493973737258 0 -0.078331801269405671 0.3911923311589619 0 -0.070241768304658683 0.38125320512289401 0 -0.070241768304658683 0.38125320512289401 0 -0.064210651178174066 0.37904237845721811 0 -0.062400115896225239 0.38328565763688038 0 -0.069626031180744216 0.37451783031500979 0 -0.070241768304658683 0.38125320512289401 0 -0.064210651178174066 0.37904237845721811 0 -0.069626031180744216 0.37451783031500979 0 -0.064210651178174066 0.37904237845721811 0 -0.064607287490063475 0.3752877934920828 0 -0.062075486208271788 0.37468365416042188 0 -0.064210651178174066 0.37904237845721811 0 -0.064607287490063475 0.3752877934920828 0 -0.062075486208271788 0.37468365416042188 0 -0.064210651178174066 0.37904237845721811 0 -0.059083848751135488 0.37840884602566088 0 -0.059083848751135488 0.37840884602566088 0 -0.062400115896225239 0.38328565763688038 0 -0.054293362626053041 0.38162223819359442 0 -0.062075486208271788 0.37468365416042188 0 -0.062564083944274151 0.37264302620600032 0 -0.059083848751135488 0.37840884602566088 0 -0.062564083944274151 0.37264302620600032 0 -0.054293362626053041 0.38162223819359442 0 -0.062564083944274151 0.37264302620600032 0 -0.059083848751135488 0.37840884602566088 0 -0.054293362626053041 0.38162223819359442 0 -0.056089193364373929 0.37273715424054699 0 -0.062564083944274151 0.37264302620600032 0 -0.054293362626053041 0.38162223819359442 0 -0.059083848751135488 0.37840884602566088 0 -0.054293362626053041 0.38162223819359442 0 -0.064210651178174066 0.37904237845721811 0 -0.059083848751135488 0.37840884602566088 0 -0.062400115896225239 0.38328565763688038 0 -0.062400115896225239 0.38328565763688038 0 -0.047880784994249512 0.38858413326022379 0 -0.054293362626053041 0.38162223819359442 0 -0.047880784994249512 0.38858413326022379 0 -0.054293362626053041 0.38162223819359442 0 -0.047880784994249512 0.38858413326022379 0 -0.054293362626053041 0.38162223819359442 0 -0.046254793771615982 0.3870143995575549 0 -0.047836657145122599 0.38128015361824008 0 -0.054293362626053041 0.38162223819359442 0 -0.046254793771615982 0.3870143995575549 0 -0.054293362626053041 0.38162223819359442 0 -0.046254793771615982 0.3870143995575549 0 -0.047880784994249512 0.38858413326022379 0 -0.046254793771615982 0.3870143995575549 0 -0.056089193364373929 0.37273715424054699 0 -0.050724207312953518 0.37700173675436199 0 -0.054293362626053041 0.38162223819359442 0 -0.049098878804771373 0.3725140996878949 0 -0.050724207312953518 0.37700173675436199 0 -0.043775979817191349 0.37615739516056462 0 -0.047836657145122599 0.38128015361824008 0 -0.050724207312953518 0.37700173675436199 0 -0.043775979817191349 0.37615739516056462 0 -0.047836657145122599 0.38128015361824008 0 -0.050724207312953518 0.37700173675436199 0 -0.054293362626053041 0.38162223819359442 0 -0.078331801269405671 0.3911923311589619 0 -0.047880784994249512 0.38858413326022379 0 -0.056273405891107527 0.39668637864269979 0 -0.047880784994249512 0.38858413326022379 0 -0.056273405891107527 0.39668637864269979 0 -0.045094078598563243 0.39160955589403151 0 -0.056273405891107527 0.39668637864269979 0 -0.048342871606355781 0.40097934792702961 0 -0.045094078598563243 0.39160955589403151 0 -0.047880784994249512 0.38858413326022379 0 -0.056273405891107527 0.39668637864269979 0 -0.056273405891107527 0.39668637864269979 0 -0.045094078598563243 0.39160955589403151 0 -0.056273405891107527 0.39668637864269979 0 -0.048342871606355781 0.40097934792702961 0 -0.051161828253680347 0.40954535298997258 0 -0.04342775431262437 0.39341862168501102 0 -0.028839939204686131 0.40925606551247828 0 -0.042973684961738069 0.41592643291826231 0 -0.048342871606355781 0.40097934792702961 0 -0.04342775431262437 0.39341862168501102 0 -0.042973684961738069 0.41592643291826231 0 -0.041701311968281377 0.39006881248802111 0 -0.02243782954129785 0.40299049140363558 0 -0.041701311968281377 0.39006881248802111 0 -0.03457878247319518 0.38683428693719679 0 -0.02243782954129785 0.40299049140363558 0 -0.04342775431262437 0.39341862168501102 0 -0.041701311968281377 0.39006881248802111 0 -0.02243782954129785 0.40299049140363558 0 -0.04342775431262437 0.39341862168501102 0 -0.028839939204686131 0.40925606551247828 0 -0.04342775431262437 0.39341862168501102 0 -0.042973684961738069 0.41592643291826231 0 -0.04342775431262437 0.39341862168501102 0 -0.02243782954129785 0.40299049140363558 0 -0.028839939204686131 0.40925606551247828 0 -0.048342871606355781 0.40097934792702961 0 -0.04342775431262437 0.39341862168501102 0 -0.045094078598563243 0.39160955589403151 0 -0.04342775431262437 0.39341862168501102 0 -0.045094078598563243 0.39160955589403151 0 -0.043479046219812342 0.39087612776318198 0 -0.04342775431262437 0.39341862168501102 0 -0.043479046219812342 0.39087612776318198 0 -0.045094078598563243 0.39160955589403151 0 -0.043479046219812342 0.39087612776318198 0 -0.045094078598563243 0.39160955589403151 0 -0.043479046219812342 0.39087612776318198 0 -0.045172553619539632 0.38973569244798251 0 -0.04342775431262437 0.39341862168501102 0 -0.045094078598563243 0.39160955589403151 0 -0.04342775431262437 0.39341862168501102 0 -0.043479046219812342 0.39087612776318198 0 -0.041701311968281377 0.39006881248802111 0 -0.047836657145122599 0.38128015361824008 0 -0.043775979817191349 0.37615739516056462 0 -0.043608491196287617 0.38445965616034072 0 -0.043775979817191349 0.37615739516056462 0 -0.043608491196287617 0.38445965616034072 0 -0.032897312064139907 0.37411907212457252 0 -0.043775979817191349 0.37615739516056462 0 -0.043608491196287617 0.38445965616034072 0 -0.047836657145122599 0.38128015361824008 0 -0.043608491196287617 0.38445965616034072 0 -0.046254793771615982 0.3870143995575549 0 -0.043542573639619581 0.38772713043400647 0 -0.041701311968281377 0.39006881248802111 0 -0.03457878247319518 0.38683428693719679 0 -0.043608491196287617 0.38445965616034072 0 -0.043542573639619581 0.38772713043400647 0 -0.03457878247319518 0.38683428693719679 0 -0.043608491196287617 0.38445965616034072 0 -0.046254793771615982 0.3870143995575549 0 -0.043608491196287617 0.38445965616034072 0 -0.046254793771615982 0.3870143995575549 0 -0.043542573639619581 0.38772713043400647 0 -0.043608491196287617 0.38445965616034072 0 -0.043542573639619581 0.38772713043400647 0 -0.047880784994249512 0.38858413326022379 0 -0.045094078598563243 0.39160955589403151 0 -0.047880784994249512 0.38858413326022379 0 -0.045094078598563243 0.39160955589403151 0 -0.045172553619539632 0.38973569244798251 0 -0.047880784994249512 0.38858413326022379 0 -0.045172553619539632 0.38973569244798251 0 -0.046254793771615982 0.3870143995575549 0 -0.045172553619539632 0.38973569244798251 0 -0.046254793771615982 0.3870143995575549 0 -0.043542573639619581 0.38772713043400647 0 -0.046254793771615982 0.3870143995575549 0 -0.043542573639619581 0.38772713043400647 0 -0.043479046219812342 0.39087612776318198 0 -0.045172553619539632 0.38973569244798251 0 -0.043542573639619581 0.38772713043400647 0 -0.043479046219812342 0.39087612776318198 0 -0.043542573639619581 0.38772713043400647 0 -0.043542573639619581 0.38772713043400647 0 -0.041701311968281377 0.39006881248802111 0 -0.043479046219812342 0.39087612776318198 0 -0.043542573639619581 0.38772713043400647 0 -0.041701311968281377 0.39006881248802111 0 -0.043479046219812342 0.39087612776318198 0 -0.041701311968281377 0.39006881248802111 0 -0.043542573639619581 0.38772713043400647 0 -0.03457878247319518 0.38683428693719679 0 -0.041701311968281377 0.39006881248802111 0 -0.03457878247319518 0.38683428693719679 0 -0.032897312064139907 0.37411907212457252 0 -0.043608491196287617 0.38445965616034072 0 -0.032897312064139907 0.37411907212457252 0 -0.043608491196287617 0.38445965616034072 0 -0.03457878247319518 0.38683428693719679 0 -0.03457878247319518 0.38683428693719679 0 -0.017803283764421592 0.37921609746689411 0 -0.03457878247319518 0.38683428693719679 0 -0.017803283764421592 0.37921609746689411 0 -0.019390911734903489 0.38532149046890818 0 -0.032897312064139907 0.37411907212457252 0 -0.017803283764421592 0.37921609746689411 0 -0.032897312064139907 0.37411907212457252 0 -0.03457878247319518 0.38683428693719679 0 -0.017803283764421592 0.37921609746689411 0 -0.03457878247319518 0.38683428693719679 0 -0.019390911734903489 0.38532149046890818 0 -0.019390911734903489 0.38532149046890818 0 -0.02243782954129785 0.40299049140363558 0 -0.0064316016559190746 0.3999483233353413 0 -0.03457878247319518 0.38683428693719679 0 -0.019390911734903489 0.38532149046890818 0 -0.02243782954129785 0.40299049140363558 0 -0.0064316016559190746 0.3999483233353413 0 -0.0042030409966118051 0.38380869400061962 0 0.010437450069317761 0.40463061763750507 0 -0.001064505034491721 0.37161458349227261 0 -0.017803283764421592 0.37921609746689411 0 -0.001064505034491721 0.37161458349227261 0 -0.017803283764421592 0.37921609746689411 0 -0.0042030409966118051 0.38380869400061962 0 -0.019390911734903489 0.38532149046890818 0 -0.0064316016559190746 0.3999483233353413 0 -0.0042030409966118051 0.38380869400061962 0 -0.017803283764421592 0.37921609746689411 0 -0.0042030409966118051 0.38380869400061962 0 -0.017803283764421592 0.37921609746689411 0 -0.019390911734903489 0.38532149046890818 0 -0.0042030409966118051 0.38380869400061962 0 -0.019390911734903489 0.38532149046890818 0 -0.0042030409966118051 0.38380869400061962 0 -0.014252124096747171 0.42509350933994478 0 0.0048617880261327502 0.44584476697033082 0 -0.014252124096747171 0.42509350933994478 0 -0.010454900682288101 0.44126855924159908 0 0.0048617880261327502 0.44584476697033082 0 -0.014252124096747171 0.42509350933994478 0 -0.0026301228576318379 0.42717885202372191 0 0.0048617880261327502 0.44584476697033082 0 -0.014252124096747171 0.42509350933994478 0 -0.0026301228576318379 0.42717885202372191 0 -0.003174347114314008 0.41591217031924949 0 -0.02243782954129785 0.40299049140363558 0 -0.0064316016559190746 0.3999483233353413 0 -0.003174347114314008 0.41591217031924949 0 -0.02243782954129785 0.40299049140363558 0 -0.003174347114314008 0.41591217031924949 0 -0.02243782954129785 0.40299049140363558 0 -0.014252124096747171 0.42509350933994478 0 -0.003174347114314008 0.41591217031924949 0 -0.014252124096747171 0.42509350933994478 0 -0.003174347114314008 0.41591217031924949 0 -0.014252124096747171 0.42509350933994478 0 -0.028839939204686131 0.40925606551247828 0 -0.02243782954129785 0.40299049140363558 0 -0.014252124096747171 0.42509350933994478 0 -0.028839939204686131 0.40925606551247828 0 -0.014252124096747171 0.42509350933994478 0 -0.028839939204686131 0.40925606551247828 0 -0.022470349574322469 0.43190483207895858 0 -0.014252124096747171 0.42509350933994478 0 -0.022470349574322469 0.43190483207895858 0 -0.010454900682288101 0.44126855924159908 0 -0.014252124096747171 0.42509350933994478 0 -0.022470349574322469 0.43190483207895858 0 -0.022470349574322469 0.43190483207895858 0 -0.010454900682288101 0.44126855924159908 0 -0.022470349574322469 0.43190483207895858 0 -0.042646571141636773 0.43214117214318359 0 -0.04231945732153318 0.44835591136810488 0 -0.022470349574322469 0.43190483207895858 0 -0.042646571141636773 0.43214117214318359 0 -0.042973684961738069 0.41592643291826231 0 -0.042646571141636773 0.43214117214318359 0 -0.042973684961738069 0.41592643291826231 0 -0.022470349574322469 0.43190483207895858 0 -0.042973684961738069 0.41592643291826231 0 -0.028839939204686131 0.40925606551247828 0 -0.022470349574322469 0.43190483207895858 0 -0.042973684961738069 0.41592643291826231 0 -0.077475511178084946 0.4171549142493044 0 -0.051161828253680347 0.40954535298997258 0 -0.055106871557328428 0.42305161159228227 0 -0.077475511178084946 0.4171549142493044 0 -0.056273405891107527 0.39668637864269979 0 -0.051161828253680347 0.40954535298997258 0 -0.048342871606355781 0.40097934792702961 0 -0.042973684961738069 0.41592643291826231 0 -0.051161828253680347 0.40954535298997258 0 -0.042973684961738069 0.41592643291826231 0 -0.051161828253680347 0.40954535298997258 0 -0.042973684961738069 0.41592643291826231 0 -0.051161828253680347 0.40954535298997258 0 -0.055106871557328428 0.42305161159228227 0 -0.042646571141636773 0.43214117214318359 0 -0.059178928229814701 0.4365201208845606 0 -0.055106871557328428 0.42305161159228227 0 -0.042646571141636773 0.43214117214318359 0 -0.042973684961738069 0.41592643291826231 0 -0.055106871557328428 0.42305161159228227 0 -0.042646571141636773 0.43214117214318359 0 -0.059178928229814701 0.4365201208845606 0 -0.049245987713513212 0.44319563894678482 0 -0.059178928229814701 0.4365201208845606 0 -0.050742244958162368 0.46439359559444437 0 -0.049245987713513212 0.44319563894678482 0 -0.050742244958162368 0.46439359559444437 0 -0.044608833217136261 0.45025336211807931 0 -0.059178928229814701 0.4365201208845606 0 -0.050742244958162368 0.46439359559444437 0 -0.065484051744298263 0.4513847118260722 0 -0.059178928229814701 0.4365201208845606 0 -0.049245987713513212 0.44319563894678482 0 -0.050742244958162368 0.46439359559444437 0 -0.050742244958162368 0.46439359559444437 0 -0.061707257777874093 0.47273252787991399 0 -0.073231504917427276 0.46237159316971249 0 -0.050742244958162368 0.46439359559444437 0 -0.073231504917427276 0.46237159316971249 0 -0.0419800222431604 0.46518140433549732 0 -0.04231945732153318 0.44835591136810488 0 -0.025697431038521311 0.45487791879973932 0 -0.0419800222431604 0.46518140433549732 0 -0.04231945732153318 0.44835591136810488 0 -0.0419800222431604 0.46518140433549732 0 -0.044608833217136261 0.45025336211807931 0 -0.04231945732153318 0.44835591136810488 0 -0.050742244958162368 0.46439359559444437 0 -0.0419800222431604 0.46518140433549732 0 -0.050742244958162368 0.46439359559444437 0 -0.0419800222431604 0.46518140433549732 0 -0.044608833217136261 0.45025336211807931 0 -0.022470349574322469 0.43190483207895858 0 -0.04231945732153318 0.44835591136810488 0 -0.042646571141636773 0.43214117214318359 0 -0.049245987713513212 0.44319563894678482 0 -0.04231945732153318 0.44835591136810488 0 -0.042646571141636773 0.43214117214318359 0 -0.04231945732153318 0.44835591136810488 0 -0.049245987713513212 0.44319563894678482 0 -0.044608833217136261 0.45025336211807931 0 -0.04231945732153318 0.44835591136810488 0 -0.044608833217136261 0.45025336211807931 0 -0.04231945732153318 0.44835591136810488 0 -0.022470349574322469 0.43190483207895858 0 -0.04231945732153318 0.44835591136810488 0 -0.022362297003099281 0.44511471557515531 0 -0.04231945732153318 0.44835591136810488 0 -0.022362297003099281 0.44511471557515531 0 -0.025697431038521311 0.45487791879973932 0 -0.022470349574322469 0.43190483207895858 0 -0.022362297003099281 0.44511471557515531 0 -0.010454900682288101 0.44126855924159908 0 -0.022362297003099281 0.44511471557515531 0 -0.025697431038521311 0.45487791879973932 0 -0.01311544116488466 0.453963754661173 0 -0.0419800222431604 0.46518140433549732 0 -0.025697431038521311 0.45487791879973932 0 -0.01345201465746383 0.46774634869629322 0 -0.0419800222431604 0.46518140433549732 0 -0.01345201465746383 0.46774634869629322 0 -0.025697431038521311 0.45487791879973932 0 -0.01311544116488466 0.453963754661173 0 -0.01345201465746383 0.46774634869629322 0 -0.0094095992007081283 0.46654139838691122 0 -0.010427957625441169 0.46801824073108461 0 0.0053167838454733218 0.46943384557929257 0 -0.0094095992007081283 0.46654139838691122 0 0.0015605482097463411 0.45063228640423969 0 -0.010427957625441169 0.46801824073108461 0 0.0053167838454733218 0.46943384557929257 0 -0.0094095992007081283 0.46654139838691122 0 0.0080738590363113663 0.46132998490476868 0 -0.01311544116488466 0.453963754661173 0 -0.0094095992007081283 0.46654139838691122 0 0.0015605482097463411 0.45063228640423969 0 -0.01311544116488466 0.453963754661173 0 -0.01345201465746383 0.46774634869629322 0 -0.0094095992007081283 0.46654139838691122 0 -0.01345201465746383 0.46774634869629322 0 -0.010427957625441169 0.46801824073108461 0 -0.01345201465746383 0.46774634869629322 0 -0.0094095992007081283 0.46654139838691122 0 -0.01345201465746383 0.46774634869629322 0 -0.0094095992007081283 0.46654139838691122 0 -0.010427957625441169 0.46801824073108461 0 -0.0094095992007081283 0.46654139838691122 0 -0.010427957625441169 0.46801824073108461 0 -0.01311544116488466 0.453963754661173 0 -0.010454900682288101 0.44126855924159908 0 0.0015605482097463411 0.45063228640423969 0 -0.010454900682288101 0.44126855924159908 0 0.0048617880261327502 0.44584476697033082 0 0.0015605482097463411 0.45063228640423969 0 -0.010454900682288101 0.44126855924159908 0 0.0015605482097463411 0.45063228640423969 0 -0.022362297003099281 0.44511471557515531 0 -0.01311544116488466 0.453963754661173 0 -0.010454900682288101 0.44126855924159908 0 -0.0067005321321746969 0.5 0 -0.003880604538310756 0.48346324919380129 0 -0.021454488019086362 0.48400912036554289 0 -0.01345201465746383 0.46774634869629322 0 -0.010427957625441169 0.46801824073108461 0 -0.021454488019086362 0.48400912036554289 0 -0.010427957625441169 0.46801824073108461 0 -0.003880604538310756 0.48346324919380129 0 -0.021454488019086362 0.48400912036554289 0 -0.010427957625441169 0.46801824073108461 0 -0.001026908195020756 0.47486914558720472 0 0.0053167838454733218 0.46943384557929257 0 -0.010427957625441169 0.46801824073108461 0 -0.003880604538310756 0.48346324919380129 0 -0.001026908195020756 0.47486914558720472 0 -0.010427957625441169 0.46801824073108461 0 -0.021454488019086362 0.48400912036554289 0 -0.01345201465746383 0.46774634869629322 0 -0.021454488019086362 0.48400912036554289 0 -0.032447842195153342 0.48378293317924542 0 -0.01345201465746383 0.46774634869629322 0 -0.032447842195153342 0.48378293317924542 0 -0.041758062999807367 0.47618372532725728 0 -0.01345201465746383 0.46774634869629322 0 -0.041758062999807367 0.47618372532725728 0 -0.021454488019086362 0.48400912036554289 0 -0.032481018412731863 0.50000000000000089 0 -0.033555046977316587 0.49207813668870121 0 -0.021454488019086362 0.48400912036554289 0 -0.032481018412731863 0.50000000000000089 0 -0.021454488019086362 0.48400912036554289 0 -0.033555046977316587 0.49207813668870121 0 -0.032447842195153342 0.48378293317924542 0 -0.0067005321321746969 0.5 0 -0.021454488019086362 0.48400912036554289 0 -0.032481018412731863 0.50000000000000089 0 -0.033555046977316587 0.49207813668870121 0 -0.039964975186860582 0.49999999999999872 0 -0.042139887415076342 0.49281443204190178 0 -0.032481018412731863 0.50000000000000089 0 -0.033555046977316587 0.49207813668870121 0 -0.039964975186860582 0.49999999999999872 0 -0.042139887415076342 0.49281443204190178 0 -0.041758062999807367 0.47618372532725728 0 -0.033555046977316587 0.49207813668870121 0 -0.042139887415076342 0.49281443204190178 0 -0.032447842195153342 0.48378293317924542 0 -0.042139887415076342 0.49281443204190178 0 -0.046725468384182907 0.47766439368476649 0 -0.039964975186860582 0.49999999999999872 0 -0.042139887415076342 0.49281443204190178 0 -0.053580454847170257 0.49193017513362319 0 -0.039964975186860582 0.49999999999999872 0 -0.042139887415076342 0.49281443204190178 0 -0.042139887415076342 0.49281443204190178 0 -0.046725468384182907 0.47766439368476649 0 -0.041758062999807367 0.47618372532725728 0 -0.0419800222431604 0.46518140433549732 0 -0.01345201465746383 0.46774634869629322 0 -0.041758062999807367 0.47618372532725728 0 -0.042139887415076342 0.49281443204190178 0 -0.032447842195153342 0.48378293317924542 0 -0.041758062999807367 0.47618372532725728 0 -0.046725468384182907 0.47766439368476649 0 -0.041758062999807367 0.47618372532725728 0 -0.0419800222431604 0.46518140433549732 0 -0.046725468384182907 0.47766439368476649 0 -0.041758062999807367 0.47618372532725728 0 -0.050742244958162368 0.46439359559444437 0 -0.0419800222431604 0.46518140433549732 0 -0.046725468384182907 0.47766439368476649 0 -0.0419800222431604 0.46518140433549732 0 -0.041758062999807367 0.47618372532725728 0 -0.046725468384182907 0.47766439368476649 0 -0.061707257777874093 0.47273252787991399 0 -0.071702929972361051 0.48510959578984503 0 -0.046725468384182907 0.47766439368476649 0 -0.071702929972361051 0.48510959578984503 0 -0.050742244958162368 0.46439359559444437 0 -0.046725468384182907 0.47766439368476649 0 -0.061707257777874093 0.47273252787991399 0 -0.050742244958162368 0.46439359559444437 0 -0.046725468384182907 0.47766439368476649 0 -0.046725468384182907 0.47766439368476649 0 -0.053580454847170257 0.49193017513362319 0 -0.071702929972361051 0.48510959578984503 0 -0.039964975186860582 0.49999999999999872 0 -0.053580454847170257 0.49193017513362319 0 -0.067195934507479516 0.5 0 -0.042139887415076342 0.49281443204190178 0 -0.046725468384182907 0.47766439368476649 0 -0.053580454847170257 0.49193017513362319 0 -0.053580454847170257 0.49193017513362319 0 -0.067195934507479516 0.5 0 -0.071702929972361051 0.48510959578984503 0 -0.067195934507479516 0.5 0 -0.071702929972361051 0.48510959578984503 0 -0.094426893828098324 0.5 0 -0.071702929972361051 0.48510959578984503 0 -0.096680391560538939 0.49255479789492401 0 -0.071702929972361051 0.48510959578984503 0 -0.094426893828098324 0.5 0 -0.096680391560538939 0.49255479789492401 0 -0.071702929972361051 0.48510959578984503 0 -0.094342239683345888 0.46564946071770819 0 -0.096680391560538939 0.49255479789492401 0 -0.071702929972361051 0.48510959578984503 0 -0.073231504917427276 0.46237159316971249 0 -0.094342239683345888 0.46564946071770819 0 -0.061707257777874093 0.47273252787991399 0 -0.071702929972361051 0.48510959578984503 0 -0.073231504917427276 0.46237159316971249 0 -0.050742244958162368 0.46439359559444437 0 -0.073231504917427276 0.46237159316971249 0 -0.065484051744298263 0.4513847118260722 0 -0.059178928229814701 0.4365201208845606 0 -0.065484051744298263 0.4513847118260722 0 -0.078698858269308614 0.44343419105434712 0 -0.073231504917427276 0.46237159316971249 0 -0.065484051744298263 0.4513847118260722 0 -0.078698858269308614 0.44343419105434712 0 -0.078698858269308614 0.44343419105434712 0 -0.094342239683345888 0.46564946071770819 0 -0.098677616465060528 0.43762344985591101 0 -0.073231504917427276 0.46237159316971249 0 -0.078698858269308614 0.44343419105434712 0 -0.094342239683345888 0.46564946071770819 0 -0.094342239683345888 0.46564946071770819 0 -0.098677616465060528 0.43762344985591101 0 -0.11987972175203609 0.45809198546251739 0 -0.098677616465060528 0.43762344985591101 0 -0.11987972175203609 0.45809198546251739 0 -0.12509104342100061 0.44188941827772182 0 -0.098677616465060528 0.43762344985591101 0 -0.11987972175203609 0.45809198546251739 0 -0.094342239683345888 0.46564946071770819 0 -0.11987972175203609 0.45809198546251739 0 -0.1215246548466888 0.48036061179670092 0 -0.1215246548466888 0.48036061179670092 0 -0.1216578531487173 0.50000000000000155 0 -0.096680391560538939 0.49255479789492401 0 -0.1216578531487173 0.50000000000000155 0 -0.094426893828098324 0.5 0 -0.096680391560538939 0.49255479789492401 0 -0.1216578531487173 0.50000000000000155 0 -0.096680391560538939 0.49255479789492401 0 -0.094342239683345888 0.46564946071770819 0 -0.1215246548466888 0.48036061179670092 0 -0.096680391560538939 0.49255479789492401 0 -0.16310986573530631 0.084156321085019567 0 -0.17544541039362899 0.09436804860009354 0 -0.15783765240444911 0.096274401630791262 0 -0.16310986573530631 0.084156321085019567 0 -0.15783765240444911 0.096274401630791262 0 -0.16310986573530631 0.084156321085019567 0 -0.1657815390990264 0.070802932860687437 0 -0.15463431661472629 0.07014553381523804 0 -0.16310986573530631 0.084156321085019567 0 -0.1657815390990264 0.070802932860687437 0 -0.17966236107341149 0.074300518116336353 0 -0.1657815390990264 0.070802932860687437 0 -0.17966236107341149 0.074300518116336353 0 -0.1657196129726615 0.054609358426155781 0 -0.1657815390990264 0.070802932860687437 0 -0.15463431661472629 0.07014553381523804 0 -0.1657196129726615 0.054609358426155781 0 -0.17966236107341149 0.074300518116336353 0 -0.1657196129726615 0.054609358426155781 0 -0.19326118210642521 0.060262893486061127 0 -0.17966236107341149 0.074300518116336353 0 -0.1657196129726615 0.054609358426155781 0 -0.16310986573530631 0.084156321085019567 0 -0.17966236107341149 0.074300518116336353 0 -0.17544541039362899 0.09436804860009354 0 -0.17966236107341149 0.074300518116336353 0 -0.17544541039362899 0.09436804860009354 0 -0.19360510917416149 0.093991677806516877 0 -0.17966236107341149 0.074300518116336353 0 -0.19360510917416149 0.093991677806516877 0 -0.17544541039362899 0.09436804860009354 0 -0.18934336527218601 0.1087413065502997 0 -0.19360510917416149 0.093991677806516877 0 -0.17544541039362899 0.09436804860009354 0 -0.16911410870225951 0.1087440664115976 0 -0.18934336527218601 0.1087413065502997 0 -0.18039056500006781 0.12121373119240569 0 -0.16911410870225951 0.1087440664115976 0 -0.18934336527218601 0.1087413065502997 0 -0.18039056500006781 0.12121373119240569 0 -0.16911410870225951 0.1087440664115976 0 -0.18039056500006781 0.12121373119240569 0 -0.16911410870225951 0.1087440664115976 0 -0.15507510040999009 0.1056512286087255 0 -0.18039056500006781 0.12121373119240569 0 -0.15507510040999009 0.1056512286087255 0 -0.1628447509754036 0.1248738178506951 0 -0.15507510040999009 0.1056512286087255 0 -0.15358711882774939 0.11801712706942639 0 -0.18039056500006781 0.12121373119240569 0 -0.1628447509754036 0.1248738178506951 0 -0.15507510040999009 0.1056512286087255 0 -0.17544541039362899 0.09436804860009354 0 -0.16911410870225951 0.1087440664115976 0 -0.15783765240444911 0.096274401630791262 0 -0.16911410870225951 0.1087440664115976 0 -0.15783765240444911 0.096274401630791262 0 -0.16911410870225951 0.1087440664115976 0 -0.15783765240444911 0.096274401630791262 0 -0.15507510040999009 0.1056512286087255 0 -0.15783765240444911 0.096274401630791262 0 -0.14455303356647331 0.096744639073681929 0 -0.15139402388202119 0.11108495737684999 0 -0.14455303356647331 0.096744639073681929 0 -0.15139402388202119 0.11108495737684999 0 -0.12991930243541749 0.1020465165188278 0 -0.15783765240444911 0.096274401630791262 0 -0.15507510040999009 0.1056512286087255 0 -0.15139402388202119 0.11108495737684999 0 -0.15783765240444911 0.096274401630791262 0 -0.15139402388202119 0.11108495737684999 0 -0.15139402388202119 0.11108495737684999 0 -0.12991930243541749 0.1020465165188278 0 -0.14495039535959489 0.12589551312290931 0 -0.1628447509754036 0.1248738178506951 0 -0.15358711882774939 0.11801712706942639 0 -0.14495039535959489 0.12589551312290931 0 -0.15358711882774939 0.11801712706942639 0 -0.15139402388202119 0.11108495737684999 0 -0.14495039535959489 0.12589551312290931 0 -0.15507510040999009 0.1056512286087255 0 -0.15358711882774939 0.11801712706942639 0 -0.15139402388202119 0.11108495737684999 0 -0.15139402388202119 0.11108495737684999 0 -0.14495039535959489 0.12589551312290931 0 -0.12991930243541749 0.1020465165188278 0 -0.14495039535959489 0.12589551312290931 0 -0.12991930243541749 0.1020465165188278 0 -0.14495039535959489 0.12589551312290931 0 -0.13028426483969929 0.13221647237215789 0 -0.14455303356647331 0.096744639073681929 0 -0.12991930243541749 0.1020465165188278 0 -0.13683438329036771 0.088098653177494879 0 -0.12991930243541749 0.1020465165188278 0 -0.13683438329036771 0.088098653177494879 0 -0.1248370695698198 0.083226530136874921 0 -0.13683438329036771 0.088098653177494879 0 -0.13729578978526799 0.073558919561796721 0 -0.1248370695698198 0.083226530136874921 0 -0.13683438329036771 0.088098653177494879 0 -0.14756672109485969 0.08491666059629295 0 -0.13729578978526799 0.073558919561796721 0 -0.14455303356647331 0.096744639073681929 0 -0.13683438329036771 0.088098653177494879 0 -0.14756672109485969 0.08491666059629295 0 -0.14756672109485969 0.08491666059629295 0 -0.13729578978526799 0.073558919561796721 0 -0.16310986573530631 0.084156321085019567 0 -0.14756672109485969 0.08491666059629295 0 -0.15463431661472629 0.07014553381523804 0 -0.16310986573530631 0.084156321085019567 0 -0.15783765240444911 0.096274401630791262 0 -0.14756672109485969 0.08491666059629295 0 -0.15783765240444911 0.096274401630791262 0 -0.14756672109485969 0.08491666059629295 0 -0.15783765240444911 0.096274401630791262 0 -0.14455303356647331 0.096744639073681929 0 -0.14756672109485969 0.08491666059629295 0 -0.14756672109485969 0.08491666059629295 0 -0.15463431661472629 0.07014553381523804 0 -0.13729578978526799 0.073558919561796721 0 -0.15463431661472629 0.07014553381523804 0 -0.13729578978526799 0.073558919561796721 0 -0.14428807100988511 0.057223156242914672 0 -0.13729578978526799 0.073558919561796721 0 -0.1311901693420546 0.060374133793646992 0 -0.14428807100988511 0.057223156242914672 0 -0.13729578978526799 0.073558919561796721 0 -0.12498233095038511 0.069533312171706482 0 -0.1248370695698198 0.083226530136874921 0 -0.13729578978526799 0.073558919561796721 0 -0.1311901693420546 0.060374133793646992 0 -0.12498233095038511 0.069533312171706482 0 -0.1311901693420546 0.060374133793646992 0 -0.1304591025064194 0.044551821316570157 0 -0.1169815729820268 0.057446916627697332 0 -0.1311901693420546 0.060374133793646992 0 -0.1304591025064194 0.044551821316570157 0 -0.14428807100988511 0.057223156242914672 0 -0.1304591025064194 0.044551821316570157 0 -0.1338093633065561 0.031702984145267947 0 -0.14718764802187309 0.041237794311798179 0 -0.1304591025064194 0.044551821316570157 0 -0.1338093633065561 0.031702984145267947 0 -0.120950474974805 0.030974477430810402 0 -0.14718764802187309 0.041237794311798179 0 -0.14507935476777459 0.024735833563247479 0 -0.16332082262574071 0.033969476032413119 0 -0.1338093633065561 0.031702984145267947 0 -0.14718764802187309 0.041237794311798179 0 -0.14507935476777459 0.024735833563247479 0 -0.1304591025064194 0.044551821316570157 0 -0.14718764802187309 0.041237794311798179 0 -0.14428807100988511 0.057223156242914672 0 -0.15463431661472629 0.07014553381523804 0 -0.14428807100988511 0.057223156242914672 0 -0.1657196129726615 0.054609358426155781 0 -0.14718764802187309 0.041237794311798179 0 -0.14428807100988511 0.057223156242914672 0 -0.1657196129726615 0.054609358426155781 0 -0.1273771369441013 0.0023450629401116992 0 -0.12537023626190849 0.01701499410391356 0 -0.14358534871595791 0.0085390787577918573 0 -0.14275634286812811 -0.006203461430080404 0 -0.1273771369441013 0.0023450629401116992 0 -0.14358534871595791 0.0085390787577918573 0 -0.1338093633065561 0.031702984145267947 0 -0.12537023626190849 0.01701499410391356 0 -0.14507935476777459 0.024735833563247479 0 -0.12537023626190849 0.01701499410391356 0 -0.14507935476777459 0.024735833563247479 0 -0.14358534871595791 0.0085390787577918573 0 -0.1338093633065561 0.031702984145267947 0 -0.12537023626190849 0.01701499410391356 0 -0.120950474974805 0.030974477430810402 0 -0.14507935476777459 0.024735833563247479 0 -0.14358534871595791 0.0085390787577918573 0 -0.1631610812614456 0.0141265482177085 0 -0.15796117991031841 -0.00029962151665172479 0 -0.14358534871595791 0.0085390787577918573 0 -0.1631610812614456 0.0141265482177085 0 -0.14275634286812811 -0.006203461430080404 0 -0.15796117991031841 -0.00029962151665172479 0 -0.14358534871595791 0.0085390787577918573 0 -0.15796117991031841 -0.00029962151665172479 0 -0.17967452986780849 -0.0030086181600807401 0 -0.1631610812614456 0.0141265482177085 0 -0.1631610812614456 0.0141265482177085 0 -0.18063081477410151 0.02444866588981499 0 -0.16332082262574071 0.033969476032413119 0 -0.14507935476777459 0.024735833563247479 0 -0.1631610812614456 0.0141265482177085 0 -0.16332082262574071 0.033969476032413119 0 -0.17967452986780849 -0.0030086181600807401 0 -0.1631610812614456 0.0141265482177085 0 -0.18063081477410151 0.02444866588981499 0 -0.17967452986780849 -0.0030086181600807401 0 -0.18063081477410151 0.02444866588981499 0 -0.19591489879339791 0.012499298725408061 0 -0.1657196129726615 0.054609358426155781 0 -0.16332082262574071 0.033969476032413119 0 -0.1853408533429271 0.041769259974547668 0 -0.14718764802187309 0.041237794311798179 0 -0.1657196129726615 0.054609358426155781 0 -0.16332082262574071 0.033969476032413119 0 -0.18063081477410151 0.02444866588981499 0 -0.16332082262574071 0.033969476032413119 0 -0.1853408533429271 0.041769259974547668 0 -0.1657196129726615 0.054609358426155781 0 -0.1853408533429271 0.041769259974547668 0 -0.19326118210642521 0.060262893486061127 0 -0.1853408533429271 0.041769259974547668 0 -0.19326118210642521 0.060262893486061127 0 -0.20638984228336041 0.047204147208118788 0 -0.18063081477410151 0.02444866588981499 0 -0.1853408533429271 0.041769259974547668 0 -0.2003712226561333 0.029120430419108619 0 -0.1853408533429271 0.041769259974547668 0 -0.20638984228336041 0.047204147208118788 0 -0.2003712226561333 0.029120430419108619 0 -0.20638984228336041 0.047204147208118788 0 -0.2003712226561333 0.029120430419108619 0 -0.21890969838457369 0.03387481538926377 0 -0.20638984228336041 0.047204147208118788 0 -0.2248274879423891 0.050626958701997932 0 -0.21890969838457369 0.03387481538926377 0 -0.20638984228336041 0.047204147208118788 0 -0.2248274879423891 0.050626958701997932 0 -0.21240822864659401 0.064474545157398255 0 -0.19326118210642521 0.060262893486061127 0 -0.20638984228336041 0.047204147208118788 0 -0.21240822864659401 0.064474545157398255 0 -0.17967452986780849 -0.0030086181600807401 0 -0.20680301002479959 -0.0020434230711429339 0 -0.19591489879339791 0.012499298725408061 0 -0.18063081477410151 0.02444866588981499 0 -0.19591489879339791 0.012499298725408061 0 -0.2003712226561333 0.029120430419108619 0 -0.2003712226561333 0.029120430419108619 0 -0.2150412283584397 0.01492639532749848 0 -0.21890969838457369 0.03387481538926377 0 -0.19591489879339791 0.012499298725408061 0 -0.2003712226561333 0.029120430419108619 0 -0.2150412283584397 0.01492639532749848 0 -0.20680301002479959 -0.0020434230711429339 0 -0.19591489879339791 0.012499298725408061 0 -0.2150412283584397 0.01492639532749848 0 -0.20680301002479959 -0.0020434230711429339 0 -0.2150412283584397 0.01492639532749848 0 -0.22850437187820721 0.00061554774341724197 0 -0.2150412283584397 0.01492639532749848 0 -0.22850437187820721 0.00061554774341724197 0 -0.23416676111704099 0.01917273774715204 0 -0.23416676111704099 0.01917273774715204 0 -0.21890969838457369 0.03387481538926377 0 -0.23451298379830759 0.036058925104307242 0 -0.2150412283584397 0.01492639532749848 0 -0.23416676111704099 0.01917273774715204 0 -0.21890969838457369 0.03387481538926377 0 -0.25132042997239518 0.0027134119798401068 0 -0.25642639863326749 0.02710060176493858 0 -0.23416676111704099 0.01917273774715204 0 -0.25642639863326749 0.02710060176493858 0 -0.23416676111704099 0.01917273774715204 0 -0.23451298379830759 0.036058925104307242 0 -0.25132042997239518 0.0027134119798401068 0 -0.22850437187820721 0.00061554774341724197 0 -0.23416676111704099 0.01917273774715204 0 -0.2248274879423891 0.050626958701997932 0 -0.234130504556473 0.067172247096954504 0 -0.21240822864659401 0.064474545157398255 0 -0.2248274879423891 0.050626958701997932 0 -0.21890969838457369 0.03387481538926377 0 -0.23451298379830759 0.036058925104307242 0 -0.25642639863326749 0.02710060176493858 0 -0.23451298379830759 0.036058925104307242 0 -0.24534917185526489 0.049526218608574313 0 -0.2248274879423891 0.050626958701997932 0 -0.23451298379830759 0.036058925104307242 0 -0.24534917185526489 0.049526218608574313 0 -0.26195798501385009 0.070226375813507561 0 -0.24534917185526489 0.049526218608574313 0 -0.234130504556473 0.067172247096954504 0 -0.2248274879423891 0.050626958701997932 0 -0.24534917185526489 0.049526218608574313 0 -0.234130504556473 0.067172247096954504 0 -0.26195798501385009 0.070226375813507561 0 -0.24382127576753621 0.084711863041238192 0 -0.234130504556473 0.067172247096954504 0 -0.24382127576753621 0.084711863041238192 0 -0.22568456652122221 0.099197350268968809 0 -0.24382127576753621 0.084711863041238192 0 -0.221160002309051 0.081738136999685213 0 -0.22568456652122221 0.099197350268968809 0 -0.221160002309051 0.081738136999685213 0 -0.20949418686790969 0.097522886253834359 0 -0.22568456652122221 0.099197350268968809 0 -0.24382127576753621 0.084711863041238192 0 -0.221160002309051 0.081738136999685213 0 -0.234130504556473 0.067172247096954504 0 -0.221160002309051 0.081738136999685213 0 -0.234130504556473 0.067172247096954504 0 -0.21240822864659401 0.064474545157398255 0 -0.221160002309051 0.081738136999685213 0 -0.21240822864659401 0.064474545157398255 0 -0.19789508720454749 0.077516785054754192 0 -0.221160002309051 0.081738136999685213 0 -0.19789508720454749 0.077516785054754192 0 -0.20949418686790969 0.097522886253834359 0 -0.17966236107341149 0.074300518116336353 0 -0.19789508720454749 0.077516785054754192 0 -0.19360510917416149 0.093991677806516877 0 -0.19789508720454749 0.077516785054754192 0 -0.19360510917416149 0.093991677806516877 0 -0.20949418686790969 0.097522886253834359 0 -0.19326118210642521 0.060262893486061127 0 -0.21240822864659401 0.064474545157398255 0 -0.19789508720454749 0.077516785054754192 0 -0.17966236107341149 0.074300518116336353 0 -0.19326118210642521 0.060262893486061127 0 -0.19789508720454749 0.077516785054754192 0 -0.20040659369392541 0.1193864456313013 0 -0.18934336527218601 0.1087413065502997 0 -0.2075478572749084 0.11368283749669961 0 -0.18039056500006781 0.12121373119240569 0 -0.20040659369392541 0.1193864456313013 0 -0.18934336527218601 0.1087413065502997 0 -0.19360510917416149 0.093991677806516877 0 -0.2075478572749084 0.11368283749669961 0 -0.18934336527218601 0.1087413065502997 0 -0.19360510917416149 0.093991677806516877 0 -0.2075478572749084 0.11368283749669961 0 -0.19360510917416149 0.093991677806516877 0 -0.20949418686790969 0.097522886253834359 0 -0.2075478572749084 0.11368283749669961 0 -0.2075478572749084 0.11368283749669961 0 -0.22568456652122221 0.099197350268968809 0 -0.20949418686790969 0.097522886253834359 0 -0.2075478572749084 0.11368283749669961 0 -0.22568456652122221 0.099197350268968809 0 -0.2075478572749084 0.11368283749669961 0 -0.22488407219564061 0.1186598638475915 0 -0.22370276663374011 0.1364982034250237 0 -0.20040659369392541 0.1193864456313013 0 -0.2075478572749084 0.11368283749669961 0 -0.20214902218410111 0.13458958866239301 0 -0.20040659369392541 0.1193864456313013 0 -0.2075478572749084 0.11368283749669961 0 -0.2075478572749084 0.11368283749669961 0 -0.22488407219564061 0.1186598638475915 0 -0.22568456652122221 0.099197350268968809 0 -0.22488407219564061 0.1186598638475915 0 -0.23975573915859391 0.1186480270080747 0 -0.23562440086935879 0.12869665656040569 0 -0.22488407219564061 0.1186598638475915 0 -0.22568456652122221 0.099197350268968809 0 -0.23888908650362611 0.1045060591559635 0 -0.24382127576753621 0.084711863041238192 0 -0.22568456652122221 0.099197350268968809 0 -0.23888908650362611 0.1045060591559635 0 -0.25364395357421121 0.10678394025260531 0 -0.24382127576753621 0.084711863041238192 0 -0.23888908650362611 0.1045060591559635 0 -0.25033803458298193 0.12914144363467839 0 -0.25364395357421121 0.10678394025260531 0 -0.23975573915859391 0.1186480270080747 0 -0.22488407219564061 0.1186598638475915 0 -0.23888908650362611 0.1045060591559635 0 -0.23975573915859391 0.1186480270080747 0 -0.25364395357421121 0.10678394025260531 0 -0.23888908650362611 0.1045060591559635 0 -0.23975573915859391 0.1186480270080747 0 -0.25033803458298193 0.12914144363467839 0 -0.23975573915859391 0.1186480270080747 0 -0.23562440086935879 0.12869665656040569 0 -0.25033803458298193 0.12914144363467839 0 -0.2394413917758374 0.14053574488666021 0 -0.23562440086935879 0.12869665656040569 0 -0.2394413917758374 0.14053574488666021 0 -0.23562440086935879 0.12869665656040569 0 -0.22370276663374011 0.1364982034250237 0 -0.22488407219564061 0.1186598638475915 0 -0.23562440086935879 0.12869665656040569 0 -0.22370276663374011 0.1364982034250237 0 -0.2394413917758374 0.14053574488666021 0 -0.22370276663374011 0.1364982034250237 0 -0.22390747936813421 0.14796544613238069 0 -0.22390747936813421 0.14796544613238069 0 -0.22774584105848089 0.15976823357977049 0 -0.2168312664826515 0.15850745189495519 0 -0.2394413917758374 0.14053574488666021 0 -0.22390747936813421 0.14796544613238069 0 -0.24566593655216731 0.1613413036023684 0 -0.22390747936813421 0.14796544613238069 0 -0.24566593655216731 0.1613413036023684 0 -0.26077588748637798 0.14053443996503889 0 -0.2394413917758374 0.14053574488666021 0 -0.24566593655216731 0.1613413036023684 0 -0.24566593655216731 0.1613413036023684 0 -0.2425545525554833 0.18325607046718431 0 -0.22457868183097049 0.171258732689378 0 -0.2425545525554833 0.18325607046718431 0 -0.2235130486054053 0.18492553164669809 0 -0.22457868183097049 0.171258732689378 0 -0.2425545525554833 0.18325607046718431 0 -0.2235130486054053 0.18492553164669809 0 -0.2315679775879351 0.19375458513227489 0 -0.2235130486054053 0.18492553164669809 0 -0.22457868183097049 0.171258732689378 0 -0.209750232499154 0.17791844316711489 0 -0.24566593655216731 0.1613413036023684 0 -0.22774584105848089 0.15976823357977049 0 -0.22457868183097049 0.171258732689378 0 -0.22390747936813421 0.14796544613238069 0 -0.24566593655216731 0.1613413036023684 0 -0.22774584105848089 0.15976823357977049 0 -0.22774584105848089 0.15976823357977049 0 -0.22457868183097049 0.171258732689378 0 -0.2168312664826515 0.15850745189495519 0 -0.2168312664826515 0.15850745189495519 0 -0.21186753860838101 0.16733255095299371 0 -0.20758447520558959 0.15683863127083711 0 -0.22457868183097049 0.171258732689378 0 -0.2168312664826515 0.15850745189495519 0 -0.21186753860838101 0.16733255095299371 0 -0.21186753860838101 0.16733255095299371 0 -0.209750232499154 0.17791844316711489 0 -0.20173639765426299 0.1643971743801825 0 -0.21186753860838101 0.16733255095299371 0 -0.20758447520558959 0.15683863127083711 0 -0.20173639765426299 0.1643971743801825 0 -0.20758447520558959 0.15683863127083711 0 -0.20173639765426299 0.1643971743801825 0 -0.20024290349544879 0.15519061181074151 0 -0.22457868183097049 0.171258732689378 0 -0.21186753860838101 0.16733255095299371 0 -0.209750232499154 0.17791844316711489 0 -0.19610042498268601 0.17522502183351021 0 -0.19038698318195549 0.16711234260031069 0 -0.17752183765376101 0.1775748035498933 0 -0.19610042498268601 0.17522502183351021 0 -0.19785886193094021 0.18900131099286041 0 -0.17752183765376101 0.1775748035498933 0 -0.19785886193094021 0.18900131099286041 0 -0.17752183765376101 0.1775748035498933 0 -0.209750232499154 0.17791844316711489 0 -0.19610042498268601 0.17522502183351021 0 -0.19785886193094021 0.18900131099286041 0 -0.209750232499154 0.17791844316711489 0 -0.19610042498268601 0.17522502183351021 0 -0.20173639765426299 0.1643971743801825 0 -0.20173639765426299 0.1643971743801825 0 -0.1927705130470404 0.15866088515044 0 -0.20024290349544879 0.15519061181074151 0 -0.19610042498268601 0.17522502183351021 0 -0.20173639765426299 0.1643971743801825 0 -0.19038698318195549 0.16711234260031069 0 -0.20173639765426299 0.1643971743801825 0 -0.19038698318195549 0.16711234260031069 0 -0.1927705130470404 0.15866088515044 0 -0.19038698318195549 0.16711234260031069 0 -0.1927705130470404 0.15866088515044 0 -0.18413510522225521 0.16259499244525211 0 -0.1927705130470404 0.15866088515044 0 -0.19507878308752141 0.1486405391940768 0 -0.1852646507768699 0.1545619776798173 0 -0.19507878308752141 0.1486405391940768 0 -0.18706065072040501 0.14468661846275019 0 -0.1852646507768699 0.1545619776798173 0 -0.19507878308752141 0.1486405391940768 0 -0.20024290349544879 0.15519061181074151 0 -0.20390252305447459 0.15036513687703029 0 -0.1927705130470404 0.15866088515044 0 -0.19507878308752141 0.1486405391940768 0 -0.20024290349544879 0.15519061181074151 0 -0.19507878308752141 0.1486405391940768 0 -0.202312374299252 0.1441640524023215 0 -0.19563802519160789 0.13807458821396759 0 -0.19507878308752141 0.1486405391940768 0 -0.202312374299252 0.1441640524023215 0 -0.20390252305447459 0.15036513687703029 0 -0.19507878308752141 0.1486405391940768 0 -0.19563802519160789 0.13807458821396759 0 -0.18706065072040501 0.14468661846275019 0 -0.18039056500006781 0.12121373119240569 0 -0.20214902218410111 0.13458958866239301 0 -0.18039056500006781 0.12121373119240569 0 -0.20040659369392541 0.1193864456313013 0 -0.20214902218410111 0.13458958866239301 0 -0.18039056500006781 0.12121373119240569 0 -0.19563802519160789 0.13807458821396759 0 -0.20214902218410111 0.13458958866239301 0 -0.18039056500006781 0.12121373119240569 0 -0.19563802519160789 0.13807458821396759 0 -0.202312374299252 0.1441640524023215 0 -0.19563802519160789 0.13807458821396759 0 -0.20214902218410111 0.13458958866239301 0 -0.2075478572749084 0.11368283749669961 0 -0.22370276663374011 0.1364982034250237 0 -0.20214902218410111 0.13458958866239301 0 -0.2075478572749084 0.11368283749669961 0 -0.22370276663374011 0.1364982034250237 0 -0.22370276663374011 0.1364982034250237 0 -0.22390747936813421 0.14796544613238069 0 -0.20214902218410111 0.13458958866239301 0 -0.22390747936813421 0.14796544613238069 0 -0.20214902218410111 0.13458958866239301 0 -0.22390747936813421 0.14796544613238069 0 -0.20214902218410111 0.13458958866239301 0 -0.20948943058945241 0.14863997276184041 0 -0.22390747936813421 0.14796544613238069 0 -0.2168312664826515 0.15850745189495519 0 -0.20948943058945241 0.14863997276184041 0 -0.2168312664826515 0.15850745189495519 0 -0.20758447520558959 0.15683863127083711 0 -0.20948943058945241 0.14863997276184041 0 -0.20758447520558959 0.15683863127083711 0 -0.20948943058945241 0.14863997276184041 0 -0.20390252305447459 0.15036513687703029 0 -0.20758447520558959 0.15683863127083711 0 -0.20024290349544879 0.15519061181074151 0 -0.20390252305447459 0.15036513687703029 0 -0.202312374299252 0.1441640524023215 0 -0.20214902218410111 0.13458958866239301 0 -0.20948943058945241 0.14863997276184041 0 -0.202312374299252 0.1441640524023215 0 -0.20948943058945241 0.14863997276184041 0 -0.20390252305447459 0.15036513687703029 0 -0.22764024225575111 0.25709488017932702 0 -0.2151106411052526 0.2372148610219694 0 -0.22764024225575111 0.25709488017932702 0 -0.2283272457552897 0.2411225242229286 0 -0.2468893326351202 0.24329134098969171 0 -0.22764024225575111 0.25709488017932702 0 -0.2283272457552897 0.2411225242229286 0 -0.2151106411052526 0.2372148610219694 0 -0.2283272457552897 0.2411225242229286 0 -0.22236430254422471 0.22707510271615991 0 -0.2151106411052526 0.2372148610219694 0 -0.2283272457552897 0.2411225242229286 0 -0.2468893326351202 0.24329134098969171 0 -0.2329273297721271 0.2301735095518313 0 -0.25250373055295899 0.22903132158689779 0 -0.2468893326351202 0.24329134098969171 0 -0.24260825180894061 0.22311859240920151 0 -0.2468893326351202 0.24329134098969171 0 -0.24260825180894061 0.22311859240920151 0 -0.2329273297721271 0.2301735095518313 0 -0.25326648915379463 0.21765104414027969 0 -0.25250373055295899 0.22903132158689779 0 -0.24260825180894061 0.22311859240920151 0 -0.24260825180894061 0.22311859240920151 0 -0.23239639752576971 0.22100751879425451 0 -0.2329273297721271 0.2301735095518313 0 -0.23239639752576971 0.22100751879425451 0 -0.2329273297721271 0.2301735095518313 0 -0.22236430254422471 0.22707510271615991 0 -0.2283272457552897 0.2411225242229286 0 -0.2329273297721271 0.2301735095518313 0 -0.22236430254422471 0.22707510271615991 0 -0.23239639752576971 0.22100751879425451 0 -0.22236430254422471 0.22707510271615991 0 -0.2228431611521535 0.2155973608413651 0 -0.2228431611521535 0.2155973608413651 0 -0.2385329104852989 0.2118543258787943 0 -0.21819588620811961 0.20042781843582741 0 -0.2385329104852989 0.2118543258787943 0 -0.21819588620811961 0.20042781843582741 0 -0.23239639752576971 0.22100751879425451 0 -0.2228431611521535 0.2155973608413651 0 -0.2385329104852989 0.2118543258787943 0 -0.2385329104852989 0.2118543258787943 0 -0.24039455529309961 0.2058142864805034 0 -0.21819588620811961 0.20042781843582741 0 -0.24260825180894061 0.22311859240920151 0 -0.23239639752576971 0.22100751879425451 0 -0.2385329104852989 0.2118543258787943 0 -0.25326648915379463 0.21765104414027969 0 -0.24039455529309961 0.2058142864805034 0 -0.25326648915379463 0.21765104414027969 0 -0.2385329104852989 0.2118543258787943 0 -0.24039455529309961 0.2058142864805034 0 -0.25326648915379463 0.21765104414027969 0 -0.24260825180894061 0.22311859240920151 0 -0.2385329104852989 0.2118543258787943 0 -0.25264776582176801 0.2054066783297176 0 -0.25326648915379463 0.21765104414027969 0 -0.24039455529309961 0.2058142864805034 0 -0.25846339158769432 0.19477026040294029 0 -0.2425545525554833 0.18325607046718431 0 -0.24512564856919611 0.1966003761625241 0 -0.24039455529309961 0.2058142864805034 0 -0.24512564856919611 0.1966003761625241 0 -0.2315679775879351 0.19375458513227489 0 -0.25264776582176801 0.2054066783297176 0 -0.24039455529309961 0.2058142864805034 0 -0.24512564856919611 0.1966003761625241 0 -0.2425545525554833 0.18325607046718431 0 -0.24512564856919611 0.1966003761625241 0 -0.2315679775879351 0.19375458513227489 0 -0.24039455529309961 0.2058142864805034 0 -0.2315679775879351 0.19375458513227489 0 -0.21819588620811961 0.20042781843582741 0 -0.2235130486054053 0.18492553164669809 0 -0.2315679775879351 0.19375458513227489 0 -0.21819588620811961 0.20042781843582741 0 -0.21819588620811961 0.20042781843582741 0 -0.19785886193094021 0.18900131099286041 0 -0.2235130486054053 0.18492553164669809 0 -0.209750232499154 0.17791844316711489 0 -0.21819588620811961 0.20042781843582741 0 -0.209750232499154 0.17791844316711489 0 -0.21819588620811961 0.20042781843582741 0 -0.19785886193094021 0.18900131099286041 0 -0.21819588620811961 0.20042781843582741 0 -0.20376966825666501 0.2022924765927995 0 -0.19785886193094021 0.18900131099286041 0 -0.19785886193094021 0.18900131099286041 0 -0.19005143880425829 0.1974548227072519 0 -0.17752183765376101 0.1775748035498933 0 -0.20376966825666501 0.2022924765927995 0 -0.19785886193094021 0.18900131099286041 0 -0.19005143880425829 0.1974548227072519 0 -0.19005143880425829 0.1974548227072519 0 -0.187650486280975 0.21451757224245291 0 -0.20258103995475549 0.21733484186461069 0 -0.19005143880425829 0.1974548227072519 0 -0.20258103995475549 0.21733484186461069 0 -0.20376966825666501 0.2022924765927995 0 -0.19005143880425829 0.1974548227072519 0 -0.20258103995475549 0.21733484186461069 0 -0.2228431611521535 0.2155973608413651 0 -0.21819588620811961 0.20042781843582741 0 -0.20258103995475549 0.21733484186461069 0 -0.21819588620811961 0.20042781843582741 0 -0.20376966825666501 0.2022924765927995 0 -0.20258103995475549 0.21733484186461069 0 -0.20258103995475549 0.21733484186461069 0 -0.19839606398960871 0.22991008851962841 0 -0.2151106411052526 0.2372148610219694 0 -0.22236430254422471 0.22707510271615991 0 -0.2228431611521535 0.2155973608413651 0 -0.20258103995475549 0.21733484186461069 0 -0.22236430254422471 0.22707510271615991 0 -0.20258103995475549 0.21733484186461069 0 -0.2151106411052526 0.2372148610219694 0 -0.20258103995475549 0.21733484186461069 0 -0.2151106411052526 0.2372148610219694 0 -0.187650486280975 0.21451757224245291 0 -0.20258103995475549 0.21733484186461069 0 -0.19839606398960871 0.22991008851962841 0 -0.187650486280975 0.21451757224245291 0 -0.19839606398960871 0.22991008851962841 0 -0.18195408303730121 0.23534357450296481 0 -0.18940688912330481 0.25610334311205268 0 -0.2046840695697589 0.2451395929661444 0 -0.18195408303730121 0.23534357450296481 0 -0.2046840695697589 0.2451395929661444 0 -0.18195408303730121 0.23534357450296481 0 -0.19839606398960871 0.22991008851962841 0 -0.2046840695697589 0.2451395929661444 0 -0.18195408303730121 0.23534357450296481 0 -0.21239874098331929 0.25437807278244762 0 -0.2046840695697589 0.2451395929661444 0 -0.2151106411052526 0.2372148610219694 0 -0.19839606398960871 0.22991008851962841 0 -0.2046840695697589 0.2451395929661444 0 -0.2151106411052526 0.2372148610219694 0 -0.22764024225575111 0.25709488017932702 0 -0.21239874098331929 0.25437807278244762 0 -0.2151106411052526 0.2372148610219694 0 -0.16225317791305921 0.25358582624422438 0 -0.18195408303730121 0.23534357450296481 0 -0.155242522585569 0.24016045739440639 0 -0.17508206900779469 0.25918785244088571 0 -0.16225317791305921 0.25358582624422438 0 -0.18195408303730121 0.23534357450296481 0 -0.187650486280975 0.21451757224245291 0 -0.18195408303730121 0.23534357450296481 0 -0.17144823439391829 0.2141895330645725 0 -0.18195408303730121 0.23534357450296481 0 -0.15922409650484359 0.2255475560397853 0 -0.18195408303730121 0.23534357450296481 0 -0.15922409650484359 0.2255475560397853 0 -0.155242522585569 0.24016045739440639 0 -0.18195408303730121 0.23534357450296481 0 -0.15922409650484359 0.2255475560397853 0 -0.17144823439391829 0.2141895330645725 0 -0.15922409650484359 0.2255475560397853 0 -0.15900733689739069 0.21062159977010589 0 -0.17144823439391829 0.2141895330645725 0 -0.15900733689739069 0.21062159977010589 0 -0.1653418357915476 0.2018213455952054 0 -0.15361129879784891 0.20139719057542019 0 -0.17144823439391829 0.2141895330645725 0 -0.17723797391968729 0.20390802022475071 0 -0.1653418357915476 0.2018213455952054 0 -0.15900733689739069 0.21062159977010589 0 -0.17144823439391829 0.2141895330645725 0 -0.1653418357915476 0.2018213455952054 0 -0.187650486280975 0.21451757224245291 0 -0.17144823439391829 0.2141895330645725 0 -0.17723797391968729 0.20390802022475071 0 -0.19005143880425829 0.1974548227072519 0 -0.187650486280975 0.21451757224245291 0 -0.17723797391968729 0.20390802022475071 0 -0.19005143880425829 0.1974548227072519 0 -0.17169787432773731 0.19155682751427069 0 -0.17752183765376101 0.1775748035498933 0 -0.19005143880425829 0.1974548227072519 0 -0.17723797391968729 0.20390802022475071 0 -0.17169787432773731 0.19155682751427069 0 -0.19005143880425829 0.1974548227072519 0 -0.17752183765376101 0.1775748035498933 0 -0.17169787432773731 0.19155682751427069 0 -0.1653418357915476 0.2018213455952054 0 -0.15791164184663151 0.19274793286901881 0 -0.17723797391968729 0.20390802022475071 0 -0.17169787432773731 0.19155682751427069 0 -0.1653418357915476 0.2018213455952054 0 -0.1653418357915476 0.2018213455952054 0 -0.15791164184663151 0.19274793286901881 0 -0.15361129879784891 0.20139719057542019 0 -0.17169787432773731 0.19155682751427069 0 -0.15791164184663151 0.19274793286901881 0 -0.16134243263699979 0.18146195783717889 0 -0.15791164184663151 0.19274793286901881 0 -0.15361129879784891 0.20139719057542019 0 -0.14754997702249989 0.19123102061556399 0 -0.15791164184663151 0.19274793286901881 0 -0.14754997702249989 0.19123102061556399 0 -0.15378055215212841 0.1853342336718547 0 -0.15361129879784891 0.20139719057542019 0 -0.144337775963609 0.20069921068637719 0 -0.14754997702249989 0.19123102061556399 0 -0.14754997702249989 0.19123102061556399 0 -0.13411435042981179 0.19106266128805069 0 -0.1463292802833521 0.18023770330257241 0 -0.144337775963609 0.20069921068637719 0 -0.14754997702249989 0.19123102061556399 0 -0.13411435042981179 0.19106266128805069 0 -0.13411435042981179 0.19106266128805069 0 -0.12967955466007261 0.2074258594294596 0 -0.1235431789710726 0.1969801993001162 0 -0.13411435042981179 0.19106266128805069 0 -0.13770187294137159 0.2043383794177894 0 -0.12967955466007261 0.2074258594294596 0 -0.144337775963609 0.20069921068637719 0 -0.13411435042981179 0.19106266128805069 0 -0.13770187294137159 0.2043383794177894 0 -0.13770187294137159 0.2043383794177894 0 -0.13855706597983281 0.21350408889879899 0 -0.14247480998137141 0.20718589651263181 0 -0.1364941099723872 0.21575153757660309 0 -0.120958802369795 0.22183359367242919 0 -0.11894773722242739 0.20818951851535461 0 -0.12967955466007261 0.2074258594294596 0 -0.1364941099723872 0.21575153757660309 0 -0.11894773722242739 0.20818951851535461 0 -0.13770187294137159 0.2043383794177894 0 -0.12967955466007261 0.2074258594294596 0 -0.13855706597983281 0.21350408889879899 0 -0.1364941099723872 0.21575153757660309 0 -0.11894773722242739 0.20818951851535461 0 -0.12967955466007261 0.2074258594294596 0 -0.1364941099723872 0.21575153757660309 0 -0.13855706597983281 0.21350408889879899 0 -0.1364941099723872 0.21575153757660309 0 -0.13855706597983281 0.21350408889879899 0 -0.15922409650484359 0.2255475560397853 0 -0.1364941099723872 0.21575153757660309 0 -0.13855706597983281 0.21350408889879899 0 -0.15922409650484359 0.2255475560397853 0 -0.13855706597983281 0.21350408889879899 0 -0.14930252504067221 0.21020190704756139 0 -0.13855706597983281 0.21350408889879899 0 -0.14247480998137141 0.20718589651263181 0 -0.14930252504067221 0.21020190704756139 0 -0.144337775963609 0.20069921068637719 0 -0.14247480998137141 0.20718589651263181 0 -0.14930252504067221 0.21020190704756139 0 -0.144337775963609 0.20069921068637719 0 -0.13770187294137159 0.2043383794177894 0 -0.14247480998137141 0.20718589651263181 0 -0.15900733689739069 0.21062159977010589 0 -0.15361129879784891 0.20139719057542019 0 -0.14930252504067221 0.21020190704756139 0 -0.15361129879784891 0.20139719057542019 0 -0.144337775963609 0.20069921068637719 0 -0.14930252504067221 0.21020190704756139 0 -0.15922409650484359 0.2255475560397853 0 -0.15900733689739069 0.21062159977010589 0 -0.14930252504067221 0.21020190704756139 0 -0.15922409650484359 0.2255475560397853 0 -0.13635804662702189 0.23039018670563211 0 -0.14207867318260539 0.23889574066385899 0 -0.15922409650484359 0.2255475560397853 0 -0.1364941099723872 0.21575153757660309 0 -0.13635804662702189 0.23039018670563211 0 -0.15922409650484359 0.2255475560397853 0 -0.1364941099723872 0.21575153757660309 0 -0.1364941099723872 0.21575153757660309 0 -0.13635804662702189 0.23039018670563211 0 -0.11673432752768111 0.2372784614512472 0 -0.1364941099723872 0.21575153757660309 0 -0.11673432752768111 0.2372784614512472 0 -0.13635804662702189 0.23039018670563211 0 -0.12961957513534 0.23973743310435161 0 -0.11673432752768111 0.2372784614512472 0 -0.13635804662702189 0.23039018670563211 0 -0.12961957513534 0.23973743310435161 0 -0.14207867318260539 0.23889574066385899 0 -0.12961957513534 0.23973743310435161 0 -0.13357218109292621 0.2499317644564327 0 -0.1213089330464012 0.24626659804535689 0 -0.12961957513534 0.23973743310435161 0 -0.13357218109292621 0.2499317644564327 0 -0.14207867318260539 0.23889574066385899 0 -0.14746997276257359 0.25293699741112718 0 -0.13357218109292621 0.2499317644564327 0 -0.14207867318260539 0.23889574066385899 0 -0.15922409650484359 0.2255475560397853 0 -0.14207867318260539 0.23889574066385899 0 -0.155242522585569 0.24016045739440639 0 -0.14746997276257359 0.25293699741112718 0 -0.14207867318260539 0.23889574066385899 0 -0.155242522585569 0.24016045739440639 0 -0.16225317791305921 0.25358582624422438 0 -0.14746997276257359 0.25293699741112718 0 -0.155242522585569 0.24016045739440639 0 -0.166988808872575 0.14091924592242799 0 -0.1736883691443292 0.1501381655411517 0 -0.1666646902223726 0.16034837340756511 0 -0.166988808872575 0.14091924592242799 0 -0.1666646902223726 0.16034837340756511 0 -0.15580754279098399 0.143121943265237 0 -0.1666646902223726 0.16034837340756511 0 -0.1549726550285947 0.15674585516748279 0 -0.15580754279098399 0.143121943265237 0 -0.1666646902223726 0.16034837340756511 0 -0.15580754279098399 0.143121943265237 0 -0.1628447509754036 0.1248738178506951 0 -0.166988808872575 0.14091924592242799 0 -0.17824709647023271 0.1379937977022469 0 -0.1628447509754036 0.1248738178506951 0 -0.166988808872575 0.14091924592242799 0 -0.15580754279098399 0.143121943265237 0 -0.18039056500006781 0.12121373119240569 0 -0.1628447509754036 0.1248738178506951 0 -0.17824709647023271 0.1379937977022469 0 -0.19563802519160789 0.13807458821396759 0 -0.17824709647023271 0.1379937977022469 0 -0.18706065072040501 0.14468661846275019 0 -0.18039056500006781 0.12121373119240569 0 -0.19563802519160789 0.13807458821396759 0 -0.17824709647023271 0.1379937977022469 0 -0.17824709647023271 0.1379937977022469 0 -0.18706065072040501 0.14468661846275019 0 -0.1811623126986891 0.14793864394101769 0 -0.166988808872575 0.14091924592242799 0 -0.17824709647023271 0.1379937977022469 0 -0.1736883691443292 0.1501381655411517 0 -0.17824709647023271 0.1379937977022469 0 -0.1811623126986891 0.14793864394101769 0 -0.1736883691443292 0.1501381655411517 0 -0.1811623126986891 0.14793864394101769 0 -0.1736883691443292 0.1501381655411517 0 -0.17666515903818969 0.15970684649729899 0 -0.1811623126986891 0.14793864394101769 0 -0.1852646507768699 0.1545619776798173 0 -0.17666515903818969 0.15970684649729899 0 -0.18706065072040501 0.14468661846275019 0 -0.1811623126986891 0.14793864394101769 0 -0.1852646507768699 0.1545619776798173 0 -0.17752183765376101 0.1775748035498933 0 -0.1666646902223726 0.16034837340756511 0 -0.1927705130470404 0.15866088515044 0 -0.1852646507768699 0.1545619776798173 0 -0.18413510522225521 0.16259499244525211 0 -0.17666515903818969 0.15970684649729899 0 -0.17752183765376101 0.1775748035498933 0 -0.1666646902223726 0.16034837340756511 0 -0.1852646507768699 0.1545619776798173 0 -0.18413510522225521 0.16259499244525211 0 -0.17666515903818969 0.15970684649729899 0 -0.18413510522225521 0.16259499244525211 0 -0.17666515903818969 0.15970684649729899 0 -0.17752183765376101 0.1775748035498933 0 -0.19038698318195549 0.16711234260031069 0 -0.18413510522225521 0.16259499244525211 0 -0.17752183765376101 0.1775748035498933 0 -0.1736883691443292 0.1501381655411517 0 -0.17666515903818969 0.15970684649729899 0 -0.1666646902223726 0.16034837340756511 0 -0.17169787432773731 0.19155682751427069 0 -0.17752183765376101 0.1775748035498933 0 -0.16134243263699979 0.18146195783717889 0 -0.17752183765376101 0.1775748035498933 0 -0.160166055014445 0.16782332876165751 0 -0.17752183765376101 0.1775748035498933 0 -0.16134243263699979 0.18146195783717889 0 -0.160166055014445 0.16782332876165751 0 -0.16134243263699979 0.18146195783717889 0 -0.160166055014445 0.16782332876165751 0 -0.1543363168372556 0.17604552304072019 0 -0.16134243263699979 0.18146195783717889 0 -0.15378055215212841 0.1853342336718547 0 -0.1543363168372556 0.17604552304072019 0 -0.15791164184663151 0.19274793286901881 0 -0.16134243263699979 0.18146195783717889 0 -0.15378055215212841 0.1853342336718547 0 -0.17752183765376101 0.1775748035498933 0 -0.1666646902223726 0.16034837340756511 0 -0.160166055014445 0.16782332876165751 0 -0.1666646902223726 0.16034837340756511 0 -0.160166055014445 0.16782332876165751 0 -0.1549726550285947 0.15674585516748279 0 -0.160166055014445 0.16782332876165751 0 -0.1549726550285947 0.15674585516748279 0 -0.14281027237512919 0.15807185397342149 0 -0.160166055014445 0.16782332876165751 0 -0.14281027237512919 0.15807185397342149 0 -0.160166055014445 0.16782332876165751 0 -0.1483000089644074 0.1706867490983929 0 -0.14281027237512919 0.15807185397342149 0 -0.160166055014445 0.16782332876165751 0 -0.1483000089644074 0.1706867490983929 0 -0.1543363168372556 0.17604552304072019 0 -0.1483000089644074 0.1706867490983929 0 -0.14281027237512919 0.15807185397342149 0 -0.13856119746919621 0.1732320213376258 0 -0.14754997702249989 0.19123102061556399 0 -0.15378055215212841 0.1853342336718547 0 -0.1463292802833521 0.18023770330257241 0 -0.15378055215212841 0.1853342336718547 0 -0.1543363168372556 0.17604552304072019 0 -0.1463292802833521 0.18023770330257241 0 -0.1483000089644074 0.1706867490983929 0 -0.1543363168372556 0.17604552304072019 0 -0.1463292802833521 0.18023770330257241 0 -0.1483000089644074 0.1706867490983929 0 -0.1463292802833521 0.18023770330257241 0 -0.13856119746919621 0.1732320213376258 0 -0.13411435042981179 0.19106266128805069 0 -0.13856119746919621 0.1732320213376258 0 -0.12609153575556739 0.16924223779836581 0 -0.13411435042981179 0.19106266128805069 0 -0.12609153575556739 0.16924223779836581 0 -0.1152399272795421 0.1851742901109647 0 -0.13411435042981179 0.19106266128805069 0 -0.1463292802833521 0.18023770330257241 0 -0.13856119746919621 0.1732320213376258 0 -0.14281027237512919 0.15807185397342149 0 -0.12609153575556739 0.16924223779836581 0 -0.135520965557581 0.14756887546063741 0 -0.12609153575556739 0.16924223779836581 0 -0.135520965557581 0.14756887546063741 0 -0.14281027237512919 0.15807185397342149 0 -0.13856119746919621 0.1732320213376258 0 -0.12609153575556739 0.16924223779836581 0 -0.135520965557581 0.14756887546063741 0 -0.13028426483969929 0.13221647237215789 0 -0.1192914655824909 0.15059360814623801 0 -0.12609153575556739 0.16924223779836581 0 -0.135520965557581 0.14756887546063741 0 -0.1192914655824909 0.15059360814623801 0 -0.1549726550285947 0.15674585516748279 0 -0.14281027237512919 0.15807185397342149 0 -0.14652630769324659 0.14708303210739521 0 -0.14281027237512919 0.15807185397342149 0 -0.135520965557581 0.14756887546063741 0 -0.14652630769324659 0.14708303210739521 0 -0.1549726550285947 0.15674585516748279 0 -0.14652630769324659 0.14708303210739521 0 -0.15580754279098399 0.143121943265237 0 -0.1628447509754036 0.1248738178506951 0 -0.15580754279098399 0.143121943265237 0 -0.14495039535959489 0.12589551312290931 0 -0.135520965557581 0.14756887546063741 0 -0.14652630769324659 0.14708303210739521 0 -0.14495039535959489 0.12589551312290931 0 -0.15580754279098399 0.143121943265237 0 -0.14495039535959489 0.12589551312290931 0 -0.14652630769324659 0.14708303210739521 0 -0.15580754279098399 0.143121943265237 0 -0.14495039535959489 0.12589551312290931 0 -0.135520965557581 0.14756887546063741 0 -0.14495039535959489 0.12589551312290931 0 -0.135520965557581 0.14756887546063741 0 -0.14495039535959489 0.12589551312290931 0 -0.13028426483969929 0.13221647237215789 0 -0.13028426483969929 0.13221647237215789 0 -0.1131006250587715 0.12959615498317961 0 -0.1192914655824909 0.15059360814623801 0 -0.1131006250587715 0.12959615498317961 0 -0.10078539792307099 0.15464240809582361 0 -0.092802426943272898 0.12960292979422991 0 -0.1131006250587715 0.12959615498317961 0 -0.10078539792307099 0.15464240809582361 0 -0.1192914655824909 0.15059360814623801 0 -0.10078539792307099 0.15464240809582361 0 -0.1192914655824909 0.15059360814623801 0 -0.10897534263953949 0.16967833346669081 0 -0.12609153575556739 0.16924223779836581 0 -0.1192914655824909 0.15059360814623801 0 -0.10897534263953949 0.16967833346669081 0 -0.12609153575556739 0.16924223779836581 0 -0.1152399272795421 0.1851742901109647 0 -0.10897534263953949 0.16967833346669081 0 -0.1152399272795421 0.1851742901109647 0 -0.098409264142157865 0.1851788001203086 0 -0.10897534263953949 0.16967833346669081 0 -0.098409264142157865 0.1851788001203086 0 -0.10897534263953949 0.16967833346669081 0 -0.082277471490505807 0.17420718144711089 0 -0.10078539792307099 0.15464240809582361 0 -0.10897534263953949 0.16967833346669081 0 -0.082277471490505807 0.17420718144711089 0 -0.10078539792307099 0.15464240809582361 0 -0.082277471490505807 0.17420718144711089 0 -0.082277471490505807 0.17420718144711089 0 -0.065615427061545384 0.16058384892905991 0 -0.074642854581774637 0.14147916649728479 0 -0.10078539792307099 0.15464240809582361 0 -0.082277471490505807 0.17420718144711089 0 -0.074642854581774637 0.14147916649728479 0 -0.098409264142157865 0.1851788001203086 0 -0.082277471490505807 0.17420718144711089 0 -0.084152214828733252 0.19620669612267311 0 -0.082277471490505807 0.17420718144711089 0 -0.063769545057940663 0.19377195479839809 0 -0.082277471490505807 0.17420718144711089 0 -0.063769545057940663 0.19377195479839809 0 -0.051824687549248197 0.17345858692208871 0 -0.082277471490505807 0.17420718144711089 0 -0.065615427061545384 0.16058384892905991 0 -0.051824687549248197 0.17345858692208871 0 -0.074642854581774637 0.14147916649728479 0 -0.055186524828957063 0.1281687789626855 0 -0.07438317581125764 0.1124407737129243 0 -0.074642854581774637 0.14147916649728479 0 -0.092802426943272898 0.12960292979422991 0 -0.07438317581125764 0.1124407737129243 0 -0.10078539792307099 0.15464240809582361 0 -0.074642854581774637 0.14147916649728479 0 -0.092802426943272898 0.12960292979422991 0 -0.10058650277722481 0.24229521027045481 0 -0.11673432752768111 0.2372784614512472 0 -0.1053270170515283 0.2324499666522013 0 -0.096974545082976191 0.25880538532589209 0 -0.10058650277722481 0.24229521027045481 0 -0.088715331182393942 0.2449718195011524 0 -0.096974545082976191 0.25880538532589209 0 -0.10058650277722481 0.24229521027045481 0 -0.11673432752768111 0.2372784614512472 0 -0.096974545082976191 0.25880538532589209 0 -0.112097455783086 0.24444379951602521 0 -0.11673432752768111 0.2372784614512472 0 -0.096974545082976191 0.25880538532589209 0 -0.11673432752768111 0.2372784614512472 0 -0.10058650277722481 0.24229521027045481 0 -0.091983872440322634 0.23323291704093771 0 -0.088715331182393942 0.2449718195011524 0 -0.10058650277722481 0.24229521027045481 0 -0.1053270170515283 0.2324499666522013 0 -0.091983872440322634 0.23323291704093771 0 -0.11521273165378559 0.25497892835963998 0 -0.112097455783086 0.24444379951602521 0 -0.1213089330464012 0.24626659804535689 0 -0.112097455783086 0.24444379951602521 0 -0.1213089330464012 0.24626659804535689 0 -0.11673432752768111 0.2372784614512472 0 -0.12961957513534 0.23973743310435161 0 -0.1213089330464012 0.24626659804535689 0 -0.11673432752768111 0.2372784614512472 0 -0.11673432752768111 0.2372784614512472 0 -0.111977792011399 0.2261119040305537 0 -0.1053270170515283 0.2324499666522013 0 -0.1364941099723872 0.21575153757660309 0 -0.11673432752768111 0.2372784614512472 0 -0.120958802369795 0.22183359367242919 0 -0.11673432752768111 0.2372784614512472 0 -0.120958802369795 0.22183359367242919 0 -0.111977792011399 0.2261119040305537 0 -0.120958802369795 0.22183359367242919 0 -0.111977792011399 0.2261119040305537 0 -0.11263418842693861 0.21654350143059611 0 -0.111977792011399 0.2261119040305537 0 -0.1027476190553803 0.22153268259517769 0 -0.11263418842693861 0.21654350143059611 0 -0.1027476190553803 0.22153268259517769 0 -0.088008266818085573 0.21525264443096179 0 -0.091983872440322634 0.23323291704093771 0 -0.111977792011399 0.2261119040305537 0 -0.1027476190553803 0.22153268259517769 0 -0.1053270170515283 0.2324499666522013 0 -0.1027476190553803 0.22153268259517769 0 -0.1053270170515283 0.2324499666522013 0 -0.091983872440322634 0.23323291704093771 0 -0.1027476190553803 0.22153268259517769 0 -0.1014013644724687 0.20062749945410349 0 -0.088008266818085573 0.21525264443096179 0 -0.1027476190553803 0.22153268259517769 0 -0.11263418842693861 0.21654350143059611 0 -0.1014013644724687 0.20062749945410349 0 -0.11263418842693861 0.21654350143059611 0 -0.11894773722242739 0.20818951851535461 0 -0.1014013644724687 0.20062749945410349 0 -0.11894773722242739 0.20818951851535461 0 -0.1014013644724687 0.20062749945410349 0 -0.120958802369795 0.22183359367242919 0 -0.11263418842693861 0.21654350143059611 0 -0.11894773722242739 0.20818951851535461 0 -0.12967955466007261 0.2074258594294596 0 -0.11894773722242739 0.20818951851535461 0 -0.1235431789710726 0.1969801993001162 0 -0.11894773722242739 0.20818951851535461 0 -0.1235431789710726 0.1969801993001162 0 -0.1014013644724687 0.20062749945410349 0 -0.13411435042981179 0.19106266128805069 0 -0.1152399272795421 0.1851742901109647 0 -0.1235431789710726 0.1969801993001162 0 -0.1152399272795421 0.1851742901109647 0 -0.1235431789710726 0.1969801993001162 0 -0.1014013644724687 0.20062749945410349 0 -0.1152399272795421 0.1851742901109647 0 -0.098409264142157865 0.1851788001203086 0 -0.1014013644724687 0.20062749945410349 0 -0.098409264142157865 0.1851788001203086 0 -0.1014013644724687 0.20062749945410349 0 -0.084152214828733252 0.19620669612267311 0 -0.084152214828733252 0.19620669612267311 0 -0.063769545057940663 0.19377195479839809 0 -0.072142849724606259 0.2099260872470029 0 -0.082277471490505807 0.17420718144711089 0 -0.084152214828733252 0.19620669612267311 0 -0.063769545057940663 0.19377195479839809 0 -0.072142849724606259 0.2099260872470029 0 -0.088008266818085573 0.21525264443096179 0 -0.068407602306599244 0.22780678473085289 0 -0.084152214828733252 0.19620669612267311 0 -0.072142849724606259 0.2099260872470029 0 -0.088008266818085573 0.21525264443096179 0 -0.1014013644724687 0.20062749945410349 0 -0.084152214828733252 0.19620669612267311 0 -0.088008266818085573 0.21525264443096179 0 -0.091983872440322634 0.23323291704093771 0 -0.068407602306599244 0.22780678473085289 0 -0.080478212985736569 0.23984126859451149 0 -0.088008266818085573 0.21525264443096179 0 -0.091983872440322634 0.23323291704093771 0 -0.068407602306599244 0.22780678473085289 0 -0.073553522625709841 0.25068431627396631 0 -0.068407602306599244 0.22780678473085289 0 -0.080478212985736569 0.23984126859451149 0 -0.073553522625709841 0.25068431627396631 0 -0.068407602306599244 0.22780678473085289 0 -0.050132500168443887 0.2425632472220397 0 -0.073553522625709841 0.25068431627396631 0 -0.080478212985736569 0.23984126859451149 0 -0.088715331182393942 0.2449718195011524 0 -0.091983872440322634 0.23323291704093771 0 -0.080478212985736569 0.23984126859451149 0 -0.088715331182393942 0.2449718195011524 0 -0.050132500168443887 0.2425632472220397 0 -0.026711477711177899 0.23444217817011309 0 -0.029881977245259539 0.25372898958001938 0 -0.050132500168443887 0.2425632472220397 0 -0.026711477711177899 0.23444217817011309 0 -0.050132500168443887 0.2425632472220397 0 -0.042100384295285467 0.22888272761933071 0 -0.026711477711177899 0.23444217817011309 0 -0.073553522625709841 0.25068431627396631 0 -0.050132500168443887 0.2425632472220397 0 -0.068407602306599244 0.22780678473085289 0 -0.050132500168443887 0.2425632472220397 0 -0.042100384295285467 0.22888272761933071 0 -0.068407602306599244 0.22780678473085289 0 -0.042100384295285467 0.22888272761933071 0 -0.045261618625375449 0.21333672814968549 0 -0.045261618625375449 0.21333672814968549 0 -0.02675369219281019 0.23290150150097291 0 -0.045261618625375449 0.21333672814968549 0 -0.02772339752401377 0.22169904798743939 0 -0.02675369219281019 0.23290150150097291 0 -0.042100384295285467 0.22888272761933071 0 -0.045261618625375449 0.21333672814968549 0 -0.02675369219281019 0.23290150150097291 0 -0.042100384295285467 0.22888272761933071 0 -0.02675369219281019 0.23290150150097291 0 -0.026711477711177899 0.23444217817011309 0 -0.045261618625375449 0.21333672814968549 0 -0.025983012380334781 0.2115930184476672 0 -0.02772339752401377 0.22169904798743939 0 -0.045261618625375449 0.21333672814968549 0 -0.029252980350323681 0.1977376245802884 0 -0.025983012380334781 0.2115930184476672 0 -0.063769545057940663 0.19377195479839809 0 -0.045261618625375449 0.21333672814968549 0 -0.063769545057940663 0.19377195479839809 0 -0.072142849724606259 0.2099260872470029 0 -0.045261618625375449 0.21333672814968549 0 -0.072142849724606259 0.2099260872470029 0 -0.068407602306599244 0.22780678473085289 0 -0.045261618625375449 0.21333672814968549 0 -0.063769545057940663 0.19377195479839809 0 -0.045261618625375449 0.21333672814968549 0 -0.041349789320347038 0.18749549167170951 0 -0.029252980350323681 0.1977376245802884 0 -0.041349789320347038 0.18749549167170951 0 -0.02440704960050057 0.1813667693045137 0 -0.045261618625375449 0.21333672814968549 0 -0.029252980350323681 0.1977376245802884 0 -0.041349789320347038 0.18749549167170951 0 -0.029252980350323681 0.1977376245802884 0 -0.01949536222664228 0.1923427933584827 0 -0.02440704960050057 0.1813667693045137 0 -0.029252980350323681 0.1977376245802884 0 -0.019383630886315679 0.20246845033521829 0 -0.01949536222664228 0.1923427933584827 0 -0.019383630886315679 0.20246845033521829 0 -0.01949536222664228 0.1923427933584827 0 -0.011799668219416901 0.19617813045667529 0 -0.01949536222664228 0.1923427933584827 0 -0.011799668219416901 0.19617813045667529 0 -0.0099503170468955675 0.185467411183286 0 -0.0047591026019954026 0.19332022418589959 0 -0.011799668219416901 0.19617813045667529 0 -0.0099503170468955675 0.185467411183286 0 -0.0047591026019954026 0.19332022418589959 0 -0.003081975793268537 0.18782002811878001 0 -0.0099503170468955675 0.185467411183286 0 -0.0047591026019954026 0.19332022418589959 0 -2.3422743153838069e-05 0.1988005567515452 0 0.0015327128313205251 0.1915709431207247 0 -0.0047591026019954026 0.19332022418589959 0 -0.003081975793268537 0.18782002811878001 0 0.0015327128313205251 0.1915709431207247 0 -2.3422743153838069e-05 0.1988005567515452 0 -0.0064134676939889088 0.1997865992100484 0 -0.0042090490499692894 0.20625736901624969 0 -0.0047591026019954026 0.19332022418589959 0 -2.3422743153838069e-05 0.1988005567515452 0 -0.0064134676939889088 0.1997865992100484 0 -0.0047591026019954026 0.19332022418589959 0 -0.0064134676939889088 0.1997865992100484 0 -0.011799668219416901 0.19617813045667529 0 -0.019383630886315679 0.20246845033521829 0 -0.011799668219416901 0.19617813045667529 0 -0.01127609585540912 0.20437671563987239 0 -0.0064134676939889088 0.1997865992100484 0 -0.011799668219416901 0.19617813045667529 0 -0.01127609585540912 0.20437671563987239 0 -0.019383630886315679 0.20246845033521829 0 -0.01127609585540912 0.20437671563987239 0 -0.015975625416527989 0.21106072298800291 0 -0.0098363755348389904 0.2097806401996784 0 -0.01127609585540912 0.20437671563987239 0 -0.015975625416527989 0.21106072298800291 0 -0.0098363755348389904 0.2097806401996784 0 -0.01127609585540912 0.20437671563987239 0 -0.0042090490499692894 0.20625736901624969 0 -0.0042090490499692894 0.20625736901624969 0 0.00083142932333707279 0.21381627434491049 0 0.0029581381265264858 0.20519393183106241 0 -0.0064134676939889088 0.1997865992100484 0 -0.01127609585540912 0.20437671563987239 0 -0.0042090490499692894 0.20625736901624969 0 -0.0098363755348389904 0.2097806401996784 0 -0.0042090490499692894 0.20625736901624969 0 -0.0060196598873338584 0.21321125444391051 0 -2.3422743153838069e-05 0.1988005567515452 0 -0.0042090490499692894 0.20625736901624969 0 0.0029581381265264858 0.20519393183106241 0 -0.0055559642639475869 0.21913689448513271 0 0.0001093474821353509 0.22215689039817851 0 0.00083142932333707279 0.21381627434491049 0 -0.0060196598873338584 0.21321125444391051 0 -0.0055559642639475869 0.21913689448513271 0 0.00083142932333707279 0.21381627434491049 0 -0.0042090490499692894 0.20625736901624969 0 -0.0060196598873338584 0.21321125444391051 0 0.00083142932333707279 0.21381627434491049 0 -0.0060196598873338584 0.21321125444391051 0 -0.01091493828254137 0.21625783395607551 0 -0.0055559642639475869 0.21913689448513271 0 -0.01091493828254137 0.21625783395607551 0 -0.015975625416527989 0.21106072298800291 0 -0.017588491814277241 0.22188462813269769 0 -0.0098363755348389904 0.2097806401996784 0 -0.0060196598873338584 0.21321125444391051 0 -0.01091493828254137 0.21625783395607551 0 -0.0098363755348389904 0.2097806401996784 0 -0.01091493828254137 0.21625783395607551 0 -0.015975625416527989 0.21106072298800291 0 -0.015975625416527989 0.21106072298800291 0 -0.025983012380334781 0.2115930184476672 0 -0.017588491814277241 0.22188462813269769 0 -0.019383630886315679 0.20246845033521829 0 -0.015975625416527989 0.21106072298800291 0 -0.025983012380334781 0.2115930184476672 0 -0.029252980350323681 0.1977376245802884 0 -0.019383630886315679 0.20246845033521829 0 -0.025983012380334781 0.2115930184476672 0 -0.025983012380334781 0.2115930184476672 0 -0.02772339752401377 0.22169904798743939 0 -0.017588491814277241 0.22188462813269769 0 -0.02772339752401377 0.22169904798743939 0 -0.02675369219281019 0.23290150150097291 0 -0.022352419066048221 0.22652947853539249 0 -0.02675369219281019 0.23290150150097291 0 -0.017344094733091689 0.22963273652046001 0 -0.01246950101347712 0.23792538229425519 0 -0.02675369219281019 0.23290150150097291 0 -0.017344094733091689 0.22963273652046001 0 -0.022352419066048221 0.22652947853539249 0 -0.017344094733091689 0.22963273652046001 0 -0.017588491814277241 0.22188462813269769 0 -0.01350500053265637 0.2263729039251991 0 -0.017344094733091689 0.22963273652046001 0 -0.022352419066048221 0.22652947853539249 0 -0.017588491814277241 0.22188462813269769 0 -0.02772339752401377 0.22169904798743939 0 -0.022352419066048221 0.22652947853539249 0 -0.017588491814277241 0.22188462813269769 0 -0.01091493828254137 0.21625783395607551 0 -0.017588491814277241 0.22188462813269769 0 -0.01009356448405245 0.2229710377255022 0 -0.017588491814277241 0.22188462813269769 0 -0.01350500053265637 0.2263729039251991 0 -0.01009356448405245 0.2229710377255022 0 -0.01091493828254137 0.21625783395607551 0 -0.01009356448405245 0.2229710377255022 0 -0.0055559642639475869 0.21913689448513271 0 -0.01009356448405245 0.2229710377255022 0 -0.0055559642639475869 0.21913689448513271 0 -0.0046023563546483629 0.22639127835839259 0 -0.0055559642639475869 0.21913689448513271 0 -0.0046023563546483629 0.22639127835839259 0 0.0001093474821353509 0.22215689039817851 0 -0.0046023563546483629 0.22639127835839259 0 0.0010433620948100131 0.23240638127880581 0 0.0001093474821353509 0.22215689039817851 0 -0.0046023563546483629 0.22639127835839259 0 -0.0089938510992040935 0.23100321332213661 0 0.0010433620948100131 0.23240638127880581 0 -0.017344094733091689 0.22963273652046001 0 -0.0089938510992040935 0.23100321332213661 0 -0.01246950101347712 0.23792538229425519 0 -0.01009356448405245 0.2229710377255022 0 -0.0046023563546483629 0.22639127835839259 0 -0.0089938510992040935 0.23100321332213661 0 -0.017344094733091689 0.22963273652046001 0 -0.01350500053265637 0.2263729039251991 0 -0.0089938510992040935 0.23100321332213661 0 -0.01350500053265637 0.2263729039251991 0 -0.01009356448405245 0.2229710377255022 0 -0.0089938510992040935 0.23100321332213661 0 -0.0089938510992040935 0.23100321332213661 0 -0.001965278602122185 0.24182690426762959 0 0.0010433620948100131 0.23240638127880581 0 -0.0089938510992040935 0.23100321332213661 0 -0.01246950101347712 0.23792538229425519 0 -0.001965278602122185 0.24182690426762959 0 -0.0082457657602449386 0.25246627485226031 0 -0.01246950101347712 0.23792538229425519 0 -0.001965278602122185 0.24182690426762959 0 -0.0082457657602449386 0.25246627485226031 0 -0.02675369219281019 0.23290150150097291 0 -0.01246950101347712 0.23792538229425519 0 -0.029881977245259539 0.25372898958001938 0 -0.0082457657602449386 0.25246627485226031 0 -0.026711477711177899 0.23444217817011309 0 -0.0082457657602449386 0.25246627485226031 0 -0.02675369219281019 0.23290150150097291 0 -0.026711477711177899 0.23444217817011309 0 -0.0082457657602449386 0.25246627485226031 0 -0.02675369219281019 0.23290150150097291 0 -0.046893106203257602 0.1507880314475378 0 -0.033582854738693747 0.16530128627528251 0 -0.03096555907766051 0.14775731769023701 0 -0.035508455794597132 0.13046501110523001 0 -0.046893106203257602 0.1507880314475378 0 -0.03096555907766051 0.14775731769023701 0 -0.035508455794597132 0.13046501110523001 0 -0.046893106203257602 0.1507880314475378 0 -0.035508455794597132 0.13046501110523001 0 -0.055186524828957063 0.1281687789626855 0 -0.046893106203257602 0.1507880314475378 0 -0.035508455794597132 0.13046501110523001 0 -0.055186524828957063 0.1281687789626855 0 -0.04045215309894238 0.1165912735558266 0 -0.074642854581774637 0.14147916649728479 0 -0.055186524828957063 0.1281687789626855 0 -0.046893106203257602 0.1507880314475378 0 -0.065615427061545384 0.16058384892905991 0 -0.074642854581774637 0.14147916649728479 0 -0.046893106203257602 0.1507880314475378 0 -0.065615427061545384 0.16058384892905991 0 -0.046893106203257602 0.1507880314475378 0 -0.051824687549248197 0.17345858692208871 0 -0.063769545057940663 0.19377195479839809 0 -0.051824687549248197 0.17345858692208871 0 -0.041349789320347038 0.18749549167170951 0 -0.041349789320347038 0.18749549167170951 0 -0.033582854738693747 0.16530128627528251 0 -0.02440704960050057 0.1813667693045137 0 -0.051824687549248197 0.17345858692208871 0 -0.041349789320347038 0.18749549167170951 0 -0.033582854738693747 0.16530128627528251 0 -0.046893106203257602 0.1507880314475378 0 -0.051824687549248197 0.17345858692208871 0 -0.033582854738693747 0.16530128627528251 0 -0.033582854738693747 0.16530128627528251 0 -0.022139091883514501 0.16815071126606429 0 -0.02440704960050057 0.1813667693045137 0 -0.033582854738693747 0.16530128627528251 0 -0.022139091883514501 0.16815071126606429 0 -0.016648491277264341 0.15771365056650341 0 -0.033582854738693747 0.16530128627528251 0 -0.016648491277264341 0.15771365056650341 0 -0.03096555907766051 0.14775731769023701 0 -0.022139091883514501 0.16815071126606429 0 -0.02440704960050057 0.1813667693045137 0 -0.01283771780100665 0.17547196173435681 0 -0.01949536222664228 0.1923427933584827 0 -0.02440704960050057 0.1813667693045137 0 -0.0099503170468955675 0.185467411183286 0 -0.02440704960050057 0.1813667693045137 0 -0.0099503170468955675 0.185467411183286 0 -0.01283771780100665 0.17547196173435681 0 -0.0099503170468955675 0.185467411183286 0 -0.01283771780100665 0.17547196173435681 0 -0.00450206117857799 0.17688747855202069 0 -0.01283771780100665 0.17547196173435681 0 -0.00450206117857799 0.17688747855202069 0 -0.0026654791677323511 0.16604552865166611 0 -0.00450206117857799 0.17688747855202069 0 -0.0026654791677323511 0.16604552865166611 0 0.0024081860720475369 0.17557227428335351 0 -0.00450206117857799 0.17688747855202069 0 0.00053502205069707774 0.18188021690744111 0 0.0024081860720475369 0.17557227428335351 0 -0.0099503170468955675 0.185467411183286 0 -0.00450206117857799 0.17688747855202069 0 0.00053502205069707774 0.18188021690744111 0 -0.003081975793268537 0.18782002811878001 0 -0.0099503170468955675 0.185467411183286 0 0.00053502205069707774 0.18188021690744111 0 -0.022139091883514501 0.16815071126606429 0 -0.016648491277264341 0.15771365056650341 0 -0.0026654791677323511 0.16604552865166611 0 -0.022139091883514501 0.16815071126606429 0 -0.01283771780100665 0.17547196173435681 0 -0.0026654791677323511 0.16604552865166611 0 -0.016648491277264341 0.15771365056650341 0 -0.0026654791677323511 0.16604552865166611 0 0.00151890392611572 0.15456094484017679 0 -0.016648491277264341 0.15771365056650341 0 -0.0026654791677323511 0.16604552865166611 0 -0.0082797250895681185 0.13474448294352481 0 0.00151890392611572 0.15456094484017679 0 -0.016648491277264341 0.15771365056650341 0 -0.0082797250895681185 0.13474448294352481 0 0.00151890392611572 0.15456094484017679 0 -0.016648491277264341 0.15771365056650341 0 -0.03096555907766051 0.14775731769023701 0 -0.022194887374489752 0.13451860905663129 0 -0.016648491277264341 0.15771365056650341 0 -0.022194887374489752 0.13451860905663129 0 -0.0082797250895681185 0.13474448294352481 0 -0.035508455794597132 0.13046501110523001 0 -0.03096555907766051 0.14775731769023701 0 -0.022194887374489752 0.13451860905663129 0 -0.035508455794597132 0.13046501110523001 0 -0.022194887374489752 0.13451860905663129 0 -0.02222625157844095 0.1227088344756834 0 -0.022194887374489752 0.13451860905663129 0 -0.012678773622269129 0.1213748672570316 0 -0.02222625157844095 0.1227088344756834 0 -0.022194887374489752 0.13451860905663129 0 -0.0082797250895681185 0.13474448294352481 0 -0.012678773622269129 0.1213748672570316 0 -0.0082797250895681185 0.13474448294352481 0 -0.012678773622269129 0.1213748672570316 0 0.0010393500416724941 0.12595831854165979 0 -0.012678773622269129 0.1213748672570316 0 -0.0069683050282923539 0.11495619240176071 0 0.0010393500416724941 0.12595831854165979 0 -0.0069683050282923539 0.11495619240176071 0 0.00039794405216867472 0.112072386291362 0 0.0010393500416724941 0.12595831854165979 0 -0.012678773622269129 0.1213748672570316 0 -0.012248850971573841 0.1125208075020822 0 -0.01744198128355802 0.11503771634109559 0 -0.012678773622269129 0.1213748672570316 0 -0.012248850971573841 0.1125208075020822 0 -0.0069683050282923539 0.11495619240176071 0 -0.012248850971573841 0.1125208075020822 0 -0.0069683050282923539 0.11495619240176071 0 -0.0083997351711877014 0.10895079227570641 0 -0.0069683050282923539 0.11495619240176071 0 -0.0083997351711877014 0.10895079227570641 0 0.00039794405216867472 0.112072386291362 0 -0.011506603279544361 0.087618711973773578 0 0.0058206420146291954 0.1114089238878985 0 0.00039794405216867472 0.112072386291362 0 -0.015837719346710199 0.095350294128549784 0 -0.011506603279544361 0.087618711973773578 0 0.00039794405216867472 0.112072386291362 0 -0.011506603279544361 0.087618711973773578 0 0.0058206420146291954 0.1114089238878985 0 -0.015837719346710199 0.095350294128549784 0 0.00039794405216867472 0.112072386291362 0 -0.0083997351711877014 0.10895079227570641 0 -0.015837719346710199 0.095350294128549784 0 0.00039794405216867472 0.112072386291362 0 -0.011506603279544361 0.087618711973773578 0 0.0017142141577850001 0.096485027642689541 0 0.0058206420146291954 0.1114089238878985 0 -0.0083997351711877014 0.10895079227570641 0 -0.013221823848225379 0.1065091018144344 0 -0.015837719346710199 0.095350294128549784 0 -0.012248850971573841 0.1125208075020822 0 -0.0083997351711877014 0.10895079227570641 0 -0.013221823848225379 0.1065091018144344 0 -0.012248850971573841 0.1125208075020822 0 -0.013221823848225379 0.1065091018144344 0 -0.017997844109414411 0.1087655018954708 0 -0.017997844109414411 0.1087655018954708 0 -0.015837719346710199 0.095350294128549784 0 -0.024123805385937312 0.11014199076292169 0 -0.013221823848225379 0.1065091018144344 0 -0.017997844109414411 0.1087655018954708 0 -0.015837719346710199 0.095350294128549784 0 -0.024123805385937312 0.11014199076292169 0 -0.032300333499350402 0.090057470672271281 0 -0.015837719346710199 0.095350294128549784 0 -0.024123805385937312 0.11014199076292169 0 -0.032300333499350402 0.090057470672271281 0 -0.015837719346710199 0.095350294128549784 0 -0.024123805385937312 0.11014199076292169 0 -0.035508455794597132 0.13046501110523001 0 -0.024123805385937312 0.11014199076292169 0 -0.023307159817290739 0.1121479686184283 0 -0.035508455794597132 0.13046501110523001 0 -0.02222625157844095 0.1227088344756834 0 -0.023307159817290739 0.1121479686184283 0 -0.035508455794597132 0.13046501110523001 0 -0.024123805385937312 0.11014199076292169 0 -0.024123805385937312 0.11014199076292169 0 -0.023307159817290739 0.1121479686184283 0 -0.012678773622269129 0.1213748672570316 0 -0.02222625157844095 0.1227088344756834 0 -0.01744198128355802 0.11503771634109559 0 -0.02222625157844095 0.1227088344756834 0 -0.01744198128355802 0.11503771634109559 0 -0.023307159817290739 0.1121479686184283 0 -0.012248850971573841 0.1125208075020822 0 -0.017997844109414411 0.1087655018954708 0 -0.01744198128355802 0.11503771634109559 0 -0.017997844109414411 0.1087655018954708 0 -0.024123805385937312 0.11014199076292169 0 -0.023307159817290739 0.1121479686184283 0 -0.017997844109414411 0.1087655018954708 0 -0.01744198128355802 0.11503771634109559 0 -0.023307159817290739 0.1121479686184283 0 -0.0046988296279310846 0.075465987257500103 0 -0.004471055932428975 0.061346262570306953 0 0.0079626054049135586 0.052863747179962457 0 -0.0093767874180366029 0.073051079923104223 0 -0.014915188529848109 0.07157527628023079 0 -0.011506603279544361 0.087618711973773578 0 -0.0096267601800840239 0.066065855624376196 0 -0.01690032334888349 0.065021557104339434 0 -0.015766095144715799 0.059221925757037469 0 -0.0096267601800840239 0.066065855624376196 0 -0.014915188529848109 0.07157527628023079 0 -0.01690032334888349 0.065021557104339434 0 -0.0096267601800840239 0.066065855624376196 0 -0.0093767874180366029 0.073051079923104223 0 -0.014915188529848109 0.07157527628023079 0 -0.0096267601800840239 0.066065855624376196 0 -0.0046988296279310846 0.075465987257500103 0 -0.004471055932428975 0.061346262570306953 0 -0.0046988296279310846 0.075465987257500103 0 -0.0093767874180366029 0.073051079923104223 0 -0.0096267601800840239 0.066065855624376196 0 -0.0046988296279310846 0.075465987257500103 0 -0.0093767874180366029 0.073051079923104223 0 -0.0046988296279310846 0.075465987257500103 0 -0.011506603279544361 0.087618711973773578 0 -0.0046988296279310846 0.075465987257500103 0 -0.0093767874180366029 0.073051079923104223 0 -0.011506603279544361 0.087618711973773578 0 -0.0046988296279310846 0.075465987257500103 0 -0.011506603279544361 0.087618711973773578 0 0.00056903788424511365 0.086682396089073327 0 -0.011506603279544361 0.087618711973773578 0 0.00056903788424511365 0.086682396089073327 0 0.0017142141577850001 0.096485027642689541 0 -0.015837719346710199 0.095350294128549784 0 -0.011506603279544361 0.087618711973773578 0 -0.011506603279544361 0.087618711973773578 0 -0.028157290479737571 0.082661622355085798 0 -0.027165468422692102 0.066119176775560506 0 -0.015837719346710199 0.095350294128549784 0 -0.011506603279544361 0.087618711973773578 0 -0.028157290479737571 0.082661622355085798 0 -0.015837719346710199 0.095350294128549784 0 -0.028157290479737571 0.082661622355085798 0 -0.032300333499350402 0.090057470672271281 0 -0.015837719346710199 0.095350294128549784 0 -0.028157290479737571 0.082661622355085798 0 -0.014915188529848109 0.07157527628023079 0 -0.011506603279544361 0.087618711973773578 0 -0.027165468422692102 0.066119176775560506 0 -0.011506603279544361 0.087618711973773578 0 -0.027165468422692102 0.066119176775560506 0 -0.027165468422692102 0.066119176775560506 0 -0.01690032334888349 0.065021557104339434 0 -0.021155304748881689 0.062203044053262727 0 -0.014915188529848109 0.07157527628023079 0 -0.027165468422692102 0.066119176775560506 0 -0.01690032334888349 0.065021557104339434 0 -0.027165468422692102 0.066119176775560506 0 -0.040476861612764189 0.069972950581621118 0 -0.047888547298180387 0.051767161035057033 0 -0.028157290479737571 0.082661622355085798 0 -0.027165468422692102 0.066119176775560506 0 -0.040476861612764189 0.069972950581621118 0 -0.040476861612764189 0.069972950581621118 0 -0.049934811086014087 0.07186746235717667 0 -0.047859912164240369 0.063897566148078455 0 -0.028157290479737571 0.082661622355085798 0 -0.040476861612764189 0.069972950581621118 0 -0.040476861612764189 0.069972950581621118 0 -0.032300333499350402 0.090057470672271281 0 -0.028157290479737571 0.082661622355085798 0 -0.040476861612764189 0.069972950581621118 0 -0.032300333499350402 0.090057470672271281 0 -0.032300333499350402 0.090057470672271281 0 -0.052294403454901703 0.081174947256086191 0 -0.05578440732887191 0.096170589739797752 0 -0.040476861612764189 0.069972950581621118 0 -0.032300333499350402 0.090057470672271281 0 -0.052294403454901703 0.081174947256086191 0 -0.052294403454901703 0.081174947256086191 0 -0.05578440732887191 0.096170589739797752 0 -0.071620526940906107 0.087533684005701329 0 -0.052294403454901703 0.081174947256086191 0 -0.071620526940906107 0.087533684005701329 0 -0.062515526400001881 0.068377579792855414 0 -0.040476861612764189 0.069972950581621118 0 -0.052294403454901703 0.081174947256086191 0 -0.049934811086014087 0.07186746235717667 0 -0.052294403454901703 0.081174947256086191 0 -0.049934811086014087 0.07186746235717667 0 -0.062515526400001881 0.068377579792855414 0 -0.049934811086014087 0.07186746235717667 0 -0.052204780428632629 0.062945341387988421 0 -0.062515526400001881 0.068377579792855414 0 -0.052204780428632629 0.062945341387988421 0 -0.062515526400001881 0.068377579792855414 0 -0.055379183454653792 0.058514889464143828 0 -0.049934811086014087 0.07186746235717667 0 -0.052204780428632629 0.062945341387988421 0 -0.047859912164240369 0.063897566148078455 0 -0.024123805385937312 0.11014199076292169 0 -0.04045215309894238 0.1165912735558266 0 -0.041170092212669533 0.1046411265361262 0 -0.035508455794597132 0.13046501110523001 0 -0.024123805385937312 0.11014199076292169 0 -0.04045215309894238 0.1165912735558266 0 -0.04045215309894238 0.1165912735558266 0 -0.041170092212669533 0.1046411265361262 0 -0.052159737415513489 0.1112025467171566 0 -0.032300333499350402 0.090057470672271281 0 -0.041170092212669533 0.1046411265361262 0 -0.05578440732887191 0.096170589739797752 0 -0.024123805385937312 0.11014199076292169 0 -0.032300333499350402 0.090057470672271281 0 -0.041170092212669533 0.1046411265361262 0 -0.05578440732887191 0.096170589739797752 0 -0.052159737415513489 0.1112025467171566 0 -0.07438317581125764 0.1124407737129243 0 -0.041170092212669533 0.1046411265361262 0 -0.05578440732887191 0.096170589739797752 0 -0.052159737415513489 0.1112025467171566 0 -0.055186524828957063 0.1281687789626855 0 -0.04045215309894238 0.1165912735558266 0 -0.052159737415513489 0.1112025467171566 0 -0.055186524828957063 0.1281687789626855 0 -0.052159737415513489 0.1112025467171566 0 -0.07438317581125764 0.1124407737129243 0 -0.092802426943272898 0.12960292979422991 0 -0.07438317581125764 0.1124407737129243 0 -0.10110008134148971 0.1098561456819369 0 -0.07438317581125764 0.1124407737129243 0 -0.086834659998143784 0.098004038152668241 0 -0.10110008134148971 0.1098561456819369 0 -0.07438317581125764 0.1124407737129243 0 -0.086834659998143784 0.098004038152668241 0 -0.071620526940906107 0.087533684005701329 0 -0.05578440732887191 0.096170589739797752 0 -0.07438317581125764 0.1124407737129243 0 -0.071620526940906107 0.087533684005701329 0 -0.071620526940906107 0.087533684005701329 0 -0.062515526400001881 0.068377579792855414 0 -0.077633089280774809 0.070659037798975324 0 -0.062515526400001881 0.068377579792855414 0 -0.077633089280774809 0.070659037798975324 0 -0.069862538744371955 0.057777113150521288 0 -0.077633089280774809 0.070659037798975324 0 -0.081860045586377939 0.060182951188062161 0 -0.069862538744371955 0.057777113150521288 0 -0.077633089280774809 0.070659037798975324 0 -0.09054666164713164 0.067286880848174316 0 -0.081860045586377939 0.060182951188062161 0 -0.077633089280774809 0.070659037798975324 0 -0.09054666164713164 0.067286880848174316 0 -0.091096470542610469 0.082323341280698709 0 -0.071620526940906107 0.087533684005701329 0 -0.077633089280774809 0.070659037798975324 0 -0.091096470542610469 0.082323341280698709 0 -0.086834659998143784 0.098004038152668241 0 -0.071620526940906107 0.087533684005701329 0 -0.091096470542610469 0.082323341280698709 0 -0.086834659998143784 0.098004038152668241 0 -0.091096470542610469 0.082323341280698709 0 -0.1074822184466613 0.088136729408796272 0 -0.091096470542610469 0.082323341280698709 0 -0.1074822184466613 0.088136729408796272 0 -0.10104646070399111 0.074349611526457776 0 -0.1074822184466613 0.088136729408796272 0 -0.10104646070399111 0.074349611526457776 0 -0.1134486320906168 0.071653759806922179 0 -0.09054666164713164 0.067286880848174316 0 -0.10104646070399111 0.074349611526457776 0 -0.1026583207929353 0.062347346287697412 0 -0.09054666164713164 0.067286880848174316 0 -0.091096470542610469 0.082323341280698709 0 -0.10104646070399111 0.074349611526457776 0 -0.10104646070399111 0.074349611526457776 0 -0.1134486320906168 0.071653759806922179 0 -0.1026583207929353 0.062347346287697412 0 -0.1134486320906168 0.071653759806922179 0 -0.1169815729820268 0.057446916627697332 0 -0.1026583207929353 0.062347346287697412 0 -0.1134486320906168 0.071653759806922179 0 -0.12498233095038511 0.069533312171706482 0 -0.1248370695698198 0.083226530136874921 0 -0.1134486320906168 0.071653759806922179 0 -0.12498233095038511 0.069533312171706482 0 -0.1169815729820268 0.057446916627697332 0 -0.1074822184466613 0.088136729408796272 0 -0.1134486320906168 0.071653759806922179 0 -0.1248370695698198 0.083226530136874921 0 -0.12991930243541749 0.1020465165188278 0 -0.1074822184466613 0.088136729408796272 0 -0.1248370695698198 0.083226530136874921 0 -0.12991930243541749 0.1020465165188278 0 -0.1074822184466613 0.088136729408796272 0 -0.10110008134148971 0.1098561456819369 0 -0.12991930243541749 0.1020465165188278 0 -0.1131006250587715 0.12959615498317961 0 -0.10110008134148971 0.1098561456819369 0 -0.12991930243541749 0.1020465165188278 0 -0.13028426483969929 0.13221647237215789 0 -0.1131006250587715 0.12959615498317961 0 -0.1131006250587715 0.12959615498317961 0 -0.092802426943272898 0.12960292979422991 0 -0.10110008134148971 0.1098561456819369 0 -0.086834659998143784 0.098004038152668241 0 -0.1074822184466613 0.088136729408796272 0 -0.10110008134148971 0.1098561456819369 0 -0.1061587232064081 0.029080734372794698 0 -0.094449021505079139 0.018227913303066591 0 -0.1094215753963574 0.0115277712725063 0 -0.1061587232064081 0.029080734372794698 0 -0.094924595462104619 0.030399760044886301 0 -0.094449021505079139 0.018227913303066591 0 -0.094449021505079139 0.018227913303066591 0 -0.097507665945787692 0.0040820149966005574 0 -0.1094215753963574 0.0115277712725063 0 -0.097507665945787692 0.0040820149966005574 0 -0.1058521268010089 0.00073384547527136773 0 -0.1094215753963574 0.0115277712725063 0 -0.1152652699767374 -0.0044733142422073097 0 -0.1273771369441013 0.0023450629401116992 0 -0.1094215753963574 0.0115277712725063 0 -0.1152652699767374 -0.0044733142422073097 0 -0.1058521268010089 0.00073384547527136773 0 -0.1094215753963574 0.0115277712725063 0 -0.1273771369441013 0.0023450629401116992 0 -0.12537023626190849 0.01701499410391356 0 -0.1094215753963574 0.0115277712725063 0 -0.12537023626190849 0.01701499410391356 0 -0.1094215753963574 0.0115277712725063 0 -0.1154752524598698 0.02214949429500624 0 -0.12537023626190849 0.01701499410391356 0 -0.1154752524598698 0.02214949429500624 0 -0.120950474974805 0.030974477430810402 0 -0.1061587232064081 0.029080734372794698 0 -0.1094215753963574 0.0115277712725063 0 -0.1154752524598698 0.02214949429500624 0 -0.1061587232064081 0.029080734372794698 0 -0.1154752524598698 0.02214949429500624 0 -0.120950474974805 0.030974477430810402 0 -0.1304591025064194 0.044551821316570157 0 -0.120950474974805 0.030974477430810402 0 -0.112428546201817 0.041955624634692393 0 -0.1061587232064081 0.029080734372794698 0 -0.120950474974805 0.030974477430810402 0 -0.112428546201817 0.041955624634692393 0 -0.1304591025064194 0.044551821316570157 0 -0.112428546201817 0.041955624634692393 0 -0.1169815729820268 0.057446916627697332 0 -0.1311901693420546 0.060374133793646992 0 -0.12498233095038511 0.069533312171706482 0 -0.1169815729820268 0.057446916627697332 0 -0.112428546201817 0.041955624634692393 0 -0.1169815729820268 0.057446916627697332 0 -0.10210071185166431 0.050014029354961582 0 -0.1169815729820268 0.057446916627697332 0 -0.1026583207929353 0.062347346287697412 0 -0.10210071185166431 0.050014029354961582 0 -0.10210071185166431 0.050014029354961582 0 -0.091201579857211959 0.041080799774458047 0 -0.091131717688311603 0.055225201160547438 0 -0.1026583207929353 0.062347346287697412 0 -0.10210071185166431 0.050014029354961582 0 -0.091131717688311603 0.055225201160547438 0 -0.09054666164713164 0.067286880848174316 0 -0.1026583207929353 0.062347346287697412 0 -0.091131717688311603 0.055225201160547438 0 -0.1061587232064081 0.029080734372794698 0 -0.112428546201817 0.041955624634692393 0 -0.1016080011228369 0.039407166226836883 0 -0.112428546201817 0.041955624634692393 0 -0.10210071185166431 0.050014029354961582 0 -0.1016080011228369 0.039407166226836883 0 -0.10210071185166431 0.050014029354961582 0 -0.1016080011228369 0.039407166226836883 0 -0.091201579857211959 0.041080799774458047 0 -0.1061587232064081 0.029080734372794698 0 -0.094924595462104619 0.030399760044886301 0 -0.1016080011228369 0.039407166226836883 0 -0.094924595462104619 0.030399760044886301 0 -0.1016080011228369 0.039407166226836883 0 -0.091201579857211959 0.041080799774458047 0 -0.094924595462104619 0.030399760044886301 0 -0.091201579857211959 0.041080799774458047 0 -0.083613433652756419 0.02825823648094046 0 -0.091201579857211959 0.041080799774458047 0 -0.080163505572120847 0.038728335950810322 0 -0.0801262205712997 0.049966522982092462 0 -0.091201579857211959 0.041080799774458047 0 -0.080163505572120847 0.038728335950810322 0 -0.083613433652756419 0.02825823648094046 0 -0.080163505572120847 0.038728335950810322 0 -0.075199828102842814 0.032505994045140242 0 -0.083613433652756419 0.02825823648094046 0 -0.09054666164713164 0.067286880848174316 0 -0.091131717688311603 0.055225201160547438 0 -0.081860045586377939 0.060182951188062161 0 -0.091201579857211959 0.041080799774458047 0 -0.091131717688311603 0.055225201160547438 0 -0.0801262205712997 0.049966522982092462 0 -0.091131717688311603 0.055225201160547438 0 -0.0801262205712997 0.049966522982092462 0 -0.081860045586377939 0.060182951188062161 0 -0.0801262205712997 0.049966522982092462 0 -0.069862538744371955 0.057777113150521288 0 -0.06901267431079619 0.039797487593251017 0 -0.069862538744371955 0.057777113150521288 0 -0.06901267431079619 0.039797487593251017 0 -0.058907879691800273 0.050969475640674493 0 -0.062515526400001881 0.068377579792855414 0 -0.069862538744371955 0.057777113150521288 0 -0.058907879691800273 0.050969475640674493 0 -0.0801262205712997 0.049966522982092462 0 -0.081860045586377939 0.060182951188062161 0 -0.069862538744371955 0.057777113150521288 0 -0.06901267431079619 0.039797487593251017 0 -0.068009698875697827 0.023239916155559141 0 -0.055300232983598208 0.033561371488493641 0 -0.075199828102842814 0.032505994045140242 0 -0.06901267431079619 0.039797487593251017 0 -0.068009698875697827 0.023239916155559141 0 -0.080163505572120847 0.038728335950810322 0 -0.075199828102842814 0.032505994045140242 0 -0.06901267431079619 0.039797487593251017 0 -0.080163505572120847 0.038728335950810322 0 -0.0801262205712997 0.049966522982092462 0 -0.06901267431079619 0.039797487593251017 0 -0.068009698875697827 0.023239916155559141 0 -0.066123158358303874 0.0069763394170788487 0 -0.055300232983598208 0.033561371488493641 0 -0.068009698875697827 0.023239916155559141 0 -0.083613433652756419 0.02825823648094046 0 -0.080050012301679602 0.015705407900093959 0 -0.068009698875697827 0.023239916155559141 0 -0.080050012301679602 0.015705407900093959 0 -0.07274845615251338 0.0135364418571977 0 -0.075199828102842814 0.032505994045140242 0 -0.068009698875697827 0.023239916155559141 0 -0.083613433652756419 0.02825823648094046 0 -0.094449021505079139 0.018227913303066591 0 -0.083613433652756419 0.02825823648094046 0 -0.080050012301679602 0.015705407900093959 0 -0.094924595462104619 0.030399760044886301 0 -0.094449021505079139 0.018227913303066591 0 -0.083613433652756419 0.02825823648094046 0 -0.089124004628701792 -0.0040277377021705899 0 -0.097507665945787692 0.0040820149966005574 0 -0.086098134196158846 0.0059583430860626887 0 -0.094449021505079139 0.018227913303066591 0 -0.080050012301679602 0.015705407900093959 0 -0.086098134196158846 0.0059583430860626887 0 -0.094449021505079139 0.018227913303066591 0 -0.097507665945787692 0.0040820149966005574 0 -0.086098134196158846 0.0059583430860626887 0 -0.080050012301679602 0.015705407900093959 0 -0.086098134196158846 0.0059583430860626887 0 -0.076810955074372203 0.0082241039560588727 0 -0.079764572027605563 -0.001208843295517239 0 -0.086098134196158846 0.0059583430860626887 0 -0.076810955074372203 0.0082241039560588727 0 -0.079764572027605563 -0.001208843295517239 0 -0.089124004628701792 -0.0040277377021705899 0 -0.086098134196158846 0.0059583430860626887 0 -0.079764572027605563 -0.001208843295517239 0 -0.076810955074372203 0.0082241039560588727 0 -0.066123158358303874 0.0069763394170788487 0 -0.068009698875697827 0.023239916155559141 0 -0.07274845615251338 0.0135364418571977 0 -0.066123158358303874 0.0069763394170788487 0 -0.076810955074372203 0.0082241039560588727 0 -0.07274845615251338 0.0135364418571977 0 -0.066123158358303874 0.0069763394170788487 0 -0.080050012301679602 0.015705407900093959 0 -0.076810955074372203 0.0082241039560588727 0 -0.07274845615251338 0.0135364418571977 0 -0.047617207273071643 -0.0035118018543059538 0 -0.059664616745900671 -0.0040500510012267867 0 -0.050798470683601923 0.01183886002179501 0 -0.059664616745900671 -0.0040500510012267867 0 -0.066123158358303874 0.0069763394170788487 0 -0.050798470683601923 0.01183886002179501 0 -0.059664616745900671 -0.0040500510012267867 0 -0.050798470683601923 0.01183886002179501 0 -0.047617207273071643 -0.0035118018543059538 0 -0.050798470683601923 0.01183886002179501 0 -0.050798470683601923 0.01183886002179501 0 -0.055300232983598208 0.033561371488493641 0 -0.04692109718252771 0.035386244484329407 0 -0.066123158358303874 0.0069763394170788487 0 -0.055300232983598208 0.033561371488493641 0 -0.066123158358303874 0.0069763394170788487 0 -0.050798470683601923 0.01183886002179501 0 -0.055300232983598208 0.033561371488493641 0 -0.050798470683601923 0.01183886002179501 0 -0.055300232983598208 0.033561371488493641 0 -0.050798470683601923 0.01183886002179501 0 -0.034391162446891957 0.018187238464497092 0 -0.037793901381418679 0.035144188298954319 0 -0.034391162446891957 0.018187238464497092 0 -0.037793901381418679 0.035144188298954319 0 -0.022455882408961961 0.026825405924253771 0 -0.050798470683601923 0.01183886002179501 0 -0.037793901381418679 0.035144188298954319 0 -0.050798470683601923 0.01183886002179501 0 -0.04692109718252771 0.035386244484329407 0 -0.037793901381418679 0.035144188298954319 0 -0.050798470683601923 0.01183886002179501 0 -0.034391162446891957 0.018187238464497092 0 -0.03671052455766443 0.0037031618858211421 0 -0.034391162446891957 0.018187238464497092 0 -0.03671052455766443 0.0037031618858211421 0 -0.022890364083827771 0.01081673007749915 0 -0.047617207273071643 -0.0035118018543059538 0 -0.050798470683601923 0.01183886002179501 0 -0.03671052455766443 0.0037031618858211421 0 -0.062515526400001881 0.068377579792855414 0 -0.058907879691800273 0.050969475640674493 0 -0.062515526400001881 0.068377579792855414 0 -0.055379183454653792 0.058514889464143828 0 -0.058907879691800273 0.050969475640674493 0 -0.052204780428632629 0.062945341387988421 0 -0.047859912164240369 0.063897566148078455 0 -0.047888547298180387 0.051767161035057033 0 -0.052204780428632629 0.062945341387988421 0 -0.055379183454653792 0.058514889464143828 0 -0.047888547298180387 0.051767161035057033 0 -0.055379183454653792 0.058514889464143828 0 -0.058907879691800273 0.050969475640674493 0 -0.047888547298180387 0.051767161035057033 0 -0.06901267431079619 0.039797487593251017 0 -0.058907879691800273 0.050969475640674493 0 -0.055300232983598208 0.033561371488493641 0 -0.047888547298180387 0.051767161035057033 0 -0.055300232983598208 0.033561371488493641 0 -0.04692109718252771 0.035386244484329407 0 -0.058907879691800273 0.050969475640674493 0 -0.047888547298180387 0.051767161035057033 0 -0.055300232983598208 0.033561371488493641 0 -0.047888547298180387 0.051767161035057033 0 -0.055300232983598208 0.033561371488493641 0 -0.058907879691800273 0.050969475640674493 0 -0.055300232983598208 0.033561371488493641 0 -0.037793901381418679 0.035144188298954319 0 -0.024789332079235359 0.058449516576113518 0 -0.047888547298180387 0.051767161035057033 0 -0.04692109718252771 0.035386244484329407 0 -0.042824333565839388 0.044619641577347061 0 -0.037793901381418679 0.035144188298954319 0 -0.042824333565839388 0.044619641577347061 0 -0.024789332079235359 0.058449516576113518 0 -0.04692109718252771 0.035386244484329407 0 -0.037793901381418679 0.035144188298954319 0 -0.042824333565839388 0.044619641577347061 0 -0.027165468422692102 0.066119176775560506 0 -0.047888547298180387 0.051767161035057033 0 -0.042824333565839388 0.044619641577347061 0 -0.040476861612764189 0.069972950581621118 0 -0.047859912164240369 0.063897566148078455 0 -0.047888547298180387 0.051767161035057033 0 -0.040476861612764189 0.069972950581621118 0 -0.047888547298180387 0.051767161035057033 0 -0.027165468422692102 0.066119176775560506 0 -0.042824333565839388 0.044619641577347061 0 -0.027165468422692102 0.066119176775560506 0 -0.042824333565839388 0.044619641577347061 0 -0.024789332079235359 0.058449516576113518 0 -0.015766095144715799 0.059221925757037469 0 -0.024789332079235359 0.058449516576113518 0 -0.0190365636870411 0.05257699221554326 0 -0.015766095144715799 0.059221925757037469 0 -0.021155304748881689 0.062203044053262727 0 -0.024789332079235359 0.058449516576113518 0 -0.01690032334888349 0.065021557104339434 0 -0.015766095144715799 0.059221925757037469 0 -0.021155304748881689 0.062203044053262727 0 -0.027165468422692102 0.066119176775560506 0 -0.021155304748881689 0.062203044053262727 0 -0.024789332079235359 0.058449516576113518 0 -0.024789332079235359 0.058449516576113518 0 -0.0190365636870411 0.05257699221554326 0 -0.02501616098884394 0.043295095323351421 0 -0.0190365636870411 0.05257699221554326 0 -0.02501616098884394 0.043295095323351421 0 -0.010574666535369299 0.049341431205670631 0 -0.037793901381418679 0.035144188298954319 0 -0.024789332079235359 0.058449516576113518 0 -0.02501616098884394 0.043295095323351421 0 -0.037793901381418679 0.035144188298954319 0 -0.02501616098884394 0.043295095323351421 0 -0.022455882408961961 0.026825405924253771 0 -0.02501616098884394 0.043295095323351421 0 -0.01174883101074616 0.035626247072063598 0 -0.022455882408961961 0.026825405924253771 0 -0.02501616098884394 0.043295095323351421 0 -0.01174883101074616 0.035626247072063598 0 -0.010574666535369299 0.049341431205670631 0 -0.01174883101074616 0.035626247072063598 0 -0.010574666535369299 0.049341431205670631 0 0.0050554059078342702 0.036817447586302399 0 -0.010574666535369299 0.049341431205670631 0 -0.004471055932428975 0.061346262570306953 0 0.0079626054049135586 0.052863747179962457 0 -0.015766095144715799 0.059221925757037469 0 -0.0190365636870411 0.05257699221554326 0 -0.010574666535369299 0.049341431205670631 0 -0.015766095144715799 0.059221925757037469 0 -0.010574666535369299 0.049341431205670631 0 -0.004471055932428975 0.061346262570306953 0 -0.0096267601800840239 0.066065855624376196 0 -0.015766095144715799 0.059221925757037469 0 -0.004471055932428975 0.061346262570306953 0 -0.025670282478897081 -0.0054027298625421993 0 -0.03671052455766443 0.0037031618858211421 0 -0.022890364083827771 0.01081673007749915 0 -0.025670282478897081 -0.0054027298625421993 0 -0.022890364083827771 0.01081673007749915 0 -0.010105069976996849 0.0023765649732562961 0 -0.022890364083827771 0.01081673007749915 0 -0.022455882408961961 0.026825405924253771 0 -0.0028948745420432241 0.01788293630915707 0 -0.034391162446891957 0.018187238464497092 0 -0.022890364083827771 0.01081673007749915 0 -0.022455882408961961 0.026825405924253771 0 -0.01174883101074616 0.035626247072063598 0 -0.022455882408961961 0.026825405924253771 0 -0.0028948745420432241 0.01788293630915707 0 -0.01174883101074616 0.035626247072063598 0 -0.0028948745420432241 0.01788293630915707 0 0.0050554059078342702 0.036817447586302399 0 -0.022890364083827771 0.01081673007749915 0 -0.0028948745420432241 0.01788293630915707 0 -0.010105069976996849 0.0023765649732562961 0 -0.0028948745420432241 0.01788293630915707 0 -0.010105069976996849 0.0023765649732562961 0 0.0047038114401232534 -0.001040937293712483 0 -0.0028948745420432241 0.01788293630915707 0 0.020415517075116841 0.0076517724901667356 0 0.0047038114401232534 -0.001040937293712483 0 -0.0028948745420432241 0.01788293630915707 0 0.020342672512877309 0.02491627604112644 0 0.020415517075116841 0.0076517724901667356 0 -0.0028948745420432241 0.01788293630915707 0 0.020342672512877309 0.02491627604112644 0 0.0050554059078342702 0.036817447586302399 0 0.020342672512877309 0.02491627604112644 0 0.020415517075116841 0.0076517724901667356 0 0.04034715667016759 0.018897687307637179 0 0.020342672512877309 0.02491627604112644 0 0.02507841675544124 0.048354097280414877 0 0.04034715667016759 0.018897687307637179 0 0.0079626054049135586 0.052863747179962457 0 0.02507841675544124 0.048354097280414877 0 0.010722424996073881 0.068121568230846891 0 -0.010574666535369299 0.049341431205670631 0 0.0079626054049135586 0.052863747179962457 0 0.0050554059078342702 0.036817447586302399 0 0.0079626054049135586 0.052863747179962457 0 0.0050554059078342702 0.036817447586302399 0 0.02507841675544124 0.048354097280414877 0 0.020342672512877309 0.02491627604112644 0 0.0050554059078342702 0.036817447586302399 0 0.02507841675544124 0.048354097280414877 0 0.02507841675544124 0.048354097280414877 0 0.050251726499931808 0.044842678424317363 0 0.039807943620716157 0.068946520475498749 0 0.050251726499931808 0.044842678424317363 0 0.039807943620716157 0.068946520475498749 0 0.02507841675544124 0.048354097280414877 0 0.050251726499931808 0.044842678424317363 0 0.04034715667016759 0.018897687307637179 0 0.050251726499931808 0.044842678424317363 0 0.060695509379147472 0.02073883637313596 0 0.066628286533047365 0.040173783681243101 0 0.050251726499931808 0.044842678424317363 0 0.060695509379147472 0.02073883637313596 0 0.050251726499931808 0.044842678424317363 0 0.066628286533047365 0.040173783681243101 0 0.063756980967503582 0.059761195325569103 0 0.050251726499931808 0.044842678424317363 0 0.063756980967503582 0.059761195325569103 0 0.039807943620716157 0.068946520475498749 0 0.020415517075116841 0.0076517724901667356 0 0.04034715667016759 0.018897687307637179 0 0.039787151186370009 -0.0039594854922263374 0 0.04034715667016759 0.018897687307637179 0 0.053306813386582982 0.0056008818424343951 0 0.039787151186370009 -0.0039594854922263374 0 0.050251726499931808 0.044842678424317363 0 0.04034715667016759 0.018897687307637179 0 0.060695509379147472 0.02073883637313596 0 0.04034715667016759 0.018897687307637179 0 0.060695509379147472 0.02073883637313596 0 0.053306813386582982 0.0056008818424343951 0 0.060695509379147472 0.02073883637313596 0 0.053306813386582982 0.0056008818424343951 0 0.065940651683257009 0.0024831850618150888 0 0.060695509379147472 0.02073883637313596 0 0.065940651683257009 0.0024831850618150888 0 0.07992851590561921 0.0082161523869754144 0 0.065940651683257009 0.0024831850618150888 0 0.07992851590561921 0.0082161523869754144 0 0.074177093133044117 -0.010507922444979889 0 0.07992851590561921 0.0082161523869754144 0 0.1009244284881298 0.0078078577834924806 0 0.09649789417263642 -0.0037639840011086311 0 0.07992851590561921 0.0082161523869754144 0 0.1009244284881298 0.0078078577834924806 0 0.09893654195113713 0.02570505514797651 0 0.07992851590561921 0.0082161523869754144 0 0.08516149451907469 0.032589503251719387 0 0.07992851590561921 0.0082161523869754144 0 0.08516149451907469 0.032589503251719387 0 0.09893654195113713 0.02570505514797651 0 0.060695509379147472 0.02073883637313596 0 0.07992851590561921 0.0082161523869754144 0 0.08516149451907469 0.032589503251719387 0 0.060695509379147472 0.02073883637313596 0 0.066628286533047365 0.040173783681243101 0 0.08516149451907469 0.032589503251719387 0 0.066628286533047365 0.040173783681243101 0 0.076734924211177571 0.049535316522237388 0 0.08516149451907469 0.032589503251719387 0 0.066628286533047365 0.040173783681243101 0 0.063756980967503582 0.059761195325569103 0 0.076734924211177571 0.049535316522237388 0 0.063756980967503582 0.059761195325569103 0 0.076734924211177571 0.049535316522237388 0 0.078896317813284711 0.063130005487330554 0 0.076734924211177571 0.049535316522237388 0 0.090394473132530156 0.056962854116463339 0 0.078896317813284711 0.063130005487330554 0 0.090394473132530156 0.056962854116463339 0 0.08516149451907469 0.032589503251719387 0 0.076734924211177571 0.049535316522237388 0 0.090394473132530156 0.056962854116463339 0 0.08516149451907469 0.032589503251719387 0 0.090394473132530156 0.056962854116463339 0 0.08516149451907469 0.032589503251719387 0 0.096764564946639139 0.043178279343160431 0 0.08516149451907469 0.032589503251719387 0 0.096764564946639139 0.043178279343160431 0 0.09893654195113713 0.02570505514797651 0 0.096764564946639139 0.043178279343160431 0 0.10666951487556919 0.040720151324231749 0 0.09893654195113713 0.02570505514797651 0 0.096764564946639139 0.043178279343160431 0 0.10666951487556919 0.040720151324231749 0 0.10388747543703999 0.053358399551525167 0 0.10666951487556919 0.040720151324231749 0 0.1142736493139349 0.03087626799389703 0 0.09893654195113713 0.02570505514797651 0 0.10388747543703999 0.053358399551525167 0 0.11892469151436 0.060175562481194378 0 0.096340815718618328 0.066677421107029802 0 0.090394473132530156 0.056962854116463339 0 0.10388747543703999 0.053358399551525167 0 0.096340815718618328 0.066677421107029802 0 0.090394473132530156 0.056962854116463339 0 0.096764564946639139 0.043178279343160431 0 0.10388747543703999 0.053358399551525167 0 0.10666951487556919 0.040720151324231749 0 0.10388747543703999 0.053358399551525167 0 0.1137328545953389 0.049471119462924477 0 0.1137328545953389 0.049471119462924477 0 0.11892469151436 0.060175562481194378 0 0.12367169586596689 0.04413069599522032 0 0.10388747543703999 0.053358399551525167 0 0.1137328545953389 0.049471119462924477 0 0.11892469151436 0.060175562481194378 0 0.10666951487556919 0.040720151324231749 0 0.12367169586596689 0.04413069599522032 0 0.1142736493139349 0.03087626799389703 0 0.12367169586596689 0.04413069599522032 0 0.1142736493139349 0.03087626799389703 0 0.13034027439662041 0.028127834929059549 0 0.10666951487556919 0.040720151324231749 0 0.1137328545953389 0.049471119462924477 0 0.12367169586596689 0.04413069599522032 0 0.1142736493139349 0.03087626799389703 0 0.111750219480381 0.015697602572997061 0 0.13034027439662041 0.028127834929059549 0 0.11917198148314 0.002581966002757949 0 0.13034027439662041 0.028127834929059549 0 0.111750219480381 0.015697602572997061 0 0.11917198148314 0.002581966002757949 0 0.13034027439662041 0.028127834929059549 0 0.11917198148314 0.002581966002757949 0 0.1309849453148588 0.01811654968683717 0 0.1228376310831711 -0.00076623140119310329 0 0.11917198148314 0.002581966002757949 0 0.1228376310831711 -0.00076623140119310329 0 0.11917198148314 0.002581966002757949 0 0.1133629416093747 0.002418872237081233 0 0.1105415625726717 -0.0014271332550589229 0 0.11917198148314 0.002581966002757949 0 0.1133629416093747 0.002418872237081233 0 0.11092652002007269 0.0067640166461111727 0 0.1133629416093747 0.002418872237081233 0 0.1078625722471533 0.0022823866337398822 0 0.1105415625726717 -0.0014271332550589229 0 0.1133629416093747 0.002418872237081233 0 0.11092652002007269 0.0067640166461111727 0 0.1078625722471533 0.0022823866337398822 0 0.111750219480381 0.015697602572997061 0 0.11917198148314 0.002581966002757949 0 0.11092652002007269 0.0067640166461111727 0 0.111750219480381 0.015697602572997061 0 0.11092652002007269 0.0067640166461111727 0 0.1009244284881298 0.0078078577834924806 0 0.1078625722471533 0.0022823866337398822 0 0.1009244284881298 0.0078078577834924806 0 0.1039166904039584 -0.0028966343462391718 0 0.11092652002007269 0.0067640166461111727 0 0.1078625722471533 0.0022823866337398822 0 0.1009244284881298 0.0078078577834924806 0 0.1009244284881298 0.0078078577834924806 0 0.1039166904039584 -0.0028966343462391718 0 0.09649789417263642 -0.0037639840011086311 0 0.111750219480381 0.015697602572997061 0 0.1009244284881298 0.0078078577834924806 0 0.09893654195113713 0.02570505514797651 0 0.1142736493139349 0.03087626799389703 0 0.111750219480381 0.015697602572997061 0 0.09893654195113713 0.02570505514797651 0 0.10086043035944101 0.1057095558459509 0 0.088353675930770217 0.1090445403681379 0 0.098136173783193614 0.12855261503670501 0 0.10086043035944101 0.1057095558459509 0 0.11707998843366239 0.12090166170324231 0 0.098136173783193614 0.12855261503670501 0 0.10086043035944101 0.1057095558459509 0 0.11707998843366239 0.12090166170324231 0 0.12018819637303869 0.10164151191590461 0 0.11707998843366239 0.12090166170324231 0 0.12018819637303869 0.10164151191590461 0 0.1368974078767736 0.107501873099266 0 0.10086043035944101 0.1057095558459509 0 0.12018819637303869 0.10164151191590461 0 0.11039993896964689 0.089589601033300492 0 0.12018819637303869 0.10164151191590461 0 0.1225478872688979 0.090713611373926736 0 0.11039993896964689 0.089589601033300492 0 0.1225478872688979 0.090713611373926736 0 0.1210037722340596 0.082520495593825793 0 0.11039993896964689 0.089589601033300492 0 0.1210037722340596 0.082520495593825793 0 0.11039993896964689 0.089589601033300492 0 0.1079674466630436 0.07575227550831827 0 0.1243405792371938 0.066503547411893488 0 0.1152310018430296 0.068591719667449438 0 0.13121537104960351 0.072689189806444385 0 0.1152310018430296 0.068591719667449438 0 0.1079674466630436 0.07575227550831827 0 0.13121537104960351 0.072689189806444385 0 0.11892469151436 0.060175562481194378 0 0.1152310018430296 0.068591719667449438 0 0.096340815718618328 0.066677421107029802 0 0.1210037722340596 0.082520495593825793 0 0.1079674466630436 0.07575227550831827 0 0.13121537104960351 0.072689189806444385 0 0.1079674466630436 0.07575227550831827 0 0.13121537104960351 0.072689189806444385 0 0.11892469151436 0.060175562481194378 0 0.1243405792371938 0.066503547411893488 0 0.1152310018430296 0.068591719667449438 0 0.090394473132530156 0.056962854116463339 0 0.096340815718618328 0.066677421107029802 0 0.095627451745985609 0.081336204981207194 0 0.11892469151436 0.060175562481194378 0 0.096340815718618328 0.066677421107029802 0 0.1152310018430296 0.068591719667449438 0 0.1079674466630436 0.07575227550831827 0 0.096340815718618328 0.066677421107029802 0 0.1079674466630436 0.07575227550831827 0 0.096340815718618328 0.066677421107029802 0 0.095627451745985609 0.081336204981207194 0 0.10086043035944101 0.1057095558459509 0 0.095627451745985609 0.081336204981207194 0 0.10086043035944101 0.1057095558459509 0 0.095627451745985609 0.081336204981207194 0 0.085469831166676849 0.087436677031336632 0 0.10086043035944101 0.1057095558459509 0 0.11039993896964689 0.089589601033300492 0 0.095627451745985609 0.081336204981207194 0 0.11039993896964689 0.089589601033300492 0 0.1079674466630436 0.07575227550831827 0 0.095627451745985609 0.081336204981207194 0 0.095627451745985609 0.081336204981207194 0 0.085469831166676849 0.087436677031336632 0 0.085588317529406169 0.073238424790440806 0 0.085469831166676849 0.087436677031336632 0 0.085588317529406169 0.073238424790440806 0 0.076873554133312927 0.079435143693455501 0 0.085469831166676849 0.087436677031336632 0 0.070098818600398835 0.095008337279511162 0 0.081838863589211913 0.097859807548057495 0 0.085588317529406169 0.073238424790440806 0 0.078896317813284711 0.063130005487330554 0 0.076873554133312927 0.079435143693455501 0 0.090394473132530156 0.056962854116463339 0 0.095627451745985609 0.081336204981207194 0 0.090394473132530156 0.056962854116463339 0 0.095627451745985609 0.081336204981207194 0 0.085588317529406169 0.073238424790440806 0 0.090394473132530156 0.056962854116463339 0 0.085588317529406169 0.073238424790440806 0 0.078896317813284711 0.063130005487330554 0 0.063756980967503582 0.059761195325569103 0 0.076873554133312927 0.079435143693455501 0 0.058428932400687923 0.080576723114904505 0 0.063756980967503582 0.059761195325569103 0 0.078896317813284711 0.063130005487330554 0 0.076873554133312927 0.079435143693455501 0 0.076873554133312927 0.079435143693455501 0 0.070098818600398835 0.095008337279511162 0 0.058428932400687923 0.080576723114904505 0 0.085469831166676849 0.087436677031336632 0 0.076873554133312927 0.079435143693455501 0 0.070098818600398835 0.095008337279511162 0 0.076873554133312927 0.079435143693455501 0 0.070098818600398835 0.095008337279511162 0 0.070098818600398835 0.095008337279511162 0 0.063324083067484813 0.1105815308655668 0 0.056772327777908818 0.093355456469435216 0 0.070098818600398835 0.095008337279511162 0 0.073686861685182473 0.1058294153104071 0 0.063324083067484813 0.1105815308655668 0 0.070098818600398835 0.095008337279511162 0 0.063324083067484813 0.1105815308655668 0 0.070098818600398835 0.095008337279511162 0 0.073686861685182473 0.1058294153104071 0 0.081838863589211913 0.097859807548057495 0 0.10086043035944101 0.1057095558459509 0 0.088353675930770217 0.1090445403681379 0 0.081838863589211913 0.097859807548057495 0 0.10086043035944101 0.1057095558459509 0 0.085469831166676849 0.087436677031336632 0 0.081838863589211913 0.097859807548057495 0 0.073686861685182473 0.1058294153104071 0 0.081838863589211913 0.097859807548057495 0 0.081058066011519173 0.11973636453468819 0 0.081838863589211913 0.097859807548057495 0 0.081058066011519173 0.11973636453468819 0 0.088353675930770217 0.1090445403681379 0 0.081838863589211913 0.097859807548057495 0 0.081058066011519173 0.11973636453468819 0 0.081058066011519173 0.11973636453468819 0 0.098136173783193614 0.12855261503670501 0 0.088353675930770217 0.1090445403681379 0 0.081058066011519173 0.11973636453468819 0 0.098136173783193614 0.12855261503670501 0 0.081058066011519173 0.11973636453468819 0 0.063324083067484813 0.1105815308655668 0 0.068402942841081005 0.12865021266463919 0 0.081058066011519173 0.11973636453468819 0 0.063324083067484813 0.1105815308655668 0 0.073686861685182473 0.1058294153104071 0 0.081058066011519173 0.11973636453468819 0 0.063324083067484813 0.1105815308655668 0 0.063324083067484813 0.1105815308655668 0 0.047212646671147621 0.11637508280246631 0 0.046344121904492837 0.10181594669612309 0 0.063324083067484813 0.1105815308655668 0 0.047212646671147621 0.11637508280246631 0 0.054704645729867107 0.1303951701743557 0 0.063324083067484813 0.1105815308655668 0 0.054704645729867107 0.1303951701743557 0 0.068402942841081005 0.12865021266463919 0 0.063324083067484813 0.1105815308655668 0 0.054704645729867107 0.1303951701743557 0 0.063324083067484813 0.1105815308655668 0 0.046344121904492837 0.10181594669612309 0 0.056772327777908818 0.093355456469435216 0 0.063324083067484813 0.1105815308655668 0 0.046344121904492837 0.10181594669612309 0 0.046344121904492837 0.10181594669612309 0 0.056772327777908818 0.093355456469435216 0 0.045320775007697253 0.087378911453508054 0 0.046344121904492837 0.10181594669612309 0 0.0293641607415005 0.093050362526680058 0 0.027539824430943272 0.097260859315675907 0 0.046344121904492837 0.10181594669612309 0 0.0293641607415005 0.093050362526680058 0 0.046344121904492837 0.10181594669612309 0 0.045320775007697253 0.087378911453508054 0 0.0293641607415005 0.093050362526680058 0 0.046344121904492837 0.10181594669612309 0 0.034802580128522533 0.108370238657299 0 0.027539824430943272 0.097260859315675907 0 0.047212646671147621 0.11637508280246631 0 0.046344121904492837 0.10181594669612309 0 0.034802580128522533 0.108370238657299 0 0.034802580128522533 0.108370238657299 0 0.02295827912300942 0.1143792008990337 0 0.036209801575650402 0.12755429465012871 0 0.047212646671147621 0.11637508280246631 0 0.054704645729867107 0.1303951701743557 0 0.036209801575650402 0.12755429465012871 0 0.047212646671147621 0.11637508280246631 0 0.034802580128522533 0.108370238657299 0 0.036209801575650402 0.12755429465012871 0 0.063756980967503582 0.059761195325569103 0 0.058428932400687923 0.080576723114904505 0 0.039807943620716157 0.068946520475498749 0 0.058428932400687923 0.080576723114904505 0 0.045320775007697253 0.087378911453508054 0 0.039807943620716157 0.068946520475498749 0 0.070098818600398835 0.095008337279511162 0 0.058428932400687923 0.080576723114904505 0 0.056772327777908818 0.093355456469435216 0 0.058428932400687923 0.080576723114904505 0 0.056772327777908818 0.093355456469435216 0 0.045320775007697253 0.087378911453508054 0 0.039807943620716157 0.068946520475498749 0 0.02523443473854358 0.074793540318702806 0 0.0293641607415005 0.093050362526680058 0 0.045320775007697253 0.087378911453508054 0 0.039807943620716157 0.068946520475498749 0 0.0293641607415005 0.093050362526680058 0 0.039807943620716157 0.068946520475498749 0 0.0293641607415005 0.093050362526680058 0 0.02507841675544124 0.048354097280414877 0 0.039807943620716157 0.068946520475498749 0 0.02523443473854358 0.074793540318702806 0 0.02523443473854358 0.074793540318702806 0 0.01233266555678463 0.084258174892090337 0 0.010722424996073881 0.068121568230846891 0 0.02507841675544124 0.048354097280414877 0 0.02523443473854358 0.074793540318702806 0 0.010722424996073881 0.068121568230846891 0 0.0293641607415005 0.093050362526680058 0 0.01233266555678463 0.084258174892090337 0 0.0293641607415005 0.093050362526680058 0 0.01233266555678463 0.084258174892090337 0 0.019584721545335231 0.095933386042030777 0 0.02523443473854358 0.074793540318702806 0 0.0293641607415005 0.093050362526680058 0 0.01233266555678463 0.084258174892090337 0 -0.0046988296279310846 0.075465987257500103 0 0.01233266555678463 0.084258174892090337 0 -0.0046988296279310846 0.075465987257500103 0 0.00056903788424511365 0.086682396089073327 0 0.01233266555678463 0.084258174892090337 0 0.01233266555678463 0.084258174892090337 0 0.019584721545335231 0.095933386042030777 0 0.0096773837387348072 0.094713106344260181 0 0.00056903788424511365 0.086682396089073327 0 0.0096773837387348072 0.094713106344260181 0 0.0017142141577850001 0.096485027642689541 0 0.00056903788424511365 0.086682396089073327 0 0.01233266555678463 0.084258174892090337 0 0.0096773837387348072 0.094713106344260181 0 -0.0046988296279310846 0.075465987257500103 0 0.0079626054049135586 0.052863747179962457 0 -0.0046988296279310846 0.075465987257500103 0 0.01233266555678463 0.084258174892090337 0 0.010722424996073881 0.068121568230846891 0 -0.0046988296279310846 0.075465987257500103 0 0.0079626054049135586 0.052863747179962457 0 0.010722424996073881 0.068121568230846891 0 0.02295827912300942 0.1143792008990337 0 0.016633607451047409 0.12879447845417449 0 0.036209801575650402 0.12755429465012871 0 0.02295827912300942 0.1143792008990337 0 0.02320798257890765 0.1047443639128517 0 0.017264926825327171 0.1093249123190818 0 0.02295827912300942 0.1143792008990337 0 0.017264926825327171 0.1093249123190818 0 0.01360187540002143 0.11722717171449371 0 0.02295827912300942 0.1143792008990337 0 0.01360187540002143 0.11722717171449371 0 0.016633607451047409 0.12879447845417449 0 0.034802580128522533 0.108370238657299 0 0.027539824430943272 0.097260859315675907 0 0.02320798257890765 0.1047443639128517 0 0.034802580128522533 0.108370238657299 0 0.02295827912300942 0.1143792008990337 0 0.02320798257890765 0.1047443639128517 0 0.0293641607415005 0.093050362526680058 0 0.027539824430943272 0.097260859315675907 0 0.019584721545335231 0.095933386042030777 0 0.027539824430943272 0.097260859315675907 0 0.019584721545335231 0.095933386042030777 0 0.02320798257890765 0.1047443639128517 0 0.0293641607415005 0.093050362526680058 0 0.027539824430943272 0.097260859315675907 0 0.019584721545335231 0.095933386042030777 0 0.02320798257890765 0.1047443639128517 0 0.01504081682007688 0.10253598369847031 0 0.02320798257890765 0.1047443639128517 0 0.017264926825327171 0.1093249123190818 0 0.01504081682007688 0.10253598369847031 0 0.0088228464681819972 0.10238366970120689 0 0.01151568020462046 0.1077378413705596 0 0.0058206420146291954 0.1114089238878985 0 0.017264926825327171 0.1093249123190818 0 0.01504081682007688 0.10253598369847031 0 0.01151568020462046 0.1077378413705596 0 0.01504081682007688 0.10253598369847031 0 0.0088228464681819972 0.10238366970120689 0 0.01151568020462046 0.1077378413705596 0 0.019584721545335231 0.095933386042030777 0 0.01504081682007688 0.10253598369847031 0 0.0096773837387348072 0.094713106344260181 0 0.01504081682007688 0.10253598369847031 0 0.0088228464681819972 0.10238366970120689 0 0.0096773837387348072 0.094713106344260181 0 0.0088228464681819972 0.10238366970120689 0 0.0096773837387348072 0.094713106344260181 0 0.0017142141577850001 0.096485027642689541 0 0.0088228464681819972 0.10238366970120689 0 0.0017142141577850001 0.096485027642689541 0 0.0058206420146291954 0.1114089238878985 0 0.0058206420146291954 0.1114089238878985 0 0.00039794405216867472 0.112072386291362 0 0.01360187540002143 0.11722717171449371 0 0.00039794405216867472 0.112072386291362 0 0.016633607451047409 0.12879447845417449 0 0.00039794405216867472 0.112072386291362 0 0.01360187540002143 0.11722717171449371 0 0.016633607451047409 0.12879447845417449 0 0.00039794405216867472 0.112072386291362 0 0.0010393500416724941 0.12595831854165979 0 0.016633607451047409 0.12879447845417449 0 0.01151568020462046 0.1077378413705596 0 0.0058206420146291954 0.1114089238878985 0 0.01360187540002143 0.11722717171449371 0 0.017264926825327171 0.1093249123190818 0 0.01151568020462046 0.1077378413705596 0 0.01360187540002143 0.11722717171449371 0 -0.0082797250895681185 0.13474448294352481 0 0.0010393500416724941 0.12595831854165979 0 0.01291562537333717 0.14373886088149129 0 0.0010393500416724941 0.12595831854165979 0 0.016633607451047409 0.12879447845417449 0 0.01291562537333717 0.14373886088149129 0 0.016633607451047409 0.12879447845417449 0 0.030096440749716711 0.14309687622970299 0 0.036209801575650402 0.12755429465012871 0 0.016633607451047409 0.12879447845417449 0 0.030096440749716711 0.14309687622970299 0 0.01291562537333717 0.14373886088149129 0 0.030096440749716711 0.14309687622970299 0 0.01291562537333717 0.14373886088149129 0 0.026789162612504271 0.15663130254031199 0 0.01291562537333717 0.14373886088149129 0 0.015650655317666261 0.15865613344587939 0 0.026789162612504271 0.15663130254031199 0 0.01291562537333717 0.14373886088149129 0 0.00151890392611572 0.15456094484017679 0 0.015650655317666261 0.15865613344587939 0 -0.0082797250895681185 0.13474448294352481 0 0.01291562537333717 0.14373886088149129 0 0.00151890392611572 0.15456094484017679 0 0.00151890392611572 0.15456094484017679 0 0.01131753294179963 0.17437740673682869 0 0.00151890392611572 0.15456094484017679 0 0.012386788017382491 0.1641388541230504 0 0.01131753294179963 0.17437740673682869 0 -0.0026654791677323511 0.16604552865166611 0 0.00151890392611572 0.15456094484017679 0 0.01131753294179963 0.17437740673682869 0 -0.0026654791677323511 0.16604552865166611 0 0.01131753294179963 0.17437740673682869 0 0.012386788017382491 0.1641388541230504 0 0.01131753294179963 0.17437740673682869 0 0.021060059883948341 0.16896093146931659 0 0.00151890392611572 0.15456094484017679 0 0.012386788017382491 0.1641388541230504 0 0.015650655317666261 0.15865613344587939 0 0.0072367552089822543 0.1840346549744645 0 0.003085550936940849 0.18695469644268639 0 0.007927604969267173 0.18944813828794729 0 0.0072367552089822543 0.1840346549744645 0 0.003085550936940849 0.18695469644268639 0 0.00053502205069707774 0.18188021690744111 0 -0.003081975793268537 0.18782002811878001 0 0.003085550936940849 0.18695469644268639 0 0.00053502205069707774 0.18188021690744111 0 0.0072367552089822543 0.1840346549744645 0 0.00053502205069707774 0.18188021690744111 0 0.0082701590199136289 0.17900500476799119 0 -0.0026654791677323511 0.16604552865166611 0 0.0024081860720475369 0.17557227428335351 0 0.01131753294179963 0.17437740673682869 0 0.0024081860720475369 0.17557227428335351 0 0.01131753294179963 0.17437740673682869 0 0.0082701590199136289 0.17900500476799119 0 0.00053502205069707774 0.18188021690744111 0 0.0024081860720475369 0.17557227428335351 0 0.0082701590199136289 0.17900500476799119 0 0.01131753294179963 0.17437740673682869 0 0.013543000689093809 0.1790660034635034 0 0.021389494149062459 0.18037885708243739 0 0.01131753294179963 0.17437740673682869 0 0.013543000689093809 0.1790660034635034 0 0.01131753294179963 0.17437740673682869 0 0.013543000689093809 0.1790660034635034 0 0.0082701590199136289 0.17900500476799119 0 0.013543000689093809 0.1790660034635034 0 0.0115175493401282 0.18523262863701309 0 0.016985704636488509 0.19275209946522329 0 0.0072367552089822543 0.1840346549744645 0 0.0082701590199136289 0.17900500476799119 0 0.0115175493401282 0.18523262863701309 0 0.013543000689093809 0.1790660034635034 0 0.0082701590199136289 0.17900500476799119 0 0.0115175493401282 0.18523262863701309 0 0.0072367552089822543 0.1840346549744645 0 0.0115175493401282 0.18523262863701309 0 0.007927604969267173 0.18944813828794729 0 0.021389494149062459 0.18037885708243739 0 0.039453436217199322 0.18340126598870379 0 0.013543000689093809 0.1790660034635034 0 0.021389494149062459 0.18037885708243739 0 0.02230428843080948 0.19662630733770359 0 0.013543000689093809 0.1790660034635034 0 0.021389494149062459 0.18037885708243739 0 0.01131753294179963 0.17437740673682869 0 0.021389494149062459 0.18037885708243739 0 0.01131753294179963 0.17437740673682869 0 0.021389494149062459 0.18037885708243739 0 0.021060059883948341 0.16896093146931659 0 0.021389494149062459 0.18037885708243739 0 0.021060059883948341 0.16896093146931659 0 0.034487576316221548 0.17006964541133651 0 0.021389494149062459 0.18037885708243739 0 0.036772518206031037 0.18954494233072339 0 0.012386788017382491 0.1641388541230504 0 0.015650655317666261 0.15865613344587939 0 0.021060059883948341 0.16896093146931659 0 0.015650655317666261 0.15865613344587939 0 0.021060059883948341 0.16896093146931659 0 0.026789162612504271 0.15663130254031199 0 0.021060059883948341 0.16896093146931659 0 0.026789162612504271 0.15663130254031199 0 0.034487576316221548 0.17006964541133651 0 0.026789162612504271 0.15663130254031199 0 0.034487576316221548 0.17006964541133651 0 0.046085208392249437 0.15020880948314461 0 0.034487576316221548 0.17006964541133651 0 0.049790080527993393 0.16878629006039211 0 0.046085208392249437 0.15020880948314461 0 0.021389494149062459 0.18037885708243739 0 0.039453436217199322 0.18340126598870379 0 0.036772518206031037 0.18954494233072339 0 0.021389494149062459 0.18037885708243739 0 0.034487576316221548 0.17006964541133651 0 0.039453436217199322 0.18340126598870379 0 0.034487576316221548 0.17006964541133651 0 0.039453436217199322 0.18340126598870379 0 0.049790080527993393 0.16878629006039211 0 0.039453436217199322 0.18340126598870379 0 0.057517378285335978 0.18642367489497111 0 0.049790080527993393 0.16878629006039211 0 0.057517378285335978 0.18642367489497111 0 0.06670876632053821 0.16536039993208129 0 0.039453436217199322 0.18340126598870379 0 0.057517378285335978 0.18642367489497111 0 0.039453436217199322 0.18340126598870379 0 0.057517378285335978 0.18642367489497111 0 0.046621016020550923 0.1898787739154234 0 0.057517378285335978 0.18642367489497111 0 0.049790080527993393 0.16878629006039211 0 0.06670876632053821 0.16536039993208129 0 0.056759789081437029 0.15816783404816359 0 0.049790080527993393 0.16878629006039211 0 0.06670876632053821 0.16536039993208129 0 0.056759789081437029 0.15816783404816359 0 0.049790080527993393 0.16878629006039211 0 0.046085208392249437 0.15020880948314461 0 0.056759789081437029 0.15816783404816359 0 0.046085208392249437 0.15020880948314461 0 0.06445510108496709 0.14831583671703669 0 0.054704645729867107 0.1303951701743557 0 0.046085208392249437 0.15020880948314461 0 0.06445510108496709 0.14831583671703669 0 0.054704645729867107 0.1303951701743557 0 0.046085208392249437 0.15020880948314461 0 0.054704645729867107 0.1303951701743557 0 0.036209801575650402 0.12755429465012871 0 0.046085208392249437 0.15020880948314461 0 0.030096440749716711 0.14309687622970299 0 0.036209801575650402 0.12755429465012871 0 0.046085208392249437 0.15020880948314461 0 0.030096440749716711 0.14309687622970299 0 0.026789162612504271 0.15663130254031199 0 0.046085208392249437 0.15020880948314461 0 0.02117589590128718 0.2395927914801684 0 0.012156823249103331 0.25259817100369902 0 0.030652172791378579 0.25229956247347313 0 0.02117589590128718 0.2395927914801684 0 0.034188277432347557 0.23988537883147459 0 0.030652172791378579 0.25229956247347313 0 0.02117589590128718 0.2395927914801684 0 0.030323397599499081 0.22959965211839081 0 0.034188277432347557 0.23988537883147459 0 -0.0082457657602449386 0.25246627485226031 0 -0.001965278602122185 0.24182690426762959 0 0.012156823249103331 0.25259817100369902 0 0.02117589590128718 0.2395927914801684 0 0.008579196815527634 0.23953031834541311 0 0.012156823249103331 0.25259817100369902 0 -0.001965278602122185 0.24182690426762959 0 0.008579196815527634 0.23953031834541311 0 0.012156823249103331 0.25259817100369902 0 -0.001965278602122185 0.24182690426762959 0 0.008579196815527634 0.23953031834541311 0 0.0010433620948100131 0.23240638127880581 0 0.02117589590128718 0.2395927914801684 0 0.008579196815527634 0.23953031834541311 0 0.01115565641706814 0.2303537873583584 0 0.008579196815527634 0.23953031834541311 0 0.01115565641706814 0.2303537873583584 0 0.0010433620948100131 0.23240638127880581 0 0.01115565641706814 0.2303537873583584 0 0.0010433620948100131 0.23240638127880581 0 0.0091084557899102862 0.2202403998025296 0 0.0010433620948100131 0.23240638127880581 0 0.0001093474821353509 0.22215689039817851 0 0.0091084557899102862 0.2202403998025296 0 0.01115565641706814 0.2303537873583584 0 0.0091084557899102862 0.2202403998025296 0 0.016496999093422449 0.223541986747673 0 0.0091084557899102862 0.2202403998025296 0 0.016496999093422449 0.223541986747673 0 0.01612020317490017 0.2152275371535412 0 0.016496999093422449 0.223541986747673 0 0.02147394042148347 0.23028557103733549 0 0.024626739663750161 0.22160263838659999 0 0.016496999093422449 0.223541986747673 0 0.024626739663750161 0.22160263838659999 0 0.01612020317490017 0.2152275371535412 0 0.01115565641706814 0.2303537873583584 0 0.016496999093422449 0.223541986747673 0 0.02147394042148347 0.23028557103733549 0 0.02117589590128718 0.2395927914801684 0 0.01115565641706814 0.2303537873583584 0 0.02147394042148347 0.23028557103733549 0 0.02147394042148347 0.23028557103733549 0 0.030323397599499081 0.22959965211839081 0 0.024626739663750161 0.22160263838659999 0 0.02117589590128718 0.2395927914801684 0 0.02147394042148347 0.23028557103733549 0 0.030323397599499081 0.22959965211839081 0 0.024626739663750161 0.22160263838659999 0 0.027508903383077599 0.21474836631904051 0 0.034268755792753257 0.2207932912834846 0 0.030323397599499081 0.22959965211839081 0 0.024626739663750161 0.22160263838659999 0 0.034268755792753257 0.2207932912834846 0 0.027508903383077599 0.21474836631904051 0 0.023943201944243639 0.1999111919537408 0 0.034268755792753257 0.2207932912834846 0 0.023943201944243639 0.1999111919537408 0 0.034268755792753257 0.2207932912834846 0 0.027508903383077599 0.21474836631904051 0 0.023922045305692211 0.20684028787671799 0 0.022699459496289199 0.2141990688659105 0 0.024626739663750161 0.22160263838659999 0 0.027508903383077599 0.21474836631904051 0 0.022699459496289199 0.2141990688659105 0 0.027508903383077599 0.21474836631904051 0 0.023922045305692211 0.20684028787671799 0 0.023943201944243639 0.1999111919537408 0 0.01896544066016782 0.20973745132843891 0 0.01612020317490017 0.2152275371535412 0 0.013247665380499421 0.20734461508933349 0 0.023922045305692211 0.20684028787671799 0 0.01896544066016782 0.20973745132843891 0 0.022699459496289199 0.2141990688659105 0 0.023922045305692211 0.20684028787671799 0 0.021734838082019509 0.20302577286306159 0 0.023943201944243639 0.1999111919537408 0 0.023922045305692211 0.20684028787671799 0 0.018650848458870179 0.20436341187488569 0 0.021734838082019509 0.20302577286306159 0 0.023922045305692211 0.20684028787671799 0 0.018650848458870179 0.20436341187488569 0 0.01896544066016782 0.20973745132843891 0 0.018650848458870179 0.20436341187488569 0 0.01896544066016782 0.20973745132843891 0 0.013247665380499421 0.20734461508933349 0 0.024626739663750161 0.22160263838659999 0 0.022699459496289199 0.2141990688659105 0 0.01612020317490017 0.2152275371535412 0 0.01896544066016782 0.20973745132843891 0 0.022699459496289199 0.2141990688659105 0 0.01612020317490017 0.2152275371535412 0 0.01612020317490017 0.2152275371535412 0 0.0085100262700745465 0.21094865931476009 0 0.013247665380499421 0.20734461508933349 0 0.0091084557899102862 0.2202403998025296 0 0.01612020317490017 0.2152275371535412 0 0.0085100262700745465 0.21094865931476009 0 0.0001093474821353509 0.22215689039817851 0 0.0091084557899102862 0.2202403998025296 0 0.00083142932333707279 0.21381627434491049 0 0.0091084557899102862 0.2202403998025296 0 0.0085100262700745465 0.21094865931476009 0 0.00083142932333707279 0.21381627434491049 0 0.0085100262700745465 0.21094865931476009 0 0.00083142932333707279 0.21381627434491049 0 0.0029581381265264858 0.20519393183106241 0 0.0085100262700745465 0.21094865931476009 0 0.0029581381265264858 0.20519393183106241 0 0.0087942658252738396 0.20386919766718339 0 0.0029581381265264858 0.20519393183106241 0 0.0087942658252738396 0.20386919766718339 0 0.0056326315351633537 0.2004899601979887 0 0.0085100262700745465 0.21094865931476009 0 0.0087942658252738396 0.20386919766718339 0 0.013247665380499421 0.20734461508933349 0 0.0087942658252738396 0.20386919766718339 0 0.013247665380499421 0.20734461508933349 0 0.013927284278231049 0.2027684573698135 0 0.018650848458870179 0.20436341187488569 0 0.013247665380499421 0.20734461508933349 0 0.013927284278231049 0.2027684573698135 0 0.013927284278231049 0.2027684573698135 0 0.010260103200158849 0.1991700010832006 0 0.016231602148303749 0.1987520895161983 0 0.010260103200158849 0.1991700010832006 0 0.01183675088797494 0.19419665586736051 0 0.016231602148303749 0.1987520895161983 0 0.010260103200158849 0.1991700010832006 0 0.0061740732670114221 0.19541611365695169 0 0.01183675088797494 0.19419665586736051 0 0.0087942658252738396 0.20386919766718339 0 0.010260103200158849 0.1991700010832006 0 0.0056326315351633537 0.2004899601979887 0 0.0087942658252738396 0.20386919766718339 0 0.013927284278231049 0.2027684573698135 0 0.010260103200158849 0.1991700010832006 0 0.010260103200158849 0.1991700010832006 0 0.0056326315351633537 0.2004899601979887 0 0.0061740732670114221 0.19541611365695169 0 -2.3422743153838069e-05 0.1988005567515452 0 0.0056326315351633537 0.2004899601979887 0 0.0061740732670114221 0.19541611365695169 0 -2.3422743153838069e-05 0.1988005567515452 0 0.0029581381265264858 0.20519393183106241 0 0.0056326315351633537 0.2004899601979887 0 -0.003081975793268537 0.18782002811878001 0 0.003085550936940849 0.18695469644268639 0 0.0015327128313205251 0.1915709431207247 0 -2.3422743153838069e-05 0.1988005567515452 0 0.0061740732670114221 0.19541611365695169 0 0.0015327128313205251 0.1915709431207247 0 0.0061740732670114221 0.19541611365695169 0 0.0015327128313205251 0.1915709431207247 0 0.007927604969267173 0.18944813828794729 0 0.003085550936940849 0.18695469644268639 0 0.0015327128313205251 0.1915709431207247 0 0.007927604969267173 0.18944813828794729 0 0.007927604969267173 0.18944813828794729 0 0.01183675088797494 0.19419665586736051 0 0.012456110925155389 0.1902446129755902 0 0.0115175493401282 0.18523262863701309 0 0.007927604969267173 0.18944813828794729 0 0.012456110925155389 0.1902446129755902 0 0.0061740732670114221 0.19541611365695169 0 0.007927604969267173 0.18944813828794729 0 0.01183675088797494 0.19419665586736051 0 0.01183675088797494 0.19419665586736051 0 0.012456110925155389 0.1902446129755902 0 0.016985704636488509 0.19275209946522329 0 0.01183675088797494 0.19419665586736051 0 0.016985704636488509 0.19275209946522329 0 0.016231602148303749 0.1987520895161983 0 0.0115175493401282 0.18523262863701309 0 0.012456110925155389 0.1902446129755902 0 0.016985704636488509 0.19275209946522329 0 0.021389494149062459 0.18037885708243739 0 0.02230428843080948 0.19662630733770359 0 0.036772518206031037 0.18954494233072339 0 0.013543000689093809 0.1790660034635034 0 0.02230428843080948 0.19662630733770359 0 0.013543000689093809 0.1790660034635034 0 0.016985704636488509 0.19275209946522329 0 0.02230428843080948 0.19662630733770359 0 0.016985704636488509 0.19275209946522329 0 0.019428477636303031 0.19812266709439569 0 0.016231602148303749 0.1987520895161983 0 0.019428477636303031 0.19812266709439569 0 0.016231602148303749 0.1987520895161983 0 0.020423256619271999 0.20098819974690199 0 0.018650848458870179 0.20436341187488569 0 0.016231602148303749 0.1987520895161983 0 0.020423256619271999 0.20098819974690199 0 0.018650848458870179 0.20436341187488569 0 0.013927284278231049 0.2027684573698135 0 0.016231602148303749 0.1987520895161983 0 0.019428477636303031 0.19812266709439569 0 0.020423256619271999 0.20098819974690199 0 0.023943201944243639 0.1999111919537408 0 0.018650848458870179 0.20436341187488569 0 0.020423256619271999 0.20098819974690199 0 0.021734838082019509 0.20302577286306159 0 0.020423256619271999 0.20098819974690199 0 0.021734838082019509 0.20302577286306159 0 0.023943201944243639 0.1999111919537408 0 0.016985704636488509 0.19275209946522329 0 0.02230428843080948 0.19662630733770359 0 0.023943201944243639 0.1999111919537408 0 0.016985704636488509 0.19275209946522329 0 0.019428477636303031 0.19812266709439569 0 0.023943201944243639 0.1999111919537408 0 0.02230428843080948 0.19662630733770359 0 0.023943201944243639 0.1999111919537408 0 0.02230428843080948 0.19662630733770359 0 0.023943201944243639 0.1999111919537408 0 0.035957366435008513 0.20647473970990701 0 0.02230428843080948 0.19662630733770359 0 0.050897121833006063 0.20159486356051531 0 0.035957366435008513 0.20647473970990701 0 0.02230428843080948 0.19662630733770359 0 0.036772518206031037 0.18954494233072339 0 0.050897121833006063 0.20159486356051531 0 0.02230428843080948 0.19662630733770359 0 0.050897121833006063 0.20159486356051531 0 0.036772518206031037 0.18954494233072339 0 0.050897121833006063 0.20159486356051531 0 0.052155542262999663 0.1987110275790093 0 0.036772518206031037 0.18954494233072339 0 0.052155542262999663 0.1987110275790093 0 0.036772518206031037 0.18954494233072339 0 0.046621016020550923 0.1898787739154234 0 0.052155542262999663 0.1987110275790093 0 0.039453436217199322 0.18340126598870379 0 0.036772518206031037 0.18954494233072339 0 0.046621016020550923 0.1898787739154234 0 0.057517378285335978 0.18642367489497111 0 0.046621016020550923 0.1898787739154234 0 0.052155542262999663 0.1987110275790093 0 0.057517378285335978 0.18642367489497111 0 0.052155542262999663 0.1987110275790093 0 0.057517378285335978 0.18642367489497111 0 0.057090951257530269 0.197109929087698 0 0.052155542262999663 0.1987110275790093 0 0.057517378285335978 0.18642367489497111 0 0.060667890749981898 0.1933513013873914 0 0.057090951257530269 0.197109929087698 0 0.060667890749981898 0.1933513013873914 0 0.057090951257530269 0.197109929087698 0 0.058031923789004708 0.2022125116707813 0 0.060667890749981898 0.1933513013873914 0 0.058031923789004708 0.2022125116707813 0 0.060667890749981898 0.1933513013873914 0 0.058031923789004708 0.2022125116707813 0 0.059673977213942478 0.20319094098477611 0 0.058031923789004708 0.2022125116707813 0 0.059673977213942478 0.20319094098477611 0 0.057090951257530269 0.197109929087698 0 0.058031923789004708 0.2022125116707813 0 0.052155542262999663 0.1987110275790093 0 0.058031923789004708 0.2022125116707813 0 0.052155542262999663 0.1987110275790093 0 0.058031923789004708 0.2022125116707813 0 0.050897121833006063 0.20159486356051531 0 0.052155542262999663 0.1987110275790093 0 0.058031923789004708 0.2022125116707813 0 0.050897121833006063 0.20159486356051531 0 0.050897121833006063 0.20159486356051531 0 0.052155542262999663 0.1987110275790093 0 0.050897121833006063 0.20159486356051531 0 0.042542699632676838 0.22074012119599501 0 0.053005439111290922 0.21910981667301421 0 0.058031923789004708 0.2022125116707813 0 0.050897121833006063 0.20159486356051531 0 0.053005439111290922 0.21910981667301421 0 0.058031923789004708 0.2022125116707813 0 0.053005439111290922 0.21910981667301421 0 0.058031923789004708 0.2022125116707813 0 0.061718375040706958 0.21244198365854619 0 0.053005439111290922 0.21910981667301421 0 0.058031923789004708 0.2022125116707813 0 0.059673977213942478 0.20319094098477611 0 0.061718375040706958 0.21244198365854619 0 0.061718375040706958 0.21244198365854619 0 0.053005439111290922 0.21910981667301421 0 0.062081063031912492 0.22413796841031719 0 0.050897121833006063 0.20159486356051531 0 0.042542699632676838 0.22074012119599501 0 0.023943201944243639 0.1999111919537408 0 0.035957366435008513 0.20647473970990701 0 0.034268755792753257 0.2207932912834846 0 0.050897121833006063 0.20159486356051531 0 0.038363073609551428 0.21412918370060571 0 0.042542699632676838 0.22074012119599501 0 0.050897121833006063 0.20159486356051531 0 0.035957366435008513 0.20647473970990701 0 0.038363073609551428 0.21412918370060571 0 0.038363073609551428 0.21412918370060571 0 0.034268755792753257 0.2207932912834846 0 0.042542699632676838 0.22074012119599501 0 0.035957366435008513 0.20647473970990701 0 0.038363073609551428 0.21412918370060571 0 0.034268755792753257 0.2207932912834846 0 0.042542699632676838 0.22074012119599501 0 0.034188277432347557 0.23988537883147459 0 0.042542699632676838 0.22074012119599501 0 0.04817080422001134 0.23536218897101929 0 0.044937254539659167 0.2379713478153713 0 0.030323397599499081 0.22959965211839081 0 0.042542699632676838 0.22074012119599501 0 0.034188277432347557 0.23988537883147459 0 0.042542699632676838 0.22074012119599501 0 0.044937254539659167 0.2379713478153713 0 0.034188277432347557 0.23988537883147459 0 0.030323397599499081 0.22959965211839081 0 0.034268755792753257 0.2207932912834846 0 0.042542699632676838 0.22074012119599501 0 0.053005439111290922 0.21910981667301421 0 0.04817080422001134 0.23536218897101929 0 0.053005439111290922 0.21910981667301421 0 0.062081063031912492 0.22413796841031719 0 0.04817080422001134 0.23536218897101929 0 0.062081063031912492 0.22413796841031719 0 0.04817080422001134 0.23536218897101929 0 0.059531729096570118 0.24099028160929839 0 0.042542699632676838 0.22074012119599501 0 0.053005439111290922 0.21910981667301421 0 0.04817080422001134 0.23536218897101929 0 0.062081063031912492 0.22413796841031719 0 0.04817080422001134 0.23536218897101929 0 0.04817080422001134 0.23536218897101929 0 0.052294646587479003 0.2493466198794505 0 0.04073495957405681 0.26035892983227987 0 0.04817080422001134 0.23536218897101929 0 0.059531729096570118 0.24099028160929839 0 0.052294646587479003 0.2493466198794505 0 0.059531729096570118 0.24099028160929839 0 0.067445722382230539 0.24771064348785149 0 0.06034442261467237 0.25120339486286308 0 0.059531729096570118 0.24099028160929839 0 0.052294646587479003 0.2493466198794505 0 0.06034442261467237 0.25120339486286308 0 0.04817080422001134 0.23536218897101929 0 0.04073495957405681 0.26035892983227987 0 0.04817080422001134 0.23536218897101929 0 0.044937254539659167 0.2379713478153713 0 0.04073495957405681 0.26035892983227987 0 0.04817080422001134 0.23536218897101929 0 0.044937254539659167 0.2379713478153713 0 0.044937254539659167 0.2379713478153713 0 0.034188277432347557 0.23988537883147459 0 0.030652172791378579 0.25229956247347313 0 0.085975255819246227 0.24304742420893821 0 0.091760355399887042 0.24149966876957779 0 0.085886262968569133 0.25948379364412733 0 0.091760355399887042 0.24149966876957779 0 0.10166443252893551 0.23659000017624271 0 0.085886262968569133 0.25948379364412733 0 0.085975255819246227 0.24304742420893821 0 0.091760355399887042 0.24149966876957779 0 0.090327239942362525 0.2312920649275291 0 0.085975255819246227 0.24304742420893821 0 0.075396639696560977 0.24390878816167419 0 0.077103558767455421 0.230534611802553 0 0.085975255819246227 0.24304742420893821 0 0.077103558767455421 0.230534611802553 0 0.090327239942362525 0.2312920649275291 0 0.085975255819246227 0.24304742420893821 0 0.075396639696560977 0.24390878816167419 0 0.080478695998155714 0.25165019938018113 0 0.075396639696560977 0.24390878816167419 0 0.074707437689247702 0.25389633834412328 0 0.080478695998155714 0.25165019938018113 0 0.075396639696560977 0.24390878816167419 0 0.067445722382230539 0.24771064348785149 0 0.068934414955804643 0.23628801399858909 0 0.075396639696560977 0.24390878816167419 0 0.067445722382230539 0.24771064348785149 0 0.074707437689247702 0.25389633834412328 0 0.059531729096570118 0.24099028160929839 0 0.067445722382230539 0.24771064348785149 0 0.068934414955804643 0.23628801399858909 0 0.075396639696560977 0.24390878816167419 0 0.068934414955804643 0.23628801399858909 0 0.077103558767455421 0.230534611802553 0 0.062081063031912492 0.22413796841031719 0 0.059531729096570118 0.24099028160929839 0 0.068934414955804643 0.23628801399858909 0 0.062081063031912492 0.22413796841031719 0 0.077103558767455421 0.230534611802553 0 0.077696208689423979 0.21392961690810641 0 0.077103558767455421 0.230534611802553 0 0.077696208689423979 0.21392961690810641 0 0.062081063031912492 0.22413796841031719 0 0.068934414955804643 0.23628801399858909 0 0.077103558767455421 0.230534611802553 0 0.077103558767455421 0.230534611802553 0 0.086723057100410644 0.21930832929599969 0 0.077696208689423979 0.21392961690810641 0 0.077103558767455421 0.230534611802553 0 0.090327239942362525 0.2312920649275291 0 0.086723057100410644 0.21930832929599969 0 0.090327239942362525 0.2312920649275291 0 0.086723057100410644 0.21930832929599969 0 0.099258091607832458 0.22228701345730209 0 0.08282365066700062 0.20740072564839451 0 0.1001331263781514 0.21054846617837791 0 0.08282365066700062 0.20740072564839451 0 0.0830920941513177 0.21288940176841251 0 0.1001331263781514 0.21054846617837791 0 0.086723057100410644 0.21930832929599969 0 0.0830920941513177 0.21288940176841251 0 0.1001331263781514 0.21054846617837791 0 0.08282365066700062 0.20740072564839451 0 0.077960793866212394 0.2065164116634538 0 0.08282365066700062 0.20740072564839451 0 0.07778409662064556 0.21146715366449201 0 0.077960793866212394 0.2065164116634538 0 0.08282365066700062 0.20740072564839451 0 0.0830920941513177 0.21288940176841251 0 0.07778409662064556 0.21146715366449201 0 0.08282365066700062 0.20740072564839451 0 0.07778409662064556 0.21146715366449201 0 0.086723057100410644 0.21930832929599969 0 0.077696208689423979 0.21392961690810641 0 0.086723057100410644 0.21930832929599969 0 0.0830920941513177 0.21288940176841251 0 0.077696208689423979 0.21392961690810641 0 0.0830920941513177 0.21288940176841251 0 0.07778409662064556 0.21146715366449201 0 0.077696208689423979 0.21392961690810641 0 0.059673977213942478 0.20319094098477611 0 0.077960793866212394 0.2065164116634538 0 0.062081063031912492 0.22413796841031719 0 0.077696208689423979 0.21392961690810641 0 0.075991321843812007 0.21291374784961289 0 0.059673977213942478 0.20319094098477611 0 0.075991321843812007 0.21291374784961289 0 0.059673977213942478 0.20319094098477611 0 0.061718375040706958 0.21244198365854619 0 0.075991321843812007 0.21291374784961289 0 0.059673977213942478 0.20319094098477611 0 0.075991321843812007 0.21291374784961289 0 0.077960793866212394 0.2065164116634538 0 0.07778409662064556 0.21146715366449201 0 0.077696208689423979 0.21392961690810641 0 0.075991321843812007 0.21291374784961289 0 0.07778409662064556 0.21146715366449201 0 0.077696208689423979 0.21392961690810641 0 0.07778409662064556 0.21146715366449201 0 0.075991321843812007 0.21291374784961289 0 0.077696208689423979 0.21392961690810641 0 0.075991321843812007 0.21291374784961289 0 0.062081063031912492 0.22413796841031719 0 0.075991321843812007 0.21291374784961289 0 0.061718375040706958 0.21244198365854619 0 0.062081063031912492 0.22413796841031719 0 0.075991321843812007 0.21291374784961289 0 0.07778409662064556 0.21146715366449201 0 0.075991321843812007 0.21291374784961289 0 0.077960793866212394 0.2065164116634538 0 0.07778409662064556 0.21146715366449201 0 0.077960793866212394 0.2065164116634538 0 0.060667890749981898 0.1933513013873914 0 0.069391780603767286 0.1985353247034998 0 0.078552310067739675 0.1899431815963343 0 0.059673977213942478 0.20319094098477611 0 0.077960793866212394 0.2065164116634538 0 0.069391780603767286 0.1985353247034998 0 0.057517378285335978 0.18642367489497111 0 0.060667890749981898 0.1933513013873914 0 0.078552310067739675 0.1899431815963343 0 0.077960793866212394 0.2065164116634538 0 0.069391780603767286 0.1985353247034998 0 0.078552310067739675 0.1899431815963343 0 0.057517378285335978 0.18642367489497111 0 0.078552310067739675 0.1899431815963343 0 0.060667890749981898 0.1933513013873914 0 0.059673977213942478 0.20319094098477611 0 0.069391780603767286 0.1985353247034998 0 0.077960793866212394 0.2065164116634538 0 0.078552310067739675 0.1899431815963343 0 0.08282365066700062 0.20740072564839451 0 0.078552310067739675 0.1899431815963343 0 0.1000095862482286 0.19353335379614581 0 0.08282365066700062 0.20740072564839451 0 0.077960793866212394 0.2065164116634538 0 0.078552310067739675 0.1899431815963343 0 0.08282365066700062 0.20740072564839451 0 0.1000095862482286 0.19353335379614581 0 0.078552310067739675 0.1899431815963343 0 0.1000095862482286 0.19353335379614581 0 0.1000095862482286 0.19353335379614581 0 0.1119621855324581 0.18388877331391679 0 0.1119621855324581 0.18388877331391679 0 0.12809949413598259 0.1982332796183166 0 0.12623709760602039 0.18867627876683751 0 0.1000095862482286 0.19353335379614581 0 0.12809949413598259 0.1982332796183166 0 0.1000095862482286 0.19353335379614581 0 0.1174426020893027 0.21369620670835879 0 0.12809949413598259 0.1982332796183166 0 0.1000095862482286 0.19353335379614581 0 0.1119621855324581 0.18388877331391679 0 0.12809949413598259 0.1982332796183166 0 0.1174426020893027 0.21369620670835879 0 0.12809949413598259 0.1982332796183166 0 0.1174426020893027 0.21369620670835879 0 0.13079881134157489 0.21612504290720769 0 0.1174426020893027 0.21369620670835879 0 0.1001331263781514 0.21054846617837791 0 0.1000095862482286 0.19353335379614581 0 0.1174426020893027 0.21369620670835879 0 0.1001331263781514 0.21054846617837791 0 0.08282365066700062 0.20740072564839451 0 0.1000095862482286 0.19353335379614581 0 0.1001331263781514 0.21054846617837791 0 0.1174426020893027 0.21369620670835879 0 0.1001331263781514 0.21054846617837791 0 0.099258091607832458 0.22228701345730209 0 0.086723057100410644 0.21930832929599969 0 0.1001331263781514 0.21054846617837791 0 0.099258091607832458 0.22228701345730209 0 0.1174426020893027 0.21369620670835879 0 0.099258091607832458 0.22228701345730209 0 0.10166443252893551 0.23659000017624271 0 0.090327239942362525 0.2312920649275291 0 0.099258091607832458 0.22228701345730209 0 0.10166443252893551 0.23659000017624271 0 0.11193009187841341 0.23778907333103991 0 0.1233060832280653 0.2372070654073864 0 0.13079881134157489 0.21612504290720769 0 0.1174426020893027 0.21369620670835879 0 0.11193009187841341 0.23778907333103991 0 0.10166443252893551 0.23659000017624271 0 0.1174426020893027 0.21369620670835879 0 0.11193009187841341 0.23778907333103991 0 0.13079881134157489 0.21612504290720769 0 0.11193009187841341 0.23778907333103991 0 0.13079881134157489 0.21612504290720769 0 0.1174426020893027 0.21369620670835879 0 0.10166443252893551 0.23659000017624271 0 0.11193009187841341 0.23778907333103991 0 0.1233060832280653 0.2372070654073864 0 0.1152979079485152 0.2467056018988516 0 0.1233060832280653 0.2372070654073864 0 0.1152979079485152 0.2467056018988516 0 0.1250676346401875 0.24796443701554319 0 0.11193009187841341 0.23778907333103991 0 0.1152979079485152 0.2467056018988516 0 0.10650461767427161 0.25132517155921902 0 0.11193009187841341 0.23778907333103991 0 0.10166443252893551 0.23659000017624271 0 0.093061372415253377 0.25945310375487363 0 0.10166443252893551 0.23659000017624271 0 0.085886262968569133 0.25948379364412733 0 0.11193009187841341 0.23778907333103991 0 0.093061372415253377 0.25945310375487363 0 0.11193009187841341 0.23778907333103991 0 0.093061372415253377 0.25945310375487363 0 0.10650461767427161 0.25132517155921902 0 0.091760355399887042 0.24149966876957779 0 0.090327239942362525 0.2312920649275291 0 0.10166443252893551 0.23659000017624271 0 0.08022281403025916 0.14313863688857029 0 0.093167312330706492 0.16073073013935579 0 0.097579150219516186 0.1459852772673329 0 0.08022281403025916 0.14313863688857029 0 0.079387562048995053 0.16654090924245221 0 0.08022281403025916 0.14313863688857029 0 0.097579150219516186 0.1459852772673329 0 0.098136173783193614 0.12855261503670501 0 0.081058066011519173 0.11973636453468819 0 0.08022281403025916 0.14313863688857029 0 0.081058066011519173 0.11973636453468819 0 0.08022281403025916 0.14313863688857029 0 0.098136173783193614 0.12855261503670501 0 0.054704645729867107 0.1303951701743557 0 0.068402942841081005 0.12865021266463919 0 0.06445510108496709 0.14831583671703669 0 0.081058066011519173 0.11973636453468819 0 0.08022281403025916 0.14313863688857029 0 0.068402942841081005 0.12865021266463919 0 0.08022281403025916 0.14313863688857029 0 0.068402942841081005 0.12865021266463919 0 0.06445510108496709 0.14831583671703669 0 0.08022281403025916 0.14313863688857029 0 0.06445510108496709 0.14831583671703669 0 0.079387562048995053 0.16654090924245221 0 0.06445510108496709 0.14831583671703669 0 0.06670876632053821 0.16536039993208129 0 0.079387562048995053 0.16654090924245221 0 0.056759789081437029 0.15816783404816359 0 0.06445510108496709 0.14831583671703669 0 0.06670876632053821 0.16536039993208129 0 0.06670876632053821 0.16536039993208129 0 0.071220178094475839 0.177519435916074 0 0.079387562048995053 0.16654090924245221 0 0.078552310067739675 0.1899431815963343 0 0.071220178094475839 0.177519435916074 0 0.079387562048995053 0.16654090924245221 0 0.057517378285335978 0.18642367489497111 0 0.078552310067739675 0.1899431815963343 0 0.071220178094475839 0.177519435916074 0 0.057517378285335978 0.18642367489497111 0 0.06670876632053821 0.16536039993208129 0 0.071220178094475839 0.177519435916074 0 0.078552310067739675 0.1899431815963343 0 0.079387562048995053 0.16654090924245221 0 0.078552310067739675 0.1899431815963343 0 0.079387562048995053 0.16654090924245221 0 0.094656188726405799 0.1772984468475671 0 0.078552310067739675 0.1899431815963343 0 0.1000095862482286 0.19353335379614581 0 0.094656188726405799 0.1772984468475671 0 0.079387562048995053 0.16654090924245221 0 0.093167312330706492 0.16073073013935579 0 0.094656188726405799 0.1772984468475671 0 0.08022281403025916 0.14313863688857029 0 0.079387562048995053 0.16654090924245221 0 0.093167312330706492 0.16073073013935579 0 0.093167312330706492 0.16073073013935579 0 0.1051682117550992 0.16863341283049499 0 0.094656188726405799 0.1772984468475671 0 0.093167312330706492 0.16073073013935579 0 0.1051682117550992 0.16863341283049499 0 0.10738037989590581 0.15691718048007991 0 0.1051682117550992 0.16863341283049499 0 0.094656188726405799 0.1772984468475671 0 0.1119621855324581 0.18388877331391679 0 0.1000095862482286 0.19353335379614581 0 0.094656188726405799 0.1772984468475671 0 0.1119621855324581 0.18388877331391679 0 0.1051682117550992 0.16863341283049499 0 0.1119621855324581 0.18388877331391679 0 0.1176573055604207 0.16965843036111 0 0.1119621855324581 0.18388877331391679 0 0.1176573055604207 0.16965843036111 0 0.12502668500631101 0.18003223183350331 0 0.1119621855324581 0.18388877331391679 0 0.12502668500631101 0.18003223183350331 0 0.12623709760602039 0.18867627876683751 0 0.10738037989590581 0.15691718048007991 0 0.1176573055604207 0.16965843036111 0 0.1263510041100718 0.15412713222648239 0 0.1051682117550992 0.16863341283049499 0 0.10738037989590581 0.15691718048007991 0 0.1176573055604207 0.16965843036111 0 0.10738037989590581 0.15691718048007991 0 0.1089890710575158 0.14058722379195329 0 0.1263510041100718 0.15412713222648239 0 0.1089890710575158 0.14058722379195329 0 0.1243116374868449 0.136850619307404 0 0.1263510041100718 0.15412713222648239 0 0.10738037989590581 0.15691718048007991 0 0.097579150219516186 0.1459852772673329 0 0.1089890710575158 0.14058722379195329 0 0.093167312330706492 0.16073073013935579 0 0.10738037989590581 0.15691718048007991 0 0.097579150219516186 0.1459852772673329 0 0.097579150219516186 0.1459852772673329 0 0.1089890710575158 0.14058722379195329 0 0.098136173783193614 0.12855261503670501 0 0.11707998843366239 0.12090166170324231 0 0.1089890710575158 0.14058722379195329 0 0.098136173783193614 0.12855261503670501 0 0.11707998843366239 0.12090166170324231 0 0.1089890710575158 0.14058722379195329 0 0.1243116374868449 0.136850619307404 0 0.11707998843366239 0.12090166170324231 0 0.1243116374868449 0.136850619307404 0 0.14061487869327599 0.12738787364596069 0 0.1243116374868449 0.136850619307404 0 0.14061487869327599 0.12738787364596069 0 0.1450893294801871 0.15084825440961219 0 0.14061487869327599 0.12738787364596069 0 0.1450893294801871 0.15084825440961219 0 0.16208469833826319 0.13464304631642149 0 0.1450893294801871 0.15084825440961219 0 0.16208469833826319 0.13464304631642149 0 0.1243116374868449 0.136850619307404 0 0.1450893294801871 0.15084825440961219 0 0.1263510041100718 0.15412713222648239 0 0.1450893294801871 0.15084825440961219 0 0.1263510041100718 0.15412713222648239 0 0.13434892063135129 0.1709012650253654 0 0.1176573055604207 0.16965843036111 0 0.1263510041100718 0.15412713222648239 0 0.13434892063135129 0.1709012650253654 0 0.1176573055604207 0.16965843036111 0 0.13434892063135129 0.1709012650253654 0 0.12502668500631101 0.18003223183350331 0 0.12502668500631101 0.18003223183350331 0 0.13317066441191511 0.18549658195139779 0 0.12623709760602039 0.18867627876683751 0 0.13434892063135129 0.1709012650253654 0 0.12502668500631101 0.18003223183350331 0 0.13317066441191511 0.18549658195139779 0 0.13434892063135129 0.1709012650253654 0 0.13317066441191511 0.18549658195139779 0 0.14289571148574401 0.18421669799074539 0 0.13434892063135129 0.1709012650253654 0 0.14289571148574401 0.18421669799074539 0 0.15014598838012391 0.16812378435884931 0 0.14289571148574401 0.18421669799074539 0 0.15014598838012391 0.16812378435884931 0 0.16340295837154781 0.17869074671240681 0 0.1450893294801871 0.15084825440961219 0 0.15014598838012391 0.16812378435884931 0 0.17025484901730581 0.156442106610301 0 0.1450893294801871 0.15084825440961219 0 0.13434892063135129 0.1709012650253654 0 0.15014598838012391 0.16812378435884931 0 0.15014598838012391 0.16812378435884931 0 0.17025484901730581 0.156442106610301 0 0.16340295837154781 0.17869074671240681 0 0.17025484901730581 0.156442106610301 0 0.16340295837154781 0.17869074671240681 0 0.18344157371591241 0.18406997535271 0 0.17025484901730581 0.156442106610301 0 0.18344157371591241 0.18406997535271 0 0.1981233639171355 0.16578679509823521 0 0.17025484901730581 0.156442106610301 0 0.1886017155567373 0.14211231666073301 0 0.1981233639171355 0.16578679509823521 0 0.17025484901730581 0.156442106610301 0 0.16208469833826319 0.13464304631642149 0 0.1886017155567373 0.14211231666073301 0 0.1886017155567373 0.14211231666073301 0 0.1790800671963392 0.1184378382232308 0 0.16208469833826319 0.13464304631642149 0 0.1886017155567373 0.14211231666073301 0 0.1790800671963392 0.1184378382232308 0 0.19325819231563421 0.12959887947710741 0 0.1886017155567373 0.14211231666073301 0 0.1790800671963392 0.1184378382232308 0 0.16208469833826319 0.13464304631642149 0 0.1790800671963392 0.1184378382232308 0 0.1450893294801871 0.15084825440961219 0 0.17025484901730581 0.156442106610301 0 0.16208469833826319 0.13464304631642149 0 0.1514273965657848 0.24085309905483679 0 0.13478444466321229 0.23767678351231611 0 0.14386495534927929 0.22895205141331151 0 0.1514273965657848 0.24085309905483679 0 0.13478444466321229 0.23767678351231611 0 0.1384713120865835 0.25773302092121009 0 0.1250676346401875 0.24796443701554319 0 0.13478444466321229 0.23767678351231611 0 0.1384713120865835 0.25773302092121009 0 0.1233060832280653 0.2372070654073864 0 0.1250676346401875 0.24796443701554319 0 0.13478444466321229 0.23767678351231611 0 0.1233060832280653 0.2372070654073864 0 0.13478444466321229 0.23767678351231611 0 0.13079881134157489 0.21612504290720769 0 0.13478444466321229 0.23767678351231611 0 0.14386495534927929 0.22895205141331151 0 0.13079881134157489 0.21612504290720769 0 0.14386495534927929 0.22895205141331151 0 0.13079881134157489 0.21612504290720769 0 0.15844916882654519 0.22115328017888419 0 0.1514273965657848 0.24085309905483679 0 0.14386495534927929 0.22895205141331151 0 0.15844916882654519 0.22115328017888419 0 0.13079881134157489 0.21612504290720769 0 0.15844916882654519 0.22115328017888419 0 0.13079881134157489 0.21612504290720769 0 0.14405659807402271 0.2009031781863346 0 0.15844916882654519 0.22115328017888419 0 0.13079881134157489 0.21612504290720769 0 0.12809949413598259 0.1982332796183166 0 0.14405659807402271 0.2009031781863346 0 0.1174426020893027 0.21369620670835879 0 0.13079881134157489 0.21612504290720769 0 0.12809949413598259 0.1982332796183166 0 0.13079881134157489 0.21612504290720769 0 0.14405659807402271 0.2009031781863346 0 0.12809949413598259 0.1982332796183166 0 0.14405659807402271 0.2009031781863346 0 0.12809949413598259 0.1982332796183166 0 0.1377541084679488 0.19338203871321119 0 0.14405659807402271 0.2009031781863346 0 0.12809949413598259 0.1982332796183166 0 0.13022991801334199 0.19514207920620891 0 0.1377541084679488 0.19338203871321119 0 0.12809949413598259 0.1982332796183166 0 0.13022991801334199 0.19514207920620891 0 0.12809949413598259 0.1982332796183166 0 0.12623709760602039 0.18867627876683751 0 0.13022991801334199 0.19514207920620891 0 0.13317066441191511 0.18549658195139779 0 0.12623709760602039 0.18867627876683751 0 0.13022991801334199 0.19514207920620891 0 0.13317066441191511 0.18549658195139779 0 0.14289571148574401 0.18421669799074539 0 0.1377541084679488 0.19338203871321119 0 0.13317066441191511 0.18549658195139779 0 0.13022991801334199 0.19514207920620891 0 0.1377541084679488 0.19338203871321119 0 0.14289571148574401 0.18421669799074539 0 0.1377541084679488 0.19338203871321119 0 0.14405659807402271 0.2009031781863346 0 0.14405659807402271 0.2009031781863346 0 0.1684266189286579 0.20498070278197239 0 0.14289571148574401 0.18421669799074539 0 0.16340295837154781 0.17869074671240681 0 0.14405659807402271 0.2009031781863346 0 0.16340295837154781 0.17869074671240681 0 0.14405659807402271 0.2009031781863346 0 0.16340295837154781 0.17869074671240681 0 0.18344157371591241 0.18406997535271 0 0.1684266189286579 0.20498070278197239 0 0.16340295837154781 0.17869074671240681 0 0.14405659807402271 0.2009031781863346 0 0.1684266189286579 0.20498070278197239 0 0.18344157371591241 0.18406997535271 0 0.1684266189286579 0.20498070278197239 0 0.19279663978329381 0.20905822737760699 0 0.1684266189286579 0.20498070278197239 0 0.19279663978329381 0.20905822737760699 0 0.17869659642439559 0.21414630976549021 0 0.1684266189286579 0.20498070278197239 0 0.19279663978329381 0.20905822737760699 0 0.17869659642439559 0.21414630976549021 0 0.18609952631151591 0.22618151745055959 0 0.19279663978329381 0.20905822737760699 0 0.14405659807402271 0.2009031781863346 0 0.1684266189286579 0.20498070278197239 0 0.15844916882654519 0.22115328017888419 0 0.17869659642439559 0.21414630976549021 0 0.1684266189286579 0.20498070278197239 0 0.15844916882654519 0.22115328017888419 0 0.1514273965657848 0.24085309905483679 0 0.15844916882654519 0.22115328017888419 0 0.1691493644934341 0.23606856512045299 0 0.15844916882654519 0.22115328017888419 0 0.18609952631151591 0.22618151745055959 0 0.1691493644934341 0.23606856512045299 0 0.17869659642439559 0.21414630976549021 0 0.15844916882654519 0.22115328017888419 0 0.18609952631151591 0.22618151745055959 0 0.15844916882654519 0.22115328017888419 0 0.18609952631151591 0.22618151745055959 0 0.18609952631151591 0.22618151745055959 0 0.1971008006350988 0.24422433182354611 0 0.17660728565697029 0.25284173787090108 0 0.18609952631151591 0.22618151745055959 0 0.1691493644934341 0.23606856512045299 0 0.17660728565697029 0.25284173787090108 0 0.1514273965657848 0.24085309905483679 0 0.17660728565697029 0.25284173787090108 0 0.1514273965657848 0.24085309905483679 0 0.1691493644934341 0.23606856512045299 0 0.17660728565697029 0.25284173787090108 0 0.1971008006350988 0.24422433182354611 0 0.21374988379648621 0.2312097547222359 0 0.2257125065402284 0.25431107802280528 0 0.18609952631151591 0.22618151745055959 0 0.19919001424274069 0.21902366269476331 0 0.2102140220753515 0.22438156273492879 0 0.18609952631151591 0.22618151745055959 0 0.1971008006350988 0.24422433182354611 0 0.21374988379648621 0.2312097547222359 0 0.18609952631151591 0.22618151745055959 0 0.21374988379648621 0.2312097547222359 0 0.18609952631151591 0.22618151745055959 0 0.2102140220753515 0.22438156273492879 0 0.21374988379648621 0.2312097547222359 0 0.19919001424274069 0.21902366269476331 0 0.2102140220753515 0.22438156273492879 0 0.22326984787173351 0.22831062181695069 0 0.19919001424274069 0.21902366269476331 0 0.21716666063792969 0.21313575197324039 0 0.22326984787173351 0.22831062181695069 0 0.19919001424274069 0.21902366269476331 0 0.22326984787173351 0.22831062181695069 0 0.2102140220753515 0.22438156273492879 0 0.21374988379648621 0.2312097547222359 0 0.2102140220753515 0.22438156273492879 0 0.21374988379648621 0.2312097547222359 0 0.22326984787173351 0.22831062181695069 0 0.21716666063792969 0.21313575197324039 0 0.19279663978329381 0.20905822737760699 0 0.20764501227753371 0.18946127353573741 0 0.21716666063792969 0.21313575197324039 0 0.19279663978329381 0.20905822737760699 0 0.19919001424274069 0.21902366269476331 0 0.21716666063792969 0.21313575197324039 0 0.19279663978329381 0.20905822737760699 0 0.18609952631151591 0.22618151745055959 0 0.19919001424274069 0.21902366269476331 0 0.19279663978329381 0.20905822737760699 0 0.18344157371591241 0.18406997535271 0 0.19279663978329381 0.20905822737760699 0 0.20764501227753371 0.18946127353573741 0 0.21716666063792969 0.21313575197324039 0 0.20764501227753371 0.18946127353573741 0 0.21716666063792969 0.21313575197324039 0 0.20764501227753371 0.18946127353573741 0 0.22349524510262589 0.1882929917077163 0 0.21716666063792969 0.21313575197324039 0 0.22349524510262589 0.1882929917077163 0 0.23482300448504159 0.1984970970255906 0 0.22349524510262589 0.1882929917077163 0 0.23482300448504159 0.1984970970255906 0 0.23800281531175979 0.18073324988006281 0 0.23482300448504159 0.1984970970255906 0 0.24828008483854189 0.20295934428596721 0 0.25113643024109478 0.19094495075723769 0 0.23482300448504159 0.1984970970255906 0 0.23800281531175979 0.18073324988006281 0 0.25113643024109478 0.19094495075723769 0 0.23482300448504159 0.1984970970255906 0 0.24828008483854189 0.20295934428596721 0 0.24332195560292991 0.2175119837032847 0 0.21716666063792969 0.21313575197324039 0 0.23482300448504159 0.1984970970255906 0 0.24332195560292991 0.2175119837032847 0 0.21716666063792969 0.21313575197324039 0 0.24332195560292991 0.2175119837032847 0 0.22527908084694109 0.23330634744632109 0 0.22326984787173351 0.22831062181695069 0 0.2459873280094696 0.23707215699401071 0 0.21716666063792969 0.21313575197324039 0 0.24332195560292991 0.2175119837032847 0 0.22326984787173351 0.22831062181695069 0 0.21716666063792969 0.21313575197324039 0 0.22326984787173351 0.22831062181695069 0 0.21374988379648621 0.2312097547222359 0 0.22527908084694109 0.23330634744632109 0 0.22326984787173351 0.22831062181695069 0 0.21374988379648621 0.2312097547222359 0 0.22527908084694109 0.23330634744632109 0 0.22527908084694109 0.23330634744632109 0 0.22326984787173351 0.22831062181695069 0 0.22326984787173351 0.22831062181695069 0 0.2459873280094696 0.23707215699401071 0 0.24332195560292991 0.2175119837032847 0 0.22326984787173351 0.22831062181695069 0 0.2459873280094696 0.23707215699401071 0 0.22527908084694109 0.23330634744632109 0 0.2459873280094696 0.23707215699401071 0 0.22527908084694109 0.23330634744632109 0 0.2459873280094696 0.23707215699401071 0 0.23435940432808119 0.2558835225658645 0 0.22527908084694109 0.23330634744632109 0 0.23435940432808119 0.2558835225658645 0 0.21374988379648621 0.2312097547222359 0 0.2257125065402284 0.25431107802280528 0 0.21374988379648621 0.2312097547222359 0 0.22527908084694109 0.23330634744632109 0 0.2257125065402284 0.25431107802280528 0 0.22527908084694109 0.23330634744632109 0 0.2257125065402284 0.25431107802280528 0 0.23435940432808119 0.2558835225658645 0 0.207677409848747 0.15265436726913009 0 0.20799191400454739 0.1375227668896451 0 0.22134903716669199 0.14708536363501609 0 0.20799191400454739 0.1375227668896451 0 0.22703691245497479 0.13189098412415109 0 0.21251029914637609 0.1192952894197942 0 0.20799191400454739 0.1375227668896451 0 0.19325819231563421 0.12959887947710741 0 0.21251029914637609 0.1192952894197942 0 0.20799191400454739 0.1375227668896451 0 0.19325819231563421 0.12959887947710741 0 0.1886017155567373 0.14211231666073301 0 0.1886017155567373 0.14211231666073301 0 0.1981233639171355 0.16578679509823521 0 0.207677409848747 0.15265436726913009 0 0.20799191400454739 0.1375227668896451 0 0.1886017155567373 0.14211231666073301 0 0.207677409848747 0.15265436726913009 0 0.1886017155567373 0.14211231666073301 0 0.1981233639171355 0.16578679509823521 0 0.20764501227753371 0.18946127353573741 0 0.1981233639171355 0.16578679509823521 0 0.18344157371591241 0.18406997535271 0 0.20764501227753371 0.18946127353573741 0 0.1981233639171355 0.16578679509823521 0 0.20764501227753371 0.18946127353573741 0 0.1981233639171355 0.16578679509823521 0 0.22193333897365611 0.16940236618161161 0 0.20764501227753371 0.18946127353573741 0 0.22349524510262589 0.1882929917077163 0 0.22193333897365611 0.16940236618161161 0 0.207677409848747 0.15265436726913009 0 0.1981233639171355 0.16578679509823521 0 0.22193333897365611 0.16940236618161161 0 0.207677409848747 0.15265436726913009 0 0.22193333897365611 0.16940236618161161 0 0.22134903716669199 0.14708536363501609 0 0.22349524510262589 0.1882929917077163 0 0.22193333897365611 0.16940236618161161 0 0.23800281531175979 0.18073324988006281 0 0.23800281531175979 0.18073324988006281 0 0.24342118736862761 0.16410875332904781 0 0.25421457754785548 0.17528354573505059 0 0.23800281531175979 0.18073324988006281 0 0.25421457754785548 0.17528354573505059 0 0.25113643024109478 0.19094495075723769 0 0.22193333897365611 0.16940236618161161 0 0.23800281531175979 0.18073324988006281 0 0.24342118736862761 0.16410875332904781 0 0.22193333897365611 0.16940236618161161 0 0.24342118736862761 0.16410875332904781 0 0.2381959797174126 0.14809141417820801 0 0.2381959797174126 0.14809141417820801 0 0.2471064899150823 0.133463067737116 0 0.25227113898158787 0.14916335431643429 0 0.24342118736862761 0.16410875332904781 0 0.2381959797174126 0.14809141417820801 0 0.25227113898158787 0.14916335431643429 0 0.2381959797174126 0.14809141417820801 0 0.22134903716669199 0.14708536363501609 0 0.22703691245497479 0.13189098412415109 0 0.22193333897365611 0.16940236618161161 0 0.2381959797174126 0.14809141417820801 0 0.22134903716669199 0.14708536363501609 0 0.20799191400454739 0.1375227668896451 0 0.22134903716669199 0.14708536363501609 0 0.22703691245497479 0.13189098412415109 0 0.22703691245497479 0.13189098412415109 0 0.2471064899150823 0.133463067737116 0 0.2348532799323845 0.1126728752525727 0 0.2381959797174126 0.14809141417820801 0 0.22703691245497479 0.13189098412415109 0 0.2471064899150823 0.133463067737116 0 0.2471064899150823 0.133463067737116 0 0.2496952397761337 0.1160329650041991 0 0.2348532799323845 0.1126728752525727 0 0.2348532799323845 0.1126728752525727 0 0.23238347446995899 0.09878858498409393 0 0.25089272908716931 0.092982859712809007 0 0.2496952397761337 0.1160329650041991 0 0.2348532799323845 0.1126728752525727 0 0.25089272908716931 0.092982859712809007 0 0.23238347446995899 0.09878858498409393 0 0.21965336389696419 0.1029970115124081 0 0.22413452496331809 0.086501593458585962 0 0.2348532799323845 0.1126728752525727 0 0.23238347446995899 0.09878858498409393 0 0.21965336389696419 0.1029970115124081 0 0.2348532799323845 0.1126728752525727 0 0.21965336389696419 0.1029970115124081 0 0.21251029914637609 0.1192952894197942 0 0.22703691245497479 0.13189098412415109 0 0.2348532799323845 0.1126728752525727 0 0.21251029914637609 0.1192952894197942 0 0.21965336389696419 0.1029970115124081 0 0.21251029914637609 0.1192952894197942 0 0.20714728240524249 0.10617251279081751 0 0.21251029914637609 0.1192952894197942 0 0.20714728240524249 0.10617251279081751 0 0.2007454095485067 0.1153730887768626 0 0.21965336389696419 0.1029970115124081 0 0.21155544327336909 0.093494818701204518 0 0.22413452496331809 0.086501593458585962 0 0.21965336389696419 0.1029970115124081 0 0.20714728240524249 0.10617251279081751 0 0.21155544327336909 0.093494818701204518 0 0.20029711589946361 0.098207227624031723 0 0.20055037116402991 0.091606906531847498 0 0.21155544327336909 0.093494818701204518 0 0.20714728240524249 0.10617251279081751 0 0.20029711589946361 0.098207227624031723 0 0.21155544327336909 0.093494818701204518 0 0.19812206266677551 0.107667640710604 0 0.20029711589946361 0.098207227624031723 0 0.1885688884481975 0.1093901779912298 0 0.20714728240524249 0.10617251279081751 0 0.19812206266677551 0.107667640710604 0 0.20029711589946361 0.098207227624031723 0 0.20029711589946361 0.098207227624031723 0 0.1929726046438287 0.094705252597794665 0 0.20055037116402991 0.091606906531847498 0 0.1929726046438287 0.094705252597794665 0 0.1885688884481975 0.1093901779912298 0 0.1832996600419958 0.1003897382564244 0 0.20029711589946361 0.098207227624031723 0 0.1929726046438287 0.094705252597794665 0 0.1885688884481975 0.1093901779912298 0 0.20029711589946361 0.098207227624031723 0 0.1885688884481975 0.1093901779912298 0 0.1929726046438287 0.094705252597794665 0 0.1885688884481975 0.1093901779912298 0 0.19812206266677551 0.107667640710604 0 0.19247123508700151 0.1156451737142033 0 0.1885688884481975 0.1093901779912298 0 0.19247123508700151 0.1156451737142033 0 0.1885688884481975 0.1093901779912298 0 0.1858372065203453 0.1184994265274882 0 0.19325819231563421 0.12959887947710741 0 0.21251029914637609 0.1192952894197942 0 0.2007454095485067 0.1153730887768626 0 0.19325819231563421 0.12959887947710741 0 0.19247123508700151 0.1156451737142033 0 0.1858372065203453 0.1184994265274882 0 0.19325819231563421 0.12959887947710741 0 0.19247123508700151 0.1156451737142033 0 0.2007454095485067 0.1153730887768626 0 0.20714728240524249 0.10617251279081751 0 0.19812206266677551 0.107667640710604 0 0.2007454095485067 0.1153730887768626 0 0.19812206266677551 0.107667640710604 0 0.19247123508700151 0.1156451737142033 0 0.2007454095485067 0.1153730887768626 0 0.20238686903042469 0.063311819413239129 0 0.1973763208394673 0.08002032720436178 0 0.18079222374313991 0.066157073385880324 0 0.20238686903042469 0.063311819413239129 0 0.18079222374313991 0.066157073385880324 0 0.1973763208394673 0.08002032720436178 0 0.17868141559437861 0.075492121278057239 0 0.20238686903042469 0.063311819413239129 0 0.1973763208394673 0.08002032720436178 0 0.1929726046438287 0.094705252597794665 0 0.1973763208394673 0.08002032720436178 0 0.1929726046438287 0.094705252597794665 0 0.1973763208394673 0.08002032720436178 0 0.18493574174144031 0.087819629641268118 0 0.1929726046438287 0.094705252597794665 0 0.20055037116402991 0.091606906531847498 0 0.1973763208394673 0.08002032720436178 0 0.1973763208394673 0.08002032720436178 0 0.22413452496331809 0.086501593458585962 0 0.1973763208394673 0.08002032720436178 0 0.21155544327336909 0.093494818701204518 0 0.22413452496331809 0.086501593458585962 0 0.1973763208394673 0.08002032720436178 0 0.21581045027983861 0.072515516379325212 0 0.22413452496331809 0.086501593458585962 0 0.20055037116402991 0.091606906531847498 0 0.1973763208394673 0.08002032720436178 0 0.21155544327336909 0.093494818701204518 0 0.20238686903042469 0.063311819413239129 0 0.21581045027983861 0.072515516379325212 0 0.22639199231908241 0.060148967164815811 0 0.20238686903042469 0.063311819413239129 0 0.1973763208394673 0.08002032720436178 0 0.21581045027983861 0.072515516379325212 0 0.21581045027983861 0.072515516379325212 0 0.22413452496331809 0.086501593458585962 0 0.23571274181676019 0.070187616308315881 0 0.21581045027983861 0.072515516379325212 0 0.23571274181676019 0.070187616308315881 0 0.22639199231908241 0.060148967164815811 0 0.23571274181676019 0.070187616308315881 0 0.23935269316475091 0.05797056278501677 0 0.22639199231908241 0.060148967164815811 0 0.22413452496331809 0.086501593458585962 0 0.25089272908716931 0.092982859712809007 0 0.22413452496331809 0.086501593458585962 0 0.23571274181676019 0.070187616308315881 0 0.25089272908716931 0.092982859712809007 0 0.23238347446995899 0.09878858498409393 0 0.22413452496331809 0.086501593458585962 0 0.25089272908716931 0.092982859712809007 0 0.23571274181676019 0.070187616308315881 0 0.25089272908716931 0.092982859712809007 0 0.23571274181676019 0.070187616308315881 0 0.25282536794073712 0.073272794188635415 0 0.25089272908716931 0.092982859712809007 0 0.23935269316475091 0.05797056278501677 0 0.25425538404847059 0.057624927133231481 0 0.25282536794073712 0.073272794188635415 0 0.23571274181676019 0.070187616308315881 0 0.23935269316475091 0.05797056278501677 0 0.25282536794073712 0.073272794188635415 0 0.2368345322212535 0.044434942105003657 0 0.25425538404847059 0.057624927133231481 0 0.23935269316475091 0.05797056278501677 0 0.2368345322212535 0.044434942105003657 0 0.25425538404847059 0.057624927133231481 0 0.23935269316475091 0.05797056278501677 0 0.2368345322212535 0.044434942105003657 0 0.23127016951469481 0.052559852354376588 0 0.2368345322212535 0.044434942105003657 0 0.25291178968964928 0.037547667281027097 0 0.25425538404847059 0.057624927133231481 0 0.2368345322212535 0.044434942105003657 0 0.24190969492169709 0.024768393557462999 0 0.25291178968964928 0.037547667281027097 0 0.2368345322212535 0.044434942105003657 0 0.21941368039403211 0.031244957076781411 0 0.2368345322212535 0.044434942105003657 0 0.22121604545690071 0.040326540279582428 0 0.22250146035369231 0.047684937362670127 0 0.2368345322212535 0.044434942105003657 0 0.22121604545690071 0.040326540279582428 0 0.21941368039403211 0.031244957076781411 0 0.2368345322212535 0.044434942105003657 0 0.24190969492169709 0.024768393557462999 0 0.21941368039403211 0.031244957076781411 0 0.22121604545690071 0.040326540279582428 0 0.22250146035369231 0.047684937362670127 0 0.2151241054634794 0.043140718643033253 0 0.22250146035369231 0.047684937362670127 0 0.22639199231908241 0.060148967164815811 0 0.21464985550632831 0.05254647609126252 0 0.23935269316475091 0.05797056278501677 0 0.22639199231908241 0.060148967164815811 0 0.23127016951469481 0.052559852354376588 0 0.2368345322212535 0.044434942105003657 0 0.22250146035369231 0.047684937362670127 0 0.23127016951469481 0.052559852354376588 0 0.22250146035369231 0.047684937362670127 0 0.22639199231908241 0.060148967164815811 0 0.23127016951469481 0.052559852354376588 0 0.23517440673197429 0.0051848507458196356 0 0.24190969492169709 0.024768393557462999 0 0.22860778246280219 0.01441509204728152 0 0.23517440673197429 0.0051848507458196356 0 0.2485551203034157 0.0102848256948572 0 0.24190969492169709 0.024768393557462999 0 0.23517440673197429 0.0051848507458196356 0 0.2429424487767215 0.0026164120279975069 0 0.24005113852307369 -0.0027355710512556022 0 0.23517440673197429 0.0051848507458196356 0 0.2429424487767215 0.0026164120279975069 0 0.2485551203034157 0.0102848256948572 0 0.2429424487767215 0.0026164120279975069 0 0.2485551203034157 0.0102848256948572 0 0.2479891295484222 -0.0022684572774312019 0 0.2237082671027216 0.020648212041472009 0 0.22100796739575951 0.001216664300799794 0 0.21337432104441539 0.026672329963493752 0 0.24190969492169709 0.024768393557462999 0 0.21941368039403211 0.031244957076781411 0 0.24190969492169709 0.024768393557462999 0 0.21941368039403211 0.031244957076781411 0 0.2237082671027216 0.020648212041472009 0 0.24190969492169709 0.024768393557462999 0 0.2237082671027216 0.020648212041472009 0 0.22860778246280219 0.01441509204728152 0 0.21941368039403211 0.031244957076781411 0 0.2237082671027216 0.020648212041472009 0 0.21337432104441539 0.026672329963493752 0 0.2237082671027216 0.020648212041472009 0 0.22860778246280219 0.01441509204728152 0 0.22100796739575951 0.001216664300799794 0 0.23517440673197429 0.0051848507458196356 0 0.22860778246280219 0.01441509204728152 0 0.22100796739575951 0.001216664300799794 0 0.22100796739575951 0.001216664300799794 0 0.21337432104441539 0.026672329963493752 0 0.22100796739575951 0.001216664300799794 0 0.21213365429295861 0.01041237886839381 0 0.21337432104441539 0.026672329963493752 0 0.20938161325362409 0.0025060029461209908 0 0.21213365429295861 0.01041237886839381 0 0.19981118715584381 0.0070254328827108366 0 0.20938161325362409 0.0025060029461209908 0 0.19981118715584381 0.0070254328827108366 0 0.20239897911060981 -0.0049616950454924097 0 0.22100796739575951 0.001216664300799794 0 0.21476518088515931 0.0026345493870347861 0 0.21213365429295861 0.01041237886839381 0 0.20938161325362409 0.0025060029461209908 0 0.21476518088515931 0.0026345493870347861 0 0.21653748859829491 -0.0035968485671754561 0 0.20938161325362409 0.0025060029461209908 0 0.21476518088515931 0.0026345493870347861 0 0.21213365429295861 0.01041237886839381 0 0.22100796739575951 0.001216664300799794 0 0.21476518088515931 0.0026345493870347861 0 0.21653748859829491 -0.0035968485671754561 0 0.21213365429295861 0.01041237886839381 0 0.20775643638324501 0.022418817258943329 0 0.19981118715584381 0.0070254328827108366 0 0.20775643638324501 0.022418817258943329 0 0.19981118715584381 0.0070254328827108366 0 0.21213365429295861 0.01041237886839381 0 0.20775643638324501 0.022418817258943329 0 0.21337432104441539 0.026672329963493752 0 0.20775643638324501 0.022418817258943329 0 0.21337432104441539 0.026672329963493752 0 0.21211661331991941 0.030866365927793071 0 0.21941368039403211 0.031244957076781411 0 0.21337432104441539 0.026672329963493752 0 0.21211661331991941 0.030866365927793071 0 0.21941368039403211 0.031244957076781411 0 0.21337432104441539 0.026672329963493752 0 0.21337432104441539 0.026672329963493752 0 0.21211661331991941 0.030866365927793071 0 0.20775643638324501 0.022418817258943329 0 0.21211661331991941 0.030866365927793071 0 0.2008624239423544 0.027751844864101351 0 0.21211661331991941 0.030866365927793071 0 0.2008624239423544 0.027751844864101351 0 0.21130283169949521 0.033580056331867662 0 0.20775643638324501 0.022418817258943329 0 0.21211661331991941 0.030866365927793071 0 0.20775643638324501 0.022418817258943329 0 0.21337432104441539 0.026672329963493752 0 0.2008624239423544 0.027751844864101351 0 0.1914807756371078 0.039286791852227318 0 0.1874867753674215 0.0231110496262097 0 0.2008624239423544 0.027751844864101351 0 0.19503111124693581 0.017247988187571551 0 0.1874867753674215 0.0231110496262097 0 0.19503111124693581 0.017247988187571551 0 0.18734518720319909 0.015281891910368059 0 0.1874867753674215 0.0231110496262097 0 0.20775643638324501 0.022418817258943329 0 0.2008624239423544 0.027751844864101351 0 0.19503111124693581 0.017247988187571551 0 0.20775643638324501 0.022418817258943329 0 0.19503111124693581 0.017247988187571551 0 0.18660242445042999 0.0064023156866817926 0 0.20775643638324501 0.022418817258943329 0 0.18660242445042999 0.0064023156866817926 0 0.20775643638324501 0.022418817258943329 0 0.1894192936343001 0.0060385698470956234 0 0.19981118715584381 0.0070254328827108366 0 0.20775643638324501 0.022418817258943329 0 0.1894192936343001 0.0060385698470956234 0 0.18660242445042999 0.0064023156866817926 0 0.19503111124693581 0.017247988187571551 0 0.18832376542685261 0.012450231659139751 0 0.18660242445042999 0.0064023156866817926 0 0.19503111124693581 0.017247988187571551 0 0.18832376542685261 0.012450231659139751 0 0.18734518720319909 0.015281891910368059 0 0.1894192936343001 0.0060385698470956234 0 0.19981118715584381 0.0070254328827108366 0 0.1918659379284415 -0.0083679514935210662 0 0.20238686903042469 0.063311819413239129 0 0.22639199231908241 0.060148967164815811 0 0.21464985550632831 0.05254647609126252 0 0.20238686903042469 0.063311819413239129 0 0.22639199231908241 0.060148967164815811 0 0.20238686903042469 0.063311819413239129 0 0.20684485036496281 0.04844593787255428 0 0.21464985550632831 0.05254647609126252 0 0.20238686903042469 0.063311819413239129 0 0.20684485036496281 0.04844593787255428 0 0.20684485036496281 0.04844593787255428 0 0.21464985550632831 0.05254647609126252 0 0.2151241054634794 0.043140718643033253 0 0.22250146035369231 0.047684937362670127 0 0.21464985550632831 0.05254647609126252 0 0.2151241054634794 0.043140718643033253 0 0.20684485036496281 0.04844593787255428 0 0.2151241054634794 0.043140718643033253 0 0.21130283169949521 0.033580056331867662 0 0.20684485036496281 0.04844593787255428 0 0.21130283169949521 0.033580056331867662 0 0.1914807756371078 0.039286791852227318 0 0.2151241054634794 0.043140718643033253 0 0.21130283169949521 0.033580056331867662 0 0.21323078658658201 0.03302500146766809 0 0.22121604545690071 0.040326540279582428 0 0.2151241054634794 0.043140718643033253 0 0.21323078658658201 0.03302500146766809 0 0.22121604545690071 0.040326540279582428 0 0.21941368039403211 0.031244957076781411 0 0.21323078658658201 0.03302500146766809 0 0.21941368039403211 0.031244957076781411 0 0.21211661331991941 0.030866365927793071 0 0.21323078658658201 0.03302500146766809 0 0.21941368039403211 0.031244957076781411 0 0.21323078658658201 0.03302500146766809 0 0.21130283169949521 0.033580056331867662 0 0.21323078658658201 0.03302500146766809 0 0.21211661331991941 0.030866365927793071 0 0.21130283169949521 0.033580056331867662 0 0.21323078658658201 0.03302500146766809 0 0.21211661331991941 0.030866365927793071 0 0.21130283169949521 0.033580056331867662 0 0.21211661331991941 0.030866365927793071 0 0.21323078658658201 0.03302500146766809 0 0.20684485036496281 0.04844593787255428 0 0.21130283169949521 0.033580056331867662 0 0.20684485036496281 0.04844593787255428 0 0.1914807756371078 0.039286791852227318 0 0.1906326876700713 0.052439029979298252 0 0.21130283169949521 0.033580056331867662 0 0.1914807756371078 0.039286791852227318 0 0.2008624239423544 0.027751844864101351 0 0.21130283169949521 0.033580056331867662 0 0.1914807756371078 0.039286791852227318 0 0.20238686903042469 0.063311819413239129 0 0.20684485036496281 0.04844593787255428 0 0.1906326876700713 0.052439029979298252 0 0.20238686903042469 0.063311819413239129 0 0.1906326876700713 0.052439029979298252 0 0.18079222374313991 0.066157073385880324 0 0.1906326876700713 0.052439029979298252 0 0.1716587195747214 0.044993527372590117 0 0.18079222374313991 0.066157073385880324 0 0.1914807756371078 0.039286791852227318 0 0.17895959729017549 0.03270519686463521 0 0.1874867753674215 0.0231110496262097 0 0.1914807756371078 0.039286791852227318 0 0.1906326876700713 0.052439029979298252 0 0.1716587195747214 0.044993527372590117 0 0.1914807756371078 0.039286791852227318 0 0.1716587195747214 0.044993527372590117 0 0.1914807756371078 0.039286791852227318 0 0.17895959729017549 0.03270519686463521 0 0.1716587195747214 0.044993527372590117 0 0.17895959729017549 0.03270519686463521 0 0.1716587195747214 0.044993527372590117 0 0.1692336025848987 0.033942773786365128 0 0.1716587195747214 0.044993527372590117 0 0.1692336025848987 0.033942773786365128 0 0.1566962317421734 0.039838803654011962 0 0.1716587195747214 0.044993527372590117 0 0.1566962317421734 0.039838803654011962 0 0.15183666351233449 0.050700262892952028 0 0.1692336025848987 0.033942773786365128 0 0.1566962317421734 0.039838803654011962 0 0.158601754226253 0.030081739901262169 0 0.1716587195747214 0.044993527372590117 0 0.15183666351233449 0.050700262892952028 0 0.15919757845585511 0.069002327358520896 0 0.1716587195747214 0.044993527372590117 0 0.18079222374313991 0.066157073385880324 0 0.15919757845585511 0.069002327358520896 0 0.1716587195747214 0.044993527372590117 0 0.15183666351233449 0.050700262892952028 0 0.17227434920368959 0.00081991249798677823 0 0.17658810010716819 0.0040568459827444014 0 0.17786282304025339 -0.001583287003114023 0 0.17227434920368959 0.00081991249798677823 0 0.17658810010716819 0.0040568459827444014 0 0.17233771352019589 0.0083561011481188656 0 0.17658810010716819 0.0040568459827444014 0 0.18177514670000741 0.0039010391453388991 0 0.17943453638861959 0.0091511058078182841 0 0.17658810010716819 0.0040568459827444014 0 0.17943453638861959 0.0091511058078182841 0 0.17233771352019589 0.0083561011481188656 0 0.17658810010716819 0.0040568459827444014 0 0.18177514670000741 0.0039010391453388991 0 0.17786282304025339 -0.001583287003114023 0 0.18177514670000741 0.0039010391453388991 0 0.18580903226614379 -0.0011502469314075439 0 0.17786282304025339 -0.001583287003114023 0 0.1894192936343001 0.0060385698470956234 0 0.18660242445042999 0.0064023156866817926 0 0.18580903226614379 -0.0011502469314075439 0 0.18177514670000741 0.0039010391453388991 0 0.18660242445042999 0.0064023156866817926 0 0.18580903226614379 -0.0011502469314075439 0 0.18177514670000741 0.0039010391453388991 0 0.18660242445042999 0.0064023156866817926 0 0.18303211158647559 0.0075807978729441382 0 0.18177514670000741 0.0039010391453388991 0 0.18303211158647559 0.0075807978729441382 0 0.17943453638861959 0.0091511058078182841 0 0.18303211158647559 0.0075807978729441382 0 0.18431633880684531 0.01086873085193758 0 0.17943453638861959 0.0091511058078182841 0 0.18660242445042999 0.0064023156866817926 0 0.18303211158647559 0.0075807978729441382 0 0.18431633880684531 0.01086873085193758 0 0.18832376542685261 0.012450231659139751 0 0.18660242445042999 0.0064023156866817926 0 0.18431633880684531 0.01086873085193758 0 0.18431633880684531 0.01086873085193758 0 0.18734518720319909 0.015281891910368059 0 0.18195036267736389 0.015275800378046231 0 0.18832376542685261 0.012450231659139751 0 0.18431633880684531 0.01086873085193758 0 0.18734518720319909 0.015281891910368059 0 0.18431633880684531 0.01086873085193758 0 0.18195036267736389 0.015275800378046231 0 0.17943453638861959 0.0091511058078182841 0 0.18195036267736389 0.015275800378046231 0 0.1761571917665653 0.013806221612761949 0 0.17943453638861959 0.0091511058078182841 0 0.1761571917665653 0.013806221612761949 0 0.17943453638861959 0.0091511058078182841 0 0.17233771352019589 0.0083561011481188656 0 0.1761571917665653 0.013806221612761949 0 0.17233771352019589 0.0083561011481188656 0 0.1709247624247007 0.01466984692398882 0 0.1761571917665653 0.013806221612761949 0 0.17493811328672779 0.022191841685783802 0 0.1709247624247007 0.01466984692398882 0 0.18195036267736389 0.015275800378046231 0 0.1761571917665653 0.013806221612761949 0 0.17493811328672779 0.022191841685783802 0 0.18734518720319909 0.015281891910368059 0 0.18195036267736389 0.015275800378046231 0 0.1874867753674215 0.0231110496262097 0 0.18195036267736389 0.015275800378046231 0 0.17493811328672779 0.022191841685783802 0 0.1874867753674215 0.0231110496262097 0 0.17895959729017549 0.03270519686463521 0 0.17493811328672779 0.022191841685783802 0 0.1874867753674215 0.0231110496262097 0 0.17895959729017549 0.03270519686463521 0 0.1692336025848987 0.033942773786365128 0 0.17493811328672779 0.022191841685783802 0 0.1692336025848987 0.033942773786365128 0 0.1660519956958274 0.025200646889517071 0 0.158601754226253 0.030081739901262169 0 0.1692336025848987 0.033942773786365128 0 0.17493811328672779 0.022191841685783802 0 0.1660519956958274 0.025200646889517071 0 0.1660519956958274 0.025200646889517071 0 0.158601754226253 0.030081739901262169 0 0.15656323758401319 0.020842958383828041 0 0.15656323758401319 0.020842958383828041 0 0.1655425680131333 0.017645951334422452 0 0.15799820797772829 0.01069464001977203 0 0.1660519956958274 0.025200646889517071 0 0.15656323758401319 0.020842958383828041 0 0.1655425680131333 0.017645951334422452 0 0.17493811328672779 0.022191841685783802 0 0.1660519956958274 0.025200646889517071 0 0.1655425680131333 0.017645951334422452 0 0.17493811328672779 0.022191841685783802 0 0.1655425680131333 0.017645951334422452 0 0.1709247624247007 0.01466984692398882 0 0.17233771352019589 0.0083561011481188656 0 0.1709247624247007 0.01466984692398882 0 0.16528784937855559 0.0099045707114697821 0 0.1655425680131333 0.017645951334422452 0 0.1709247624247007 0.01466984692398882 0 0.16528784937855559 0.0099045707114697821 0 0.1655425680131333 0.017645951334422452 0 0.16528784937855559 0.0099045707114697821 0 0.15799820797772829 0.01069464001977203 0 0.16528784937855559 0.0099045707114697821 0 0.15830422717032419 0.0026668804518291322 0 0.16550177429739321 0.001625335581948511 0 0.16528784937855559 0.0099045707114697821 0 0.15799820797772829 0.01069464001977203 0 0.15830422717032419 0.0026668804518291322 0 0.17233771352019589 0.0083561011481188656 0 0.16528784937855559 0.0099045707114697821 0 0.16550177429739321 0.001625335581948511 0 0.17227434920368959 0.00081991249798677823 0 0.17233771352019589 0.0083561011481188656 0 0.16550177429739321 0.001625335581948511 0 0.14127976741107601 0.00215554095495248 0 0.15230472087545879 0.0045339035350271751 0 0.14873370341600839 0.01190124285016711 0 0.15799820797772829 0.01069464001977203 0 0.15830422717032419 0.0026668804518291322 0 0.15230472087545879 0.0045339035350271751 0 0.14127976741107601 0.00215554095495248 0 0.15230472087545879 0.0045339035350271751 0 0.1552076984021574 -0.0047487866015848753 0 0.15830422717032419 0.0026668804518291322 0 0.15230472087545879 0.0045339035350271751 0 0.1552076984021574 -0.0047487866015848753 0 0.15656323758401319 0.020842958383828041 0 0.15799820797772829 0.01069464001977203 0 0.14873370341600839 0.01190124285016711 0 0.15799820797772829 0.01069464001977203 0 0.15230472087545879 0.0045339035350271751 0 0.14873370341600839 0.01190124285016711 0 0.14873370341600839 0.01190124285016711 0 0.1458857290053831 0.021389540043380069 0 0.13967636330765321 0.013174792475989121 0 0.14127976741107601 0.00215554095495248 0 0.14873370341600839 0.01190124285016711 0 0.13967636330765321 0.013174792475989121 0 0.1458857290053831 0.021389540043380069 0 0.13916191736165201 0.019633136795163032 0 0.13967636330765321 0.013174792475989121 0 0.1458857290053831 0.021389540043380069 0 0.14010063181871271 0.02585166497444577 0 0.13916191736165201 0.019633136795163032 0 0.15656323758401319 0.020842958383828041 0 0.1458857290053831 0.021389540043380069 0 0.15175299049851881 0.02729842449465077 0 0.15656323758401319 0.020842958383828041 0 0.14873370341600839 0.01190124285016711 0 0.1458857290053831 0.021389540043380069 0 0.158601754226253 0.030081739901262169 0 0.15656323758401319 0.020842958383828041 0 0.15175299049851881 0.02729842449465077 0 0.158601754226253 0.030081739901262169 0 0.15175299049851881 0.02729842449465077 0 0.15159127196488009 0.032471007951428398 0 0.15175299049851881 0.02729842449465077 0 0.14523576613563741 0.02976945682372012 0 0.15159127196488009 0.032471007951428398 0 0.1458857290053831 0.021389540043380069 0 0.14523576613563741 0.02976945682372012 0 0.14010063181871271 0.02585166497444577 0 0.14523576613563741 0.02976945682372012 0 0.14010063181871271 0.02585166497444577 0 0.1391322595465444 0.03699933077486834 0 0.1458857290053831 0.021389540043380069 0 0.15175299049851881 0.02729842449465077 0 0.14523576613563741 0.02976945682372012 0 0.1309849453148588 0.01811654968683717 0 0.1391322595465444 0.03699933077486834 0 0.14010063181871271 0.02585166497444577 0 0.1309849453148588 0.01811654968683717 0 0.1391322595465444 0.03699933077486834 0 0.11917198148314 0.002581966002757949 0 0.13034027439662041 0.028127834929059549 0 0.1309849453148588 0.01811654968683717 0 0.13034027439662041 0.028127834929059549 0 0.1309849453148588 0.01811654968683717 0 0.1391322595465444 0.03699933077486834 0 0.1309849453148588 0.01811654968683717 0 0.13916191736165201 0.019633136795163032 0 0.13967636330765321 0.013174792475989121 0 0.14010063181871271 0.02585166497444577 0 0.1309849453148588 0.01811654968683717 0 0.13916191736165201 0.019633136795163032 0 0.14127976741107601 0.00215554095495248 0 0.13362755423293271 0.0080562160832345926 0 0.1228376310831711 -0.00076623140119310329 0 0.1309849453148588 0.01811654968683717 0 0.13362755423293271 0.0080562160832345926 0 0.1228376310831711 -0.00076623140119310329 0 0.1309849453148588 0.01811654968683717 0 0.1228376310831711 -0.00076623140119310329 0 0.1309849453148588 0.01811654968683717 0 0.13362755423293271 0.0080562160832345926 0 0.13967636330765321 0.013174792475989121 0 0.14127976741107601 0.00215554095495248 0 0.13362755423293271 0.0080562160832345926 0 0.13967636330765321 0.013174792475989121 0 0.15183666351233449 0.050700262892952028 0 0.15919757845585511 0.069002327358520896 0 0.15048711395973299 0.060532750562707877 0 0.15183666351233449 0.050700262892952028 0 0.15919757845585511 0.069002327358520896 0 0.14215194880052681 0.055145346777992182 0 0.15048711395973299 0.060532750562707877 0 0.13253998066004699 0.064315925604492674 0 0.1415085673101022 0.053673703855360522 0 0.14215194880052681 0.055145346777992182 0 0.15183666351233449 0.050700262892952028 0 0.1415085673101022 0.053673703855360522 0 0.15183666351233449 0.050700262892952028 0 0.1415085673101022 0.053673703855360522 0 0.15183666351233449 0.050700262892952028 0 0.14453550543306221 0.044729731242042367 0 0.1415085673101022 0.053673703855360522 0 0.14215194880052681 0.055145346777992182 0 0.14215194880052681 0.055145346777992182 0 0.15048711395973299 0.060532750562707877 0 0.15183666351233449 0.050700262892952028 0 0.1415085673101022 0.053673703855360522 0 0.14453550543306221 0.044729731242042367 0 0.1391322595465444 0.03699933077486834 0 0.15183666351233449 0.050700262892952028 0 0.14566961722181801 0.035366614883496988 0 0.1566962317421734 0.039838803654011962 0 0.15183666351233449 0.050700262892952028 0 0.14566961722181801 0.035366614883496988 0 0.1566962317421734 0.039838803654011962 0 0.15159127196488009 0.032471007951428398 0 0.14566961722181801 0.035366614883496988 0 0.1566962317421734 0.039838803654011962 0 0.158601754226253 0.030081739901262169 0 0.15159127196488009 0.032471007951428398 0 0.14566961722181801 0.035366614883496988 0 0.14453550543306221 0.044729731242042367 0 0.1391322595465444 0.03699933077486834 0 0.14523576613563741 0.02976945682372012 0 0.15159127196488009 0.032471007951428398 0 0.14566961722181801 0.035366614883496988 0 0.14523576613563741 0.02976945682372012 0 0.14566961722181801 0.035366614883496988 0 0.1391322595465444 0.03699933077486834 0 0.15183666351233449 0.050700262892952028 0 0.14566961722181801 0.035366614883496988 0 0.14453550543306221 0.044729731242042367 0 0.13034027439662041 0.028127834929059549 0 0.1415085673101022 0.053673703855360522 0 0.13034027439662041 0.028127834929059549 0 0.1415085673101022 0.053673703855360522 0 0.1391322595465444 0.03699933077486834 0 0.12367169586596689 0.04413069599522032 0 0.13034027439662041 0.028127834929059549 0 0.1415085673101022 0.053673703855360522 0 0.11892469151436 0.060175562481194378 0 0.12367169586596689 0.04413069599522032 0 0.1415085673101022 0.053673703855360522 0 0.11892469151436 0.060175562481194378 0 0.1415085673101022 0.053673703855360522 0 0.11892469151436 0.060175562481194378 0 0.1415085673101022 0.053673703855360522 0 0.13253998066004699 0.064315925604492674 0 0.1415085673101022 0.053673703855360522 0 0.14215194880052681 0.055145346777992182 0 0.13253998066004699 0.064315925604492674 0 0.13253998066004699 0.064315925604492674 0 0.13121537104960351 0.072689189806444385 0 0.15446329543616341 0.069626104104570485 0 0.1243405792371938 0.066503547411893488 0 0.13253998066004699 0.064315925604492674 0 0.13121537104960351 0.072689189806444385 0 0.11892469151436 0.060175562481194378 0 0.1243405792371938 0.066503547411893488 0 0.13253998066004699 0.064315925604492674 0 0.13121537104960351 0.072689189806444385 0 0.14336397744542301 0.076431171561807093 0 0.13288821721910599 0.083857800247139097 0 0.15048711395973299 0.060532750562707877 0 0.13253998066004699 0.064315925604492674 0 0.15446329543616341 0.069626104104570485 0 0.13121537104960351 0.072689189806444385 0 0.15446329543616341 0.069626104104570485 0 0.13121537104960351 0.072689189806444385 0 0.14336397744542301 0.076431171561807093 0 0.15446329543616341 0.069626104104570485 0 0.13253998066004699 0.064315925604492674 0 0.15446329543616341 0.069626104104570485 0 0.14336397744542301 0.076431171561807093 0 0.15145508435945571 0.07730097997971673 0 0.15446329543616341 0.069626104104570485 0 0.15145508435945571 0.07730097997971673 0 0.15998651034928929 0.070963915351755544 0 0.15635019231632599 0.084708360937410687 0 0.15145508435945571 0.07730097997971673 0 0.15446329543616341 0.069626104104570485 0 0.15998651034928929 0.070963915351755544 0 0.15048711395973299 0.060532750562707877 0 0.15446329543616341 0.069626104104570485 0 0.15919757845585511 0.069002327358520896 0 0.1449478564828334 0.088262465871273704 0 0.15304430801011831 0.09759233646353245 0 0.15635019231632599 0.084708360937410687 0 0.15145508435945571 0.07730097997971673 0 0.1449478564828334 0.088262465871273704 0 0.15635019231632599 0.084708360937410687 0 0.14336397744542301 0.076431171561807093 0 0.15145508435945571 0.07730097997971673 0 0.1449478564828334 0.088262465871273704 0 0.1449478564828334 0.088262465871273704 0 0.13288821721910599 0.083857800247139097 0 0.1333435253298102 0.095432768439741328 0 0.14336397744542301 0.076431171561807093 0 0.1449478564828334 0.088262465871273704 0 0.13288821721910599 0.083857800247139097 0 0.1225478872688979 0.090713611373926736 0 0.1210037722340596 0.082520495593825793 0 0.13288821721910599 0.083857800247139097 0 0.1210037722340596 0.082520495593825793 0 0.13121537104960351 0.072689189806444385 0 0.13288821721910599 0.083857800247139097 0 0.1225478872688979 0.090713611373926736 0 0.13288821721910599 0.083857800247139097 0 0.1333435253298102 0.095432768439741328 0 0.1449478564828334 0.088262465871273704 0 0.1368974078767736 0.107501873099266 0 0.1333435253298102 0.095432768439741328 0 0.12018819637303869 0.10164151191590461 0 0.1368974078767736 0.107501873099266 0 0.1333435253298102 0.095432768439741328 0 0.12018819637303869 0.10164151191590461 0 0.1225478872688979 0.090713611373926736 0 0.1333435253298102 0.095432768439741328 0 0.11707998843366239 0.12090166170324231 0 0.14061487869327599 0.12738787364596069 0 0.1368974078767736 0.107501873099266 0 0.14061487869327599 0.12738787364596069 0 0.1368974078767736 0.107501873099266 0 0.1574927946018469 0.1127881056222175 0 0.14061487869327599 0.12738787364596069 0 0.16208469833826319 0.13464304631642149 0 0.1574927946018469 0.1127881056222175 0 0.1368974078767736 0.107501873099266 0 0.15304430801011831 0.09759233646353245 0 0.1574927946018469 0.1127881056222175 0 0.1449478564828334 0.088262465871273704 0 0.1368974078767736 0.107501873099266 0 0.15304430801011831 0.09759233646353245 0 0.15304430801011831 0.09759233646353245 0 0.1695332887728116 0.094700876787494351 0 0.1574927946018469 0.1127881056222175 0 0.1695332887728116 0.094700876787494351 0 0.1574927946018469 0.1127881056222175 0 0.1790800671963392 0.1184378382232308 0 0.16208469833826319 0.13464304631642149 0 0.1574927946018469 0.1127881056222175 0 0.1790800671963392 0.1184378382232308 0 0.1885688884481975 0.1093901779912298 0 0.1790800671963392 0.1184378382232308 0 0.1832996600419958 0.1003897382564244 0 0.1885688884481975 0.1093901779912298 0 0.1790800671963392 0.1184378382232308 0 0.1858372065203453 0.1184994265274882 0 0.1885688884481975 0.1093901779912298 0 0.1858372065203453 0.1184994265274882 0 0.1885688884481975 0.1093901779912298 0 0.1790800671963392 0.1184378382232308 0 0.19325819231563421 0.12959887947710741 0 0.1790800671963392 0.1184378382232308 0 0.1858372065203453 0.1184994265274882 0 0.1695332887728116 0.094700876787494351 0 0.1790800671963392 0.1184378382232308 0 0.1695332887728116 0.094700876787494351 0 0.1790800671963392 0.1184378382232308 0 0.1832996600419958 0.1003897382564244 0 0.1695332887728116 0.094700876787494351 0 0.1832996600419958 0.1003897382564244 0 0.18493574174144031 0.087819629641268118 0 0.1929726046438287 0.094705252597794665 0 0.1832996600419958 0.1003897382564244 0 0.18493574174144031 0.087819629641268118 0 0.1973763208394673 0.08002032720436178 0 0.18493574174144031 0.087819629641268118 0 0.17868141559437861 0.075492121278057239 0 0.1695332887728116 0.094700876787494351 0 0.18493574174144031 0.087819629641268118 0 0.17868141559437861 0.075492121278057239 0 0.1973763208394673 0.08002032720436178 0 0.17868141559437861 0.075492121278057239 0 0.18079222374313991 0.066157073385880324 0 0.17868141559437861 0.075492121278057239 0 0.18079222374313991 0.066157073385880324 0 0.15998651034928929 0.070963915351755544 0 0.18079222374313991 0.066157073385880324 0 0.15919757845585511 0.069002327358520896 0 0.18079222374313991 0.066157073385880324 0 0.15919757845585511 0.069002327358520896 0 0.15998651034928929 0.070963915351755544 0 0.17868141559437861 0.075492121278057239 0 0.15998651034928929 0.070963915351755544 0 0.15446329543616341 0.069626104104570485 0 0.15919757845585511 0.069002327358520896 0 0.15998651034928929 0.070963915351755544 0 0.15446329543616341 0.069626104104570485 0 0.15919757845585511 0.069002327358520896 0 0.15446329543616341 0.069626104104570485 0 0.15998651034928929 0.070963915351755544 0 0.15919757845585511 0.069002327358520896 0 0.15998651034928929 0.070963915351755544 0 0.1695332887728116 0.094700876787494351 0 0.17868141559437861 0.075492121278057239 0 0.15998651034928929 0.070963915351755544 0 0.15304430801011831 0.09759233646353245 0 0.1695332887728116 0.094700876787494351 0 0.15635019231632599 0.084708360937410687 0 0.1695332887728116 0.094700876787494351 0 0.15998651034928929 0.070963915351755544 0 0.1695332887728116 0.094700876787494351 0 0.15998651034928929 0.070963915351755544 0 0.15635019231632599 0.084708360937410687 0 0.097740131103692757 0.47211576306312553 0 0.10228396963995549 0.48764264937867408 0 0.092199203719590395 0.48872928857719472 0 0.097740131103692757 0.47211576306312553 0 0.1146358595090817 0.48605788153156299 0 0.097740131103692757 0.47211576306312553 0 0.10228396963995549 0.48764264937867408 0 0.1146358595090817 0.48605788153156299 0 0.1038255785689283 0.5 0 0.10228396963995549 0.48764264937867408 0 0.092199203719590395 0.48872928857719472 0 0.1038255785689283 0.5 0 0.10228396963995549 0.48764264937867408 0 0.1146358595090817 0.48605788153156299 0 0.1146358595090817 0.48605788153156299 0 0.13153158791447089 0.50000000000000033 0 0.1038255785689283 0.5 0 0.1146358595090817 0.48605788153156299 0 0.13153158791447089 0.50000000000000033 0 0.097740131103692757 0.47211576306312553 0 0.1146358595090817 0.48605788153156299 0 0.1160915578241386 0.4641835533930308 0 0.1146358595090817 0.48605788153156299 0 0.1160915578241386 0.4641835533930308 0 0.13792901651589951 0.46760966493884959 0 0.1160915578241386 0.4641835533930308 0 0.1237280261196836 0.44463014715047522 0 0.10202961426548091 0.45002724093957291 0 0.1237280261196836 0.44463014715047522 0 0.1057649319772677 0.43759517983083812 0 0.10202961426548091 0.45002724093957291 0 0.1057649319772677 0.43759517983083812 0 0.10202961426548091 0.45002724093957291 0 0.08764391112498858 0.43163178618934439 0 0.097740131103692757 0.47211576306312553 0 0.1160915578241386 0.4641835533930308 0 0.10202961426548091 0.45002724093957291 0 0.080844402698305312 0.45817364459468618 0 0.076730675362011974 0.47423156549521001 0 0.097740131103692757 0.47211576306312553 0 0.080844402698305312 0.45817364459468618 0 0.097740131103692757 0.47211576306312553 0 0.10202961426548091 0.45002724093957291 0 0.080844402698305312 0.45817364459468618 0 0.097740131103692757 0.47211576306312553 0 0.080844402698305312 0.45817364459468618 0 0.076730675362011974 0.47423156549521001 0 0.080844402698305312 0.45817364459468618 0 0.08764391112498858 0.43163178618934439 0 0.10202961426548091 0.45002724093957291 0 0.080844402698305312 0.45817364459468618 0 0.08764391112498858 0.43163178618934439 0 0.080844402698305312 0.45817364459468618 0 0.07540768018483697 0.44030754071393319 0 0.08764391112498858 0.43163178618934439 0 0.080844402698305312 0.45817364459468618 0 0.07540768018483697 0.44030754071393319 0 0.061556592319121653 0.44225761358074578 0 0.080844402698305312 0.45817364459468618 0 0.061556592319121653 0.44225761358074578 0 0.080844402698305312 0.45817364459468618 0 0.067859653170709522 0.45426422462270638 0 0.061556592319121653 0.44225761358074578 0 0.080844402698305312 0.45817364459468618 0 0.064346854003363874 0.46736183993319841 0 0.076730675362011974 0.47423156549521001 0 0.064346854003363874 0.46736183993319841 0 0.067859653170709522 0.45426422462270638 0 0.056076759981020123 0.44443419347066321 0 0.080844402698305312 0.45817364459468618 0 0.064346854003363874 0.46736183993319841 0 0.067859653170709522 0.45426422462270638 0 0.076730675362011974 0.47423156549521001 0 0.072616948025712127 0.490289486395732 0 0.064346854003363874 0.46736183993319841 0 0.072616948025712127 0.490289486395732 0 0.058055043786226751 0.49051055052906067 0 0.064346854003363874 0.46736183993319841 0 0.072616948025712127 0.490289486395732 0 0.064346854003363874 0.46736183993319841 0 0.076730675362011974 0.47423156549521001 0 0.072616948025712127 0.490289486395732 0 0.076730675362011974 0.47423156549521001 0 0.082075002421626492 0.48449271935339733 0 0.072616948025712127 0.490289486395732 0 0.097740131103692757 0.47211576306312553 0 0.076730675362011974 0.47423156549521001 0 0.082075002421626492 0.48449271935339733 0 0.097740131103692757 0.47211576306312553 0 0.092199203719590395 0.48872928857719472 0 0.082075002421626492 0.48449271935339733 0 0.1038255785689283 0.5 0 0.092199203719590395 0.48872928857719472 0 0.076119569223385697 0.50000000000000089 0 0.092199203719590395 0.48872928857719472 0 0.082075002421626492 0.48449271935339733 0 0.076119569223385697 0.50000000000000089 0 0.072616948025712127 0.490289486395732 0 0.07012930311136284 0.49999999999999661 0 0.076119569223385697 0.50000000000000089 0 0.072616948025712127 0.490289486395732 0 0.07012930311136284 0.49999999999999661 0 0.076119569223385697 0.50000000000000089 0 0.072616948025712127 0.490289486395732 0 0.082075002421626492 0.48449271935339733 0 0.076119569223385697 0.50000000000000089 0 0.072616948025712127 0.490289486395732 0 0.072616948025712127 0.490289486395732 0 0.07012930311136284 0.49999999999999661 0 0.058055043786226751 0.49051055052906067 0 0.058055043786226751 0.49051055052906067 0 0.046280597366186747 0.47957307303049429 0 0.044860440428939378 0.4999999999999995 0 0.07012930311136284 0.49999999999999661 0 0.058055043786226751 0.49051055052906067 0 0.044860440428939378 0.4999999999999995 0 0.064346854003363874 0.46736183993319841 0 0.058055043786226751 0.49051055052906067 0 0.046280597366186747 0.47957307303049429 0 0.046280597366186747 0.47957307303049429 0 0.047700754303434179 0.45914614606098908 0 0.046280597366186747 0.47957307303049429 0 0.029897162037545319 0.4839753813588808 0 0.03521852719449324 0.46736449501777538 0 0.044860440428939378 0.4999999999999995 0 0.01907995414838232 0.5 0 0.029897162037545319 0.4839753813588808 0 0.046280597366186747 0.47957307303049429 0 0.044860440428939378 0.4999999999999995 0 0.046280597366186747 0.47957307303049429 0 0.044860440428939378 0.4999999999999995 0 0.029897162037545319 0.4839753813588808 0 0.01907995414838232 0.5 0 0.029897162037545319 0.4839753813588808 0 0.01223017135109394 0.48399563131022733 0 0.029897162037545319 0.4839753813588808 0 0.02313076419329519 0.4718947066398041 0 0.01223017135109394 0.48399563131022733 0 0.029897162037545319 0.4839753813588808 0 0.02313076419329519 0.4718947066398041 0 0.03521852719449324 0.46736449501777538 0 0.02313076419329519 0.4718947066398041 0 0.01223017135109394 0.48399563131022733 0 0.01319884020628341 0.47022233111689332 0 -0.003880604538310756 0.48346324919380129 0 0.01223017135109394 0.48399563131022733 0 0.0050866533922729329 0.47701524235381432 0 0.01223017135109394 0.48399563131022733 0 0.01319884020628341 0.47022233111689332 0 0.0050866533922729329 0.47701524235381432 0 0.01319884020628341 0.47022233111689332 0 0.0053167838454733218 0.46943384557929257 0 0.0050866533922729329 0.47701524235381432 0 -0.001026908195020756 0.47486914558720472 0 0.0053167838454733218 0.46943384557929257 0 0.0050866533922729329 0.47701524235381432 0 -0.003880604538310756 0.48346324919380129 0 -0.001026908195020756 0.47486914558720472 0 0.0050866533922729329 0.47701524235381432 0 -0.0067005321321746969 0.5 0 0.01907995414838232 0.5 0 0.01223017135109394 0.48399563131022733 0 -0.0067005321321746969 0.5 0 -0.003880604538310756 0.48346324919380129 0 0.01223017135109394 0.48399563131022733 0 0.0094816941431487278 0.45086042579757712 0 0.01399183751309625 0.44462120914047132 0 0.0048617880261327502 0.44584476697033082 0 0.0094816941431487278 0.45086042579757712 0 0.01399183751309625 0.44462120914047132 0 0.016302396861864351 0.45114502888407948 0 0.01049598620797234 0.43767394788706171 0 0.01399183751309625 0.44462120914047132 0 0.0048617880261327502 0.44584476697033082 0 0.01049598620797234 0.43767394788706171 0 0.01399183751309625 0.44462120914047132 0 0.020379531913139331 0.43685778481219928 0 0.01049598620797234 0.43767394788706171 0 0.0048617880261327502 0.44584476697033082 0 0.01049598620797234 0.43767394788706171 0 0.0048617880261327502 0.44584476697033082 0 0.0065189226172944724 0.43188650626448272 0 0.0094816941431487278 0.45086042579757712 0 0.0048617880261327502 0.44584476697033082 0 0.0015605482097463411 0.45063228640423969 0 0.0048617880261327502 0.44584476697033082 0 0.0015605482097463411 0.45063228640423969 0 0.0094816941431487278 0.45086042579757712 0 0.0048617880261327502 0.44584476697033082 0 0.0015605482097463411 0.45063228640423969 0 0.0080738590363113663 0.46132998490476868 0 0.01222090350615627 0.45893997922115709 0 0.0015605482097463411 0.45063228640423969 0 0.01222090350615627 0.45893997922115709 0 -0.0094095992007081283 0.46654139838691122 0 0.0053167838454733218 0.46943384557929257 0 0.0080738590363113663 0.46132998490476868 0 0.0094816941431487278 0.45086042579757712 0 0.0015605482097463411 0.45063228640423969 0 0.01222090350615627 0.45893997922115709 0 -0.0094095992007081283 0.46654139838691122 0 0.0015605482097463411 0.45063228640423969 0 0.0080738590363113663 0.46132998490476868 0 0.0080738590363113663 0.46132998490476868 0 0.01222090350615627 0.45893997922115709 0 0.025557317273330941 0.45611857142262657 0 0.01319884020628341 0.47022233111689332 0 0.0080738590363113663 0.46132998490476868 0 0.025557317273330941 0.45611857142262657 0 0.01319884020628341 0.47022233111689332 0 0.0053167838454733218 0.46943384557929257 0 0.0080738590363113663 0.46132998490476868 0 0.0094816941431487278 0.45086042579757712 0 0.01222090350615627 0.45893997922115709 0 0.016302396861864351 0.45114502888407948 0 0.01222090350615627 0.45893997922115709 0 0.025557317273330941 0.45611857142262657 0 0.016302396861864351 0.45114502888407948 0 0.0080738590363113663 0.46132998490476868 0 0.025557317273330941 0.45611857142262657 0 0.02313076419329519 0.4718947066398041 0 0.01319884020628341 0.47022233111689332 0 0.025557317273330941 0.45611857142262657 0 0.02313076419329519 0.4718947066398041 0 0.025557317273330941 0.45611857142262657 0 0.03521852719449324 0.46736449501777538 0 0.025557317273330941 0.45611857142262657 0 0.029497972404799989 0.4465970104894148 0 0.021231693005787571 0.44530579808828252 0 0.025557317273330941 0.45611857142262657 0 0.016302396861864351 0.45114502888407948 0 0.021231693005787571 0.44530579808828252 0 0.01399183751309625 0.44462120914047132 0 0.016302396861864351 0.45114502888407948 0 0.021231693005787571 0.44530579808828252 0 0.01399183751309625 0.44462120914047132 0 0.021231693005787571 0.44530579808828252 0 0.020379531913139331 0.43685778481219928 0 0.029497972404799989 0.4465970104894148 0 0.021231693005787571 0.44530579808828252 0 0.030311313049230751 0.43763339856834432 0 0.021231693005787571 0.44530579808828252 0 0.030311313049230751 0.43763339856834432 0 0.020379531913139331 0.43685778481219928 0 0.038697605999956301 0.44825738244890739 0 0.047700754303434179 0.45914614606098908 0 0.049120911240681603 0.43871921909148398 0 0.029497972404799989 0.4465970104894148 0 0.038697605999956301 0.44825738244890739 0 0.040333793699140981 0.43958103258297831 0 0.029497972404799989 0.4465970104894148 0 0.030311313049230751 0.43763339856834432 0 0.040333793699140981 0.43958103258297831 0 0.025557317273330941 0.45611857142262657 0 0.029497972404799989 0.4465970104894148 0 0.038697605999956301 0.44825738244890739 0 0.038697605999956301 0.44825738244890739 0 0.040333793699140981 0.43958103258297831 0 0.049120911240681603 0.43871921909148398 0 0.046280597366186747 0.47957307303049429 0 0.03521852719449324 0.46736449501777538 0 0.047700754303434179 0.45914614606098908 0 0.025557317273330941 0.45611857142262657 0 0.038697605999956301 0.44825738244890739 0 0.03521852719449324 0.46736449501777538 0 0.038697605999956301 0.44825738244890739 0 0.03521852719449324 0.46736449501777538 0 0.047700754303434179 0.45914614606098908 0 0.064346854003363874 0.46736183993319841 0 0.056076759981020123 0.44443419347066321 0 0.064346854003363874 0.46736183993319841 0 0.046280597366186747 0.47957307303049429 0 0.047700754303434179 0.45914614606098908 0 0.064346854003363874 0.46736183993319841 0 0.047700754303434179 0.45914614606098908 0 0.056076759981020123 0.44443419347066321 0 0.047700754303434179 0.45914614606098908 0 0.049120911240681603 0.43871921909148398 0 0.056076759981020123 0.44443419347066321 0 0.047700754303434179 0.45914614606098908 0 0.049120911240681603 0.43871921909148398 0 0.067859653170709522 0.45426422462270638 0 0.056076759981020123 0.44443419347066321 0 0.061556592319121653 0.44225761358074578 0 0.056076759981020123 0.44443419347066321 0 0.061556592319121653 0.44225761358074578 0 0.059201111644200437 0.43099696977894508 0 0.056076759981020123 0.44443419347066321 0 0.047806665958676359 0.42150654700812801 0 0.049120911240681603 0.43871921909148398 0 0.056076759981020123 0.44443419347066321 0 0.047806665958676359 0.42150654700812801 0 0.056076759981020123 0.44443419347066321 0 0.059201111644200437 0.43099696977894508 0 0.047806665958676359 0.42150654700812801 0 0.059201111644200437 0.43099696977894508 0 0.058979725365252707 0.4176193763442323 0 0.047806665958676359 0.42150654700812801 0 0.058979725365252707 0.4176193763442323 0 0.039536571936328653 0.39857890054559408 0 0.063240005814886313 0.40658319209587829 0 0.058979725365252707 0.4176193763442323 0 0.047806665958676359 0.42150654700812801 0 0.039536571936328653 0.39857890054559408 0 0.035113551011259521 0.41687403621696922 0 0.02872917033170445 0.40503675834663061 0 0.039536571936328653 0.39857890054559408 0 0.047806665958676359 0.42150654700812801 0 0.039536571936328653 0.39857890054559408 0 0.047806665958676359 0.42150654700812801 0 0.035113551011259521 0.41687403621696922 0 0.039536571936328653 0.39857890054559408 0 0.049120911240681603 0.43871921909148398 0 0.047806665958676359 0.42150654700812801 0 0.039708047704291503 0.4306454839277386 0 0.040333793699140981 0.43958103258297831 0 0.049120911240681603 0.43871921909148398 0 0.039708047704291503 0.4306454839277386 0 0.047806665958676359 0.42150654700812801 0 0.035113551011259521 0.41687403621696922 0 0.039708047704291503 0.4306454839277386 0 0.035113551011259521 0.41687403621696922 0 0.039708047704291503 0.4306454839277386 0 0.028741688689164512 0.42811504149697438 0 0.030311313049230751 0.43763339856834432 0 0.039708047704291503 0.4306454839277386 0 0.028741688689164512 0.42811504149697438 0 0.030311313049230751 0.43763339856834432 0 0.040333793699140981 0.43958103258297831 0 0.039708047704291503 0.4306454839277386 0 0.030311313049230751 0.43763339856834432 0 0.020379531913139331 0.43685778481219928 0 0.028741688689164512 0.42811504149697438 0 0.01049598620797234 0.43767394788706171 0 0.020379531913139331 0.43685778481219928 0 0.01750467301358458 0.42779731369206181 0 0.020379531913139331 0.43685778481219928 0 0.01750467301358458 0.42779731369206181 0 0.028741688689164512 0.42811504149697438 0 0.01750467301358458 0.42779731369206181 0 0.028741688689164512 0.42811504149697438 0 0.02615916144738779 0.41736148597675132 0 0.035113551011259521 0.41687403621696922 0 0.028741688689164512 0.42811504149697438 0 0.02615916144738779 0.41736148597675132 0 0.02615916144738779 0.41736148597675132 0 0.010437450069317761 0.40463061763750507 0 0.02872917033170445 0.40503675834663061 0 0.02615916144738779 0.41736148597675132 0 0.01517065216307991 0.41806138940930709 0 0.010437450069317761 0.40463061763750507 0 0.035113551011259521 0.41687403621696922 0 0.02615916144738779 0.41736148597675132 0 0.02872917033170445 0.40503675834663061 0 0.01750467301358458 0.42779731369206181 0 0.02615916144738779 0.41736148597675132 0 0.01517065216307991 0.41806138940930709 0 -0.003174347114314008 0.41591217031924949 0 0.0065813241220295041 0.42245614033091039 0 0.010437450069317761 0.40463061763750507 0 -0.0064316016559190746 0.3999483233353413 0 -0.003174347114314008 0.41591217031924949 0 0.010437450069317761 0.40463061763750507 0 0.01517065216307991 0.41806138940930709 0 0.0065813241220295041 0.42245614033091039 0 0.010437450069317761 0.40463061763750507 0 -0.003174347114314008 0.41591217031924949 0 0.010437450069317761 0.40463061763750507 0 -0.003174347114314008 0.41591217031924949 0 0.0065813241220295041 0.42245614033091039 0 -0.0026301228576318379 0.42717885202372191 0 -0.003174347114314008 0.41591217031924949 0 0.0065813241220295041 0.42245614033091039 0 -0.0026301228576318379 0.42717885202372191 0 0.0065813241220295041 0.42245614033091039 0 0.0065189226172944724 0.43188650626448272 0 -0.0026301228576318379 0.42717885202372191 0 0.0048617880261327502 0.44584476697033082 0 0.0065189226172944724 0.43188650626448272 0 0.01049598620797234 0.43767394788706171 0 0.01750467301358458 0.42779731369206181 0 0.0065189226172944724 0.43188650626448272 0 0.01750467301358458 0.42779731369206181 0 0.0065813241220295041 0.42245614033091039 0 0.0065189226172944724 0.43188650626448272 0 0.01750467301358458 0.42779731369206181 0 0.01517065216307991 0.41806138940930709 0 0.0065813241220295041 0.42245614033091039 0 -0.0042030409966118051 0.38380869400061962 0 0.01009735409817194 0.38238429504652488 0 0.02404924725294803 0.393349064955759 0 -0.0042030409966118051 0.38380869400061962 0 0.02404924725294803 0.393349064955759 0 0.01009735409817194 0.38238429504652488 0 0.0197357255374827 0.37571737083264412 0 0.011110712074150059 0.37343232972227269 0 -0.001064505034491721 0.37161458349227261 0 0.01009735409817194 0.38238429504652488 0 0.011110712074150059 0.37343232972227269 0 -0.001064505034491721 0.37161458349227261 0 -0.0042030409966118051 0.38380869400061962 0 0.01009735409817194 0.38238429504652488 0 -0.0042030409966118051 0.38380869400061962 0 0.01009735409817194 0.38238429504652488 0 -0.0042030409966118051 0.38380869400061962 0 0.010437450069317761 0.40463061763750507 0 0.02404924725294803 0.393349064955759 0 0.010437450069317761 0.40463061763750507 0 0.02872917033170445 0.40503675834663061 0 0.02404924725294803 0.393349064955759 0 0.010437450069317761 0.40463061763750507 0 0.02404924725294803 0.393349064955759 0 0.02872917033170445 0.40503675834663061 0 0.02404924725294803 0.393349064955759 0 0.039536571936328653 0.39857890054559408 0 0.02404924725294803 0.393349064955759 0 0.034519904376963118 0.38467091111880503 0 0.02404924725294803 0.393349064955759 0 0.0197357255374827 0.37571737083264412 0 0.034519904376963118 0.38467091111880503 0 0.01009735409817194 0.38238429504652488 0 0.02404924725294803 0.393349064955759 0 0.0197357255374827 0.37571737083264412 0 0.034519904376963118 0.38467091111880503 0 0.050307067216076778 0.37158640017128619 0 0.034519904376963118 0.38467091111880503 0 0.039536571936328653 0.39857890054559408 0 0.056773536515482913 0.38908479613358171 0 0.02404924725294803 0.393349064955759 0 0.039536571936328653 0.39857890054559408 0 0.034519904376963118 0.38467091111880503 0 0.039536571936328653 0.39857890054559408 0 0.02404924725294803 0.393349064955759 0 0.034519904376963118 0.38467091111880503 0 0.039536571936328653 0.39857890054559408 0 0.039536571936328653 0.39857890054559408 0 0.063240005814886313 0.40658319209587829 0 0.039536571936328653 0.39857890054559408 0 0.056773536515482913 0.38908479613358171 0 0.063240005814886313 0.40658319209587829 0 0.056773536515482913 0.38908479613358171 0 0.063240005814886313 0.40658319209587829 0 0.056773536515482913 0.38908479613358171 0 0.059721524030669819 0.37431687333309788 0 0.050307067216076778 0.37158640017128619 0 0.056773536515482913 0.38908479613358171 0 0.050307067216076778 0.37158640017128619 0 0.034519904376963118 0.38467091111880503 0 0.056773536515482913 0.38908479613358171 0 0.050307067216076778 0.37158640017128619 0 0.056773536515482913 0.38908479613358171 0 0.069041936002645535 0.37820082441249081 0 0.059721524030669819 0.37431687333309788 0 0.056773536515482913 0.38908479613358171 0 0.069041936002645535 0.37820082441249081 0 0.068225210254675303 0.39186969982647402 0 0.069041936002645535 0.37820082441249081 0 0.078928226936330073 0.3918395352538776 0 0.068225210254675303 0.39186969982647402 0 0.069041936002645535 0.37820082441249081 0 0.087739402474845588 0.37833299208434412 0 0.078928226936330073 0.3918395352538776 0 0.087739402474845588 0.37833299208434412 0 0.078928226936330073 0.3918395352538776 0 0.094443419551670932 0.40508992778400232 0 0.078928226936330073 0.3918395352538776 0 0.080832552055978585 0.40498983155533402 0 0.094443419551670932 0.40508992778400232 0 0.080832552055978585 0.40498983155533402 0 0.073695702888484968 0.40005040040525608 0 0.075088081656536507 0.41058410832735293 0 0.078928226936330073 0.3918395352538776 0 0.080832552055978585 0.40498983155533402 0 0.073695702888484968 0.40005040040525608 0 0.056773536515482913 0.38908479613358171 0 0.068225210254675303 0.39186969982647402 0 0.063240005814886313 0.40658319209587829 0 0.073695702888484968 0.40005040040525608 0 0.063240005814886313 0.40658319209587829 0 0.075088081656536507 0.41058410832735293 0 0.078928226936330073 0.3918395352538776 0 0.073695702888484968 0.40005040040525608 0 0.068225210254675303 0.39186969982647402 0 0.073695702888484968 0.40005040040525608 0 0.068225210254675303 0.39186969982647402 0 0.063240005814886313 0.40658319209587829 0 0.058979725365252707 0.4176193763442323 0 0.063240005814886313 0.40658319209587829 0 0.071585814596931419 0.42916711849095618 0 0.063240005814886313 0.40658319209587829 0 0.075088081656536507 0.41058410832735293 0 0.071585814596931419 0.42916711849095618 0 0.063240005814886313 0.40658319209587829 0 0.071585814596931419 0.42916711849095618 0 0.063240005814886313 0.40658319209587829 0 0.075088081656536507 0.41058410832735293 0 0.075088081656536507 0.41058410832735293 0 0.071585814596931419 0.42916711849095618 0 0.082007329246870417 0.41738518600618091 0 0.061556592319121653 0.44225761358074578 0 0.059201111644200437 0.43099696977894508 0 0.071585814596931419 0.42916711849095618 0 0.07540768018483697 0.44030754071393319 0 0.061556592319121653 0.44225761358074578 0 0.071585814596931419 0.42916711849095618 0 0.059201111644200437 0.43099696977894508 0 0.058979725365252707 0.4176193763442323 0 0.071585814596931419 0.42916711849095618 0 0.07540768018483697 0.44030754071393319 0 0.071585814596931419 0.42916711849095618 0 0.08764391112498858 0.43163178618934439 0 0.071585814596931419 0.42916711849095618 0 0.08764391112498858 0.43163178618934439 0 0.082007329246870417 0.41738518600618091 0 0.08764391112498858 0.43163178618934439 0 0.082007329246870417 0.41738518600618091 0 0.094443419551670932 0.40508992778400232 0 0.08764391112498858 0.43163178618934439 0 0.094443419551670932 0.40508992778400232 0 0.080832552055978585 0.40498983155533402 0 0.075088081656536507 0.41058410832735293 0 0.082007329246870417 0.41738518600618091 0 0.080832552055978585 0.40498983155533402 0 0.082007329246870417 0.41738518600618091 0 0.094443419551670932 0.40508992778400232 0 0.08764391112498858 0.43163178618934439 0 0.1096581763989177 0.42409154504396013 0 0.094443419551670932 0.40508992778400232 0 0.1096581763989177 0.42409154504396013 0 0.11163148259572971 0.40863234267508453 0 0.094443419551670932 0.40508992778400232 0 0.1057649319772677 0.43759517983083812 0 0.08764391112498858 0.43163178618934439 0 0.1096581763989177 0.42409154504396013 0 0.1237280261196836 0.44463014715047522 0 0.1096581763989177 0.42409154504396013 0 0.13502200614688589 0.42010390008240672 0 0.1237280261196836 0.44463014715047522 0 0.1057649319772677 0.43759517983083812 0 0.1096581763989177 0.42409154504396013 0 0.11163148259572971 0.40863234267508453 0 0.1236499924648251 0.3984302041169589 0 0.13502200614688589 0.42010390008240672 0 0.1096581763989177 0.42409154504396013 0 0.11163148259572971 0.40863234267508453 0 0.13502200614688589 0.42010390008240672 0 0.11163148259572971 0.40863234267508453 0 0.1236499924648251 0.3984302041169589 0 0.10863659533572551 0.39290197353284961 0 0.10863659533572551 0.39290197353284961 0 0.114060711710889 0.37342974127053702 0 0.12550685613774351 0.37951055496914998 0 0.1236499924648251 0.3984302041169589 0 0.10863659533572551 0.39290197353284961 0 0.12550685613774351 0.37951055496914998 0 0.1012429279783533 0.37854806937866009 0 0.10863659533572551 0.39290197353284961 0 0.114060711710889 0.37342974127053702 0 0.087739402474845588 0.37833299208434412 0 0.1012429279783533 0.37854806937866009 0 0.094443419551670932 0.40508992778400232 0 0.11163148259572971 0.40863234267508453 0 0.10863659533572551 0.39290197353284961 0 0.094443419551670932 0.40508992778400232 0 0.1012429279783533 0.37854806937866009 0 0.094443419551670932 0.40508992778400232 0 0.1012429279783533 0.37854806937866009 0 0.10863659533572551 0.39290197353284961 0 0.094443419551670932 0.40508992778400232 0 0.10055213054656729 0.36013865237867942 0 0.1100489009895301 0.33374314175173209 0 0.10055213054656729 0.36013865237867942 0 0.1100489009895301 0.33374314175173209 0 0.08625589277749264 0.346999797836966 0 0.1069344999541316 0.36147573913557879 0 0.10055213054656729 0.36013865237867942 0 0.1165634558871128 0.3492406052842485 0 0.10055213054656729 0.36013865237867942 0 0.1165634558871128 0.3492406052842485 0 0.1100489009895301 0.33374314175173209 0 0.087739402474845588 0.37833299208434412 0 0.1012429279783533 0.37854806937866009 0 0.1069344999541316 0.36147573913557879 0 0.1012429279783533 0.37854806937866009 0 0.1069344999541316 0.36147573913557879 0 0.114060711710889 0.37342974127053702 0 0.1069344999541316 0.36147573913557879 0 0.10055213054656729 0.36013865237867942 0 0.081229983254247365 0.36650003300062722 0 0.1069344999541316 0.36147573913557879 0 0.081229983254247365 0.36650003300062722 0 0.114060711710889 0.37342974127053702 0 0.1326390166540157 0.35645144527053041 0 0.12550685613774351 0.37951055496914998 0 0.1069344999541316 0.36147573913557879 0 0.114060711710889 0.37342974127053702 0 0.1326390166540157 0.35645144527053041 0 0.1069344999541316 0.36147573913557879 0 0.1165634558871128 0.3492406052842485 0 0.1326390166540157 0.35645144527053041 0 0.1069344999541316 0.36147573913557879 0 0.1326390166540157 0.35645144527053041 0 0.1165634558871128 0.3492406052842485 0 0.1100489009895301 0.33374314175173209 0 0.13264273129131951 0.33439404788472138 0 0.1100489009895301 0.33374314175173209 0 0.099713977183769634 0.31807175575135088 0 0.11954567143249289 0.30734763112478491 0 0.1100489009895301 0.33374314175173209 0 0.11954567143249289 0.30734763112478491 0 0.13264273129131951 0.33439404788472138 0 0.1100489009895301 0.33374314175173209 0 0.11954567143249289 0.30734763112478491 0 0.1100489009895301 0.33374314175173209 0 0.099713977183769634 0.31807175575135088 0 0.083894735805945045 0.32735700357097808 0 0.1100489009895301 0.33374314175173209 0 0.083894735805945045 0.32735700357097808 0 0.08625589277749264 0.346999797836966 0 0.083894735805945045 0.32735700357097808 0 0.068148884279383815 0.34110740296781622 0 0.08625589277749264 0.346999797836966 0 0.099713977183769634 0.31807175575135088 0 0.083894735805945045 0.32735700357097808 0 0.079241751540062577 0.3091409184095229 0 0.083894735805945045 0.32735700357097808 0 0.067542665246266162 0.32227296773822012 0 0.079241751540062577 0.3091409184095229 0 0.067542665246266162 0.32227296773822012 0 0.068148884279383815 0.34110740296781622 0 0.052098030758102709 0.32848813316288678 0 0.083894735805945045 0.32735700357097808 0 0.067542665246266162 0.32227296773822012 0 0.068148884279383815 0.34110740296781622 0 0.068148884279383815 0.34110740296781622 0 0.072981575438615956 0.35429511825148829 0 0.08625589277749264 0.346999797836966 0 0.068148884279383815 0.34110740296781622 0 0.072981575438615956 0.35429511825148829 0 0.059971533893319953 0.35265308331869138 0 0.072981575438615956 0.35429511825148829 0 0.066555082361941326 0.36578627017444021 0 0.059971533893319953 0.35265308331869138 0 0.10055213054656729 0.36013865237867942 0 0.08625589277749264 0.346999797836966 0 0.081229983254247365 0.36650003300062722 0 0.072981575438615956 0.35429511825148829 0 0.08625589277749264 0.346999797836966 0 0.081229983254247365 0.36650003300062722 0 0.087739402474845588 0.37833299208434412 0 0.1069344999541316 0.36147573913557879 0 0.081229983254247365 0.36650003300062722 0 0.069041936002645535 0.37820082441249081 0 0.087739402474845588 0.37833299208434412 0 0.081229983254247365 0.36650003300062722 0 0.069041936002645535 0.37820082441249081 0 0.081229983254247365 0.36650003300062722 0 0.066555082361941326 0.36578627017444021 0 0.072981575438615956 0.35429511825148829 0 0.081229983254247365 0.36650003300062722 0 0.066555082361941326 0.36578627017444021 0 0.069041936002645535 0.37820082441249081 0 0.066555082361941326 0.36578627017444021 0 0.059721524030669819 0.37431687333309788 0 0.055929998057201551 0.36692607577369102 0 0.050307067216076778 0.37158640017128619 0 0.041108453413194898 0.34669476624024848 0 0.066555082361941326 0.36578627017444021 0 0.059721524030669819 0.37431687333309788 0 0.055929998057201551 0.36692607577369102 0 0.059721524030669819 0.37431687333309788 0 0.055929998057201551 0.36692607577369102 0 0.050307067216076778 0.37158640017128619 0 0.066555082361941326 0.36578627017444021 0 0.055929998057201551 0.36692607577369102 0 0.059971533893319953 0.35265308331869138 0 0.055929998057201551 0.36692607577369102 0 0.050307067216076778 0.37158640017128619 0 0.055929998057201551 0.36692607577369102 0 0.059971533893319953 0.35265308331869138 0 0.041108453413194898 0.34669476624024848 0 0.059971533893319953 0.35265308331869138 0 0.041108453413194898 0.34669476624024848 0 0.053731959496234848 0.34189436452501393 0 0.068148884279383815 0.34110740296781622 0 0.059971533893319953 0.35265308331869138 0 0.053731959496234848 0.34189436452501393 0 0.050307067216076778 0.37158640017128619 0 0.041108453413194898 0.34669476624024848 0 0.036325720293778493 0.35734230210966361 0 0.050307067216076778 0.37158640017128619 0 0.041108453413194898 0.34669476624024848 0 0.041108453413194898 0.34669476624024848 0 0.036325720293778493 0.35734230210966361 0 0.028822601092593811 0.34272768621728472 0 0.034519904376963118 0.38467091111880503 0 0.036565816098641138 0.36791040757449411 0 0.02482466364838485 0.35779225034500489 0 0.034519904376963118 0.38467091111880503 0 0.050307067216076778 0.37158640017128619 0 0.036565816098641138 0.36791040757449411 0 0.050307067216076778 0.37158640017128619 0 0.036325720293778493 0.35734230210966361 0 0.036565816098641138 0.36791040757449411 0 0.036325720293778493 0.35734230210966361 0 0.036565816098641138 0.36791040757449411 0 0.02482466364838485 0.35779225034500489 0 0.034519904376963118 0.38467091111880503 0 0.02482466364838485 0.35779225034500489 0 0.0197357255374827 0.37571737083264412 0 0.034519904376963118 0.38467091111880503 0 0.02482466364838485 0.35779225034500489 0 0.0197357255374827 0.37571737083264412 0 0.015674273695437339 0.36401306951764911 0 0.02482466364838485 0.35779225034500489 0 0.015674273695437339 0.36401306951764911 0 0.02482466364838485 0.35779225034500489 0 0.015768167676543349 0.35713923686247862 0 0.02482466364838485 0.35779225034500489 0 0.01512942291980679 0.33091358957120492 0 0.02482466364838485 0.35779225034500489 0 0.01512942291980679 0.33091358957120492 0 0.028822601092593811 0.34272768621728472 0 0.036325720293778493 0.35734230210966361 0 0.02482466364838485 0.35779225034500489 0 0.028822601092593811 0.34272768621728472 0 0.02482466364838485 0.35779225034500489 0 0.012196298529549159 0.34905700984651278 0 0.01512942291980679 0.33091358957120492 0 0.02482466364838485 0.35779225034500489 0 0.015768167676543349 0.35713923686247862 0 0.012196298529549159 0.34905700984651278 0 0.01037743483280206 0.35769461774074762 0 0.012196298529549159 0.34905700984651278 0 0.0032447233134405931 0.35422125060834359 0 0.015768167676543349 0.35713923686247862 0 0.01037743483280206 0.35769461774074762 0 0.012196298529549159 0.34905700984651278 0 -0.002583240235104544 0.34489224502179239 0 0.012196298529549159 0.34905700984651278 0 0.0065182143906638264 0.33911035096943482 0 -0.002583240235104544 0.34489224502179239 0 0.012196298529549159 0.34905700984651278 0 0.0032447233134405931 0.35422125060834359 0 0.01037743483280206 0.35769461774074762 0 0.0032447233134405931 0.35422125060834359 0 0.0039428335920915006 0.36531030276633031 0 -0.0064988099748367559 0.35299106404641623 0 0.0032447233134405931 0.35422125060834359 0 0.0039428335920915006 0.36531030276633031 0 -0.001064505034491721 0.37161458349227261 0 0.015674273695437339 0.36401306951764911 0 0.0039428335920915006 0.36531030276633031 0 -0.001064505034491721 0.37161458349227261 0 0.015674273695437339 0.36401306951764911 0 0.011110712074150059 0.37343232972227269 0 -0.001064505034491721 0.37161458349227261 0 0.015674273695437339 0.36401306951764911 0 0.0197357255374827 0.37571737083264412 0 0.015674273695437339 0.36401306951764911 0 0.011110712074150059 0.37343232972227269 0 0.015674273695437339 0.36401306951764911 0 0.01037743483280206 0.35769461774074762 0 0.0039428335920915006 0.36531030276633031 0 0.015674273695437339 0.36401306951764911 0 0.015768167676543349 0.35713923686247862 0 0.01037743483280206 0.35769461774074762 0 -0.00058836015198596755 0.32088344941533808 0 0.01512942291980679 0.33091358957120492 0 0.0054341821912287152 0.30403492879740468 0 0.01512942291980679 0.33091358957120492 0 0.0054341821912287152 0.30403492879740468 0 0.01512942291980679 0.33091358957120492 0 0.018796167632194181 0.3134157872639986 0 0.0054341821912287152 0.30403492879740468 0 0.012196298529549159 0.34905700984651278 0 0.01512942291980679 0.33091358957120492 0 0.0065182143906638264 0.33911035096943482 0 -0.0025616559074486049 0.3329031852911295 0 -0.00058836015198596755 0.32088344941533808 0 0.01512942291980679 0.33091358957120492 0 -0.0025616559074486049 0.3329031852911295 0 0.01512942291980679 0.33091358957120492 0 0.0065182143906638264 0.33911035096943482 0 -0.0025616559074486049 0.3329031852911295 0 -0.002583240235104544 0.34489224502179239 0 0.0065182143906638264 0.33911035096943482 0 0.01512942291980679 0.33091358957120492 0 0.028822601092593811 0.34272768621728472 0 0.031909839610312053 0.3218031323092112 0 0.01512942291980679 0.33091358957120492 0 0.018796167632194181 0.3134157872639986 0 0.031909839610312053 0.3218031323092112 0 0.031909839610312053 0.3218031323092112 0 0.052098030758102709 0.32848813316288678 0 0.054329923847836643 0.30527138057989611 0 0.041108453413194898 0.34669476624024848 0 0.031909839610312053 0.3218031323092112 0 0.041108453413194898 0.34669476624024848 0 0.028822601092593811 0.34272768621728472 0 0.031909839610312053 0.3218031323092112 0 0.041108453413194898 0.34669476624024848 0 0.031909839610312053 0.3218031323092112 0 0.052098030758102709 0.32848813316288678 0 0.041108453413194898 0.34669476624024848 0 0.052098030758102709 0.32848813316288678 0 0.053731959496234848 0.34189436452501393 0 0.068148884279383815 0.34110740296781622 0 0.052098030758102709 0.32848813316288678 0 0.053731959496234848 0.34189436452501393 0 0.067542665246266162 0.32227296773822012 0 0.052098030758102709 0.32848813316288678 0 0.054329923847836643 0.30527138057989611 0 0.054329923847836643 0.30527138057989611 0 0.058643640903709077 0.2841886380467647 0 0.070108093408202884 0.28237758711201172 0 0.054329923847836643 0.30527138057989611 0 0.058643640903709077 0.2841886380467647 0 0.046708945964444748 0.28470371633566799 0 0.054329923847836643 0.30527138057989611 0 0.070108093408202884 0.28237758711201172 0 0.033299114928103571 0.2853556706935409 0 0.038381760441483573 0.30030485014671859 0 0.022711225807429191 0.29691149837817382 0 0.054329923847836643 0.30527138057989611 0 0.046708945964444748 0.28470371633566799 0 0.038381760441483573 0.30030485014671859 0 0.046708945964444748 0.28470371633566799 0 0.033299114928103571 0.2853556706935409 0 0.038381760441483573 0.30030485014671859 0 0.031909839610312053 0.3218031323092112 0 0.054329923847836643 0.30527138057989611 0 0.038381760441483573 0.30030485014671859 0 0.031909839610312053 0.3218031323092112 0 0.022711225807429191 0.29691149837817382 0 0.018796167632194181 0.3134157872639986 0 0.031909839610312053 0.3218031323092112 0 0.022711225807429191 0.29691149837817382 0 0.018796167632194181 0.3134157872639986 0 0.022711225807429191 0.29691149837817382 0 0.0054341821912287152 0.30403492879740468 0 0.031909839610312053 0.3218031323092112 0 0.038381760441483573 0.30030485014671859 0 0.022711225807429191 0.29691149837817382 0 0.022711225807429191 0.29691149837817382 0 0.0097135815956244098 0.28932323485025419 0 0.01496997692118909 0.27919024420183391 0 0.033299114928103571 0.2853556706935409 0 0.022711225807429191 0.29691149837817382 0 0.01496997692118909 0.27919024420183391 0 -0.0042610585373493576 0.2771562680236046 0 0.0097135815956244098 0.28932323485025419 0 0.01496997692118909 0.27919024420183391 0 -0.0042610585373493576 0.2771562680236046 0 0.0097135815956244098 0.28932323485025419 0 0.0054341821912287152 0.30403492879740468 0 0.022711225807429191 0.29691149837817382 0 0.0097135815956244098 0.28932323485025419 0 0.0054341821912287152 0.30403492879740468 0 -0.0042610585373493576 0.2771562680236046 0 0.0054341821912287152 0.30403492879740468 0 0.012156823249103331 0.25259817100369902 0 0.0071094060709509964 0.26564087220093879 0 0.023079021189564172 0.26593697868694532 0 -0.0082457657602449386 0.25246627485226031 0 0.012156823249103331 0.25259817100369902 0 0.0071094060709509964 0.26564087220093879 0 0.0071094060709509964 0.26564087220093879 0 0.01496997692118909 0.27919024420183391 0 0.023079021189564172 0.26593697868694532 0 -0.0042610585373493576 0.2771562680236046 0 0.0071094060709509964 0.26564087220093879 0 0.01496997692118909 0.27919024420183391 0 0.033299114928103571 0.2853556706935409 0 0.01496997692118909 0.27919024420183391 0 0.023079021189564172 0.26593697868694532 0 0.012156823249103331 0.25259817100369902 0 0.023079021189564172 0.26593697868694532 0 0.030652172791378579 0.25229956247347313 0 0.023079021189564172 0.26593697868694532 0 0.030652172791378579 0.25229956247347313 0 0.04073495957405681 0.26035892983227987 0 0.044937254539659167 0.2379713478153713 0 0.030652172791378579 0.25229956247347313 0 0.04073495957405681 0.26035892983227987 0 0.033299114928103571 0.2853556706935409 0 0.023079021189564172 0.26593697868694532 0 0.04073495957405681 0.26035892983227987 0 0.033299114928103571 0.2853556706935409 0 0.04073495957405681 0.26035892983227987 0 0.046708945964444748 0.28470371633566799 0 0.033299114928103571 0.2853556706935409 0 0.04073495957405681 0.26035892983227987 0 0.046708945964444748 0.28470371633566799 0 0.04073495957405681 0.26035892983227987 0 0.054656664038459993 0.27221644551962948 0 0.058643640903709077 0.2841886380467647 0 0.046708945964444748 0.28470371633566799 0 0.054656664038459993 0.27221644551962948 0 0.054656664038459993 0.27221644551962948 0 0.05595459183600883 0.25980758553240452 0 0.063151913248908592 0.26702092668087168 0 0.054656664038459993 0.27221644551962948 0 0.063151913248908592 0.26702092668087168 0 0.062868354845155253 0.27542318723842002 0 0.058643640903709077 0.2841886380467647 0 0.054656664038459993 0.27221644551962948 0 0.062868354845155253 0.27542318723842002 0 0.058643640903709077 0.2841886380467647 0 0.062868354845155253 0.27542318723842002 0 0.06481936793225318 0.27971168374165578 0 0.052294646587479003 0.2493466198794505 0 0.04073495957405681 0.26035892983227987 0 0.05595459183600883 0.25980758553240452 0 0.04073495957405681 0.26035892983227987 0 0.054656664038459993 0.27221644551962948 0 0.05595459183600883 0.25980758553240452 0 0.05595459183600883 0.25980758553240452 0 0.066495423171073403 0.25816184380531082 0 0.063151913248908592 0.26702092668087168 0 0.052294646587479003 0.2493466198794505 0 0.05595459183600883 0.25980758553240452 0 0.06034442261467237 0.25120339486286308 0 0.05595459183600883 0.25980758553240452 0 0.06034442261467237 0.25120339486286308 0 0.066495423171073403 0.25816184380531082 0 0.067445722382230539 0.24771064348785149 0 0.066495423171073403 0.25816184380531082 0 0.074707437689247702 0.25389633834412328 0 0.067445722382230539 0.24771064348785149 0 0.06034442261467237 0.25120339486286308 0 0.066495423171073403 0.25816184380531082 0 0.066495423171073403 0.25816184380531082 0 0.070468357435777063 0.2657419037057816 0 0.063151913248908592 0.26702092668087168 0 0.066495423171073403 0.25816184380531082 0 0.074357597956477339 0.26064435546358339 0 0.070468357435777063 0.2657419037057816 0 0.074357597956477339 0.26064435546358339 0 0.075194191089397802 0.26640127341757941 0 0.070468357435777063 0.2657419037057816 0 0.074357597956477339 0.26064435546358339 0 0.080427883817154544 0.25791465254204288 0 0.078852294536213494 0.26175012096666261 0 0.074357597956477339 0.26064435546358339 0 0.078852294536213494 0.26175012096666261 0 0.075194191089397802 0.26640127341757941 0 0.066495423171073403 0.25816184380531082 0 0.074357597956477339 0.26064435546358339 0 0.074707437689247702 0.25389633834412328 0 0.074357597956477339 0.26064435546358339 0 0.074707437689247702 0.25389633834412328 0 0.080427883817154544 0.25791465254204288 0 0.085975255819246227 0.24304742420893821 0 0.080478695998155714 0.25165019938018113 0 0.085886262968569133 0.25948379364412733 0 0.080478695998155714 0.25165019938018113 0 0.080427883817154544 0.25791465254204288 0 0.085886262968569133 0.25948379364412733 0 0.10166443252893551 0.23659000017624271 0 0.085886262968569133 0.25948379364412733 0 0.093061372415253377 0.25945310375487363 0 0.074707437689247702 0.25389633834412328 0 0.080478695998155714 0.25165019938018113 0 0.080427883817154544 0.25791465254204288 0 0.078852294536213494 0.26175012096666261 0 0.085886262968569133 0.25948379364412733 0 0.075194191089397802 0.26640127341757941 0 0.080427883817154544 0.25791465254204288 0 0.078852294536213494 0.26175012096666261 0 0.085886262968569133 0.25948379364412733 0 0.093061372415253377 0.25945310375487363 0 0.088669334409182038 0.27365465257629329 0 0.074192652952093263 0.28111713417870732 0 0.093061372415253377 0.25945310375487363 0 0.074192652952093263 0.28111713417870732 0 0.085886262968569133 0.25948379364412733 0 0.093061372415253377 0.25945310375487363 0 0.074192652952093263 0.28111713417870732 0 0.088669334409182038 0.27365465257629329 0 0.090629520296699906 0.27989165378522829 0 0.096617072050330918 0.27420358010706619 0 0.088669334409182038 0.27365465257629329 0 0.090629520296699906 0.27989165378522829 0 0.083300485689734874 0.28178689503457671 0 0.093061372415253377 0.25945310375487363 0 0.088669334409182038 0.27365465257629329 0 0.097208854645582696 0.26674380090640232 0 0.088669334409182038 0.27365465257629329 0 0.074192652952093263 0.28111713417870732 0 0.083300485689734874 0.28178689503457671 0 0.085886262968569133 0.25948379364412733 0 0.072732619288592745 0.27411268144752271 0 0.070108093408202884 0.28237758711201172 0 0.085886262968569133 0.25948379364412733 0 0.074192652952093263 0.28111713417870732 0 0.070108093408202884 0.28237758711201172 0 0.085886262968569133 0.25948379364412733 0 0.070108093408202884 0.28237758711201172 0 0.085886262968569133 0.25948379364412733 0 0.072732619288592745 0.27411268144752271 0 0.075194191089397802 0.26640127341757941 0 0.072732619288592745 0.27411268144752271 0 0.075194191089397802 0.26640127341757941 0 0.068678803079962825 0.27092621584326698 0 0.075194191089397802 0.26640127341757941 0 0.070468357435777063 0.2657419037057816 0 0.068678803079962825 0.27092621584326698 0 0.068678803079962825 0.27092621584326698 0 0.063151913248908592 0.26702092668087168 0 0.062868354845155253 0.27542318723842002 0 0.070468357435777063 0.2657419037057816 0 0.068678803079962825 0.27092621584326698 0 0.063151913248908592 0.26702092668087168 0 0.072732619288592745 0.27411268144752271 0 0.067657382571945521 0.27685732256942691 0 0.070108093408202884 0.28237758711201172 0 0.067657382571945521 0.27685732256942691 0 0.06481936793225318 0.27971168374165578 0 0.070108093408202884 0.28237758711201172 0 0.072732619288592745 0.27411268144752271 0 0.068678803079962825 0.27092621584326698 0 0.067657382571945521 0.27685732256942691 0 0.067657382571945521 0.27685732256942691 0 0.062868354845155253 0.27542318723842002 0 0.06481936793225318 0.27971168374165578 0 0.068678803079962825 0.27092621584326698 0 0.067657382571945521 0.27685732256942691 0 0.062868354845155253 0.27542318723842002 0 0.058643640903709077 0.2841886380467647 0 0.06481936793225318 0.27971168374165578 0 0.070108093408202884 0.28237758711201172 0 0.054329923847836643 0.30527138057989611 0 0.070108093408202884 0.28237758711201172 0 0.07616196246918229 0.29401120062856562 0 0.070108093408202884 0.28237758711201172 0 0.07616196246918229 0.29401120062856562 0 0.077305327314718786 0.28670206069564769 0 0.074192652952093263 0.28111713417870732 0 0.070108093408202884 0.28237758711201172 0 0.077305327314718786 0.28670206069564769 0 0.054329923847836643 0.30527138057989611 0 0.07616196246918229 0.29401120062856562 0 0.079241751540062577 0.3091409184095229 0 0.067542665246266162 0.32227296773822012 0 0.054329923847836643 0.30527138057989611 0 0.079241751540062577 0.3091409184095229 0 0.07616196246918229 0.29401120062856562 0 0.079241751540062577 0.3091409184095229 0 0.093760017070794913 0.30048783451418309 0 0.099713977183769634 0.31807175575135088 0 0.079241751540062577 0.3091409184095229 0 0.093760017070794913 0.30048783451418309 0 0.07616196246918229 0.29401120062856562 0 0.086675975183887061 0.28808357667035972 0 0.093760017070794913 0.30048783451418309 0 0.074192652952093263 0.28111713417870732 0 0.077305327314718786 0.28670206069564769 0 0.083300485689734874 0.28178689503457671 0 0.077305327314718786 0.28670206069564769 0 0.083300485689734874 0.28178689503457671 0 0.086675975183887061 0.28808357667035972 0 0.07616196246918229 0.29401120062856562 0 0.077305327314718786 0.28670206069564769 0 0.086675975183887061 0.28808357667035972 0 0.090629520296699906 0.27989165378522829 0 0.083300485689734874 0.28178689503457671 0 0.086675975183887061 0.28808357667035972 0 0.090629520296699906 0.27989165378522829 0 0.086675975183887061 0.28808357667035972 0 0.1012207646153751 0.28627192450051492 0 0.086675975183887061 0.28808357667035972 0 0.1012207646153751 0.28627192450051492 0 0.093760017070794913 0.30048783451418309 0 0.099713977183769634 0.31807175575135088 0 0.093760017070794913 0.30048783451418309 0 0.11954567143249289 0.30734763112478491 0 0.1012207646153751 0.28627192450051492 0 0.093760017070794913 0.30048783451418309 0 0.11954567143249289 0.30734763112478491 0 0.11954567143249289 0.30734763112478491 0 0.1141818460752707 0.27714397317686529 0 0.12904244187545569 0.2809521204978378 0 0.1012207646153751 0.28627192450051492 0 0.11954567143249289 0.30734763112478491 0 0.1141818460752707 0.27714397317686529 0 0.11954567143249289 0.30734763112478491 0 0.12904244187545569 0.2809521204978378 0 0.1141818460752707 0.27714397317686529 0 0.11615378911320511 0.26032519799560372 0 0.1048644735931679 0.26655228778042589 0 0.1141818460752707 0.27714397317686529 0 0.11615378911320511 0.26032519799560372 0 0.12904244187545569 0.2809521204978378 0 0.1152979079485152 0.2467056018988516 0 0.1250676346401875 0.24796443701554319 0 0.11615378911320511 0.26032519799560372 0 0.1152979079485152 0.2467056018988516 0 0.11615378911320511 0.26032519799560372 0 0.10650461767427161 0.25132517155921902 0 0.11615378911320511 0.26032519799560372 0 0.1028320207599793 0.25985538031335248 0 0.1048644735931679 0.26655228778042589 0 0.1028320207599793 0.25985538031335248 0 0.097208854645582696 0.26674380090640232 0 0.1048644735931679 0.26655228778042589 0 0.11615378911320511 0.26032519799560372 0 0.1028320207599793 0.25985538031335248 0 0.10650461767427161 0.25132517155921902 0 0.093061372415253377 0.25945310375487363 0 0.1028320207599793 0.25985538031335248 0 0.10650461767427161 0.25132517155921902 0 0.093061372415253377 0.25945310375487363 0 0.1028320207599793 0.25985538031335248 0 0.097208854645582696 0.26674380090640232 0 0.088669334409182038 0.27365465257629329 0 0.097208854645582696 0.26674380090640232 0 0.096617072050330918 0.27420358010706619 0 0.097208854645582696 0.26674380090640232 0 0.096617072050330918 0.27420358010706619 0 0.1048644735931679 0.26655228778042589 0 0.1141818460752707 0.27714397317686529 0 0.096617072050330918 0.27420358010706619 0 0.1048644735931679 0.26655228778042589 0 0.1012207646153751 0.28627192450051492 0 0.1141818460752707 0.27714397317686529 0 0.096617072050330918 0.27420358010706619 0 0.090629520296699906 0.27989165378522829 0 0.1012207646153751 0.28627192450051492 0 0.096617072050330918 0.27420358010706619 0 0.1384713120865835 0.25773302092121009 0 0.12904244187545569 0.2809521204978378 0 0.15915390062653459 0.27760612704708998 0 0.1514273965657848 0.24085309905483679 0 0.1384713120865835 0.25773302092121009 0 0.156278998070083 0.25778272565978 0 0.1384713120865835 0.25773302092121009 0 0.15915390062653459 0.27760612704708998 0 0.156278998070083 0.25778272565978 0 0.1250676346401875 0.24796443701554319 0 0.11615378911320511 0.26032519799560372 0 0.1384713120865835 0.25773302092121009 0 0.11615378911320511 0.26032519799560372 0 0.1384713120865835 0.25773302092121009 0 0.12904244187545569 0.2809521204978378 0 0.11954567143249289 0.30734763112478491 0 0.12904244187545569 0.2809521204978378 0 0.14488164426314301 0.29594920495010729 0 0.11954567143249289 0.30734763112478491 0 0.14488164426314301 0.29594920495010729 0 0.15139514334923471 0.31791608062108467 0 0.14488164426314301 0.29594920495010729 0 0.16637322996135739 0.30016678813796199 0 0.15139514334923471 0.31791608062108467 0 0.12904244187545569 0.2809521204978378 0 0.14488164426314301 0.29594920495010729 0 0.15915390062653459 0.27760612704708998 0 0.14488164426314301 0.29594920495010729 0 0.16637322996135739 0.30016678813796199 0 0.15915390062653459 0.27760612704708998 0 0.16637322996135739 0.30016678813796199 0 0.18265278236186541 0.28020603593405619 0 0.15915390062653459 0.27760612704708998 0 0.16637322996135739 0.30016678813796199 0 0.18588027836364171 0.30417070427619303 0 0.17427563080372541 0.32515257599924119 0 0.16637322996135739 0.30016678813796199 0 0.18588027836364171 0.30417070427619303 0 0.18265278236186541 0.28020603593405619 0 0.18265278236186541 0.28020603593405619 0 0.15915390062653459 0.27760612704708998 0 0.17660728565697029 0.25284173787090108 0 0.18265278236186541 0.28020603593405619 0 0.17660728565697029 0.25284173787090108 0 0.20178717474815569 0.26483037668696541 0 0.1514273965657848 0.24085309905483679 0 0.156278998070083 0.25778272565978 0 0.17660728565697029 0.25284173787090108 0 0.15915390062653459 0.27760612704708998 0 0.156278998070083 0.25778272565978 0 0.17660728565697029 0.25284173787090108 0 0.1971008006350988 0.24422433182354611 0 0.17660728565697029 0.25284173787090108 0 0.20178717474815569 0.26483037668696541 0 0.17660728565697029 0.25284173787090108 0 0.20178717474815569 0.26483037668696541 0 0.18265278236186541 0.28020603593405619 0 0.20178717474815569 0.26483037668696541 0 0.20721699074389299 0.28586320426344869 0 0.20178717474815569 0.26483037668696541 0 0.22696706383934109 0.27681901550302962 0 0.20721699074389299 0.28586320426344869 0 0.20178717474815569 0.26483037668696541 0 0.22696706383934109 0.27681901550302962 0 0.1971008006350988 0.24422433182354611 0 0.20178717474815569 0.26483037668696541 0 0.2257125065402284 0.25431107802280528 0 0.20178717474815569 0.26483037668696541 0 0.2257125065402284 0.25431107802280528 0 0.22696706383934109 0.27681901550302962 0 0.2257125065402284 0.25431107802280528 0 0.23435940432808119 0.2558835225658645 0 0.2376751292839718 0.27741240132337408 0 0.2257125065402284 0.25431107802280528 0 0.22696706383934109 0.27681901550302962 0 0.2376751292839718 0.27741240132337408 0 0.2257125065402284 0.25431107802280528 0 0.2376751292839718 0.27741240132337408 0 0.22696706383934109 0.27681901550302962 0 0.2376751292839718 0.27741240132337408 0 0.2318681827461313 0.28775992326468519 0 0.23435940432808119 0.2558835225658645 0 0.2434397278092077 0.27846069768541332 0 0.2376751292839718 0.27741240132337408 0 0.23435940432808119 0.2558835225658645 0 0.2434397278092077 0.27846069768541332 0 0.23435940432808119 0.2558835225658645 0 0.2434397278092077 0.27846069768541332 0 0.24763005152173001 0.25910176257370959 0 0.2459873280094696 0.23707215699401071 0 0.23435940432808119 0.2558835225658645 0 0.24763005152173001 0.25910176257370959 0 0.24963775202771521 0.30051372462394288 0 0.22557231514573739 0.29747977878921561 0 0.2305146992996441 0.31691702429977642 0 0.2376751292839718 0.27741240132337408 0 0.24963775202771521 0.30051372462394288 0 0.2318681827461313 0.28775992326468519 0 0.2434397278092077 0.27846069768541332 0 0.25252005129033422 0.30103787280496203 0 0.2434397278092077 0.27846069768541332 0 0.2376751292839718 0.27741240132337408 0 0.24963775202771521 0.30051372462394288 0 0.2434397278092077 0.27846069768541332 0 0.24963775202771521 0.30051372462394288 0 0.25252005129033422 0.30103787280496203 0 0.24963775202771521 0.30051372462394288 0 0.2318681827461313 0.28775992326468519 0 0.22557231514573739 0.29747977878921561 0 0.2376751292839718 0.27741240132337408 0 0.24963775202771521 0.30051372462394288 0 0.22696706383934109 0.27681901550302962 0 0.2318681827461313 0.28775992326468519 0 0.22192971392309441 0.28686454206331458 0 0.2318681827461313 0.28775992326468519 0 0.22192971392309441 0.28686454206331458 0 0.22557231514573739 0.29747977878921561 0 0.22557231514573739 0.29747977878921561 0 0.21067009246602381 0.31050760251916348 0 0.2305146992996441 0.31691702429977642 0 0.22557231514573739 0.29747977878921561 0 0.2305146992996441 0.31691702429977642 0 0.22557231514573739 0.29747977878921561 0 0.21067009246602381 0.31050760251916348 0 0.20721699074389299 0.28586320426344869 0 0.22192971392309441 0.28686454206331458 0 0.22557231514573739 0.29747977878921561 0 0.20721699074389299 0.28586320426344869 0 0.22696706383934109 0.27681901550302962 0 0.22192971392309441 0.28686454206331458 0 0.20721699074389299 0.28586320426344869 0 0.18588027836364171 0.30417070427619303 0 0.18265278236186541 0.28020603593405619 0 0.20721699074389299 0.28586320426344869 0 0.18588027836364171 0.30417070427619303 0 0.21067009246602381 0.31050760251916348 0 0.20721699074389299 0.28586320426344869 0 0.18588027836364171 0.30417070427619303 0 0.21067009246602381 0.31050760251916348 0 0.1975742485098208 0.32622361772240582 0 0.1975742485098208 0.32622361772240582 0 0.2097525667536678 0.34137856367538538 0 0.18404805005378369 0.34640285754043382 0 0.1975742485098208 0.32622361772240582 0 0.2097525667536678 0.34137856367538538 0 0.2167937380965417 0.3262762156054137 0 0.21067009246602381 0.31050760251916348 0 0.1975742485098208 0.32622361772240582 0 0.2167937380965417 0.3262762156054137 0 0.21067009246602381 0.31050760251916348 0 0.2167937380965417 0.3262762156054137 0 0.2305146992996441 0.31691702429977642 0 0.2305146992996441 0.31691702429977642 0 0.2354570834535519 0.33635426981033711 0 0.2167937380965417 0.3262762156054137 0 0.2305146992996441 0.31691702429977642 0 0.2354570834535519 0.33635426981033711 0 0.2097525667536678 0.34137856367538538 0 0.2167937380965417 0.3262762156054137 0 0.2354570834535519 0.33635426981033711 0 0.2097525667536678 0.34137856367538538 0 0.2354570834535519 0.33635426981033711 0 0.2097525667536678 0.34137856367538538 0 0.2354570834535519 0.33635426981033711 0 0.22572342153310379 0.35183723080414581 0 0.2354570834535519 0.33635426981033711 0 0.24833100513142109 0.32161764704062729 0 0.26518788721623437 0.33054298393043219 0 0.24963775202771521 0.30051372462394288 0 0.2305146992996441 0.31691702429977642 0 0.24833100513142109 0.32161764704062729 0 0.2305146992996441 0.31691702429977642 0 0.2354570834535519 0.33635426981033711 0 0.24833100513142109 0.32161764704062729 0 0.2354570834535519 0.33635426981033711 0 0.24217950803475169 0.36279199964721098 0 0.25397109136889212 0.34953950795812871 0 0.2354570834535519 0.33635426981033711 0 0.24217950803475169 0.36279199964721098 0 0.22572342153310379 0.35183723080414581 0 0.2354570834535519 0.33635426981033711 0 0.24217950803475169 0.36279199964721098 0 0.24217950803475169 0.36279199964721098 0 0.22572342153310379 0.35183723080414581 0 0.21637712922286109 0.36651385017664678 0 0.24217950803475169 0.36279199964721098 0 0.21637712922286109 0.36651385017664678 0 0.22693728272114971 0.38251641872149622 0 0.2097525667536678 0.34137856367538538 0 0.22572342153310379 0.35183723080414581 0 0.21637712922286109 0.36651385017664678 0 0.2097525667536678 0.34137856367538538 0 0.21637712922286109 0.36651385017664678 0 0.19198276408895759 0.36846918068195189 0 0.2097525667536678 0.34137856367538538 0 0.19198276408895759 0.36846918068195189 0 0.18404805005378369 0.34640285754043382 0 0.2097525667536678 0.34137856367538538 0 0.18404805005378369 0.34640285754043382 0 0.21637712922286109 0.36651385017664678 0 0.19198276408895759 0.36846918068195189 0 0.2008438189570996 0.38963870543367402 0 0.1583435333538997 0.35142715140548209 0 0.18404805005378369 0.34640285754043382 0 0.17157629822801171 0.38002160271682978 0 0.19198276408895759 0.36846918068195189 0 0.18404805005378369 0.34640285754043382 0 0.17157629822801171 0.38002160271682978 0 0.1583435333538997 0.35142715140548209 0 0.14756927440754089 0.37573381366887992 0 0.17157629822801171 0.38002160271682978 0 0.1583435333538997 0.35142715140548209 0 0.18404805005378369 0.34640285754043382 0 0.1583435333538997 0.35142715140548209 0 0.17427563080372541 0.32515257599924119 0 0.15139514334923471 0.31791608062108467 0 0.1975742485098208 0.32622361772240582 0 0.18404805005378369 0.34640285754043382 0 0.17427563080372541 0.32515257599924119 0 0.1583435333538997 0.35142715140548209 0 0.18404805005378369 0.34640285754043382 0 0.17427563080372541 0.32515257599924119 0 0.18588027836364171 0.30417070427619303 0 0.1975742485098208 0.32622361772240582 0 0.17427563080372541 0.32515257599924119 0 0.16637322996135739 0.30016678813796199 0 0.17427563080372541 0.32515257599924119 0 0.15139514334923471 0.31791608062108467 0 0.1583435333538997 0.35142715140548209 0 0.15139514334923471 0.31791608062108467 0 0.13264273129131951 0.33439404788472138 0 0.11954567143249289 0.30734763112478491 0 0.15139514334923471 0.31791608062108467 0 0.13264273129131951 0.33439404788472138 0 0.1165634558871128 0.3492406052842485 0 0.13264273129131951 0.33439404788472138 0 0.1326390166540157 0.35645144527053041 0 0.1326390166540157 0.35645144527053041 0 0.14756927440754089 0.37573381366887992 0 0.12550685613774351 0.37951055496914998 0 0.1583435333538997 0.35142715140548209 0 0.1326390166540157 0.35645144527053041 0 0.14756927440754089 0.37573381366887992 0 0.1583435333538997 0.35142715140548209 0 0.1326390166540157 0.35645144527053041 0 0.1583435333538997 0.35142715140548209 0 0.13264273129131951 0.33439404788472138 0 0.1326390166540157 0.35645144527053041 0 0.1528019220027558 0.40532518960412911 0 0.14756927440754089 0.37573381366887992 0 0.13567422075440499 0.38715007620423969 0 0.14756927440754089 0.37573381366887992 0 0.12550685613774351 0.37951055496914998 0 0.13567422075440499 0.38715007620423969 0 0.1236499924648251 0.3984302041169589 0 0.12550685613774351 0.37951055496914998 0 0.13567422075440499 0.38715007620423969 0 0.1236499924648251 0.3984302041169589 0 0.1528019220027558 0.40532518960412911 0 0.13567422075440499 0.38715007620423969 0 0.1528019220027558 0.40532518960412911 0 0.13502200614688589 0.42010390008240672 0 0.17098438647877001 0.42850314348833868 0 0.13502200614688589 0.42010390008240672 0 0.17098438647877001 0.42850314348833868 0 0.1532788809183856 0.44756588495706878 0 0.1236499924648251 0.3984302041169589 0 0.1528019220027558 0.40532518960412911 0 0.13502200614688589 0.42010390008240672 0 0.1237280261196836 0.44463014715047522 0 0.13502200614688589 0.42010390008240672 0 0.1532788809183856 0.44756588495706878 0 0.1528019220027558 0.40532518960412911 0 0.17098438647877001 0.42850314348833868 0 0.1528019220027558 0.40532518960412911 0 0.17098438647877001 0.42850314348833868 0 0.17902253221663289 0.40492788695933207 0 0.17098438647877001 0.42850314348833868 0 0.19890623541652749 0.42115079355368912 0 0.18916685095478419 0.4516810973725483 0 0.17098438647877001 0.42850314348833868 0 0.17902253221663289 0.40492788695933207 0 0.19890623541652749 0.42115079355368912 0 0.17902253221663289 0.40492788695933207 0 0.17157629822801171 0.38002160271682978 0 0.2008438189570996 0.38963870543367402 0 0.1528019220027558 0.40532518960412911 0 0.17902253221663289 0.40492788695933207 0 0.17157629822801171 0.38002160271682978 0 0.1528019220027558 0.40532518960412911 0 0.14756927440754089 0.37573381366887992 0 0.17157629822801171 0.38002160271682978 0 0.17902253221663289 0.40492788695933207 0 0.2008438189570996 0.38963870543367402 0 0.19890623541652749 0.42115079355368912 0 0.19198276408895759 0.36846918068195189 0 0.17157629822801171 0.38002160271682978 0 0.2008438189570996 0.38963870543367402 0 0.2008438189570996 0.38963870543367402 0 0.22638402477508329 0.40440780886586492 0 0.19890623541652749 0.42115079355368912 0 0.2008438189570996 0.38963870543367402 0 0.22693728272114971 0.38251641872149622 0 0.22638402477508329 0.40440780886586492 0 0.21637712922286109 0.36651385017664678 0 0.2008438189570996 0.38963870543367402 0 0.22693728272114971 0.38251641872149622 0 0.22693728272114971 0.38251641872149622 0 0.22638402477508329 0.40440780886586492 0 0.24890193261595259 0.38922972948408457 0 0.22638402477508329 0.40440780886586492 0 0.24890193261595259 0.38922972948408457 0 0.25562435719715348 0.41566745932095828 0 0.24217950803475169 0.36279199964721098 0 0.24890193261595259 0.38922972948408457 0 0.24217950803475169 0.36279199964721098 0 0.22693728272114971 0.38251641872149622 0 0.24890193261595259 0.38922972948408457 0 0.22638402477508329 0.40440780886586492 0 0.23929670148200641 0.42651558303428039 0 0.25562435719715348 0.41566745932095828 0 0.22638402477508329 0.40440780886586492 0 0.23929670148200641 0.42651558303428039 0 0.21947817947708001 0.42577831055793047 0 0.23929670148200641 0.42651558303428039 0 0.21947817947708001 0.42577831055793047 0 0.23265016418236131 0.44461914726881641 0 0.21947817947708001 0.42577831055793047 0 0.19890623541652749 0.42115079355368912 0 0.21144352365240529 0.44700262568134053 0 0.22638402477508329 0.40440780886586492 0 0.21947817947708001 0.42577831055793047 0 0.19890623541652749 0.42115079355368912 0 0.19890623541652749 0.42115079355368912 0 0.18916685095478419 0.4516810973725483 0 0.21144352365240529 0.44700262568134053 0 0.18916685095478419 0.4516810973725483 0 0.20734931543079829 0.47485905125675792 0 0.18916685095478419 0.4516810973725483 0 0.21144352365240529 0.44700262568134053 0 0.20734931543079829 0.47485905125675792 0 0.21144352365240529 0.44700262568134053 0 0.22111039645288069 0.46392735407830132 0 0.20734931543079829 0.47485905125675792 0 0.21144352365240529 0.44700262568134053 0 0.23265016418236131 0.44461914726881641 0 0.22111039645288069 0.46392735407830132 0 0.21947817947708001 0.42577831055793047 0 0.21144352365240529 0.44700262568134053 0 0.23265016418236131 0.44461914726881641 0 0.23265016418236131 0.44461914726881641 0 0.22111039645288069 0.46392735407830132 0 0.24508980140621781 0.46623513653650361 0 0.22111039645288069 0.46392735407830132 0 0.24508980140621781 0.46623513653650361 0 0.23265016418236131 0.44461914726881641 0 0.24508980140621781 0.46623513653650361 0 0.26234678177835441 0.44210518915783192 0 0.23929670148200641 0.42651558303428039 0 0.23265016418236131 0.44461914726881641 0 0.26234678177835441 0.44210518915783192 0 0.2479606543192433 0.5 0 0.23772208332050199 0.48786840683281429 0 0.2255317799068125 0.49803700514096738 0 0.2479606543192433 0.5 0 0.23772208332050199 0.48786840683281429 0 0.25513941322049821 0.48355515434954122 0 0.24508980140621781 0.46623513653650361 0 0.23688712964706901 0.4763018139788181 0 0.25513941322049821 0.48355515434954122 0 0.23772208332050199 0.48786840683281429 0 0.23688712964706901 0.4763018139788181 0 0.25513941322049821 0.48355515434954122 0 0.22111039645288069 0.46392735407830132 0 0.23688712964706901 0.4763018139788181 0 0.22537395383524639 0.47992301809693011 0 0.22537395383524639 0.47992301809693011 0 0.2255317799068125 0.49803700514096738 0 0.20734931543079829 0.47485905125675792 0 0.23772208332050199 0.48786840683281429 0 0.23688712964706901 0.4763018139788181 0 0.22537395383524639 0.47992301809693011 0 0.22111039645288069 0.46392735407830132 0 0.24508980140621781 0.46623513653650361 0 0.23688712964706901 0.4763018139788181 0 0.23772208332050199 0.48786840683281429 0 0.22537395383524639 0.47992301809693011 0 0.2255317799068125 0.49803700514096738 0 0.2479606543192433 0.5 0 0.21885338771805021 0.5 0 0.2255317799068125 0.49803700514096738 0 0.21885338771805021 0.5 0 0.2255317799068125 0.49803700514096738 0 0.20734931543079829 0.47485905125675792 0 0.21885338771805021 0.5 0 0.20734931543079829 0.47485905125675792 0 0.1897461211168571 0.5 0 0.2255317799068125 0.49803700514096738 0 0.20734931543079829 0.47485905125675792 0 0.22111039645288069 0.46392735407830132 0 0.22537395383524639 0.47992301809693011 0 0.20734931543079829 0.47485905125675792 0 0.18916685095478419 0.4516810973725483 0 0.20734931543079829 0.47485905125675792 0 0.18375498264642379 0.4799820804674747 0 0.20734931543079829 0.47485905125675792 0 0.1897461211168571 0.5 0 0.18375498264642379 0.4799820804674747 0 0.1897461211168571 0.5 0 0.1606388545156639 0.5 0 0.18375498264642379 0.4799820804674747 0 0.1606388545156639 0.5 0 0.16284299929429041 0.47286735670979418 0 0.18375498264642379 0.4799820804674747 0 0.17098438647877001 0.42850314348833868 0 0.18916685095478419 0.4516810973725483 0 0.1532788809183856 0.44756588495706878 0 0.18916685095478419 0.4516810973725483 0 0.16284299929429041 0.47286735670979418 0 0.18375498264642379 0.4799820804674747 0 0.18916685095478419 0.4516810973725483 0 0.16284299929429041 0.47286735670979418 0 0.1532788809183856 0.44756588495706878 0 0.17098438647877001 0.42850314348833868 0 0.18916685095478419 0.4516810973725483 0 0.16284299929429041 0.47286735670979418 0 0.1532788809183856 0.44756588495706878 0 0.13792901651589951 0.46760966493884959 0 0.1160915578241386 0.4641835533930308 0 0.1237280261196836 0.44463014715047522 0 0.13792901651589951 0.46760966493884959 0 0.1237280261196836 0.44463014715047522 0 0.1532788809183856 0.44756588495706878 0 0.13792901651589951 0.46760966493884959 0 0.1146358595090817 0.48605788153156299 0 0.13792901651589951 0.46760966493884959 0 0.14375381424303349 0.48699105670781317 0 0.1146358595090817 0.48605788153156299 0 0.13153158791447089 0.50000000000000033 0 0.14375381424303349 0.48699105670781317 0 0.1606388545156639 0.5 0 0.13153158791447089 0.50000000000000033 0 0.14375381424303349 0.48699105670781317 0 0.1606388545156639 0.5 0 0.16284299929429041 0.47286735670979418 0 0.14375381424303349 0.48699105670781317 0 0.16284299929429041 0.47286735670979418 0 0.13792901651589951 0.46760966493884959 0 0.14375381424303349 0.48699105670781317 0 0.35818797179075601 0.47458138126870081 0 0.34642182508771258 0.48585203466637861 0 0.33573625410597768 0.47071191077640329 0 0.35818797179075601 0.47458138126870081 0 0.34642182508771258 0.48585203466637861 0 0.35839011049240282 0.5 0 0.34642182508771258 0.48585203466637861 0 0.35839011049240282 0.5 0 0.33128271396841408 0.5 0 0.35818797179075601 0.47458138126870081 0 0.35839011049240282 0.5 0 0.37951078222479251 0.47868038482078018 0 0.35839011049240282 0.5 0 0.37951078222479251 0.47868038482078018 0 0.38549750701639152 0.5 0 0.35818797179075601 0.47458138126870081 0 0.37565915938479377 0.45849116020829678 0 0.37951078222479251 0.47868038482078018 0 0.35818797179075601 0.47458138126870081 0 0.35384759317055892 0.4558722467826386 0 0.37565915938479377 0.45849116020829678 0 0.3672128213662551 0.44140310366938379 0 0.35384759317055892 0.4558722467826386 0 0.37565915938479377 0.45849116020829678 0 0.35041805056504127 0.44039830756831011 0 0.35384759317055892 0.4558722467826386 0 0.33587130181052999 0.44964761720473639 0 0.3672128213662551 0.44140310366938379 0 0.35041805056504127 0.44039830756831011 0 0.35384759317055892 0.4558722467826386 0 0.35818797179075601 0.47458138126870081 0 0.35384759317055892 0.4558722467826386 0 0.33573625410597768 0.47071191077640329 0 0.33587130181052999 0.44964761720473639 0 0.32245641590876828 0.45710047073305682 0 0.33573625410597768 0.47071191077640329 0 0.35384759317055892 0.4558722467826386 0 0.33587130181052999 0.44964761720473639 0 0.33573625410597768 0.47071191077640329 0 0.35041805056504127 0.44039830756831011 0 0.33587130181052999 0.44964761720473639 0 0.34011375395909899 0.42827966665244982 0 0.33587130181052999 0.44964761720473639 0 0.32313042491148092 0.43915640659962429 0 0.34011375395909899 0.42827966665244982 0 0.33587130181052999 0.44964761720473639 0 0.32313042491148092 0.43915640659962429 0 0.32245641590876828 0.45710047073305682 0 0.32313042491148092 0.43915640659962429 0 0.32245641590876828 0.45710047073305682 0 0.3069723578181176 0.44921026163567479 0 0.32313042491148092 0.43915640659962429 0 0.3069723578181176 0.44921026163567479 0 0.30967478190587899 0.43248339293908478 0 0.32245641590876828 0.45710047073305682 0 0.31479002533830769 0.47294309924184441 0 0.33573625410597768 0.47071191077640329 0 0.32245641590876828 0.45710047073305682 0 0.31479002533830769 0.47294309924184441 0 0.3069723578181176 0.44921026163567479 0 0.31479002533830769 0.47294309924184441 0 0.33573625410597768 0.47071191077640329 0 0.33128271396841408 0.5 0 0.34642182508771258 0.48585203466637861 0 0.33573625410597768 0.47071191077640329 0 0.33128271396841408 0.5 0 0.31479002533830769 0.47294309924184441 0 0.33128271396841408 0.5 0 0.30417531744442527 0.5 0 0.31479002533830769 0.47294309924184441 0 0.30417531744442527 0.5 0 0.29074220063683293 0.48758109823480927 0 0.31479002533830769 0.47294309924184441 0 0.29192961584893129 0.47074300911827521 0 0.29074220063683293 0.48758109823480927 0 0.31479002533830769 0.47294309924184441 0 0.29192961584893129 0.47074300911827521 0 0.29192961584893129 0.47074300911827521 0 0.29074220063683293 0.48758109823480927 0 0.27306856363999571 0.4842714594973539 0 0.30417531744442527 0.5 0 0.29074220063683293 0.48758109823480927 0 0.27706792092043642 0.500000000000002 0 0.27706792092043642 0.500000000000002 0 0.27306856363999571 0.4842714594973539 0 0.25513941322049821 0.48355515434954122 0 0.29074220063683293 0.48758109823480927 0 0.27706792092043642 0.500000000000002 0 0.27306856363999571 0.4842714594973539 0 0.27706792092043642 0.500000000000002 0 0.27306856363999571 0.4842714594973539 0 0.29192961584893129 0.47074300911827521 0 0.26906920635955489 0.46854291899470579 0 0.27306856363999571 0.4842714594973539 0 0.25513941322049821 0.48355515434954122 0 0.26906920635955489 0.46854291899470579 0 0.29192961584893129 0.47074300911827521 0 0.27306856363999571 0.4842714594973539 0 0.26906920635955489 0.46854291899470579 0 0.27306856363999571 0.4842714594973539 0 0.26906920635955489 0.46854291899470579 0 0.24508980140621781 0.46623513653650361 0 0.25513941322049821 0.48355515434954122 0 0.26906920635955489 0.46854291899470579 0 0.2479606543192433 0.5 0 0.27706792092043642 0.500000000000002 0 0.25513941322049821 0.48355515434954122 0 0.24508980140621781 0.46623513653650361 0 0.26906920635955489 0.46854291899470579 0 0.24508980140621781 0.46623513653650361 0 0.26234678177835441 0.44210518915783192 0 0.26906920635955489 0.46854291899470579 0 0.29192961584893129 0.47074300911827521 0 0.26906920635955489 0.46854291899470579 0 0.2825318911539082 0.44937975844880462 0 0.26234678177835441 0.44210518915783192 0 0.26906920635955489 0.46854291899470579 0 0.26234678177835441 0.44210518915783192 0 0.26906920635955489 0.46854291899470579 0 0.2825318911539082 0.44937975844880462 0 0.26234678177835441 0.44210518915783192 0 0.2825318911539082 0.44937975844880462 0 0.2735489225425754 0.42398780939214897 0 0.2825318911539082 0.44937975844880462 0 0.3069723578181176 0.44921026163567479 0 0.29424437368670248 0.43173942196487358 0 0.29192961584893129 0.47074300911827521 0 0.2825318911539082 0.44937975844880462 0 0.3069723578181176 0.44921026163567479 0 0.31479002533830769 0.47294309924184441 0 0.29192961584893129 0.47074300911827521 0 0.3069723578181176 0.44921026163567479 0 0.3069723578181176 0.44921026163567479 0 0.30967478190587899 0.43248339293908478 0 0.29424437368670248 0.43173942196487358 0 0.30967478190587899 0.43248339293908478 0 0.3045281829251868 0.41996349248923659 0 0.31949857018790712 0.42234738200601463 0 0.30967478190587899 0.43248339293908478 0 0.3045281829251868 0.41996349248923659 0 0.29424437368670248 0.43173942196487358 0 0.31221380766262308 0.41141105291454111 0 0.3045281829251868 0.41996349248923659 0 0.30175255758949709 0.40539483602959481 0 0.31221380766262308 0.41141105291454111 0 0.3045281829251868 0.41996349248923659 0 0.31949857018790712 0.42234738200601463 0 0.3045281829251868 0.41996349248923659 0 0.29116822628179151 0.41527777958226658 0 0.30175255758949709 0.40539483602959481 0 0.29116822628179151 0.41527777958226658 0 0.2735489225425754 0.42398780939214897 0 0.28009549588900451 0.40671294327225221 0 0.29116822628179151 0.41527777958226658 0 0.29046685710439091 0.40365495696152731 0 0.30175255758949709 0.40539483602959481 0 0.29116822628179151 0.41527777958226658 0 0.28009549588900451 0.40671294327225221 0 0.29046685710439091 0.40365495696152731 0 0.29116822628179151 0.41527777958226658 0 0.29424437368670248 0.43173942196487358 0 0.2735489225425754 0.42398780939214897 0 0.3045281829251868 0.41996349248923659 0 0.29116822628179151 0.41527777958226658 0 0.29424437368670248 0.43173942196487358 0 0.2825318911539082 0.44937975844880462 0 0.29424437368670248 0.43173942196487358 0 0.2735489225425754 0.42398780939214897 0 0.2735489225425754 0.42398780939214897 0 0.28009549588900451 0.40671294327225221 0 0.26594594197715632 0.40587542564026857 0 0.2735489225425754 0.42398780939214897 0 0.25562435719715348 0.41566745932095828 0 0.26594594197715632 0.40587542564026857 0 0.26234678177835441 0.44210518915783192 0 0.25562435719715348 0.41566745932095828 0 0.23929670148200641 0.42651558303428039 0 0.26234678177835441 0.44210518915783192 0 0.25562435719715348 0.41566745932095828 0 0.26234678177835441 0.44210518915783192 0 0.2735489225425754 0.42398780939214897 0 0.25562435719715348 0.41566745932095828 0 0.24890193261595259 0.38922972948408457 0 0.27155900164109531 0.39377918673189899 0 0.26817635423288699 0.37969346344739391 0 0.24890193261595259 0.38922972948408457 0 0.26817635423288699 0.37969346344739391 0 0.26082178769032438 0.36496323128775521 0 0.24890193261595259 0.38922972948408457 0 0.25562435719715348 0.41566745932095828 0 0.24890193261595259 0.38922972948408457 0 0.27155900164109531 0.39377918673189899 0 0.26594594197715632 0.40587542564026857 0 0.24890193261595259 0.38922972948408457 0 0.25562435719715348 0.41566745932095828 0 0.26594594197715632 0.40587542564026857 0 0.28009549588900451 0.40671294327225221 0 0.27155900164109531 0.39377918673189899 0 0.26594594197715632 0.40587542564026857 0 0.28009549588900451 0.40671294327225221 0 0.27155900164109531 0.39377918673189899 0 0.2841626669368148 0.39603484022980262 0 0.27155900164109531 0.39377918673189899 0 0.27917556467927279 0.38707504911542251 0 0.2841626669368148 0.39603484022980262 0 0.27917556467927279 0.38707504911542251 0 0.27737653217987568 0.3763299637903077 0 0.28641533258273322 0.38531457319514678 0 0.27155900164109531 0.39377918673189899 0 0.27917556467927279 0.38707504911542251 0 0.26817635423288699 0.37969346344739391 0 0.26817635423288699 0.37969346344739391 0 0.27737653217987568 0.3763299637903077 0 0.26995518240551242 0.36922466410125959 0 0.27917556467927279 0.38707504911542251 0 0.26817635423288699 0.37969346344739391 0 0.27737653217987568 0.3763299637903077 0 0.27917556467927279 0.38707504911542251 0 0.28749669470930389 0.39059918652862902 0 0.28641533258273322 0.38531457319514678 0 0.28749669470930389 0.39059918652862902 0 0.28641533258273322 0.38531457319514678 0 0.29321390271680048 0.38636149671614523 0 0.28641533258273322 0.38531457319514678 0 0.29321390271680048 0.38636149671614523 0 0.29155132770994241 0.38145409056705559 0 0.28749669470930389 0.39059918652862902 0 0.29321390271680048 0.38636149671614523 0 0.2951553388248469 0.39485438569372039 0 0.29321390271680048 0.38636149671614523 0 0.2951553388248469 0.39485438569372039 0 0.30172663999730548 0.38411556817588999 0 0.2951337916801352 0.37545299726164849 0 0.29155132770994241 0.38145409056705559 0 0.29028041611347422 0.37131190521640561 0 0.29650911823343812 0.38027524721939082 0 0.2951337916801352 0.37545299726164849 0 0.29155132770994241 0.38145409056705559 0 0.29321390271680048 0.38636149671614523 0 0.29650911823343812 0.38027524721939082 0 0.29155132770994241 0.38145409056705559 0 0.28009549588900451 0.40671294327225221 0 0.2841626669368148 0.39603484022980262 0 0.29046685710439091 0.40365495696152731 0 0.27917556467927279 0.38707504911542251 0 0.28749669470930389 0.39059918652862902 0 0.2841626669368148 0.39603484022980262 0 0.28749669470930389 0.39059918652862902 0 0.2841626669368148 0.39603484022980262 0 0.2951553388248469 0.39485438569372039 0 0.2841626669368148 0.39603484022980262 0 0.2951553388248469 0.39485438569372039 0 0.29046685710439091 0.40365495696152731 0 0.2951553388248469 0.39485438569372039 0 0.29046685710439091 0.40365495696152731 0 0.30175255758949709 0.40539483602959481 0 0.2951553388248469 0.39485438569372039 0 0.30416997859767031 0.39496190780794832 0 0.30172663999730548 0.38411556817588999 0 0.2951553388248469 0.39485438569372039 0 0.30175255758949709 0.40539483602959481 0 0.30416997859767031 0.39496190780794832 0 0.30416997859767031 0.39496190780794832 0 0.31194754139156228 0.39992908639018659 0 0.31058504665001713 0.38993607806902841 0 0.31221380766262308 0.41141105291454111 0 0.30175255758949709 0.40539483602959481 0 0.31194754139156228 0.39992908639018659 0 0.30175255758949709 0.40539483602959481 0 0.30416997859767031 0.39496190780794832 0 0.31194754139156228 0.39992908639018659 0 0.29650911823343812 0.38027524721939082 0 0.30172663999730548 0.38411556817588999 0 0.30091992906300691 0.3739920833762147 0 0.30172663999730548 0.38411556817588999 0 0.31077839752677883 0.37658419253607489 0 0.30091992906300691 0.3739920833762147 0 0.29650911823343812 0.38027524721939082 0 0.2951337916801352 0.37545299726164849 0 0.30091992906300691 0.3739920833762147 0 0.29321390271680048 0.38636149671614523 0 0.29650911823343812 0.38027524721939082 0 0.30172663999730548 0.38411556817588999 0 0.30416997859767031 0.39496190780794832 0 0.30172663999730548 0.38411556817588999 0 0.31058504665001713 0.38993607806902841 0 0.30172663999730548 0.38411556817588999 0 0.31058504665001713 0.38993607806902841 0 0.31077839752677883 0.37658419253607489 0 0.31077839752677883 0.37658419253607489 0 0.31867525833463911 0.38494833593070971 0 0.32306703930603953 0.37623237809600169 0 0.31058504665001713 0.38993607806902841 0 0.31867525833463911 0.38494833593070971 0 0.31878199461777879 0.39362573130725731 0 0.31058504665001713 0.38993607806902841 0 0.31077839752677883 0.37658419253607489 0 0.31867525833463911 0.38494833593070971 0 0.31867525833463911 0.38494833593070971 0 0.32306703930603953 0.37623237809600169 0 0.32934203852673438 0.38871677178939867 0 0.31867525833463911 0.38494833593070971 0 0.32934203852673438 0.38871677178939867 0 0.31878199461777879 0.39362573130725731 0 0.32306703930603953 0.37623237809600169 0 0.33555471090824662 0.37714848622012531 0 0.32934203852673438 0.38871677178939867 0 0.33555471090824662 0.37714848622012531 0 0.32934203852673438 0.38871677178939867 0 0.34865402358820241 0.38746960960344728 0 0.32934203852673438 0.38871677178939867 0 0.33838050486014071 0.40132571833470809 0 0.34865402358820241 0.38746960960344728 0 0.32934203852673438 0.38871677178939867 0 0.33838050486014071 0.40132571833470809 0 0.32336008818594092 0.40459838435696299 0 0.32934203852673438 0.38871677178939867 0 0.32336008818594092 0.40459838435696299 0 0.31878199461777879 0.39362573130725731 0 0.31194754139156228 0.39992908639018659 0 0.31058504665001713 0.38993607806902841 0 0.31878199461777879 0.39362573130725731 0 0.31221380766262308 0.41141105291454111 0 0.31194754139156228 0.39992908639018659 0 0.32336008818594092 0.40459838435696299 0 0.31194754139156228 0.39992908639018659 0 0.32336008818594092 0.40459838435696299 0 0.31878199461777879 0.39362573130725731 0 0.31221380766262308 0.41141105291454111 0 0.32336008818594092 0.40459838435696299 0 0.31949857018790712 0.42234738200601463 0 0.32336008818594092 0.40459838435696299 0 0.31949857018790712 0.42234738200601463 0 0.33335541567677851 0.41413927737501682 0 0.32313042491148092 0.43915640659962429 0 0.31949857018790712 0.42234738200601463 0 0.34011375395909899 0.42827966665244982 0 0.32313042491148092 0.43915640659962429 0 0.30967478190587899 0.43248339293908478 0 0.31949857018790712 0.42234738200601463 0 0.31949857018790712 0.42234738200601463 0 0.34011375395909899 0.42827966665244982 0 0.33335541567677851 0.41413927737501682 0 0.34011375395909899 0.42827966665244982 0 0.33335541567677851 0.41413927737501682 0 0.35251535500997389 0.4097633894025835 0 0.33838050486014071 0.40132571833470809 0 0.33335541567677851 0.41413927737501682 0 0.35251535500997389 0.4097633894025835 0 0.33838050486014071 0.40132571833470809 0 0.32336008818594092 0.40459838435696299 0 0.33335541567677851 0.41413927737501682 0 0.34011375395909899 0.42827966665244982 0 0.35251535500997389 0.4097633894025835 0 0.3591301267131588 0.42602683944016839 0 0.3672128213662551 0.44140310366938379 0 0.35041805056504127 0.44039830756831011 0 0.3591301267131588 0.42602683944016839 0 0.35041805056504127 0.44039830756831011 0 0.34011375395909899 0.42827966665244982 0 0.3591301267131588 0.42602683944016839 0 0.3672128213662551 0.44140310366938379 0 0.3591301267131588 0.42602683944016839 0 0.37786999239799629 0.42201923841731348 0 0.3591301267131588 0.42602683944016839 0 0.36674031876838431 0.41287021939491358 0 0.37786999239799629 0.42201923841731348 0 0.35251535500997389 0.4097633894025835 0 0.36674031876838431 0.41287021939491358 0 0.36672310374365391 0.3972274770167053 0 0.36674031876838431 0.41287021939491358 0 0.37714557779446961 0.40580011292323048 0 0.37786999239799629 0.42201923841731348 0 0.35251535500997389 0.4097633894025835 0 0.3591301267131588 0.42602683944016839 0 0.36674031876838431 0.41287021939491358 0 0.36674031876838431 0.41287021939491358 0 0.36672310374365391 0.3972274770167053 0 0.37714557779446961 0.40580011292323048 0 0.36672310374365391 0.3972274770167053 0 0.34865402358820241 0.38746960960344728 0 0.36927583114563117 0.37168826674887129 0 0.36672310374365391 0.3972274770167053 0 0.36927583114563117 0.37168826674887129 0 0.38594138320053972 0.39504117240748449 0 0.34865402358820241 0.38746960960344728 0 0.34769055634412588 0.36745966958429022 0 0.36927583114563117 0.37168826674887129 0 0.33555471090824662 0.37714848622012531 0 0.34865402358820241 0.38746960960344728 0 0.34769055634412588 0.36745966958429022 0 0.35251535500997389 0.4097633894025835 0 0.36672310374365391 0.3972274770167053 0 0.34865402358820241 0.38746960960344728 0 0.33838050486014071 0.40132571833470809 0 0.35251535500997389 0.4097633894025835 0 0.34865402358820241 0.38746960960344728 0 0.35261027909072251 0.34833536109025781 0 0.34769055634412588 0.36745966958429022 0 0.33944519881702218 0.35670643516570921 0 0.35261027909072251 0.34833536109025781 0 0.34769055634412588 0.36745966958429022 0 0.36927583114563117 0.37168826674887129 0 0.35261027909072251 0.34833536109025781 0 0.36927583114563117 0.37168826674887129 0 0.35261027909072251 0.34833536109025781 0 0.36927583114563117 0.37168826674887129 0 0.38014707859742553 0.358601566133181 0 0.35261027909072251 0.34833536109025781 0 0.37418757138316661 0.34003979241565702 0 0.38014707859742553 0.358601566133181 0 0.37418757138316661 0.34003979241565702 0 0.36114413796306788 0.32433110896381118 0 0.38634354889032002 0.32367976249598251 0 0.35261027909072251 0.34833536109025781 0 0.37418757138316661 0.34003979241565702 0 0.36114413796306788 0.32433110896381118 0 0.36114413796306788 0.32433110896381118 0 0.38634354889032002 0.32367976249598251 0 0.36114413796306788 0.32433110896381118 0 0.36246687595182442 0.30494518477727961 0 0.38634354889032002 0.32367976249598251 0 0.36114413796306788 0.32433110896381118 0 0.33594472703581602 0.32498245543164278 0 0.36114413796306788 0.32433110896381118 0 0.33594472703581602 0.32498245543164278 0 0.34448717235649018 0.30756264321984922 0 0.35261027909072251 0.34833536109025781 0 0.36114413796306788 0.32433110896381118 0 0.33594472703581602 0.32498245543164278 0 0.35261027909072251 0.34833536109025781 0 0.33594472703581602 0.32498245543164278 0 0.35261027909072251 0.34833536109025781 0 0.33361265820108371 0.33601463685995558 0 0.33594472703581602 0.32498245543164278 0 0.35261027909072251 0.34833536109025781 0 0.33361265820108371 0.33601463685995558 0 0.33117650937159632 0.34590223044488833 0 0.33361265820108371 0.33601463685995558 0 0.33594472703581602 0.32498245543164278 0 0.32592845192929348 0.32524135296818618 0 0.33361265820108371 0.33601463685995558 0 0.32240332357799001 0.33561178436480271 0 0.33117650937159632 0.34590223044488833 0 0.33594472703581602 0.32498245543164278 0 0.32420479997372442 0.30853167071016102 0 0.33594472703581602 0.32498245543164278 0 0.32592845192929348 0.32524135296818618 0 0.32420479997372442 0.30853167071016102 0 0.33594472703581602 0.32498245543164278 0 0.32420479997372442 0.30853167071016102 0 0.34448717235649018 0.30756264321984922 0 0.33594472703581602 0.32498245543164278 0 0.32592845192929348 0.32524135296818618 0 0.32592845192929348 0.32524135296818618 0 0.31778971146991503 0.31788997842391498 0 0.32420479997372442 0.30853167071016102 0 0.32592845192929348 0.32524135296818618 0 0.31591730865868939 0.32743152395768732 0 0.31778971146991503 0.31788997842391498 0 0.31591730865868939 0.32743152395768732 0 0.31778971146991503 0.31788997842391498 0 0.30920411140212778 0.3196886032463338 0 0.32240332357799001 0.33561178436480271 0 0.31863003654071292 0.34601962911411782 0 0.33117650937159632 0.34590223044488833 0 0.33361265820108371 0.33601463685995558 0 0.32592845192929348 0.32524135296818618 0 0.32240332357799001 0.33561178436480271 0 0.32592845192929348 0.32524135296818618 0 0.31591730865868939 0.32743152395768732 0 0.32240332357799001 0.33561178436480271 0 0.31591730865868939 0.32743152395768732 0 0.32240332357799001 0.33561178436480271 0 0.31164832743931292 0.33689503642828789 0 0.32240332357799001 0.33561178436480271 0 0.31863003654071292 0.34601962911411782 0 0.31164832743931292 0.33689503642828789 0 0.31863003654071292 0.34601962911411782 0 0.30992842843050988 0.3457112388019602 0 0.31164832743931292 0.33689503642828789 0 0.31863003654071292 0.34601962911411782 0 0.30992842843050988 0.3457112388019602 0 0.31160887743439081 0.35478490180041172 0 0.32445766980723489 0.35579424438156659 0 0.31686549990355672 0.36548826773678422 0 0.31160887743439081 0.35478490180041172 0 0.31863003654071292 0.34601962911411782 0 0.32445766980723489 0.35579424438156659 0 0.31160887743439081 0.35478490180041172 0 0.31863003654071292 0.34601962911411782 0 0.32445766980723489 0.35579424438156659 0 0.33117650937159632 0.34590223044488833 0 0.35261027909072251 0.34833536109025781 0 0.33117650937159632 0.34590223044488833 0 0.33944519881702218 0.35670643516570921 0 0.32445766980723489 0.35579424438156659 0 0.33117650937159632 0.34590223044488833 0 0.33944519881702218 0.35670643516570921 0 0.33555471090824662 0.37714848622012531 0 0.34769055634412588 0.36745966958429022 0 0.3290198967761308 0.36586400202748842 0 0.34769055634412588 0.36745966958429022 0 0.33944519881702218 0.35670643516570921 0 0.3290198967761308 0.36586400202748842 0 0.32445766980723489 0.35579424438156659 0 0.33944519881702218 0.35670643516570921 0 0.3290198967761308 0.36586400202748842 0 0.32306703930603953 0.37623237809600169 0 0.33555471090824662 0.37714848622012531 0 0.3290198967761308 0.36586400202748842 0 0.32306703930603953 0.37623237809600169 0 0.3290198967761308 0.36586400202748842 0 0.31686549990355672 0.36548826773678422 0 0.32445766980723489 0.35579424438156659 0 0.3290198967761308 0.36586400202748842 0 0.31686549990355672 0.36548826773678422 0 0.31077839752677883 0.37658419253607489 0 0.32306703930603953 0.37623237809600169 0 0.31686549990355672 0.36548826773678422 0 0.31077839752677883 0.37658419253607489 0 0.30653952356419251 0.36486132392814918 0 0.30091992906300691 0.3739920833762147 0 0.31077839752677883 0.37658419253607489 0 0.31686549990355672 0.36548826773678422 0 0.30653952356419251 0.36486132392814918 0 0.31686549990355672 0.36548826773678422 0 0.30653952356419251 0.36486132392814918 0 0.31160887743439081 0.35478490180041172 0 0.30653952356419251 0.36486132392814918 0 0.29956039950038399 0.36055845947794762 0 0.29968882481084308 0.36620473963642819 0 0.30653952356419251 0.36486132392814918 0 0.29956039950038399 0.36055845947794762 0 0.30450437459886343 0.35739179545954242 0 0.29956039950038399 0.36055845947794762 0 0.29968882481084308 0.36620473963642819 0 0.2946843591870788 0.36349444767638139 0 0.29968882481084308 0.36620473963642819 0 0.30091992906300691 0.3739920833762147 0 0.29515321138997108 0.36891281366618561 0 0.30653952356419251 0.36486132392814918 0 0.29968882481084308 0.36620473963642819 0 0.30091992906300691 0.3739920833762147 0 0.2951337916801352 0.37545299726164849 0 0.30091992906300691 0.3739920833762147 0 0.29515321138997108 0.36891281366618561 0 0.30992842843050988 0.3457112388019602 0 0.31160887743439081 0.35478490180041172 0 0.30300584901730271 0.34938636887413438 0 0.30992842843050988 0.3457112388019602 0 0.30300584901730271 0.34938636887413438 0 0.30284961949963451 0.34180688944884569 0 0.31160887743439081 0.35478490180041172 0 0.30450437459886343 0.35739179545954242 0 0.30300584901730271 0.34938636887413438 0 0.30653952356419251 0.36486132392814918 0 0.31160887743439081 0.35478490180041172 0 0.30450437459886343 0.35739179545954242 0 0.30450437459886343 0.35739179545954242 0 0.29772286606791931 0.35422336501427332 0 0.30300584901730271 0.34938636887413438 0 0.29956039950038399 0.36055845947794762 0 0.30450437459886343 0.35739179545954242 0 0.29772286606791931 0.35422336501427332 0 0.29772286606791931 0.35422336501427332 0 0.30300584901730271 0.34938636887413438 0 0.29508057650716829 0.34607515835053693 0 0.30300584901730271 0.34938636887413438 0 0.29508057650716829 0.34607515835053693 0 0.30284961949963451 0.34180688944884569 0 0.29508057650716829 0.34607515835053693 0 0.29128433478161492 0.3514692197730912 0 0.28696318970460172 0.34507386829548542 0 0.29772286606791931 0.35422336501427332 0 0.29508057650716829 0.34607515835053693 0 0.29128433478161492 0.3514692197730912 0 0.29128433478161492 0.3514692197730912 0 0.29260686737414288 0.35803349489433017 0 0.28831593146678952 0.35482697607295582 0 0.29772286606791931 0.35422336501427332 0 0.29128433478161492 0.3514692197730912 0 0.29260686737414288 0.35803349489433017 0 0.29956039950038399 0.36055845947794762 0 0.29772286606791931 0.35422336501427332 0 0.29260686737414288 0.35803349489433017 0 0.29260686737414288 0.35803349489433017 0 0.28714468874269172 0.35854684035017659 0 0.29097547274489571 0.36086700820637557 0 0.29260686737414288 0.35803349489433017 0 0.28714468874269172 0.35854684035017659 0 0.28831593146678952 0.35482697607295582 0 0.28714468874269172 0.35854684035017659 0 0.28946597567566928 0.3633932499046143 0 0.27836960746308909 0.35599853724874359 0 0.28714468874269172 0.35854684035017659 0 0.28392422607346179 0.35383006020545288 0 0.27836960746308909 0.35599853724874359 0 0.28714468874269172 0.35854684035017659 0 0.28392422607346179 0.35383006020545288 0 0.28831593146678952 0.35482697607295582 0 0.28392422607346179 0.35383006020545288 0 0.28273558166129192 0.34922596943765521 0 0.28101653893848899 0.35208327708388421 0 0.28392422607346179 0.35383006020545288 0 0.28831593146678952 0.35482697607295582 0 0.2863539578433606 0.35136140079780598 0 0.29128433478161492 0.3514692197730912 0 0.28831593146678952 0.35482697607295582 0 0.2863539578433606 0.35136140079780598 0 0.29128433478161492 0.3514692197730912 0 0.2863539578433606 0.35136140079780598 0 0.28696318970460172 0.34507386829548542 0 0.2863539578433606 0.35136140079780598 0 0.28273558166129192 0.34922596943765521 0 0.28696318970460172 0.34507386829548542 0 0.28392422607346179 0.35383006020545288 0 0.2863539578433606 0.35136140079780598 0 0.28273558166129192 0.34922596943765521 0 0.28696318970460172 0.34507386829548542 0 0.28013569367420871 0.34584772387197749 0 0.28119375649751349 0.3415044430455576 0 0.28273558166129192 0.34922596943765521 0 0.28696318970460172 0.34507386829548542 0 0.28013569367420871 0.34584772387197749 0 0.29155132770994241 0.38145409056705559 0 0.29028041611347422 0.37131190521640561 0 0.27836960746308909 0.35599853724874359 0 0.28641533258273322 0.38531457319514678 0 0.29155132770994241 0.38145409056705559 0 0.2754302243437341 0.35800137086985789 0 0.29155132770994241 0.38145409056705559 0 0.2754302243437341 0.35800137086985789 0 0.27836960746308909 0.35599853724874359 0 0.29155132770994241 0.38145409056705559 0 0.27836960746308909 0.35599853724874359 0 0.29028041611347422 0.37131190521640561 0 0.29515321138997108 0.36891281366618561 0 0.28946597567566928 0.3633932499046143 0 0.2951337916801352 0.37545299726164849 0 0.29028041611347422 0.37131190521640561 0 0.29515321138997108 0.36891281366618561 0 0.29968882481084308 0.36620473963642819 0 0.29515321138997108 0.36891281366618561 0 0.2946843591870788 0.36349444767638139 0 0.29515321138997108 0.36891281366618561 0 0.2946843591870788 0.36349444767638139 0 0.28946597567566928 0.3633932499046143 0 0.29956039950038399 0.36055845947794762 0 0.29260686737414288 0.35803349489433017 0 0.2946843591870788 0.36349444767638139 0 0.28714468874269172 0.35854684035017659 0 0.29097547274489571 0.36086700820637557 0 0.28946597567566928 0.3633932499046143 0 0.2946843591870788 0.36349444767638139 0 0.29097547274489571 0.36086700820637557 0 0.28946597567566928 0.3633932499046143 0 0.29260686737414288 0.35803349489433017 0 0.2946843591870788 0.36349444767638139 0 0.29097547274489571 0.36086700820637557 0 0.29028041611347422 0.37131190521640561 0 0.28946597567566928 0.3633932499046143 0 0.27836960746308909 0.35599853724874359 0 0.28641533258273322 0.38531457319514678 0 0.2754302243437341 0.35800137086985789 0 0.27737653217987568 0.3763299637903077 0 0.28641533258273322 0.38531457319514678 0 0.2754302243437341 0.35800137086985789 0 0.27737653217987568 0.3763299637903077 0 0.27292546410526491 0.36629585246079138 0 0.2754302243437341 0.35800137086985789 0 0.27737653217987568 0.3763299637903077 0 0.26995518240551242 0.36922466410125959 0 0.27292546410526491 0.36629585246079138 0 0.26817635423288699 0.37969346344739391 0 0.26995518240551242 0.36922466410125959 0 0.26082178769032438 0.36496323128775521 0 0.26995518240551242 0.36922466410125959 0 0.26893991749193752 0.36162741108174062 0 0.26082178769032438 0.36496323128775521 0 0.26893991749193752 0.36162741108174062 0 0.27292546410526491 0.36629585246079138 0 0.2754302243437341 0.35800137086985789 0 0.26995518240551242 0.36922466410125959 0 0.26893991749193752 0.36162741108174062 0 0.27292546410526491 0.36629585246079138 0 0.2754302243437341 0.35800137086985789 0 0.26518788721623437 0.33054298393043219 0 0.2754302243437341 0.35800137086985789 0 0.27836960746308909 0.35599853724874359 0 0.26518788721623437 0.33054298393043219 0 0.2754302243437341 0.35800137086985789 0 0.26469999689944002 0.35285812485780471 0 0.26518788721623437 0.33054298393043219 0 0.27836960746308909 0.35599853724874359 0 0.28101653893848899 0.35208327708388421 0 0.2797945401242129 0.34946851842389731 0 0.28392422607346179 0.35383006020545288 0 0.27836960746308909 0.35599853724874359 0 0.28101653893848899 0.35208327708388421 0 0.27836960746308909 0.35599853724874359 0 0.2797945401242129 0.34946851842389731 0 0.27671527888398562 0.3441870844772259 0 0.28013569367420871 0.34584772387197749 0 0.2797945401242129 0.34946851842389731 0 0.27671527888398562 0.3441870844772259 0 0.28013569367420871 0.34584772387197749 0 0.27671527888398562 0.3441870844772259 0 0.28119375649751349 0.3415044430455576 0 0.28273558166129192 0.34922596943765521 0 0.28013569367420871 0.34584772387197749 0 0.2797945401242129 0.34946851842389731 0 0.28273558166129192 0.34922596943765521 0 0.28101653893848899 0.35208327708388421 0 0.2797945401242129 0.34946851842389731 0 0.26893991749193752 0.36162741108174062 0 0.2754302243437341 0.35800137086985789 0 0.26469999689944002 0.35285812485780471 0 0.26469999689944002 0.35285812485780471 0 0.25397109136889212 0.34953950795812871 0 0.26518788721623437 0.33054298393043219 0 0.26469999689944002 0.35285812485780471 0 0.25397109136889212 0.34953950795812871 0 0.26082178769032438 0.36496323128775521 0 0.24217950803475169 0.36279199964721098 0 0.25397109136889212 0.34953950795812871 0 0.26082178769032438 0.36496323128775521 0 0.24217950803475169 0.36279199964721098 0 0.24890193261595259 0.38922972948408457 0 0.26082178769032438 0.36496323128775521 0 0.26893991749193752 0.36162741108174062 0 0.26469999689944002 0.35285812485780471 0 0.26082178769032438 0.36496323128775521 0 0.26160037477145948 0.32361504792451118 0 0.26961523156275707 0.31863310602586059 0 0.25252005129033422 0.30103787280496203 0 0.24833100513142109 0.32161764704062729 0 0.26160037477145948 0.32361504792451118 0 0.26518788721623437 0.33054298393043219 0 0.24963775202771521 0.30051372462394288 0 0.24833100513142109 0.32161764704062729 0 0.26160037477145948 0.32361504792451118 0 0.26160037477145948 0.32361504792451118 0 0.26518788721623437 0.33054298393043219 0 0.26731122343739822 0.32545953491366858 0 0.26160037477145948 0.32361504792451118 0 0.26518788721623437 0.33054298393043219 0 0.2354570834535519 0.33635426981033711 0 0.26518788721623437 0.33054298393043219 0 0.2354570834535519 0.33635426981033711 0 0.25397109136889212 0.34953950795812871 0 0.26518788721623437 0.33054298393043219 0 0.27836960746308909 0.35599853724874359 0 0.27671527888398562 0.3441870844772259 0 0.26518788721623437 0.33054298393043219 0 0.26518788721623437 0.33054298393043219 0 0.2728414001991406 0.32904700177387047 0 0.26518788721623437 0.33054298393043219 0 0.2728414001991406 0.32904700177387047 0 0.26731122343739822 0.32545953491366858 0 0.27836960746308909 0.35599853724874359 0 0.26518788721623437 0.33054298393043219 0 0.26518788721623437 0.33054298393043219 0 0.2728414001991406 0.32904700177387047 0 0.27786043041236869 0.33471626715991409 0 0.27671527888398562 0.3441870844772259 0 0.26518788721623437 0.33054298393043219 0 0.27786043041236869 0.33471626715991409 0 0.27671527888398562 0.3441870844772259 0 0.28119375649751349 0.3415044430455576 0 0.27786043041236869 0.33471626715991409 0 0.2728414001991406 0.32904700177387047 0 0.27786043041236869 0.33471626715991409 0 0.27936204924768121 0.32498307102898349 0 0.27786043041236869 0.33471626715991409 0 0.27936204924768121 0.32498307102898349 0 0.28525590824973168 0.33019860290154568 0 0.2728414001991406 0.32904700177387047 0 0.27936204924768121 0.32498307102898349 0 0.26961523156275707 0.31863310602586059 0 0.2728414001991406 0.32904700177387047 0 0.26731122343739822 0.32545953491366858 0 0.26961523156275707 0.31863310602586059 0 0.26160037477145948 0.32361504792451118 0 0.26731122343739822 0.32545953491366858 0 0.26961523156275707 0.31863310602586059 0 0.27936204924768121 0.32498307102898349 0 0.26961523156275707 0.31863310602586059 0 0.28133089707177739 0.31565660162935461 0 0.26961523156275707 0.31863310602586059 0 0.28133089707177739 0.31565660162935461 0 0.27162220014601168 0.30819847959926649 0 0.28133089707177739 0.31565660162935461 0 0.28926842799031183 0.32164684668335553 0 0.29289622389348391 0.31173450207074938 0 0.27936204924768121 0.32498307102898349 0 0.28926842799031183 0.32164684668335553 0 0.28525590824973168 0.33019860290154568 0 0.27936204924768121 0.32498307102898349 0 0.28133089707177739 0.31565660162935461 0 0.28926842799031183 0.32164684668335553 0 0.28926842799031183 0.32164684668335553 0 0.29270679870612148 0.33133919612790758 0 0.29864702146159328 0.32643954785611667 0 0.28926842799031183 0.32164684668335553 0 0.28525590824973168 0.33019860290154568 0 0.29270679870612148 0.33133919612790758 0 0.28926842799031183 0.32164684668335553 0 0.30057412006284873 0.3182848580649148 0 0.29864702146159328 0.32643954785611667 0 0.28926842799031183 0.32164684668335553 0 0.30057412006284873 0.3182848580649148 0 0.29289622389348391 0.31173450207074938 0 0.28696318970460172 0.34507386829548542 0 0.28119375649751349 0.3415044430455576 0 0.28563489893157912 0.33697664508827291 0 0.28696318970460172 0.34507386829548542 0 0.28563489893157912 0.33697664508827291 0 0.29440715639490739 0.33866623850310912 0 0.28119375649751349 0.3415044430455576 0 0.27786043041236869 0.33471626715991409 0 0.28563489893157912 0.33697664508827291 0 0.28563489893157912 0.33697664508827291 0 0.28525590824973168 0.33019860290154568 0 0.29270679870612148 0.33133919612790758 0 0.27786043041236869 0.33471626715991409 0 0.28563489893157912 0.33697664508827291 0 0.28525590824973168 0.33019860290154568 0 0.29270679870612148 0.33133919612790758 0 0.29440715639490739 0.33866623850310912 0 0.30302737920860612 0.33410729573504611 0 0.28563489893157912 0.33697664508827291 0 0.29270679870612148 0.33133919612790758 0 0.29440715639490739 0.33866623850310912 0 0.29508057650716829 0.34607515835053693 0 0.28696318970460172 0.34507386829548542 0 0.29440715639490739 0.33866623850310912 0 0.29508057650716829 0.34607515835053693 0 0.29440715639490739 0.33866623850310912 0 0.30284961949963451 0.34180688944884569 0 0.29440715639490739 0.33866623850310912 0 0.30284961949963451 0.34180688944884569 0 0.30302737920860612 0.33410729573504611 0 0.29270679870612148 0.33133919612790758 0 0.30302737920860612 0.33410729573504611 0 0.29864702146159328 0.32643954785611667 0 0.30302737920860612 0.33410729573504611 0 0.29864702146159328 0.32643954785611667 0 0.30648676239126638 0.32698903389663531 0 0.30302737920860612 0.33410729573504611 0 0.31164832743931292 0.33689503642828789 0 0.30648676239126638 0.32698903389663531 0 0.31591730865868939 0.32743152395768732 0 0.31164832743931292 0.33689503642828789 0 0.30648676239126638 0.32698903389663531 0 0.30284961949963451 0.34180688944884569 0 0.30302737920860612 0.33410729573504611 0 0.31164832743931292 0.33689503642828789 0 0.30992842843050988 0.3457112388019602 0 0.30284961949963451 0.34180688944884569 0 0.31164832743931292 0.33689503642828789 0 0.30057412006284873 0.3182848580649148 0 0.3075048900192453 0.30846754722968978 0 0.29289622389348391 0.31173450207074938 0 0.30057412006284873 0.3182848580649148 0 0.29864702146159328 0.32643954785611667 0 0.30648676239126638 0.32698903389663531 0 0.30057412006284873 0.3182848580649148 0 0.30648676239126638 0.32698903389663531 0 0.30920411140212778 0.3196886032463338 0 0.31591730865868939 0.32743152395768732 0 0.30648676239126638 0.32698903389663531 0 0.30920411140212778 0.3196886032463338 0 0.30057412006284873 0.3182848580649148 0 0.30920411140212778 0.3196886032463338 0 0.3075048900192453 0.30846754722968978 0 0.31778971146991503 0.31788997842391498 0 0.30920411140212778 0.3196886032463338 0 0.3075048900192453 0.30846754722968978 0 0.3075048900192453 0.30846754722968978 0 0.29694347339530303 0.29848366127231912 0 0.31246487291163488 0.29208088598867771 0 0.3075048900192453 0.30846754722968978 0 0.29694347339530303 0.29848366127231912 0 0.29289622389348391 0.31173450207074938 0 0.31246487291163488 0.29208088598867771 0 0.29888580149873889 0.28140566667868477 0 0.31966717048778492 0.28020807462702291 0 0.29694347339530303 0.29848366127231912 0 0.31246487291163488 0.29208088598867771 0 0.29888580149873889 0.28140566667868477 0 0.29694347339530303 0.29848366127231912 0 0.29888580149873889 0.28140566667868477 0 0.28532215262680061 0.29218967158653381 0 0.29888580149873889 0.28140566667868477 0 0.28532215262680061 0.29218967158653381 0 0.27597263544757811 0.27926985653850322 0 0.29694347339530303 0.29848366127231912 0 0.29289622389348391 0.31173450207074938 0 0.28421062956037713 0.3046253325656294 0 0.29694347339530303 0.29848366127231912 0 0.28532215262680061 0.29218967158653381 0 0.28421062956037713 0.3046253325656294 0 0.28133089707177739 0.31565660162935461 0 0.29289622389348391 0.31173450207074938 0 0.28421062956037713 0.3046253325656294 0 0.28133089707177739 0.31565660162935461 0 0.28421062956037713 0.3046253325656294 0 0.27162220014601168 0.30819847959926649 0 0.28421062956037713 0.3046253325656294 0 0.27162220014601168 0.30819847959926649 0 0.27073357959762612 0.29469717476731772 0 0.28532215262680061 0.29218967158653381 0 0.28421062956037713 0.3046253325656294 0 0.27073357959762612 0.29469717476731772 0 0.27073357959762612 0.29469717476731772 0 0.25964825064670849 0.2811944406245902 0 0.27597263544757811 0.27926985653850322 0 0.28532215262680061 0.29218967158653381 0 0.27073357959762612 0.29469717476731772 0 0.27597263544757811 0.27926985653850322 0 0.2434397278092077 0.27846069768541332 0 0.25252005129033422 0.30103787280496203 0 0.25964825064670849 0.2811944406245902 0 0.27073357959762612 0.29469717476731772 0 0.25252005129033422 0.30103787280496203 0 0.25964825064670849 0.2811944406245902 0 0.24963775202771521 0.30051372462394288 0 0.26160037477145948 0.32361504792451118 0 0.26160037477145948 0.32361504792451118 0 0.25252005129033422 0.30103787280496203 0 0.24963775202771521 0.30051372462394288 0 0.26160037477145948 0.32361504792451118 0 0.25252005129033422 0.30103787280496203 0 0.27162220014601168 0.30819847959926649 0 0.27073357959762612 0.29469717476731772 0 0.25252005129033422 0.30103787280496203 0 0.26961523156275707 0.31863310602586059 0 0.27162220014601168 0.30819847959926649 0 0.25252005129033422 0.30103787280496203 0 0.26005695654466249 0.26476207857526007 0 0.25877170878786238 0.25302463852503437 0 0.26784118605052742 0.25766384122118591 0 0.26005695654466249 0.26476207857526007 0 0.26877199542094288 0.271185286046489 0 0.26784118605052742 0.25766384122118591 0 0.24763005152173001 0.25910176257370959 0 0.26005695654466249 0.26476207857526007 0 0.25877170878786238 0.25302463852503437 0 0.26005695654466249 0.26476207857526007 0 0.25964825064670849 0.2811944406245902 0 0.26877199542094288 0.271185286046489 0 0.2434397278092077 0.27846069768541332 0 0.26005695654466249 0.26476207857526007 0 0.25964825064670849 0.2811944406245902 0 0.2434397278092077 0.27846069768541332 0 0.24763005152173001 0.25910176257370959 0 0.26005695654466249 0.26476207857526007 0 0.25964825064670849 0.2811944406245902 0 0.26877199542094288 0.271185286046489 0 0.27597263544757811 0.27926985653850322 0 0.26877199542094288 0.271185286046489 0 0.27597263544757811 0.27926985653850322 0 0.27647749418933931 0.26389562134405542 0 0.27597263544757811 0.27926985653850322 0 0.27647749418933931 0.26389562134405542 0 0.28921799240021828 0.26815650339571012 0 0.27647749418933931 0.26389562134405542 0 0.27542464597538868 0.25681776053554017 0 0.28272693040926428 0.25881526167589219 0 0.27647749418933931 0.26389562134405542 0 0.26784118605052742 0.25766384122118591 0 0.27542464597538868 0.25681776053554017 0 0.26877199542094288 0.271185286046489 0 0.27647749418933931 0.26389562134405542 0 0.26784118605052742 0.25766384122118591 0 0.26784118605052742 0.25766384122118591 0 0.27542464597538868 0.25681776053554017 0 0.27283394916361492 0.24742619336605559 0 0.25877170878786238 0.25302463852503437 0 0.26784118605052742 0.25766384122118591 0 0.27283394916361492 0.24742619336605559 0 0.27542464597538868 0.25681776053554017 0 0.28272693040926428 0.25881526167589219 0 0.27283394916361492 0.24742619336605559 0 0.28272693040926428 0.25881526167589219 0 0.29968057031776052 0.25778022973809978 0 0.27283394916361492 0.24742619336605559 0 0.28272693040926428 0.25881526167589219 0 0.28921799240021828 0.26815650339571012 0 0.29968057031776052 0.25778022973809978 0 0.29968057031776052 0.25778022973809978 0 0.27283394916361492 0.24742619336605559 0 0.29968057031776052 0.25778022973809978 0 0.27283394916361492 0.24742619336605559 0 0.3016365876598241 0.24719201463661561 0 0.27647749418933931 0.26389562134405542 0 0.28272693040926428 0.25881526167589219 0 0.28921799240021828 0.26815650339571012 0 0.28921799240021828 0.26815650339571012 0 0.29917140266547992 0.2696271248040239 0 0.29968057031776052 0.25778022973809978 0 0.29888580149873889 0.28140566667868477 0 0.27597263544757811 0.27926985653850322 0 0.28921799240021828 0.26815650339571012 0 0.29888580149873889 0.28140566667868477 0 0.28921799240021828 0.26815650339571012 0 0.29917140266547992 0.2696271248040239 0 0.30890124644520212 0.27116609940360098 0 0.29968057031776052 0.25778022973809978 0 0.32652719147190618 0.26813426611014402 0 0.29888580149873889 0.28140566667868477 0 0.30890124644520212 0.27116609940360098 0 0.31966717048778492 0.28020807462702291 0 0.29888580149873889 0.28140566667868477 0 0.29917140266547992 0.2696271248040239 0 0.30890124644520212 0.27116609940360098 0 0.29917140266547992 0.2696271248040239 0 0.30890124644520212 0.27116609940360098 0 0.29968057031776052 0.25778022973809978 0 0.29968057031776052 0.25778022973809978 0 0.31432639173362298 0.2563396134856944 0 0.3016365876598241 0.24719201463661561 0 0.29968057031776052 0.25778022973809978 0 0.32652719147190618 0.26813426611014402 0 0.29968057031776052 0.25778022973809978 0 0.31432639173362298 0.2563396134856944 0 0.32652719147190618 0.26813426611014402 0 0.31432639173362298 0.2563396134856944 0 0.32946121748500129 0.25225194345791829 0 0.3016365876598241 0.24719201463661561 0 0.31432639173362298 0.2563396134856944 0 0.32946121748500129 0.25225194345791829 0 0.32652719147190618 0.26813426611014402 0 0.32946121748500129 0.25225194345791829 0 0.35728584731017871 0.25731187227922109 0 0.32946121748500129 0.25225194345791829 0 0.33854302537622011 0.27351786473126699 0 0.35728584731017871 0.25731187227922109 0 0.32946121748500129 0.25225194345791829 0 0.33854302537622011 0.27351786473126699 0 0.32652719147190618 0.26813426611014402 0 0.33854302537622011 0.27351786473126699 0 0.32652719147190618 0.26813426611014402 0 0.31966717048778492 0.28020807462702291 0 0.30890124644520212 0.27116609940360098 0 0.32652719147190618 0.26813426611014402 0 0.31966717048778492 0.28020807462702291 0 0.31246487291163488 0.29208088598867771 0 0.31966717048778492 0.28020807462702291 0 0.33172871425663403 0.29269405324557379 0 0.31778971146991503 0.31788997842391498 0 0.3075048900192453 0.30846754722968978 0 0.32420479997372442 0.30853167071016102 0 0.31246487291163488 0.29208088598867771 0 0.32420479997372442 0.30853167071016102 0 0.31246487291163488 0.29208088598867771 0 0.32420479997372442 0.30853167071016102 0 0.33172871425663403 0.29269405324557379 0 0.3075048900192453 0.30846754722968978 0 0.31246487291163488 0.29208088598867771 0 0.32420479997372442 0.30853167071016102 0 0.32420479997372442 0.30853167071016102 0 0.33172871425663403 0.29269405324557379 0 0.34448717235649018 0.30756264321984922 0 0.33854302537622011 0.27351786473126699 0 0.31966717048778492 0.28020807462702291 0 0.33172871425663403 0.29269405324557379 0 0.33172871425663403 0.29269405324557379 0 0.3503635169770366 0.28966006865463678 0 0.34448717235649018 0.30756264321984922 0 0.33854302537622011 0.27351786473126699 0 0.33172871425663403 0.29269405324557379 0 0.3503635169770366 0.28966006865463678 0 0.3503635169770366 0.28966006865463678 0 0.34448717235649018 0.30756264321984922 0 0.36246687595182442 0.30494518477727961 0 0.36114413796306788 0.32433110896381118 0 0.34448717235649018 0.30756264321984922 0 0.36246687595182442 0.30494518477727961 0 0.36246687595182442 0.30494518477727961 0 0.37008896088821891 0.27907488192658342 0 0.38127772340545701 0.29855436992749679 0 0.3503635169770366 0.28966006865463678 0 0.36246687595182442 0.30494518477727961 0 0.37008896088821891 0.27907488192658342 0 0.37008896088821891 0.27907488192658342 0 0.35728584731017871 0.25731187227922109 0 0.35441181453934328 0.27463334472066592 0 0.37008896088821891 0.27907488192658342 0 0.35728584731017871 0.25731187227922109 0 0.38511047713535562 0.2623718011005241 0 0.35728584731017871 0.25731187227922109 0 0.38511047713535562 0.2623718011005241 0 0.37293454716760283 0.2396311516560117 0 0.35728584731017871 0.25731187227922109 0 0.38511047713535562 0.2623718011005241 0 0.33854302537622011 0.27351786473126699 0 0.3503635169770366 0.28966006865463678 0 0.35441181453934328 0.27463334472066592 0 0.33854302537622011 0.27351786473126699 0 0.35728584731017871 0.25731187227922109 0 0.35441181453934328 0.27463334472066592 0 0.3503635169770366 0.28966006865463678 0 0.37008896088821891 0.27907488192658342 0 0.35441181453934328 0.27463334472066592 0 0.4059739891301799 0.26616584566893298 0 0.38511047713535562 0.2623718011005241 0 0.39575362435311728 0.2822497143692822 0 0.4059739891301799 0.26616584566893298 0 0.39575362435311728 0.2822497143692822 0 0.41466985898722469 0.28617745239982811 0 0.4059739891301799 0.26616584566893298 0 0.38511047713535562 0.2623718011005241 0 0.39933451681408499 0.24222051247515669 0 0.4059739891301799 0.26616584566893298 0 0.38511047713535562 0.2623718011005241 0 0.38511047713535562 0.2623718011005241 0 0.37293454716760283 0.2396311516560117 0 0.37008896088821891 0.27907488192658342 0 0.38511047713535562 0.2623718011005241 0 0.39575362435311728 0.2822497143692822 0 0.38511047713535562 0.2623718011005241 0 0.39575362435311728 0.2822497143692822 0 0.37008896088821891 0.27907488192658342 0 0.38127772340545701 0.29855436992749679 0 0.39575362435311728 0.2822497143692822 0 0.38127772340545701 0.29855436992749679 0 0.39341545683502421 0.31015448597301559 0 0.38634354889032002 0.32367976249598251 0 0.38127772340545701 0.29855436992749679 0 0.38634354889032002 0.32367976249598251 0 0.36246687595182442 0.30494518477727961 0 0.38127772340545701 0.29855436992749679 0 0.38634354889032002 0.32367976249598251 0 0.38127772340545701 0.29855436992749679 0 0.39341545683502421 0.31015448597301559 0 0.40639677157087911 0.30212762763804019 0 0.39341545683502421 0.31015448597301559 0 0.40639677157087911 0.30212762763804019 0 0.4081981699382346 0.3139513768470385 0 0.39575362435311728 0.2822497143692822 0 0.40639677157087911 0.30212762763804019 0 0.38127772340545701 0.29855436992749679 0 0.39575362435311728 0.2822497143692822 0 0.40639677157087911 0.30212762763804019 0 0.39575362435311728 0.2822497143692822 0 0.41466985898722469 0.28617745239982811 0 0.40639677157087911 0.30212762763804019 0 0.41466985898722469 0.28617745239982811 0 0.40639677157087911 0.30212762763804019 0 0.42063747895650733 0.30228076741981708 0 0.40639677157087911 0.30212762763804019 0 0.417039918788641 0.32200554090679828 0 0.40639677157087911 0.30212762763804019 0 0.42063747895650733 0.30228076741981708 0 0.41590325438833858 0.31571238371771643 0 0.42063747895650733 0.30228076741981708 0 0.43554340190627211 0.31006971119553528 0 0.43241978878766019 0.29428086906555412 0 0.42063747895650733 0.30228076741981708 0 0.43554340190627211 0.31006971119553528 0 0.41590325438833858 0.31571238371771643 0 0.43241978878766019 0.29428086906555412 0 0.42683750112500368 0.26995989023734401 0 0.43795337608323548 0.28151673092589807 0 0.41466985898722469 0.28617745239982811 0 0.43241978878766019 0.29428086906555412 0 0.42683750112500368 0.26995989023734401 0 0.43241978878766019 0.29428086906555412 0 0.42683750112500368 0.26995989023734401 0 0.41466985898722469 0.28617745239982811 0 0.42063747895650733 0.30228076741981708 0 0.43241978878766019 0.29428086906555412 0 0.4059739891301799 0.26616584566893298 0 0.42683750112500368 0.26995989023734401 0 0.4059739891301799 0.26616584566893298 0 0.41466985898722469 0.28617745239982811 0 0.42683750112500368 0.26995989023734401 0 0.4059739891301799 0.26616584566893298 0 0.42683750112500368 0.26995989023734401 0 0.42092918023873821 0.24421844589255121 0 0.4059739891301799 0.26616584566893298 0 0.39933451681408499 0.24222051247515669 0 0.42092918023873821 0.24421844589255121 0 0.42683750112500368 0.26995989023734401 0 0.44089414042045799 0.25771217685885472 0 0.42092918023873821 0.24421844589255121 0 0.42683750112500368 0.26995989023734401 0 0.42092918023873821 0.24421844589255121 0 0.44089414042045799 0.25771217685885472 0 0.45301423403414209 0.26007999789895508 0 0.4569230610569987 0.24819013429900669 0 0.44089414042045799 0.25771217685885472 0 0.45301423403414209 0.26007999789895508 0 0.44973892600361531 0.27412453072026172 0 0.42683750112500368 0.26995989023734401 0 0.44089414042045799 0.25771217685885472 0 0.44973892600361531 0.27412453072026172 0 0.42683750112500368 0.26995989023734401 0 0.44973892600361531 0.27412453072026172 0 0.43795337608323548 0.28151673092589807 0 0.42683750112500368 0.26995989023734401 0 0.44973892600361531 0.27412453072026172 0 0.44973892600361531 0.27412453072026172 0 0.46478170596961249 0.26323965275109401 0 0.47264035088222628 0.27828917120318131 0 0.44973892600361531 0.27412453072026172 0 0.47264035088222628 0.27828917120318131 0 0.44973892600361531 0.27412453072026172 0 0.47264035088222628 0.27828917120318131 0 0.46226850420995219 0.28814127863090738 0 0.45301423403414209 0.26007999789895508 0 0.44973892600361531 0.27412453072026172 0 0.46478170596961249 0.26323965275109401 0 0.46478170596961249 0.26323965275109401 0 0.47264035088222628 0.27828917120318131 0 0.46478170596961249 0.26323965275109401 0 0.4569230610569987 0.24819013429900669 0 0.45301423403414209 0.26007999789895508 0 0.46478170596961249 0.26323965275109401 0 0.4569230610569987 0.24819013429900669 0 0.46478170596961249 0.26323965275109401 0 0.46750550623703407 0.25349570762290419 0 0.47341939214644252 0.26170481890296848 0 0.46478170596961249 0.26323965275109401 0 0.46750550623703407 0.25349570762290419 0 0.4569230610569987 0.24819013429900669 0 0.47341939214644252 0.26170481890296848 0 0.48489893488970792 0.25686202981026901 0 0.47278153852907701 0.24486280325581439 0 0.46750550623703407 0.25349570762290419 0 0.47341939214644252 0.26170481890296848 0 0.47278153852907701 0.24486280325581439 0 0.47341939214644252 0.26170481890296848 0 0.47278153852907701 0.24486280325581439 0 0.47341939214644252 0.26170481890296848 0 0.48000757765913032 0.26759533659828072 0 0.48489893488970792 0.25686202981026901 0 0.47341939214644252 0.26170481890296848 0 0.47405724576380859 0.27854683455012252 0 0.48000757765913032 0.26759533659828072 0 0.47341939214644252 0.26170481890296848 0 0.47264035088222628 0.27828917120318131 0 0.47405724576380859 0.27854683455012252 0 0.46478170596961249 0.26323965275109401 0 0.47341939214644252 0.26170481890296848 0 0.47264035088222628 0.27828917120318131 0 0.47405724576380859 0.27854683455012252 0 0.47415752390174082 0.28119459874267072 0 0.50000000000001354 0.28326454295050368 0 0.47341939214644252 0.26170481890296848 0 0.47405724576380859 0.27854683455012252 0 0.47264035088222628 0.27828917120318131 0 0.47405724576380859 0.27854683455012252 0 0.47405724576380859 0.27854683455012252 0 0.47415752390174082 0.28119459874267072 0 0.47264035088222628 0.27828917120318131 0 0.47405724576380859 0.27854683455012252 0 0.47415752390174082 0.28119459874267072 0 0.47264035088222628 0.27828917120318131 0 0.47415752390174082 0.28119459874267072 0 0.47405724576380859 0.27854683455012252 0 0.48000757765913032 0.26759533659828072 0 0.48909471086131839 0.26954423778064313 0 0.47405724576380859 0.27854683455012252 0 0.50000000000001354 0.28326454295050368 0 0.47405724576380859 0.27854683455012252 0 0.48909471086131839 0.26954423778064313 0 0.50000000000001354 0.28326454295050368 0 0.48909471086131839 0.26954423778064313 0 0.5 0.25553121794514477 0 0.50000000000001354 0.28326454295050368 0 0.5 0.25553121794514477 0 0.48489893488970792 0.25686202981026901 0 0.48903365503734891 0.24299047468837701 0 0.48909471086131839 0.26954423778064313 0 0.5 0.25553121794514477 0 0.48489893488970792 0.25686202981026901 0 0.48000757765913032 0.26759533659828072 0 0.48909471086131839 0.26954423778064313 0 0.48489893488970792 0.25686202981026901 0 0.48223131843763373 0.29665613456690521 0 0.49274985611107969 0.31679941989990179 0 0.48223131843763373 0.29665613456690521 0 0.49274985611107969 0.31679941989990179 0 0.48532411314893581 0.31403081790115361 0 0.49298554246438231 0.30475618362627349 0 0.48223131843763373 0.29665613456690521 0 0.49274985611107969 0.31679941989990179 0 0.49298554246438231 0.30475618362627349 0 0.4969609953088156 0.2924242547978898 0 0.5 0.31314492524039728 0 0.49298554246438231 0.30475618362627349 0 0.4969609953088156 0.2924242547978898 0 0.48223131843763373 0.29665613456690521 0 0.49298554246438231 0.30475618362627349 0 0.49274985611107969 0.31679941989990179 0 0.5 0.31314492524039728 0 0.4969609953088156 0.2924242547978898 0 0.50000000000001354 0.28326454295050368 0 0.5 0.31314492524039728 0 0.47415752390174082 0.28119459874267072 0 0.4969609953088156 0.2924242547978898 0 0.50000000000001354 0.28326454295050368 0 0.47415752390174082 0.28119459874267072 0 0.4969609953088156 0.2924242547978898 0 0.48223131843763373 0.29665613456690521 0 0.4969609953088156 0.2924242547978898 0 0.48223131843763373 0.29665613456690521 0 0.47415752390174082 0.28119459874267072 0 0.47482369694213911 0.29878436615117387 0 0.47415752390174082 0.28119459874267072 0 0.47482369694213911 0.29878436615117387 0 0.46226850420995219 0.28814127863090738 0 0.47415752390174082 0.28119459874267072 0 0.48223131843763373 0.29665613456690521 0 0.47482369694213911 0.29878436615117387 0 0.47415752390174082 0.28119459874267072 0 0.48223131843763373 0.29665613456690521 0 0.47264035088222628 0.27828917120318131 0 0.47415752390174082 0.28119459874267072 0 0.46226850420995219 0.28814127863090738 0 0.48223131843763373 0.29665613456690521 0 0.48022688714188239 0.30485617861310249 0 0.48532411314893581 0.31403081790115361 0 0.47482369694213911 0.29878436615117387 0 0.4785284200388214 0.30995339583317788 0 0.47567910166728178 0.32137064515506791 0 0.47482369694213911 0.29878436615117387 0 0.46683928615616721 0.31034493157342358 0 0.47567910166728178 0.32137064515506791 0 0.47482369694213911 0.29878436615117387 0 0.47567910166728178 0.32137064515506791 0 0.47482369694213911 0.29878436615117387 0 0.48022688714188239 0.30485617861310249 0 0.4785284200388214 0.30995339583317788 0 0.48223131843763373 0.29665613456690521 0 0.47482369694213911 0.29878436615117387 0 0.48022688714188239 0.30485617861310249 0 0.48223131843763373 0.29665613456690521 0 0.47482369694213911 0.29878436615117387 0 0.48022688714188239 0.30485617861310249 0 0.4785284200388214 0.30995339583317788 0 0.48532411314893581 0.31403081790115361 0 0.47482369694213911 0.29878436615117387 0 0.46683928615616721 0.31034493157342358 0 0.45518354942420552 0.3044270386733543 0 0.47482369694213911 0.29878436615117387 0 0.45518354942420552 0.3044270386733543 0 0.46683928615616721 0.31034493157342358 0 0.45518354942420552 0.3044270386733543 0 0.46090063033065398 0.31457074158430443 0 0.47482369694213911 0.29878436615117387 0 0.45518354942420552 0.3044270386733543 0 0.46226850420995219 0.28814127863090738 0 0.45518354942420552 0.3044270386733543 0 0.46226850420995219 0.28814127863090738 0 0.44650245416143669 0.29205179777212908 0 0.44973892600361531 0.27412453072026172 0 0.46226850420995219 0.28814127863090738 0 0.44650245416143669 0.29205179777212908 0 0.44973892600361531 0.27412453072026172 0 0.44650245416143669 0.29205179777212908 0 0.43795337608323548 0.28151673092589807 0 0.43241978878766019 0.29428086906555412 0 0.44650245416143669 0.29205179777212908 0 0.43795337608323548 0.28151673092589807 0 0.43554340190627211 0.31006971119553528 0 0.45518354942420552 0.3044270386733543 0 0.44650245416143669 0.29205179777212908 0 0.43554340190627211 0.31006971119553528 0 0.43241978878766019 0.29428086906555412 0 0.44650245416143669 0.29205179777212908 0 0.43554340190627211 0.31006971119553528 0 0.45518354942420552 0.3044270386733543 0 0.44590058407496119 0.32214035093537202 0 0.43554340190627211 0.31006971119553528 0 0.45518354942420552 0.3044270386733543 0 0.44438162939182968 0.33527616080122319 0 0.43941431748234389 0.34697694962204328 0 0.43138153093963261 0.33684778794266318 0 0.44438162939182968 0.33527616080122319 0 0.43138153093963261 0.33684778794266318 0 0.43736796180383269 0.33070162376080392 0 0.44590058407496119 0.32214035093537202 0 0.44438162939182968 0.33527616080122319 0 0.43736796180383269 0.33070162376080392 0 0.44590058407496119 0.32214035093537202 0 0.44438162939182968 0.33527616080122319 0 0.45938090137280319 0.33331169935871768 0 0.44438162939182968 0.33527616080122319 0 0.45466128638888681 0.34537342559846479 0 0.43941431748234389 0.34697694962204328 0 0.44438162939182968 0.33527616080122319 0 0.45938090137280319 0.33331169935871768 0 0.45466128638888681 0.34537342559846479 0 0.45938090137280319 0.33331169935871768 0 0.47648750655815691 0.34271593104932652 0 0.45466128638888681 0.34537342559846479 0 0.45518354942420552 0.3044270386733543 0 0.44590058407496119 0.32214035093537202 0 0.46090063033065398 0.31457074158430443 0 0.44590058407496119 0.32214035093537202 0 0.47567910166728178 0.32137064515506791 0 0.44590058407496119 0.32214035093537202 0 0.45938090137280319 0.33331169935871768 0 0.47567910166728178 0.32137064515506791 0 0.44590058407496119 0.32214035093537202 0 0.46090063033065398 0.31457074158430443 0 0.47567910166728178 0.32137064515506791 0 0.46683928615616721 0.31034493157342358 0 0.46090063033065398 0.31457074158430443 0 0.47567910166728178 0.32137064515506791 0 0.4785284200388214 0.30995339583317788 0 0.48037384835626529 0.31664076505113292 0 0.47567910166728178 0.32137064515506791 0 0.48037384835626529 0.31664076505113292 0 0.48196375857002199 0.32120820131513239 0 0.47567910166728178 0.32137064515506791 0 0.48037384835626529 0.31664076505113292 0 0.48196375857002199 0.32120820131513239 0 0.48532411314893581 0.31403081790115361 0 0.4785284200388214 0.30995339583317788 0 0.48037384835626529 0.31664076505113292 0 0.48532411314893581 0.31403081790115361 0 0.48196375857002199 0.32120820131513239 0 0.48271443300740718 0.32966898805558448 0 0.48700966075600671 0.32276244140519528 0 0.48196375857002199 0.32120820131513239 0 0.47567910166728178 0.32137064515506791 0 0.48271443300740718 0.32966898805558448 0 0.48196375857002199 0.32120820131513239 0 0.47567910166728178 0.32137064515506791 0 0.47567910166728178 0.32137064515506791 0 0.47648750655815691 0.34271593104932652 0 0.47567910166728178 0.32137064515506791 0 0.47648750655815691 0.34271593104932652 0 0.48271443300740718 0.32966898805558448 0 0.45938090137280319 0.33331169935871768 0 0.47567910166728178 0.32137064515506791 0 0.47648750655815691 0.34271593104932652 0 0.47648750655815691 0.34271593104932652 0 0.48271443300740718 0.32966898805558448 0 0.49227852706914571 0.3310448133387906 0 0.47648750655815691 0.34271593104932652 0 0.5 0.34302530753029081 0 0.49227852706914571 0.3310448133387906 0 0.5 0.34302530753029081 0 0.49227852706914571 0.3310448133387906 0 0.5 0.31314492524039728 0 0.49227852706914571 0.3310448133387906 0 0.49274985611107969 0.31679941989990179 0 0.5 0.31314492524039728 0 0.48196375857002199 0.32120820131513239 0 0.48532411314893581 0.31403081790115361 0 0.48700966075600671 0.32276244140519528 0 0.49274985611107969 0.31679941989990179 0 0.48532411314893581 0.31403081790115361 0 0.48700966075600671 0.32276244140519528 0 0.48271443300740718 0.32966898805558448 0 0.49227852706914571 0.3310448133387906 0 0.48700966075600671 0.32276244140519528 0 0.49227852706914571 0.3310448133387906 0 0.49274985611107969 0.31679941989990179 0 0.48700966075600671 0.32276244140519528 0 0.5 0.37290568982018429 0 0.48906820236105919 0.3579654986752378 0 0.48477613844387402 0.38021688004838439 0 0.47648750655815691 0.34271593104932652 0 0.5 0.34302530753029081 0 0.48906820236105919 0.3579654986752378 0 0.5 0.34302530753029081 0 0.5 0.37290568982018429 0 0.48906820236105919 0.3579654986752378 0 0.47648750655815691 0.34271593104932652 0 0.4736556537454587 0.3678330253399309 0 0.4628011452372443 0.35721885356897543 0 0.47648750655815691 0.34271593104932652 0 0.48906820236105919 0.3579654986752378 0 0.4736556537454587 0.3678330253399309 0 0.48906820236105919 0.3579654986752378 0 0.4736556537454587 0.3678330253399309 0 0.48477613844387402 0.38021688004838439 0 0.4736556537454587 0.3678330253399309 0 0.45151374504626951 0.36758660991241321 0 0.46980882541715813 0.38208294099771128 0 0.4736556537454587 0.3678330253399309 0 0.4628011452372443 0.35721885356897543 0 0.45151374504626951 0.36758660991241321 0 0.47648750655815691 0.34271593104932652 0 0.4628011452372443 0.35721885356897543 0 0.45466128638888681 0.34537342559846479 0 0.4628011452372443 0.35721885356897543 0 0.45466128638888681 0.34537342559846479 0 0.45151374504626951 0.36758660991241321 0 0.43941431748234389 0.34697694962204328 0 0.45151374504626951 0.36758660991241321 0 0.43248649325656402 0.35912170041613489 0 0.45466128638888681 0.34537342559846479 0 0.43941431748234389 0.34697694962204328 0 0.45151374504626951 0.36758660991241321 0 0.45151374504626951 0.36758660991241321 0 0.4343808670510142 0.37207818795490849 0 0.43248649325656402 0.35912170041613489 0 0.4343808670510142 0.37207818795490849 0 0.41565945607251759 0.36236511110304392 0 0.42235721568131929 0.38220686924127689 0 0.4343808670510142 0.37207818795490849 0 0.41565945607251759 0.36236511110304392 0 0.43248649325656402 0.35912170041613489 0 0.41565945607251759 0.36236511110304392 0 0.40683499004542412 0.37566900985645529 0 0.42235721568131929 0.38220686924127689 0 0.41565945607251759 0.36236511110304392 0 0.42423344021441339 0.3469403641650044 0 0.40881868850316022 0.34319093436892228 0 0.41565945607251759 0.36236511110304392 0 0.40881868850316022 0.34319093436892228 0 0.40255325820206211 0.35440744329028528 0 0.41565945607251759 0.36236511110304392 0 0.42423344021441339 0.3469403641650044 0 0.43248649325656402 0.35912170041613489 0 0.43941431748234389 0.34697694962204328 0 0.42423344021441339 0.3469403641650044 0 0.43248649325656402 0.35912170041613489 0 0.43941431748234389 0.34697694962204328 0 0.42423344021441339 0.3469403641650044 0 0.43138153093963261 0.33684778794266318 0 0.43138153093963261 0.33684778794266318 0 0.43736796180383269 0.33070162376080392 0 0.42780810280890752 0.32854219536395729 0 0.43138153093963261 0.33684778794266318 0 0.42780810280890752 0.32854219536395729 0 0.41974391964010321 0.33544292333485398 0 0.42780810280890752 0.32854219536395729 0 0.41816216709540432 0.32913892271221878 0 0.41974391964010321 0.33544292333485398 0 0.42423344021441339 0.3469403641650044 0 0.43138153093963261 0.33684778794266318 0 0.41974391964010321 0.33544292333485398 0 0.44590058407496119 0.32214035093537202 0 0.417039918788641 0.32200554090679828 0 0.43554340190627211 0.31006971119553528 0 0.42610184512817068 0.31856760869421968 0 0.41590325438833858 0.31571238371771643 0 0.44590058407496119 0.32214035093537202 0 0.42610184512817068 0.31856760869421968 0 0.417039918788641 0.32200554090679828 0 0.44590058407496119 0.32214035093537202 0 0.42780810280890752 0.32854219536395729 0 0.417039918788641 0.32200554090679828 0 0.44590058407496119 0.32214035093537202 0 0.43736796180383269 0.33070162376080392 0 0.42780810280890752 0.32854219536395729 0 0.43554340190627211 0.31006971119553528 0 0.41590325438833858 0.31571238371771643 0 0.43554340190627211 0.31006971119553528 0 0.44590058407496119 0.32214035093537202 0 0.42610184512817068 0.31856760869421968 0 0.40639677157087911 0.30212762763804019 0 0.417039918788641 0.32200554090679828 0 0.4081981699382346 0.3139513768470385 0 0.40639677157087911 0.30212762763804019 0 0.41590325438833858 0.31571238371771643 0 0.417039918788641 0.32200554090679828 0 0.42610184512817068 0.31856760869421968 0 0.41590325438833858 0.31571238371771643 0 0.417039918788641 0.32200554090679828 0 0.417039918788641 0.32200554090679828 0 0.41816216709540432 0.32913892271221878 0 0.41176425843116088 0.33156610519561941 0 0.42780810280890752 0.32854219536395729 0 0.417039918788641 0.32200554090679828 0 0.41816216709540432 0.32913892271221878 0 0.42423344021441339 0.3469403641650044 0 0.41974391964010321 0.33544292333485398 0 0.40881868850316022 0.34319093436892228 0 0.41816216709540432 0.32913892271221878 0 0.41974391964010321 0.33544292333485398 0 0.41176425843116088 0.33156610519561941 0 0.417039918788641 0.32200554090679828 0 0.41176425843116088 0.33156610519561941 0 0.40171431040203109 0.33103781916521291 0 0.41176425843116088 0.33156610519561941 0 0.40881868850316022 0.34319093436892228 0 0.40171431040203109 0.33103781916521291 0 0.41974391964010321 0.33544292333485398 0 0.41176425843116088 0.33156610519561941 0 0.40881868850316022 0.34319093436892228 0 0.40171431040203109 0.33103781916521291 0 0.38634354889032002 0.32367976249598251 0 0.39069281237429682 0.34525116339505252 0 0.40881868850316022 0.34319093436892228 0 0.40171431040203109 0.33103781916521291 0 0.39069281237429682 0.34525116339505252 0 0.417039918788641 0.32200554090679828 0 0.40171431040203109 0.33103781916521291 0 0.38634354889032002 0.32367976249598251 0 0.417039918788641 0.32200554090679828 0 0.4081981699382346 0.3139513768470385 0 0.38634354889032002 0.32367976249598251 0 0.39341545683502421 0.31015448597301559 0 0.4081981699382346 0.3139513768470385 0 0.38634354889032002 0.32367976249598251 0 0.417039918788641 0.32200554090679828 0 0.38634354889032002 0.32367976249598251 0 0.38634354889032002 0.32367976249598251 0 0.39069281237429682 0.34525116339505252 0 0.37418757138316661 0.34003979241565702 0 0.38634354889032002 0.32367976249598251 0 0.39069281237429682 0.34525116339505252 0 0.37418757138316661 0.34003979241565702 0 0.38014707859742553 0.358601566133181 0 0.39069281237429682 0.34525116339505252 0 0.38014707859742553 0.358601566133181 0 0.39504207585827378 0.36682256429412252 0 0.39069281237429682 0.34525116339505252 0 0.36927583114563117 0.37168826674887129 0 0.38014707859742553 0.358601566133181 0 0.3861818138235471 0.37714139125663793 0 0.38014707859742553 0.358601566133181 0 0.39504207585827378 0.36682256429412252 0 0.3861818138235471 0.37714139125663793 0 0.41565945607251759 0.36236511110304392 0 0.39504207585827378 0.36682256429412252 0 0.40683499004542412 0.37566900985645529 0 0.41565945607251759 0.36236511110304392 0 0.39504207585827378 0.36682256429412252 0 0.40255325820206211 0.35440744329028528 0 0.39504207585827378 0.36682256429412252 0 0.40255325820206211 0.35440744329028528 0 0.39069281237429682 0.34525116339505252 0 0.40881868850316022 0.34319093436892228 0 0.40255325820206211 0.35440744329028528 0 0.39069281237429682 0.34525116339505252 0 0.39504207585827378 0.36682256429412252 0 0.39069281237429682 0.34525116339505252 0 0.3993913393422508 0.38839396519319253 0 0.39020643165102042 0.40750290438779102 0 0.40342788129008578 0.41136751416027151 0 0.3993913393422508 0.38839396519319253 0 0.40342788129008578 0.41136751416027151 0 0.41247484703898341 0.39668929567888889 0 0.3993913393422508 0.38839396519319253 0 0.38594138320053972 0.39504117240748449 0 0.39020643165102042 0.40750290438779102 0 0.39504207585827378 0.36682256429412252 0 0.3993913393422508 0.38839396519319253 0 0.40683499004542412 0.37566900985645529 0 0.39504207585827378 0.36682256429412252 0 0.3993913393422508 0.38839396519319253 0 0.39504207585827378 0.36682256429412252 0 0.3993913393422508 0.38839396519319253 0 0.3861818138235471 0.37714139125663793 0 0.3993913393422508 0.38839396519319253 0 0.41247484703898341 0.39668929567888889 0 0.40683499004542412 0.37566900985645529 0 0.36927583114563117 0.37168826674887129 0 0.38594138320053972 0.39504117240748449 0 0.3993913393422508 0.38839396519319253 0 0.3861818138235471 0.37714139125663793 0 0.38594138320053972 0.39504117240748449 0 0.36927583114563117 0.37168826674887129 0 0.3861818138235471 0.37714139125663793 0 0.38594138320053972 0.39504117240748449 0 0.36672310374365391 0.3972274770167053 0 0.38594138320053972 0.39504117240748449 0 0.37714557779446961 0.40580011292323048 0 0.38594138320053972 0.39504117240748449 0 0.37714557779446961 0.40580011292323048 0 0.39020643165102042 0.40750290438779102 0 0.37714557779446961 0.40580011292323048 0 0.39020643165102042 0.40750290438779102 0 0.37786999239799629 0.42201923841731348 0 0.39020643165102042 0.40750290438779102 0 0.37786999239799629 0.42201923841731348 0 0.39620875860206523 0.42610388639599522 0 0.3672128213662551 0.44140310366938379 0 0.37786999239799629 0.42201923841731348 0 0.38861509636247821 0.44175005125570632 0 0.37786999239799629 0.42201923841731348 0 0.39620875860206523 0.42610388639599522 0 0.38861509636247821 0.44175005125570632 0 0.39620875860206523 0.42610388639599522 0 0.40342788129008578 0.41136751416027151 0 0.4165515890159211 0.43106581875832262 0 0.39020643165102042 0.40750290438779102 0 0.39620875860206523 0.42610388639599522 0 0.40342788129008578 0.41136751416027151 0 0.40342788129008578 0.41136751416027151 0 0.4194649070479346 0.41075775866906961 0 0.4165515890159211 0.43106581875832262 0 0.40342788129008578 0.41136751416027151 0 0.4194649070479346 0.41075775866906961 0 0.41247484703898341 0.39668929567888889 0 0.39620875860206523 0.42610388639599522 0 0.4165515890159211 0.43106581875832262 0 0.40679533173472487 0.44514780784289609 0 0.4165515890159211 0.43106581875832262 0 0.44107028692003247 0.43153611533185032 0 0.4165515890159211 0.43106581875832262 0 0.43527838440837918 0.41507327228856877 0 0.44107028692003247 0.43153611533185032 0 0.4194649070479346 0.41075775866906961 0 0.4165515890159211 0.43106581875832262 0 0.43527838440837918 0.41507327228856877 0 0.4194649070479346 0.41075775866906961 0 0.43527838440837918 0.41507327228856877 0 0.42844040697821201 0.39890611008127758 0 0.43527838440837918 0.41507327228856877 0 0.42844040697821201 0.39890611008127758 0 0.44356544647064411 0.40084295107477419 0 0.42844040697821201 0.39890611008127758 0 0.43978627658039499 0.38550810048347522 0 0.44356544647064411 0.40084295107477419 0 0.4194649070479346 0.41075775866906961 0 0.42844040697821201 0.39890611008127758 0 0.41247484703898341 0.39668929567888889 0 0.42844040697821201 0.39890611008127758 0 0.41247484703898341 0.39668929567888889 0 0.42235721568131929 0.38220686924127689 0 0.41247484703898341 0.39668929567888889 0 0.40683499004542412 0.37566900985645529 0 0.42235721568131929 0.38220686924127689 0 0.4343808670510142 0.37207818795490849 0 0.42235721568131929 0.38220686924127689 0 0.43978627658039499 0.38550810048347522 0 0.42844040697821201 0.39890611008127758 0 0.42235721568131929 0.38220686924127689 0 0.43978627658039499 0.38550810048347522 0 0.45151374504626951 0.36758660991241321 0 0.4343808670510142 0.37207818795490849 0 0.43978627658039499 0.38550810048347522 0 0.45151374504626951 0.36758660991241321 0 0.43978627658039499 0.38550810048347522 0 0.45722528454721961 0.3906654768237981 0 0.43978627658039499 0.38550810048347522 0 0.44356544647064411 0.40084295107477419 0 0.45722528454721961 0.3906654768237981 0 0.44356544647064411 0.40084295107477419 0 0.45722528454721961 0.3906654768237981 0 0.45594545333092312 0.41337501331873322 0 0.45722528454721961 0.3906654768237981 0 0.47568108772685191 0.39367102650606373 0 0.46881626912638691 0.40427363304328218 0 0.45722528454721961 0.3906654768237981 0 0.46881626912638691 0.40427363304328218 0 0.45594545333092312 0.41337501331873322 0 0.45151374504626951 0.36758660991241321 0 0.45722528454721961 0.3906654768237981 0 0.46980882541715813 0.38208294099771128 0 0.45722528454721961 0.3906654768237981 0 0.46980882541715813 0.38208294099771128 0 0.47568108772685191 0.39367102650606373 0 0.4736556537454587 0.3678330253399309 0 0.46980882541715813 0.38208294099771128 0 0.48477613844387402 0.38021688004838439 0 0.47568108772685191 0.39367102650606373 0 0.48702766555901961 0.39491075051184021 0 0.48477613844387402 0.38021688004838439 0 0.46980882541715813 0.38208294099771128 0 0.47568108772685191 0.39367102650606373 0 0.48477613844387402 0.38021688004838439 0 0.47568108772685191 0.39367102650606373 0 0.46881626912638691 0.40427363304328218 0 0.48151606592710777 0.40452093291302588 0 0.47568108772685191 0.39367102650606373 0 0.48151606592710777 0.40452093291302588 0 0.48702766555901961 0.39491075051184021 0 0.48702766555901961 0.39491075051184021 0 0.49874079622209128 0.38660437256818281 0 0.49442423947517328 0.40954054052354433 0 0.5 0.40278607211007789 0 0.49874079622209128 0.38660437256818281 0 0.49442423947517328 0.40954054052354433 0 0.49874079622209128 0.38660437256818281 0 0.49442423947517328 0.40954054052354433 0 0.48151606592710777 0.40452093291302588 0 0.48702766555901961 0.39491075051184021 0 0.49442423947517328 0.40954054052354433 0 0.5 0.37290568982018429 0 0.5 0.40278607211007789 0 0.49874079622209128 0.38660437256818281 0 0.5 0.37290568982018429 0 0.49874079622209128 0.38660437256818281 0 0.48477613844387402 0.38021688004838439 0 0.48702766555901961 0.39491075051184021 0 0.49874079622209128 0.38660437256818281 0 0.48477613844387402 0.38021688004838439 0 0.49010768272825528 0.43247670847890568 0 0.49999999999999839 0.43266645439997159 0 0.49442423947517328 0.40954054052354433 0 0.49010768272825528 0.43247670847890568 0 0.49999999999999839 0.43266645439997159 0 0.5 0.40278607211007789 0 0.49999999999999839 0.43266645439997159 0 0.49442423947517328 0.40954054052354433 0 0.49010768272825528 0.43247670847890568 0 0.49442423947517328 0.40954054052354433 0 0.47768739680387268 0.41777805257305989 0 0.48151606592710777 0.40452093291302588 0 0.49442423947517328 0.40954054052354433 0 0.47768739680387268 0.41777805257305989 0 0.49010768272825528 0.43247670847890568 0 0.49442423947517328 0.40954054052354433 0 0.46881626912638691 0.40427363304328218 0 0.48151606592710777 0.40452093291302588 0 0.47768739680387268 0.41777805257305989 0 0.49010768272825528 0.43247670847890568 0 0.47768739680387268 0.41777805257305989 0 0.4655889848241439 0.43200641190537797 0 0.49010768272825528 0.43247670847890568 0 0.4655889848241439 0.43200641190537797 0 0.47536631759922843 0.44556886167195853 0 0.49010768272825528 0.43247670847890568 0 0.4655889848241439 0.43200641190537797 0 0.4655889848241439 0.43200641190537797 0 0.44107028692003247 0.43153611533185032 0 0.4655889848241439 0.43200641190537797 0 0.45594545333092312 0.41337501331873322 0 0.44107028692003247 0.43153611533185032 0 0.4655889848241439 0.43200641190537797 0 0.44107028692003247 0.43153611533185032 0 0.4606865760628292 0.44801704672434101 0 0.47768739680387268 0.41777805257305989 0 0.4655889848241439 0.43200641190537797 0 0.45594545333092312 0.41337501331873322 0 0.46881626912638691 0.40427363304328218 0 0.47768739680387268 0.41777805257305989 0 0.45594545333092312 0.41337501331873322 0 0.43527838440837918 0.41507327228856877 0 0.45594545333092312 0.41337501331873322 0 0.44107028692003247 0.43153611533185032 0 0.43527838440837918 0.41507327228856877 0 0.44356544647064411 0.40084295107477419 0 0.45594545333092312 0.41337501331873322 0 0.49999999999999839 0.43266645439997159 0 0.48505572566105232 0.45932045051458531 0 0.5 0.5 0 0.44107028692003247 0.43153611533185032 0 0.44376664188615123 0.45979150936037488 0 0.4606865760628292 0.44801704672434101 0 0.44376664188615123 0.45979150936037488 0 0.46112241578244989 0.46478661640483648 0 0.45121200239437631 0.4807671998253365 0 0.44376664188615123 0.45979150936037488 0 0.46112241578244989 0.46478661640483648 0 0.4606865760628292 0.44801704672434101 0 0.46112241578244989 0.46478661640483648 0 0.4606865760628292 0.44801704672434101 0 0.47539261871986088 0.45602369073658289 0 0.4655889848241439 0.43200641190537797 0 0.4606865760628292 0.44801704672434101 0 0.47536631759922843 0.44556886167195853 0 0.49010768272825528 0.43247670847890568 0 0.47536631759922843 0.44556886167195853 0 0.48505572566105232 0.45932045051458531 0 0.4606865760628292 0.44801704672434101 0 0.47536631759922843 0.44556886167195853 0 0.47539261871986088 0.45602369073658289 0 0.47539261871986088 0.45602369073658289 0 0.47110615765410929 0.47801184536829172 0 0.47539261871986088 0.45602369073658289 0 0.48505572566105232 0.45932045051458531 0 0.47110615765410929 0.47801184536829172 0 0.46112241578244989 0.46478661640483648 0 0.47539261871986088 0.45602369073658289 0 0.47110615765410929 0.47801184536829172 0 0.47536631759922843 0.44556886167195853 0 0.47539261871986088 0.45602369073658289 0 0.48505572566105232 0.45932045051458531 0 0.49010768272825528 0.43247670847890568 0 0.48505572566105232 0.45932045051458531 0 0.49010768272825528 0.43247670847890568 0 0.49999999999999839 0.43266645439997159 0 0.48505572566105232 0.45932045051458531 0 0.48505572566105232 0.45932045051458531 0 0.5 0.5 0 0.48000376859384941 0.48616419255026477 0 0.5 0.5 0 0.48000376859384941 0.48616419255026477 0 0.46681969658835759 0.50000000000000044 0 0.48505572566105232 0.45932045051458531 0 0.47110615765410929 0.47801184536829172 0 0.48000376859384941 0.48616419255026477 0 0.48505572566105232 0.45932045051458531 0 0.48000376859384941 0.48616419255026477 0 0.47110615765410929 0.47801184536829172 0 0.46681969658835759 0.50000000000000044 0 0.47110615765410929 0.47801184536829172 0 0.48000376859384941 0.48616419255026477 0 0.46681969658835759 0.50000000000000044 0 0.47110615765410929 0.47801184536829172 0 0.46681969658835759 0.50000000000000044 0 0.45121200239437631 0.4807671998253365 0 0.46112241578244989 0.46478661640483648 0 0.47110615765410929 0.47801184536829172 0 0.45121200239437631 0.4807671998253365 0 0.44376664188615123 0.45979150936037488 0 0.45121200239437631 0.4807671998253365 0 0.42408561830569141 0.47732830779616442 0 0.46681969658835759 0.50000000000000044 0 0.45121200239437631 0.4807671998253365 0 0.43971230006436901 0.5 0 0.45121200239437631 0.4807671998253365 0 0.43971230006436901 0.5 0 0.42408561830569141 0.47732830779616442 0 0.43971230006436901 0.5 0 0.41260490354038032 0.5 0 0.42408561830569141 0.47732830779616442 0 0.41260490354038032 0.5 0 0.42408561830569141 0.47732830779616442 0 0.40044085355502113 0.48368683573266119 0 0.42408561830569141 0.47732830779616442 0 0.40050545668784993 0.46242548604636152 0 0.40044085355502113 0.48368683573266119 0 0.44376664188615123 0.45979150936037488 0 0.42408561830569141 0.47732830779616442 0 0.42267709028742451 0.45339185591380432 0 0.44107028692003247 0.43153611533185032 0 0.44376664188615123 0.45979150936037488 0 0.42267709028742451 0.45339185591380432 0 0.4165515890159211 0.43106581875832262 0 0.44107028692003247 0.43153611533185032 0 0.42267709028742451 0.45339185591380432 0 0.4165515890159211 0.43106581875832262 0 0.42267709028742451 0.45339185591380432 0 0.40679533173472487 0.44514780784289609 0 0.42408561830569141 0.47732830779616442 0 0.42267709028742451 0.45339185591380432 0 0.40050545668784993 0.46242548604636152 0 0.42267709028742451 0.45339185591380432 0 0.40679533173472487 0.44514780784289609 0 0.40050545668784993 0.46242548604636152 0 0.40679533173472487 0.44514780784289609 0 0.40050545668784993 0.46242548604636152 0 0.38861509636247821 0.44175005125570632 0 0.39620875860206523 0.42610388639599522 0 0.40679533173472487 0.44514780784289609 0 0.38861509636247821 0.44175005125570632 0 0.3672128213662551 0.44140310366938379 0 0.38861509636247821 0.44175005125570632 0 0.37565915938479377 0.45849116020829678 0 0.40050545668784993 0.46242548604636152 0 0.37565915938479377 0.45849116020829678 0 0.37951078222479251 0.47868038482078018 0 0.40050545668784993 0.46242548604636152 0 0.38861509636247821 0.44175005125570632 0 0.37565915938479377 0.45849116020829678 0 0.37951078222479251 0.47868038482078018 0 0.38549750701639152 0.5 0 0.40044085355502113 0.48368683573266119 0 0.41260490354038032 0.5 0 0.38549750701639152 0.5 0 0.40044085355502113 0.48368683573266119 0 0.40050545668784993 0.46242548604636152 0 0.37951078222479251 0.47868038482078018 0 0.40044085355502113 0.48368683573266119 0 0.3285700774521132 0.069227507684709172 0 0.34376262838779448 0.090160381808613591 0 0.3285700774521132 0.069227507684709172 0 0.34376262838779448 0.090160381808613591 0 0.3570119940846016 0.07655140493877155 0 0.3285700774521132 0.069227507684709172 0 0.31851483003181857 0.089032350953859848 0 0.34376262838779448 0.090160381808613591 0 0.3285700774521132 0.069227507684709172 0 0.31851483003181857 0.089032350953859848 0 0.30262144479489489 0.063472250579192202 0 0.31851483003181857 0.089032350953859848 0 0.32257158209111758 0.11034462767622299 0 0.33741607394213652 0.1036774965936159 0 0.31851483003181857 0.089032350953859848 0 0.32257158209111758 0.11034462767622299 0 0.29867863108980142 0.1045573716884185 0 0.32257158209111758 0.11034462767622299 0 0.32933038512457441 0.1245201253257071 0 0.3207185438207466 0.1263919595033525 0 0.32257158209111758 0.11034462767622299 0 0.31156748461804079 0.12537242366950921 0 0.3207185438207466 0.1263919595033525 0 0.32933038512457441 0.1245201253257071 0 0.34646453309243358 0.11613188366402739 0 0.34441400131097022 0.1288917011053414 0 0.32257158209111758 0.11034462767622299 0 0.33741607394213652 0.1036774965936159 0 0.34646453309243358 0.11613188366402739 0 0.32257158209111758 0.11034462767622299 0 0.34646453309243358 0.11613188366402739 0 0.32257158209111758 0.11034462767622299 0 0.32933038512457441 0.1245201253257071 0 0.34646453309243358 0.11613188366402739 0 0.31851483003181857 0.089032350953859848 0 0.33741607394213652 0.1036774965936159 0 0.34376262838779448 0.090160381808613591 0 0.35895517932347593 0.111093255932518 0 0.36286728541875429 0.096218484345557367 0 0.34376262838779448 0.090160381808613591 0 0.33741607394213652 0.1036774965936159 0 0.35895517932347593 0.111093255932518 0 0.34376262838779448 0.090160381808613591 0 0.35895517932347593 0.111093255932518 0 0.34376262838779448 0.090160381808613591 0 0.34646453309243358 0.11613188366402739 0 0.35895517932347593 0.111093255932518 0 0.37035748409374952 0.12191913965183331 0 0.34646453309243358 0.11613188366402739 0 0.37035748409374952 0.12191913965183331 0 0.33741607394213652 0.1036774965936159 0 0.34646453309243358 0.11613188366402739 0 0.35895517932347593 0.111093255932518 0 0.34646453309243358 0.11613188366402739 0 0.37035748409374952 0.12191913965183331 0 0.34441400131097022 0.1288917011053414 0 0.35895517932347593 0.111093255932518 0 0.36901916600157941 0.1100142775002767 0 0.37035748409374952 0.12191913965183331 0 0.36901916600157941 0.1100142775002767 0 0.37035748409374952 0.12191913965183331 0 0.37815432920295677 0.1109533992790251 0 0.37035748409374952 0.12191913965183331 0 0.37511757494472903 0.123072110010257 0 0.37035748409374952 0.12191913965183331 0 0.37169283910029199 0.12815165521797289 0 0.37511757494472903 0.123072110010257 0 0.36286728541875429 0.096218484345557367 0 0.37455144446510141 0.10193275935197101 0 0.37400882161871279 0.083619613235024759 0 0.35895517932347593 0.111093255932518 0 0.36901916600157941 0.1100142775002767 0 0.36286728541875429 0.096218484345557367 0 0.36901916600157941 0.1100142775002767 0 0.36286728541875429 0.096218484345557367 0 0.37455144446510141 0.10193275935197101 0 0.36901916600157941 0.1100142775002767 0 0.37455144446510141 0.10193275935197101 0 0.37815432920295677 0.1109533992790251 0 0.36286728541875429 0.096218484345557367 0 0.37400882161871279 0.083619613235024759 0 0.3570119940846016 0.07655140493877155 0 0.36286728541875429 0.096218484345557367 0 0.34376262838779448 0.090160381808613591 0 0.3570119940846016 0.07655140493877155 0 0.3285700774521132 0.069227507684709172 0 0.3570119940846016 0.07655140493877155 0 0.3540274811898364 0.057481719132925622 0 0.37400882161871279 0.083619613235024759 0 0.3570119940846016 0.07655140493877155 0 0.37883567044039879 0.062600723425798879 0 0.3570119940846016 0.07655140493877155 0 0.3540274811898364 0.057481719132925622 0 0.37883567044039879 0.062600723425798879 0 0.36884998715724038 0.048654936693666287 0 0.3540274811898364 0.057481719132925622 0 0.37883567044039879 0.062600723425798879 0 0.36884998715724038 0.048654936693666287 0 0.36096242836060388 0.032492650360987897 0 0.3540274811898364 0.057481719132925622 0 0.36884998715724038 0.048654936693666287 0 0.36096242836060388 0.032492650360987897 0 0.38366251926208489 0.041581833616573027 0 0.36096242836060388 0.032492650360987897 0 0.3540274811898364 0.057481719132925622 0 0.33343548863743699 0.044422356914628619 0 0.36096242836060388 0.032492650360987897 0 0.34150772405548108 0.025325389551572871 0 0.33343548863743699 0.044422356914628619 0 0.36096242836060388 0.032492650360987897 0 0.33343548863743699 0.044422356914628619 0 0.36934971840039982 0.01412264887454192 0 0.38120377069012762 0.010554394007073271 0 0.36845156083710567 -0.0060515153414843056 0 0.36934971840039982 0.01412264887454192 0 0.35188933009005469 0.012921367503740049 0 0.36845156083710567 -0.0060515153414843056 0 0.36096242836060388 0.032492650360987897 0 0.38848936808377088 0.020562943807347231 0 0.36096242836060388 0.032492650360987897 0 0.36934971840039982 0.01412264887454192 0 0.35188933009005469 0.012921367503740049 0 0.36096242836060388 0.032492650360987897 0 0.36934971840039982 0.01412264887454192 0 0.38848936808377088 0.020562943807347231 0 0.36096242836060388 0.032492650360987897 0 0.35188933009005469 0.012921367503740049 0 0.34150772405548108 0.025325389551572871 0 0.35188933009005469 0.012921367503740049 0 0.36845156083710567 -0.0060515153414843056 0 0.34114057903213352 -0.00099436838624600288 0 0.32992396985460443 0.01263339996306794 0 0.31382959722716158 0.0040627785689932028 0 0.34114057903213352 -0.00099436838624600288 0 0.35188933009005469 0.012921367503740049 0 0.32992396985460443 0.01263339996306794 0 0.34114057903213352 -0.00099436838624600288 0 0.32992396985460443 0.01263339996306794 0 0.34150772405548108 0.025325389551572871 0 0.32077834005703848 0.02927741351548363 0 0.35188933009005469 0.012921367503740049 0 0.32992396985460443 0.01263339996306794 0 0.34150772405548108 0.025325389551572871 0 0.32992396985460443 0.01263339996306794 0 0.32077834005703848 0.02927741351548363 0 0.31391214704691389 0.015516024244919061 0 0.32992396985460443 0.01263339996306794 0 0.31391214704691389 0.015516024244919061 0 0.31382959722716158 0.0040627785689932028 0 0.31382959722716158 0.0040627785689932028 0 0.34183048761771712 -0.0039986291523161147 0 0.31382959722716158 0.0040627785689932028 0 0.34114057903213352 -0.00099436838624600288 0 0.31382959722716158 0.0040627785689932028 0 0.30752965714041391 0.0058765203804442539 0 0.32194573769061952 -0.0077676308935595512 0 0.3285700774521132 0.069227507684709172 0 0.3540274811898364 0.057481719132925622 0 0.33343548863743699 0.044422356914628619 0 0.34150772405548108 0.025325389551572871 0 0.32077834005703848 0.02927741351548363 0 0.33343548863743699 0.044422356914628619 0 0.32077834005703848 0.02927741351548363 0 0.33343548863743699 0.044422356914628619 0 0.31337752651643169 0.04829463356080467 0 0.3285700774521132 0.069227507684709172 0 0.31337752651643169 0.04829463356080467 0 0.3285700774521132 0.069227507684709172 0 0.33343548863743699 0.044422356914628619 0 0.31337752651643169 0.04829463356080467 0 0.3285700774521132 0.069227507684709172 0 0.31337752651643169 0.04829463356080467 0 0.30262144479489489 0.063472250579192202 0 0.31337752651643169 0.04829463356080467 0 0.29190445549758398 0.041801895735158197 0 0.30262144479489489 0.063472250579192202 0 0.31337752651643169 0.04829463356080467 0 0.29818497558074802 0.027361759436901809 0 0.31337752651643169 0.04829463356080467 0 0.29190445549758398 0.041801895735158197 0 0.29818497558074802 0.027361759436901809 0 0.32077834005703848 0.02927741351548363 0 0.31337752651643169 0.04829463356080467 0 0.29818497558074802 0.027361759436901809 0 0.29190445549758398 0.041801895735158197 0 0.29818497558074802 0.027361759436901809 0 0.28149235485467722 0.028426230672526639 0 0.29190445549758398 0.041801895735158197 0 0.28562393541442521 0.056242032033416753 0 0.26921605588191849 0.040519794607793452 0 0.29190445549758398 0.041801895735158197 0 0.29818497558074802 0.027361759436901809 0 0.29190445549758398 0.041801895735158197 0 0.28562393541442521 0.056242032033416753 0 0.29190445549758398 0.041801895735158197 0 0.28562393541442521 0.056242032033416753 0 0.30262144479489489 0.063472250579192202 0 0.2978295874258669 0.0070254842464454832 0 0.30752965714041391 0.0058765203804442539 0 0.2978295874258669 0.0070254842464454832 0 0.30752965714041391 0.0058765203804442539 0 0.29396858594285019 -0.001032612778502764 0 0.31382959722716158 0.0040627785689932028 0 0.30752965714041391 0.0058765203804442539 0 0.31391214704691389 0.015516024244919061 0 0.30752965714041391 0.0058765203804442539 0 0.30398999522707459 0.014014891057021139 0 0.30752965714041391 0.0058765203804442539 0 0.30398999522707459 0.014014891057021139 0 0.31391214704691389 0.015516024244919061 0 0.31382959722716158 0.0040627785689932028 0 0.30752965714041391 0.0058765203804442539 0 0.2978295874258669 0.0070254842464454832 0 0.30752965714041391 0.0058765203804442539 0 0.30398999522707459 0.014014891057021139 0 0.2978295874258669 0.0070254842464454832 0 0.30398999522707459 0.014014891057021139 0 0.31391214704691389 0.015516024244919061 0 0.30398999522707459 0.014014891057021139 0 0.29818497558074802 0.027361759436901809 0 0.32077834005703848 0.02927741351548363 0 0.31391214704691389 0.015516024244919061 0 0.29818497558074802 0.027361759436901809 0 0.30398999522707459 0.014014891057021139 0 0.29818497558074802 0.027361759436901809 0 0.30398999522707459 0.014014891057021139 0 0.29818497558074802 0.027361759436901809 0 0.28690172397702512 0.011815266518820099 0 0.29818497558074802 0.027361759436901809 0 0.28149235485467722 0.028426230672526639 0 0.28690172397702512 0.011815266518820099 0 0.29818497558074802 0.027361759436901809 0 0.28690172397702512 0.011815266518820099 0 0.28690172397702512 0.011815266518820099 0 0.28687677889875068 0.001725005618485562 0 0.27267603034966698 -0.0077854348569651906 0 0.2978295874258669 0.0070254842464454832 0 0.30398999522707459 0.014014891057021139 0 0.28690172397702512 0.011815266518820099 0 0.2978295874258669 0.0070254842464454832 0 0.28690172397702512 0.011815266518820099 0 0.29376575238797509 0.0077779804816672602 0 0.2978295874258669 0.0070254842464454832 0 0.28690172397702512 0.011815266518820099 0 0.2978295874258669 0.0070254842464454832 0 0.28687677889875068 0.001725005618485562 0 0.29376575238797509 0.0077779804816672602 0 0.28690172397702512 0.011815266518820099 0 0.28687677889875068 0.001725005618485562 0 0.29376575238797509 0.0077779804816672602 0 0.2978295874258669 0.0070254842464454832 0 0.29376575238797509 0.0077779804816672602 0 0.28690172397702512 0.011815266518820099 0 0.26939274767164711 0.0040745279013861191 0 0.27267603034966698 -0.0077854348569651906 0 0.28690172397702512 0.011815266518820099 0 0.26440570944936082 0.018291830038140541 0 0.28690172397702512 0.011815266518820099 0 0.26939274767164711 0.0040745279013861191 0 0.26440570944936082 0.018291830038140541 0 0.28690172397702512 0.011815266518820099 0 0.27267603034966698 -0.0077854348569651906 0 0.28149235485467722 0.028426230672526639 0 0.26440570944936082 0.018291830038140541 0 0.26921605588191849 0.040519794607793452 0 0.28149235485467722 0.028426230672526639 0 0.28690172397702512 0.011815266518820099 0 0.26440570944936082 0.018291830038140541 0 0.24190969492169709 0.024768393557462999 0 0.26440570944936082 0.018291830038140541 0 0.2485551203034157 0.0102848256948572 0 0.24190969492169709 0.024768393557462999 0 0.26440570944936082 0.018291830038140541 0 0.24190969492169709 0.024768393557462999 0 0.26440570944936082 0.018291830038140541 0 0.25291178968964928 0.037547667281027097 0 0.2485551203034157 0.0102848256948572 0 0.26440570944936082 0.018291830038140541 0 0.25894279220913391 0.003459445712386486 0 0.26939274767164711 0.0040745279013861191 0 0.26440570944936082 0.018291830038140541 0 0.25894279220913391 0.003459445712386486 0 0.2485551203034157 0.0102848256948572 0 0.25894279220913391 0.003459445712386486 0 0.2479891295484222 -0.0022684572774312019 0 0.26939274767164711 0.0040745279013861191 0 0.25894279220913391 0.003459445712386486 0 0.26317147738524183 -0.0038637327990410169 0 0.28562393541442521 0.056242032033416753 0 0.27026274557325353 0.056119745337220257 0 0.26921605588191849 0.040519794607793452 0 0.28562393541442521 0.056242032033416753 0 0.27026274557325353 0.056119745337220257 0 0.27167623587568768 0.070814912161459326 0 0.29190445549758398 0.041801895735158197 0 0.28149235485467722 0.028426230672526639 0 0.26921605588191849 0.040519794607793452 0 0.26921605588191849 0.040519794607793452 0 0.25291178968964928 0.037547667281027097 0 0.25425538404847059 0.057624927133231481 0 0.26440570944936082 0.018291830038140541 0 0.26921605588191849 0.040519794607793452 0 0.25291178968964928 0.037547667281027097 0 0.27026274557325353 0.056119745337220257 0 0.26921605588191849 0.040519794607793452 0 0.25425538404847059 0.057624927133231481 0 0.27026274557325353 0.056119745337220257 0 0.25425538404847059 0.057624927133231481 0 0.27167623587568768 0.070814912161459326 0 0.25425538404847059 0.057624927133231481 0 0.27167623587568768 0.070814912161459326 0 0.25282536794073712 0.073272794188635415 0 0.26618138576237349 0.084067315497028519 0 0.27167623587568768 0.070814912161459326 0 0.25425538404847059 0.057624927133231481 0 0.25282536794073712 0.073272794188635415 0 0.27167623587568768 0.070814912161459326 0 0.25089272908716931 0.092982859712809007 0 0.26618138576237349 0.084067315497028519 0 0.27478568008848531 0.098770115700614086 0 0.25282536794073712 0.073272794188635415 0 0.25089272908716931 0.092982859712809007 0 0.26618138576237349 0.084067315497028519 0 0.26618138576237349 0.084067315497028519 0 0.28181267844286689 0.084890460016538952 0 0.27478568008848531 0.098770115700614086 0 0.26618138576237349 0.084067315497028519 0 0.27167623587568768 0.070814912161459326 0 0.28181267844286689 0.084890460016538952 0 0.27167623587568768 0.070814912161459326 0 0.2870451550563029 0.071072764848292863 0 0.28181267844286689 0.084890460016538952 0 0.2870451550563029 0.071072764848292863 0 0.29673814540623761 0.08207029957157172 0 0.30262144479489489 0.063472250579192202 0 0.28562393541442521 0.056242032033416753 0 0.2870451550563029 0.071072764848292863 0 0.30262144479489489 0.063472250579192202 0 0.28562393541442521 0.056242032033416753 0 0.27167623587568768 0.070814912161459326 0 0.2870451550563029 0.071072764848292863 0 0.2870451550563029 0.071072764848292863 0 0.28181267844286689 0.084890460016538952 0 0.29673814540623761 0.08207029957157172 0 0.28181267844286689 0.084890460016538952 0 0.29673814540623761 0.08207029957157172 0 0.29867863108980142 0.1045573716884185 0 0.31851483003181857 0.089032350953859848 0 0.29673814540623761 0.08207029957157172 0 0.30262144479489489 0.063472250579192202 0 0.31851483003181857 0.089032350953859848 0 0.29673814540623761 0.08207029957157172 0 0.29867863108980142 0.1045573716884185 0 0.2991284260398443 0.1226428311133997 0 0.29867863108980142 0.1045573716884185 0 0.31156748461804079 0.12537242366950921 0 0.32257158209111758 0.11034462767622299 0 0.29867863108980142 0.1045573716884185 0 0.31156748461804079 0.12537242366950921 0 0.32257158209111758 0.11034462767622299 0 0.29867863108980142 0.1045573716884185 0 0.29867863108980142 0.1045573716884185 0 0.27478568008848531 0.098770115700614086 0 0.29867863108980142 0.1045573716884185 0 0.27783009132198788 0.1122622341296569 0 0.27478568008848531 0.098770115700614086 0 0.28181267844286689 0.084890460016538952 0 0.29867863108980142 0.1045573716884185 0 0.27478568008848531 0.098770115700614086 0 0.2991284260398443 0.1226428311133997 0 0.29867863108980142 0.1045573716884185 0 0.28707615928971691 0.1208096883177448 0 0.29867863108980142 0.1045573716884185 0 0.28707615928971691 0.1208096883177448 0 0.27783009132198788 0.1122622341296569 0 0.2991284260398443 0.1226428311133997 0 0.28707615928971691 0.1208096883177448 0 0.29671346303214241 0.12961196471325551 0 0.26302281242735981 0.111198171579071 0 0.27515289576754948 0.1294134834453334 0 0.28707615928971691 0.1208096883177448 0 0.27783009132198788 0.1122622341296569 0 0.27515289576754948 0.1294134834453334 0 0.27783009132198788 0.1122622341296569 0 0.26302281242735981 0.111198171579071 0 0.27515289576754948 0.1294134834453334 0 0.26302281242735981 0.111198171579071 0 0.26007351669183237 0.1253037732749688 0 0.27515289576754948 0.1294134834453334 0 0.27783009132198788 0.1122622341296569 0 0.27478568008848531 0.098770115700614086 0 0.26302281242735981 0.111198171579071 0 0.25089272908716931 0.092982859712809007 0 0.26302281242735981 0.111198171579071 0 0.2496952397761337 0.1160329650041991 0 0.25089272908716931 0.092982859712809007 0 0.26302281242735981 0.111198171579071 0 0.25089272908716931 0.092982859712809007 0 0.27478568008848531 0.098770115700614086 0 0.26302281242735981 0.111198171579071 0 0.25089272908716931 0.092982859712809007 0 0.27478568008848531 0.098770115700614086 0 0.2471064899150823 0.133463067737116 0 0.2496952397761337 0.1160329650041991 0 0.26007351669183237 0.1253037732749688 0 0.2496952397761337 0.1160329650041991 0 0.26302281242735981 0.111198171579071 0 0.26007351669183237 0.1253037732749688 0 0.2471064899150823 0.133463067737116 0 0.26212056590251792 0.13860634342131159 0 0.25227113898158787 0.14916335431643429 0 0.2471064899150823 0.133463067737116 0 0.26212056590251792 0.13860634342131159 0 0.26007351669183237 0.1253037732749688 0 0.27515289576754948 0.1294134834453334 0 0.28728297910773942 0.14762879531159581 0 0.27515289576754948 0.1294134834453334 0 0.27408945104382287 0.14431330872834849 0 0.28728297910773942 0.14762879531159581 0 0.26212056590251792 0.13860634342131159 0 0.26007351669183237 0.1253037732749688 0 0.27515289576754948 0.1294134834453334 0 0.26212056590251792 0.13860634342131159 0 0.27515289576754948 0.1294134834453334 0 0.27408945104382287 0.14431330872834849 0 0.27408945104382287 0.14431330872834849 0 0.27716137478162928 0.15889869399298601 0 0.28728297910773942 0.14762879531159581 0 0.26212056590251792 0.13860634342131159 0 0.27408945104382287 0.14431330872834849 0 0.26493391480523859 0.14953421755469451 0 0.27408945104382287 0.14431330872834849 0 0.26493391480523859 0.14953421755469451 0 0.27716137478162928 0.15889869399298601 0 0.26493391480523859 0.14953421755469451 0 0.25227113898158787 0.14916335431643429 0 0.25784869618064837 0.16117632967822779 0 0.26212056590251792 0.13860634342131159 0 0.26493391480523859 0.14953421755469451 0 0.25227113898158787 0.14916335431643429 0 0.24342118736862761 0.16410875332904781 0 0.25227113898158787 0.14916335431643429 0 0.25784869618064837 0.16117632967822779 0 0.24342118736862761 0.16410875332904781 0 0.25784869618064837 0.16117632967822779 0 0.25421457754785548 0.17528354573505059 0 0.25784869618064837 0.16117632967822779 0 0.25421457754785548 0.17528354573505059 0 0.26798999978846311 0.16999528723303189 0 0.25421457754785548 0.17528354573505059 0 0.26688833639653942 0.18474270353269559 0 0.25113643024109478 0.19094495075723769 0 0.25421457754785548 0.17528354573505059 0 0.26688833639653942 0.18474270353269559 0 0.26798999978846311 0.16999528723303189 0 0.26688833639653942 0.18474270353269559 0 0.27899922157627788 0.1740987885831469 0 0.26798999978846311 0.16999528723303189 0 0.26688833639653942 0.18474270353269559 0 0.27899922157627788 0.1740987885831469 0 0.28165513110548479 0.1855437801635878 0 0.25784869618064837 0.16117632967822779 0 0.26798999978846311 0.16999528723303189 0 0.27716137478162928 0.15889869399298601 0 0.26493391480523859 0.14953421755469451 0 0.25784869618064837 0.16117632967822779 0 0.27716137478162928 0.15889869399298601 0 0.27899922157627788 0.1740987885831469 0 0.26798999978846311 0.16999528723303189 0 0.27716137478162928 0.15889869399298601 0 0.27716137478162928 0.15889869399298601 0 0.28838527260411961 0.16768800255462621 0 0.29642958482603432 0.1586868689393966 0 0.27899922157627788 0.1740987885831469 0 0.27716137478162928 0.15889869399298601 0 0.28838527260411961 0.16768800255462621 0 0.28838527260411961 0.16768800255462621 0 0.29642958482603432 0.1586868689393966 0 0.2990812202460017 0.16972771789266669 0 0.28165513110548479 0.1855437801635878 0 0.29057456817046978 0.17841330338653549 0 0.29442149412013968 0.19018242885082931 0 0.27899922157627788 0.1740987885831469 0 0.28165513110548479 0.1855437801635878 0 0.29057456817046978 0.17841330338653549 0 0.27899922157627788 0.1740987885831469 0 0.28838527260411961 0.16768800255462621 0 0.29057456817046978 0.17841330338653549 0 0.28838527260411961 0.16768800255462621 0 0.29057456817046978 0.17841330338653549 0 0.2990812202460017 0.16972771789266669 0 0.29057456817046978 0.17841330338653549 0 0.30085032626191438 0.18018504882584371 0 0.2990812202460017 0.16972771789266669 0 0.29057456817046978 0.17841330338653549 0 0.30085032626191438 0.18018504882584371 0 0.29442149412013968 0.19018242885082931 0 0.30085032626191438 0.18018504882584371 0 0.29442149412013968 0.19018242885082931 0 0.3080553032197017 0.1887293017033026 0 0.30085032626191438 0.18018504882584371 0 0.31056514142368619 0.1744383831500049 0 0.2990812202460017 0.16972771789266669 0 0.30085032626191438 0.18018504882584371 0 0.31056514142368619 0.1744383831500049 0 0.3080553032197017 0.1887293017033026 0 0.29642958482603432 0.1586868689393966 0 0.30747502192119819 0.16230778928688711 0 0.30151933753066762 0.14970454816787401 0 0.29642958482603432 0.1586868689393966 0 0.2990812202460017 0.16972771789266669 0 0.30747502192119819 0.16230778928688711 0 0.31056514142368619 0.1744383831500049 0 0.2990812202460017 0.16972771789266669 0 0.30747502192119819 0.16230778928688711 0 0.30747502192119819 0.16230778928688711 0 0.30151933753066762 0.14970454816787401 0 0.3129765302581462 0.1494710021231663 0 0.30151933753066762 0.14970454816787401 0 0.29882590938581222 0.14264553562683399 0 0.30718649112507979 0.14443915855455869 0 0.30151933753066762 0.14970454816787401 0 0.30718649112507979 0.14443915855455869 0 0.3129765302581462 0.1494710021231663 0 0.29882590938581222 0.14264553562683399 0 0.30718649112507979 0.14443915855455869 0 0.31229822968882548 0.13781435906697939 0 0.30718649112507979 0.14443915855455869 0 0.31229822968882548 0.13781435906697939 0 0.3129765302581462 0.1494710021231663 0 0.31229822968882548 0.13781435906697939 0 0.28502845800881449 0.13413009067030229 0 0.31229822968882548 0.13781435906697939 0 0.29671346303214241 0.12961196471325551 0 0.28502845800881449 0.13413009067030229 0 0.29882590938581222 0.14264553562683399 0 0.31229822968882548 0.13781435906697939 0 0.28502845800881449 0.13413009067030229 0 0.2991284260398443 0.1226428311133997 0 0.31156748461804079 0.12537242366950921 0 0.30438347209902411 0.12928289016934871 0 0.31229822968882548 0.13781435906697939 0 0.31156748461804079 0.12537242366950921 0 0.30438347209902411 0.12928289016934871 0 0.31229822968882548 0.13781435906697939 0 0.30438347209902411 0.12928289016934871 0 0.29671346303214241 0.12961196471325551 0 0.2991284260398443 0.1226428311133997 0 0.30438347209902411 0.12928289016934871 0 0.29671346303214241 0.12961196471325551 0 0.27515289576754948 0.1294134834453334 0 0.28502845800881449 0.13413009067030229 0 0.28728297910773942 0.14762879531159581 0 0.28707615928971691 0.1208096883177448 0 0.29671346303214241 0.12961196471325551 0 0.28502845800881449 0.13413009067030229 0 0.28707615928971691 0.1208096883177448 0 0.27515289576754948 0.1294134834453334 0 0.28502845800881449 0.13413009067030229 0 0.27716137478162928 0.15889869399298601 0 0.29642958482603432 0.1586868689393966 0 0.28728297910773942 0.14762879531159581 0 0.29642958482603432 0.1586868689393966 0 0.30151933753066762 0.14970454816787401 0 0.28728297910773942 0.14762879531159581 0 0.30151933753066762 0.14970454816787401 0 0.29882590938581222 0.14264553562683399 0 0.28728297910773942 0.14762879531159581 0 0.29882590938581222 0.14264553562683399 0 0.28502845800881449 0.13413009067030229 0 0.28728297910773942 0.14762879531159581 0 0.2459873280094696 0.23707215699401071 0 0.27381195783464701 0.24213208581531279 0 0.2459873280094696 0.23707215699401071 0 0.27381195783464701 0.24213208581531279 0 0.27283394916361492 0.24742619336605559 0 0.2459873280094696 0.23707215699401071 0 0.27283394916361492 0.24742619336605559 0 0.2459873280094696 0.23707215699401071 0 0.25877170878786238 0.25302463852503437 0 0.27283394916361492 0.24742619336605559 0 0.2459873280094696 0.23707215699401071 0 0.24763005152173001 0.25910176257370959 0 0.25877170878786238 0.25302463852503437 0 0.24332195560292991 0.2175119837032847 0 0.2459873280094696 0.23707215699401071 0 0.26947725056793032 0.22188821543332771 0 0.2459873280094696 0.23707215699401071 0 0.27381195783464701 0.24213208581531279 0 0.26947725056793032 0.22188821543332771 0 0.24332195560292991 0.2175119837032847 0 0.26947725056793032 0.22188821543332771 0 0.27381195783464701 0.24213208581531279 0 0.26947725056793032 0.22188821543332771 0 0.29563254553293061 0.22626444716337071 0 0.26947725056793032 0.22188821543332771 0 0.26383894902510108 0.20488334565775601 0 0.28252807440433819 0.20448568929014271 0 0.24828008483854189 0.20295934428596721 0 0.24332195560292991 0.2175119837032847 0 0.26383894902510108 0.20488334565775601 0 0.24332195560292991 0.2175119837032847 0 0.26947725056793032 0.22188821543332771 0 0.26383894902510108 0.20488334565775601 0 0.26688833639653942 0.18474270353269559 0 0.26383894902510108 0.20488334565775601 0 0.25113643024109478 0.19094495075723769 0 0.24828008483854189 0.20295934428596721 0 0.26383894902510108 0.20488334565775601 0 0.25113643024109478 0.19094495075723769 0 0.26688833639653942 0.18474270353269559 0 0.26383894902510108 0.20488334565775601 0 0.27369942293731819 0.19569303942008121 0 0.26383894902510108 0.20488334565775601 0 0.27369942293731819 0.19569303942008121 0 0.28252807440433819 0.20448568929014271 0 0.28165513110548479 0.1855437801635878 0 0.27369942293731819 0.19569303942008121 0 0.28252807440433819 0.20448568929014271 0 0.26688833639653942 0.18474270353269559 0 0.28165513110548479 0.1855437801635878 0 0.27369942293731819 0.19569303942008121 0 0.28165513110548479 0.1855437801635878 0 0.29442149412013968 0.19018242885082931 0 0.28252807440433819 0.20448568929014271 0 0.29442149412013968 0.19018242885082931 0 0.30168066081365352 0.2029210297493958 0 0.28252807440433819 0.20448568929014271 0 0.29442149412013968 0.19018242885082931 0 0.3080553032197017 0.1887293017033026 0 0.30168066081365352 0.2029210297493958 0 0.3080553032197017 0.1887293017033026 0 0.30168066081365352 0.2029210297493958 0 0.31674655555173881 0.19902842766084339 0 0.30168066081365352 0.2029210297493958 0 0.29563254553293061 0.22626444716337071 0 0.31377845179643721 0.21458276756770189 0 0.30168066081365352 0.2029210297493958 0 0.31377845179643721 0.21458276756770189 0 0.31674655555173881 0.19902842766084339 0 0.30168066081365352 0.2029210297493958 0 0.28252807440433819 0.20448568929014271 0 0.29563254553293061 0.22626444716337071 0 0.26947725056793032 0.22188821543332771 0 0.28252807440433819 0.20448568929014271 0 0.29563254553293061 0.22626444716337071 0 0.26947725056793032 0.22188821543332771 0 0.29563254553293061 0.22626444716337071 0 0.29563254553293061 0.22626444716337071 0 0.3217878404979308 0.23064067889341369 0 0.31377845179643721 0.21458276756770189 0 0.29563254553293061 0.22626444716337071 0 0.3217878404979308 0.23064067889341369 0 0.29563254553293061 0.22626444716337071 0 0.3016365876598241 0.24719201463661561 0 0.3217878404979308 0.23064067889341369 0 0.27381195783464701 0.24213208581531279 0 0.29563254553293061 0.22626444716337071 0 0.3016365876598241 0.24719201463661561 0 0.27381195783464701 0.24213208581531279 0 0.3016365876598241 0.24719201463661561 0 0.27381195783464701 0.24213208581531279 0 0.27283394916361492 0.24742619336605559 0 0.3016365876598241 0.24719201463661561 0 0.32946121748500129 0.25225194345791829 0 0.3217878404979308 0.23064067889341369 0 0.34556910970536658 0.23921390462248199 0 0.32946121748500129 0.25225194345791829 0 0.3016365876598241 0.24719201463661561 0 0.3217878404979308 0.23064067889341369 0 0.32946121748500129 0.25225194345791829 0 0.3016365876598241 0.24719201463661561 0 0.3217878404979308 0.23064067889341369 0 0.33460182177363001 0.21999966289075409 0 0.31377845179643721 0.21458276756770189 0 0.3217878404979308 0.23064067889341369 0 0.33460182177363001 0.21999966289075409 0 0.34556910970536658 0.23921390462248199 0 0.33460182177363001 0.21999966289075409 0 0.3278776259658665 0.2076214509036243 0 0.34419695055865512 0.20542025302645439 0 0.33460182177363001 0.21999966289075409 0 0.31377845179643721 0.21458276756770189 0 0.3278776259658665 0.2076214509036243 0 0.31377845179643721 0.21458276756770189 0 0.3278776259658665 0.2076214509036243 0 0.31674655555173881 0.19902842766084339 0 0.3278776259658665 0.2076214509036243 0 0.31674655555173881 0.19902842766084339 0 0.32893527636844411 0.194937601908272 0 0.3080553032197017 0.1887293017033026 0 0.31674655555173881 0.19902842766084339 0 0.32122387935841612 0.1836610840160959 0 0.31674655555173881 0.19902842766084339 0 0.32893527636844411 0.194937601908272 0 0.32122387935841612 0.1836610840160959 0 0.32893527636844411 0.194937601908272 0 0.34419695055865512 0.20542025302645439 0 0.33967484433078321 0.18584068278097349 0 0.32893527636844411 0.194937601908272 0 0.32122387935841612 0.1836610840160959 0 0.33967484433078321 0.18584068278097349 0 0.3278776259658665 0.2076214509036243 0 0.32893527636844411 0.194937601908272 0 0.34419695055865512 0.20542025302645439 0 0.35368837148756882 0.19334260062126429 0 0.34419695055865512 0.20542025302645439 0 0.33967484433078321 0.18584068278097349 0 0.35368837148756882 0.19334260062126429 0 0.36735815001373812 0.20351917688449569 0 0.34419695055865512 0.20542025302645439 0 0.36735815001373812 0.20351917688449569 0 0.36699199379966768 0.18628457072029089 0 0.38367398474104891 0.18179268717308689 0 0.35368837148756882 0.19334260062126429 0 0.36735815001373812 0.20351917688449569 0 0.36699199379966768 0.18628457072029089 0 0.36735815001373812 0.20351917688449569 0 0.35440095211752448 0.2225189223308488 0 0.37280151553833601 0.22024831863616021 0 0.36735815001373812 0.20351917688449569 0 0.37280151553833601 0.22024831863616021 0 0.38406378734192298 0.20777210545990279 0 0.36735815001373812 0.20351917688449569 0 0.34419695055865512 0.20542025302645439 0 0.35440095211752448 0.2225189223308488 0 0.33460182177363001 0.21999966289075409 0 0.34419695055865512 0.20542025302645439 0 0.35440095211752448 0.2225189223308488 0 0.35440095211752448 0.2225189223308488 0 0.37293454716760283 0.2396311516560117 0 0.34556910970536658 0.23921390462248199 0 0.33460182177363001 0.21999966289075409 0 0.35440095211752448 0.2225189223308488 0 0.34556910970536658 0.23921390462248199 0 0.35440095211752448 0.2225189223308488 0 0.37280151553833601 0.22024831863616021 0 0.37293454716760283 0.2396311516560117 0 0.32946121748500129 0.25225194345791829 0 0.35728584731017871 0.25731187227922109 0 0.34556910970536658 0.23921390462248199 0 0.35728584731017871 0.25731187227922109 0 0.37293454716760283 0.2396311516560117 0 0.34556910970536658 0.23921390462248199 0 0.33789665254535572 0.15537308983460499 0 0.33956800136883641 0.14149862746365649 0 0.32484504322689201 0.150618498474763 0 0.33789665254535572 0.15537308983460499 0 0.32484504322689201 0.150618498474763 0 0.32925575641373173 0.1625602653078303 0 0.33789665254535572 0.15537308983460499 0 0.33956800136883641 0.14149862746365649 0 0.35085012880757988 0.15547460686614431 0 0.31847051852819058 0.13586426255884801 0 0.34441400131097022 0.1288917011053414 0 0.32933038512457441 0.1245201253257071 0 0.31847051852819058 0.13586426255884801 0 0.34441400131097022 0.1288917011053414 0 0.33956800136883641 0.14149862746365649 0 0.31847051852819058 0.13586426255884801 0 0.34441400131097022 0.1288917011053414 0 0.31229822968882548 0.13781435906697939 0 0.33956800136883641 0.14149862746365649 0 0.31229822968882548 0.13781435906697939 0 0.33956800136883641 0.14149862746365649 0 0.31847051852819058 0.13586426255884801 0 0.32933038512457441 0.1245201253257071 0 0.3207185438207466 0.1263919595033525 0 0.31847051852819058 0.13586426255884801 0 0.31156748461804079 0.12537242366950921 0 0.3207185438207466 0.1263919595033525 0 0.31847051852819058 0.13586426255884801 0 0.31229822968882548 0.13781435906697939 0 0.31156748461804079 0.12537242366950921 0 0.31847051852819058 0.13586426255884801 0 0.31229822968882548 0.13781435906697939 0 0.33956800136883641 0.14149862746365649 0 0.32484504322689201 0.150618498474763 0 0.31229822968882548 0.13781435906697939 0 0.32484504322689201 0.150618498474763 0 0.3129765302581462 0.1494710021231663 0 0.32484504322689201 0.150618498474763 0 0.3129765302581462 0.1494710021231663 0 0.31772009751989111 0.15842714336302041 0 0.30747502192119819 0.16230778928688711 0 0.3129765302581462 0.1494710021231663 0 0.31772009751989111 0.15842714336302041 0 0.30747502192119819 0.16230778928688711 0 0.31772009751989111 0.15842714336302041 0 0.32080742045079952 0.16866520015094741 0 0.31056514142368619 0.1744383831500049 0 0.30747502192119819 0.16230778928688711 0 0.32080742045079952 0.16866520015094741 0 0.32080742045079952 0.16866520015094741 0 0.33131907253280629 0.1738795647946571 0 0.32925575641373173 0.1625602653078303 0 0.32484504322689201 0.150618498474763 0 0.31772009751989111 0.15842714336302041 0 0.32925575641373173 0.1625602653078303 0 0.31772009751989111 0.15842714336302041 0 0.32080742045079952 0.16866520015094741 0 0.32925575641373173 0.1625602653078303 0 0.31056514142368619 0.1744383831500049 0 0.3080553032197017 0.1887293017033026 0 0.32122387935841612 0.1836610840160959 0 0.31056514142368619 0.1744383831500049 0 0.32080742045079952 0.16866520015094741 0 0.32122387935841612 0.1836610840160959 0 0.32080742045079952 0.16866520015094741 0 0.32122387935841612 0.1836610840160959 0 0.33131907253280629 0.1738795647946571 0 0.33131907253280629 0.1738795647946571 0 0.33967484433078321 0.18584068278097349 0 0.34294625220664587 0.1683980952289891 0 0.32122387935841612 0.1836610840160959 0 0.33131907253280629 0.1738795647946571 0 0.33967484433078321 0.18584068278097349 0 0.33131907253280629 0.1738795647946571 0 0.32925575641373173 0.1625602653078303 0 0.34294625220664587 0.1683980952289891 0 0.33789665254535572 0.15537308983460499 0 0.32925575641373173 0.1625602653078303 0 0.34294625220664587 0.1683980952289891 0 0.34294625220664587 0.1683980952289891 0 0.35531914635495271 0.16562513299740311 0 0.35085012880757988 0.15547460686614431 0 0.33789665254535572 0.15537308983460499 0 0.34294625220664587 0.1683980952289891 0 0.35085012880757988 0.15547460686614431 0 0.34294625220664587 0.1683980952289891 0 0.35531914635495271 0.16562513299740311 0 0.35387202203434698 0.17803066266241011 0 0.35531914635495271 0.16562513299740311 0 0.35387202203434698 0.17803066266241011 0 0.36550295271590683 0.1690726970215666 0 0.35531914635495271 0.16562513299740311 0 0.36342437601028388 0.15714960320790561 0 0.35085012880757988 0.15547460686614431 0 0.33967484433078321 0.18584068278097349 0 0.34294625220664587 0.1683980952289891 0 0.35387202203434698 0.17803066266241011 0 0.35368837148756882 0.19334260062126429 0 0.33967484433078321 0.18584068278097349 0 0.35387202203434698 0.17803066266241011 0 0.35368837148756882 0.19334260062126429 0 0.35387202203434698 0.17803066266241011 0 0.36699199379966768 0.18628457072029089 0 0.37486327834919952 0.17324080595030389 0 0.36699199379966768 0.18628457072029089 0 0.36550295271590683 0.1690726970215666 0 0.35387202203434698 0.17803066266241011 0 0.36699199379966768 0.18628457072029089 0 0.36550295271590683 0.1690726970215666 0 0.36342437601028388 0.15714960320790561 0 0.36550295271590683 0.1690726970215666 0 0.38328418214017468 0.15581326888627101 0 0.37486327834919952 0.17324080595030389 0 0.36550295271590683 0.1690726970215666 0 0.38328418214017468 0.15581326888627101 0 0.35531914635495271 0.16562513299740311 0 0.36342437601028388 0.15714960320790561 0 0.36550295271590683 0.1690726970215666 0 0.36342437601028388 0.15714960320790561 0 0.36683777304884752 0.14518289586033359 0 0.38328418214017468 0.15581326888627101 0 0.36342437601028388 0.15714960320790561 0 0.36683777304884752 0.14518289586033359 0 0.35085012880757988 0.15547460686614431 0 0.33956800136883641 0.14149862746365649 0 0.36683777304884752 0.14518289586033359 0 0.33956800136883641 0.14149862746365649 0 0.36683777304884752 0.14518289586033359 0 0.35085012880757988 0.15547460686614431 0 0.37035748409374952 0.12191913965183331 0 0.34441400131097022 0.1288917011053414 0 0.33956800136883641 0.14149862746365649 0 0.34441400131097022 0.1288917011053414 0 0.35985245571789548 0.13256521397634091 0 0.37035748409374952 0.12191913965183331 0 0.34441400131097022 0.1288917011053414 0 0.35985245571789548 0.13256521397634091 0 0.33956800136883641 0.14149862746365649 0 0.36683777304884752 0.14518289586033359 0 0.35985245571789548 0.13256521397634091 0 0.36683777304884752 0.14518289586033359 0 0.37024230120578611 0.13336796185197819 0 0.3828943795393005 0.1298338505994551 0 0.36683777304884752 0.14518289586033359 0 0.35985245571789548 0.13256521397634091 0 0.37024230120578611 0.13336796185197819 0 0.35985245571789548 0.13256521397634091 0 0.37024230120578611 0.13336796185197819 0 0.37169283910029199 0.12815165521797289 0 0.37024230120578611 0.13336796185197819 0 0.37169283910029199 0.12815165521797289 0 0.3828943795393005 0.1298338505994551 0 0.37035748409374952 0.12191913965183331 0 0.35985245571789548 0.13256521397634091 0 0.37169283910029199 0.12815165521797289 0 0.37169283910029199 0.12815165521797289 0 0.3828943795393005 0.1298338505994551 0 0.37511757494472903 0.123072110010257 0 0.3828943795393005 0.1298338505994551 0 0.39816792615439378 0.12760480203569169 0 0.39443703245191569 0.14316330482662179 0 0.39816792615439378 0.12760480203569169 0 0.39443703245191569 0.14316330482662179 0 0.40813897635800228 0.13879757292358971 0 0.40355831469332321 0.14905262061052801 0 0.39443703245191569 0.14316330482662179 0 0.39831584160420508 0.1589856433255693 0 0.39443703245191569 0.14316330482662179 0 0.38328418214017468 0.15581326888627101 0 0.39831584160420508 0.1589856433255693 0 0.40355831469332321 0.14905262061052801 0 0.39831584160420508 0.1589856433255693 0 0.41313230378900101 0.1549252007201132 0 0.40355831469332321 0.14905262061052801 0 0.39443703245191569 0.14316330482662179 0 0.40813897635800228 0.13879757292358971 0 0.3828943795393005 0.1298338505994551 0 0.39443703245191569 0.14316330482662179 0 0.38328418214017468 0.15581326888627101 0 0.36683777304884752 0.14518289586033359 0 0.3828943795393005 0.1298338505994551 0 0.38328418214017468 0.15581326888627101 0 0.3828943795393005 0.1298338505994551 0 0.38328418214017468 0.15581326888627101 0 0.38328418214017468 0.15581326888627101 0 0.38367398474104891 0.18179268717308689 0 0.37486327834919952 0.17324080595030389 0 0.38328418214017468 0.15581326888627101 0 0.38367398474104891 0.18179268717308689 0 0.38328418214017468 0.15581326888627101 0 0.38367398474104891 0.18179268717308689 0 0.39626047774709761 0.17356948839180519 0 0.37486327834919952 0.17324080595030389 0 0.36699199379966768 0.18628457072029089 0 0.38367398474104891 0.18179268717308689 0 0.38367398474104891 0.18179268717308689 0 0.39626047774709761 0.17356948839180519 0 0.39402839101454218 0.18926537882500041 0 0.41201559310989622 0.1717711692121752 0 0.39402839101454218 0.18926537882500041 0 0.40911253846621609 0.1927355572029634 0 0.41201559310989622 0.1717711692121752 0 0.39402839101454218 0.18926537882500041 0 0.39626047774709761 0.17356948839180519 0 0.41201559310989622 0.1717711692121752 0 0.39402839101454218 0.18926537882500041 0 0.38328418214017468 0.15581326888627101 0 0.39626047774709761 0.17356948839180519 0 0.39831584160420508 0.1589856433255693 0 0.39626047774709761 0.17356948839180519 0 0.39831584160420508 0.1589856433255693 0 0.41201559310989622 0.1717711692121752 0 0.39831584160420508 0.1589856433255693 0 0.41201559310989622 0.1717711692121752 0 0.41313230378900101 0.1549252007201132 0 0.41201559310989622 0.1717711692121752 0 0.43000279520525009 0.1542769595993502 0 0.41201559310989622 0.1717711692121752 0 0.43000279520525009 0.1542769595993502 0 0.41313230378900101 0.1549252007201132 0 0.41201559310989622 0.1717711692121752 0 0.42496471626184562 0.18478050847474101 0 0.40911253846621609 0.1927355572029634 0 0.42496471626184562 0.18478050847474101 0 0.42886790669691233 0.1683305758749721 0 0.44390934378202151 0.1869955505783234 0 0.41201559310989622 0.1717711692121752 0 0.42496471626184562 0.18478050847474101 0 0.42886790669691233 0.1683305758749721 0 0.42886790669691233 0.1683305758749721 0 0.44390934378202151 0.1869955505783234 0 0.41201559310989622 0.1717711692121752 0 0.42886790669691233 0.1683305758749721 0 0.43000279520525009 0.1542769595993502 0 0.42886790669691233 0.1683305758749721 0 0.43000279520525009 0.1542769595993502 0 0.44221599041969212 0.16183818438693329 0 0.43000279520525009 0.1542769595993502 0 0.42332430940078591 0.1392784445062823 0 0.4479899973006039 0.1367827499865252 0 0.43000279520525009 0.1542769595993502 0 0.42332430940078591 0.1392784445062823 0 0.41313230378900101 0.1549252007201132 0 0.429848517254516 0.1255917524949702 0 0.42332430940078591 0.1392784445062823 0 0.41384889774502859 0.12525543762671809 0 0.429848517254516 0.1255917524949702 0 0.42332430940078591 0.1392784445062823 0 0.4479899973006039 0.1367827499865252 0 0.39816792615439378 0.12760480203569169 0 0.41384889774502859 0.12525543762671809 0 0.40813897635800228 0.13879757292358971 0 0.42332430940078591 0.1392784445062823 0 0.41384889774502859 0.12525543762671809 0 0.40813897635800228 0.13879757292358971 0 0.40355831469332321 0.14905262061052801 0 0.40813897635800228 0.13879757292358971 0 0.41313230378900101 0.1549252007201132 0 0.42332430940078591 0.1392784445062823 0 0.40813897635800228 0.13879757292358971 0 0.41313230378900101 0.1549252007201132 0 0.38511047713535562 0.2623718011005241 0 0.37293454716760283 0.2396311516560117 0 0.39933451681408499 0.24222051247515669 0 0.37293454716760283 0.2396311516560117 0 0.39933451681408499 0.24222051247515669 0 0.39045396999845727 0.2225958518425987 0 0.37280151553833601 0.22024831863616021 0 0.37293454716760283 0.2396311516560117 0 0.39045396999845727 0.2225958518425987 0 0.39933451681408499 0.24222051247515669 0 0.39045396999845727 0.2225958518425987 0 0.41502085935247712 0.2184770015477572 0 0.39045396999845727 0.2225958518425987 0 0.39965272480706299 0.2061417744041574 0 0.38406378734192298 0.20777210545990279 0 0.39045396999845727 0.2225958518425987 0 0.39965272480706299 0.2061417744041574 0 0.41502085935247712 0.2184770015477572 0 0.37280151553833601 0.22024831863616021 0 0.39045396999845727 0.2225958518425987 0 0.38406378734192298 0.20777210545990279 0 0.36735815001373812 0.20351917688449569 0 0.38367398474104891 0.18179268717308689 0 0.38406378734192298 0.20777210545990279 0 0.38367398474104891 0.18179268717308689 0 0.38406378734192298 0.20777210545990279 0 0.38367398474104891 0.18179268717308689 0 0.38406378734192298 0.20777210545990279 0 0.39402839101454218 0.18926537882500041 0 0.39965272480706299 0.2061417744041574 0 0.38406378734192298 0.20777210545990279 0 0.39402839101454218 0.18926537882500041 0 0.39965272480706299 0.2061417744041574 0 0.39402839101454218 0.18926537882500041 0 0.40911253846621609 0.1927355572029634 0 0.42496471626184562 0.18478050847474101 0 0.40911253846621609 0.1927355572029634 0 0.43133039545531981 0.20312972213906441 0 0.42496471626184562 0.18478050847474101 0 0.43133039545531981 0.20312972213906441 0 0.44390934378202151 0.1869955505783234 0 0.43133039545531981 0.20312972213906441 0 0.41502085935247712 0.2184770015477572 0 0.43839838412078092 0.2247149777195776 0 0.40911253846621609 0.1927355572029634 0 0.41502085935247712 0.2184770015477572 0 0.40911253846621609 0.1927355572029634 0 0.43133039545531981 0.20312972213906441 0 0.41502085935247712 0.2184770015477572 0 0.39965272480706299 0.2061417744041574 0 0.40911253846621609 0.1927355572029634 0 0.41502085935247712 0.2184770015477572 0 0.41502085935247712 0.2184770015477572 0 0.42092918023873821 0.24421844589255121 0 0.41502085935247712 0.2184770015477572 0 0.42092918023873821 0.24421844589255121 0 0.43839838412078092 0.2247149777195776 0 0.42092918023873821 0.24421844589255121 0 0.44272868649399699 0.2414724783298311 0 0.43839838412078092 0.2247149777195776 0 0.44089414042045799 0.25771217685885472 0 0.42092918023873821 0.24421844589255121 0 0.44272868649399699 0.2414724783298311 0 0.39933451681408499 0.24222051247515669 0 0.41502085935247712 0.2184770015477572 0 0.42092918023873821 0.24421844589255121 0 0.46750550623703407 0.25349570762290419 0 0.4569230610569987 0.24819013429900669 0 0.47278153852907701 0.24486280325581439 0 0.4569230610569987 0.24819013429900669 0 0.45723446189795819 0.23161380727854039 0 0.47278153852907701 0.24486280325581439 0 0.4569230610569987 0.24819013429900669 0 0.44272868649399699 0.2414724783298311 0 0.45723446189795819 0.23161380727854039 0 0.44089414042045799 0.25771217685885472 0 0.4569230610569987 0.24819013429900669 0 0.44272868649399699 0.2414724783298311 0 0.43839838412078092 0.2247149777195776 0 0.45723446189795819 0.23161380727854039 0 0.45895078086713059 0.20566052528167461 0 0.44272868649399699 0.2414724783298311 0 0.43839838412078092 0.2247149777195776 0 0.45723446189795819 0.23161380727854039 0 0.45723446189795819 0.23161380727854039 0 0.47399221795223978 0.22432549998502579 0 0.47278153852907701 0.24486280325581439 0 0.45723446189795819 0.23161380727854039 0 0.45895078086713059 0.20566052528167461 0 0.47399221795223978 0.22432549998502579 0 0.45895078086713059 0.20566052528167461 0 0.47399221795223978 0.22432549998502579 0 0.43133039545531981 0.20312972213906441 0 0.43839838412078092 0.2247149777195776 0 0.45895078086713059 0.20566052528167461 0 0.43133039545531981 0.20312972213906441 0 0.45895078086713059 0.20566052528167461 0 0.44390934378202151 0.1869955505783234 0 0.45895078086713059 0.20566052528167461 0 0.44390934378202151 0.1869955505783234 0 0.45895078086713059 0.20566052528167461 0 0.44390934378202151 0.1869955505783234 0 0.47471792995388828 0.18435875067661631 0 0.45895078086713059 0.20566052528167461 0 0.47967819324703809 0.2043502093285503 0 0.47471792995388828 0.18435875067661631 0 0.5 0.20006456793442701 0 0.47967819324703809 0.2043502093285503 0 0.47471792995388828 0.18435875067661631 0 0.5 0.20006456793442701 0 0.48813206750880261 0.21755351138133391 0 0.47967819324703809 0.2043502093285503 0 0.5 0.20006456793442701 0 0.48813206750880261 0.21755351138133391 0 0.5 0.22779789293978581 0 0.45895078086713059 0.20566052528167461 0 0.47967819324703809 0.2043502093285503 0 0.47399221795223978 0.22432549998502579 0 0.48813206750880261 0.21755351138133391 0 0.47967819324703809 0.2043502093285503 0 0.47399221795223978 0.22432549998502579 0 0.48813206750880261 0.21755351138133391 0 0.47399221795223978 0.22432549998502579 0 0.48903365503734891 0.24299047468837701 0 0.47399221795223978 0.22432549998502579 0 0.48903365503734891 0.24299047468837701 0 0.48813206750880261 0.21755351138133391 0 0.5 0.22779789293978581 0 0.48903365503734891 0.24299047468837701 0 0.5 0.25553121794514477 0 0.5 0.22779789293978581 0 0.48903365503734891 0.24299047468837701 0 0.48489893488970792 0.25686202981026901 0 0.48903365503734891 0.24299047468837701 0 0.47278153852907701 0.24486280325581439 0 0.47399221795223978 0.22432549998502579 0 0.48903365503734891 0.24299047468837701 0 0.47278153852907701 0.24486280325581439 0 0.4479899973006039 0.1367827499865252 0 0.46030990911367259 0.16280508589549539 0 0.47332178232586258 0.14483424446409521 0 0.4479899973006039 0.1367827499865252 0 0.47332178232586258 0.14483424446409521 0 0.46597719939595772 0.11928854037370019 0 0.4479899973006039 0.1367827499865252 0 0.46597719939595772 0.11928854037370019 0 0.429848517254516 0.1255917524949702 0 0.4479899973006039 0.1367827499865252 0 0.44441253831551758 0.1138689947079024 0 0.43000279520525009 0.1542769595993502 0 0.4479899973006039 0.1367827499865252 0 0.44221599041969212 0.16183818438693329 0 0.43000279520525009 0.1542769595993502 0 0.4479899973006039 0.1367827499865252 0 0.4479899973006039 0.1367827499865252 0 0.44221599041969212 0.16183818438693329 0 0.46030990911367259 0.16280508589549539 0 0.44221599041969212 0.16183818438693329 0 0.44390934378202151 0.1869955505783234 0 0.46030990911367259 0.16280508589549539 0 0.42886790669691233 0.1683305758749721 0 0.44221599041969212 0.16183818438693329 0 0.44390934378202151 0.1869955505783234 0 0.44390934378202151 0.1869955505783234 0 0.46030990911367259 0.16280508589549539 0 0.47471792995388828 0.18435875067661631 0 0.46030990911367259 0.16280508589549539 0 0.48162298028441808 0.16304382698580119 0 0.47332178232586258 0.14483424446409521 0 0.46030990911367259 0.16280508589549539 0 0.48162298028441808 0.16304382698580119 0 0.47471792995388828 0.18435875067661631 0 0.5 0.20006456793442701 0 0.47471792995388828 0.18435875067661631 0 0.5 0.17233124292906801 0 0.48162298028441808 0.16304382698580119 0 0.47471792995388828 0.18435875067661631 0 0.5 0.17233124292906801 0 0.48162298028441808 0.16304382698580119 0 0.5 0.17233124292906801 0 0.5 0.14459791792370899 0 0.48162298028441808 0.16304382698580119 0 0.5 0.14459791792370899 0 0.47332178232586258 0.14483424446409521 0 0.47332178232586258 0.14483424446409521 0 0.48369720064842647 0.1280225697211729 0 0.46597719939595772 0.11928854037370019 0 0.5 0.14459791792370899 0 0.48369720064842647 0.1280225697211729 0 0.5 0.1168645929183502 0 0.5 0.14459791792370899 0 0.47332178232586258 0.14483424446409521 0 0.48369720064842647 0.1280225697211729 0 0.48369720064842647 0.1280225697211729 0 0.5 0.1168645929183502 0 0.47911227232856668 0.09907818001940101 0 0.5 0.1168645929183502 0 0.47911227232856668 0.09907818001940101 0 0.5 0.089131267912991197 0 0.48369720064842647 0.1280225697211729 0 0.47911227232856668 0.09907818001940101 0 0.46597719939595772 0.11928854037370019 0 0.48592231416185638 0.0752646054103117 0 0.5 0.089131267912991197 0 0.5 0.06139794290763223 0 0.47911227232856668 0.09907818001940101 0 0.48592231416185638 0.0752646054103117 0 0.5 0.089131267912991197 0 0.47911227232856668 0.09907818001940101 0 0.48592231416185638 0.0752646054103117 0 0.46599422920766509 0.071585542922595516 0 0.48592231416185638 0.0752646054103117 0 0.46599422920766509 0.071585542922595516 0 0.47969083044660421 0.050503904472553283 0 0.47911227232856668 0.09907818001940101 0 0.46599422920766509 0.071585542922595516 0 0.45660210543223351 0.096238293732025512 0 0.46599422920766509 0.071585542922595516 0 0.44319262383460789 0.070531660330671375 0 0.45660210543223351 0.096238293732025512 0 0.44319262383460789 0.070531660330671375 0 0.45660210543223351 0.096238293732025512 0 0.43559540491542181 0.095634413362833848 0 0.46597719939595772 0.11928854037370019 0 0.45660210543223351 0.096238293732025512 0 0.44441253831551758 0.1138689947079024 0 0.47911227232856668 0.09907818001940101 0 0.46597719939595772 0.11928854037370019 0 0.45660210543223351 0.096238293732025512 0 0.45660210543223351 0.096238293732025512 0 0.44441253831551758 0.1138689947079024 0 0.43559540491542181 0.095634413362833848 0 0.4479899973006039 0.1367827499865252 0 0.46597719939595772 0.11928854037370019 0 0.44441253831551758 0.1138689947079024 0 0.429848517254516 0.1255917524949702 0 0.44441253831551758 0.1138689947079024 0 0.42416274095453271 0.1101558860989641 0 0.429848517254516 0.1255917524949702 0 0.41384889774502859 0.12525543762671809 0 0.42416274095453271 0.1101558860989641 0 0.41384889774502859 0.12525543762671809 0 0.42416274095453271 0.1101558860989641 0 0.40716605829359193 0.1120264799895512 0 0.39816792615439378 0.12760480203569169 0 0.41384889774502859 0.12525543762671809 0 0.40716605829359193 0.1120264799895512 0 0.40716605829359193 0.1120264799895512 0 0.41525133388600899 0.093407911538609431 0 0.39656535672550852 0.092974877928873267 0 0.42416274095453271 0.1101558860989641 0 0.40716605829359193 0.1120264799895512 0 0.41525133388600899 0.093407911538609431 0 0.42416274095453271 0.1101558860989641 0 0.43559540491542181 0.095634413362833848 0 0.41525133388600899 0.093407911538609431 0 0.44441253831551758 0.1138689947079024 0 0.42416274095453271 0.1101558860989641 0 0.43559540491542181 0.095634413362833848 0 0.43559540491542181 0.095634413362833848 0 0.4195547633014628 0.073570994746074828 0 0.41525133388600899 0.093407911538609431 0 0.43559540491542181 0.095634413362833848 0 0.4195547633014628 0.073570994746074828 0 0.44319262383460789 0.070531660330671375 0 0.43559540491542181 0.095634413362833848 0 0.4195547633014628 0.073570994746074828 0 0.44319262383460789 0.070531660330671375 0 0.4195547633014628 0.073570994746074828 0 0.42728191937221521 0.050914286525162993 0 0.4195547633014628 0.073570994746074828 0 0.39780951386322527 0.071813900777571313 0 0.40351412168750378 0.051507576129315842 0 0.4195547633014628 0.073570994746074828 0 0.40351412168750378 0.051507576129315842 0 0.4195547633014628 0.073570994746074828 0 0.41525133388600899 0.093407911538609431 0 0.39780951386322527 0.071813900777571313 0 0.41525133388600899 0.093407911538609431 0 0.39656535672550852 0.092974877928873267 0 0.39780951386322527 0.071813900777571313 0 0.37400882161871279 0.083619613235024759 0 0.37883567044039879 0.062600723425798879 0 0.39780951386322527 0.071813900777571313 0 0.37883567044039879 0.062600723425798879 0 0.3909554563133032 0.056876008487314757 0 0.37400882161871279 0.083619613235024759 0 0.39780951386322527 0.071813900777571313 0 0.37883567044039879 0.062600723425798879 0 0.37400882161871279 0.083619613235024759 0 0.39656535672550852 0.092974877928873267 0 0.38808178026068268 0.10392801007035141 0 0.37400882161871279 0.083619613235024759 0 0.39656535672550852 0.092974877928873267 0 0.39780951386322527 0.071813900777571313 0 0.37455144446510141 0.10193275935197101 0 0.37400882161871279 0.083619613235024759 0 0.38808178026068268 0.10392801007035141 0 0.37455144446510141 0.10193275935197101 0 0.38808178026068268 0.10392801007035141 0 0.37815432920295677 0.1109533992790251 0 0.37035748409374952 0.12191913965183331 0 0.38876177119367089 0.116972809820693 0 0.37035748409374952 0.12191913965183331 0 0.37511757494472903 0.123072110010257 0 0.38876177119367089 0.116972809820693 0 0.37035748409374952 0.12191913965183331 0 0.37815432920295677 0.1109533992790251 0 0.38876177119367089 0.116972809820693 0 0.3828943795393005 0.1298338505994551 0 0.37511757494472903 0.123072110010257 0 0.38876177119367089 0.116972809820693 0 0.3828943795393005 0.1298338505994551 0 0.39816792615439378 0.12760480203569169 0 0.38876177119367089 0.116972809820693 0 0.38808178026068268 0.10392801007035141 0 0.37815432920295677 0.1109533992790251 0 0.38876177119367089 0.116972809820693 0 0.40716605829359193 0.1120264799895512 0 0.38876177119367089 0.116972809820693 0 0.39816792615439378 0.12760480203569169 0 0.40716605829359193 0.1120264799895512 0 0.38876177119367089 0.116972809820693 0 0.40716605829359193 0.1120264799895512 0 0.38808178026068268 0.10392801007035141 0 0.38876177119367089 0.116972809820693 0 0.40716605829359193 0.1120264799895512 0 0.39656535672550852 0.092974877928873267 0 0.38808178026068268 0.10392801007035141 0 0.39895333728429933 0.027539300906755181 0 0.38848936808377088 0.020562943807347231 0 0.4122691541308795 0.010257189796790951 0 0.39895333728429933 0.027539300906755181 0 0.38848936808377088 0.020562943807347231 0 0.38747348007354487 0.029444157512556919 0 0.39212595536292472 0.0047271407553128551 0 0.4122691541308795 0.010257189796790951 0 0.40542454288086849 -0.004070234290400764 0 0.38848936808377088 0.020562943807347231 0 0.4122691541308795 0.010257189796790951 0 0.39212595536292472 0.0047271407553128551 0 0.38848936808377088 0.020562943807347231 0 0.4122691541308795 0.010257189796790951 0 0.39212595536292472 0.0047271407553128551 0 0.38120377069012762 0.010554394007073271 0 0.36845156083710567 -0.0060515153414843056 0 0.36934971840039982 0.01412264887454192 0 0.38120377069012762 0.010554394007073271 0 0.38848936808377088 0.020562943807347231 0 0.39212595536292472 0.0047271407553128551 0 0.38120377069012762 0.010554394007073271 0 0.38848936808377088 0.020562943807347231 0 0.39212595536292472 0.0047271407553128551 0 0.38848936808377088 0.020562943807347231 0 0.38848936808377088 0.020562943807347231 0 0.38747348007354487 0.029444157512556919 0 0.38366251926208489 0.041581833616573027 0 0.38848936808377088 0.020562943807347231 0 0.38366251926208489 0.041581833616573027 0 0.36096242836060388 0.032492650360987897 0 0.38848936808377088 0.020562943807347231 0 0.38366251926208489 0.041581833616573027 0 0.37883567044039879 0.062600723425798879 0 0.38366251926208489 0.041581833616573027 0 0.3909554563133032 0.056876008487314757 0 0.37883567044039879 0.062600723425798879 0 0.38366251926208489 0.041581833616573027 0 0.36884998715724038 0.048654936693666287 0 0.37883567044039879 0.062600723425798879 0 0.38366251926208489 0.041581833616573027 0 0.38366251926208489 0.041581833616573027 0 0.40351412168750378 0.051507576129315842 0 0.3909554563133032 0.056876008487314757 0 0.39780951386322527 0.071813900777571313 0 0.40351412168750378 0.051507576129315842 0 0.3909554563133032 0.056876008487314757 0 0.38747348007354487 0.029444157512556919 0 0.40351412168750378 0.051507576129315842 0 0.39895333728429933 0.027539300906755181 0 0.40351412168750378 0.051507576129315842 0 0.40867742594100492 0.02913313449165824 0 0.39895333728429933 0.027539300906755181 0 0.38747348007354487 0.029444157512556919 0 0.40351412168750378 0.051507576129315842 0 0.38747348007354487 0.029444157512556919 0 0.38366251926208489 0.041581833616573027 0 0.40351412168750378 0.051507576129315842 0 0.40351412168750378 0.051507576129315842 0 0.41712069737947322 0.039684074088297272 0 0.40867742594100492 0.02913313449165824 0 0.41712069737947322 0.039684074088297272 0 0.42900932251716922 0.027181299207052031 0 0.40867742594100492 0.02913313449165824 0 0.40351412168750378 0.051507576129315842 0 0.41712069737947322 0.039684074088297272 0 0.42728191937221521 0.050914286525162993 0 0.4195547633014628 0.073570994746074828 0 0.40351412168750378 0.051507576129315842 0 0.42728191937221521 0.050914286525162993 0 0.41712069737947322 0.039684074088297272 0 0.42728191937221521 0.050914286525162993 0 0.42900932251716922 0.027181299207052031 0 0.42728191937221521 0.050914286525162993 0 0.42900932251716922 0.027181299207052031 0 0.45357816737839107 0.043281393992262968 0 0.42900932251716922 0.027181299207052031 0 0.40867742594100492 0.02913313449165824 0 0.4122691541308795 0.010257189796790951 0 0.39895333728429933 0.027539300906755181 0 0.40867742594100492 0.02913313449165824 0 0.4122691541308795 0.010257189796790951 0 0.4122691541308795 0.010257189796790951 0 0.42733427856619571 -0.0085863840744332814 0 0.43604894017798812 -4.8564213765240817e-05 0 0.42900932251716922 0.027181299207052031 0 0.4122691541308795 0.010257189796790951 0 0.43604894017798812 -4.8564213765240817e-05 0 0.4122691541308795 0.010257189796790951 0 0.43604894017798812 -4.8564213765240817e-05 0 0.45021491583924189 0.016350560368503721 0 0.45982872622509668 -0.01035431822432146 0 0.43604894017798812 -4.8564213765240817e-05 0 0.42900932251716922 0.027181299207052031 0 0.45021491583924189 0.016350560368503721 0 0.43604894017798812 -4.8564213765240817e-05 0 0.42900932251716922 0.027181299207052031 0 0.45021491583924189 0.016350560368503721 0 0.45357816737839107 0.043281393992262968 0 0.45021491583924189 0.016350560368503721 0 0.45357816737839107 0.043281393992262968 0 0.47265027193171238 0.017829323700243871 0 0.45021491583924189 0.016350560368503721 0 0.47265027193171238 0.017829323700243871 0 0.45982872622509668 -0.01035431822432146 0 0.45357816737839107 0.043281393992262968 0 0.47969083044660421 0.050503904472553283 0 0.47265027193171238 0.017829323700243871 0 0.44319262383460789 0.070531660330671375 0 0.42728191937221521 0.050914286525162993 0 0.45357816737839107 0.043281393992262968 0 0.46599422920766509 0.071585542922595516 0 0.44319262383460789 0.070531660330671375 0 0.45357816737839107 0.043281393992262968 0 0.46599422920766509 0.071585542922595516 0 0.45357816737839107 0.043281393992262968 0 0.47969083044660421 0.050503904472553283 0 0.47969083044660421 0.050503904472553283 0 0.5 0.033664617902273368 0 0.47265027193171238 0.017829323700243871 0 0.48592231416185638 0.0752646054103117 0 0.47969083044660421 0.050503904472553283 0 0.5 0.06139794290763223 0 0.47969083044660421 0.050503904472553283 0 0.5 0.033664617902273368 0 0.5 0.06139794290763223 0 0.5 0.033664617902273368 0 0.47265027193171238 0.017829323700243871 0 0.5 0.0059312928969145204 0 0.47265027193171238 0.017829323700243871 0 0.5 0.0059312928969145204 0 0.48261795830076532 -0.0084137270416950408 0 0.5 0.0059312928969145204 0 0.48261795830076532 -0.0084137270416950408 0 0.5 -0.021802032108444391 0 0.47265027193171238 0.017829323700243871 0 0.48261795830076532 -0.0084137270416950408 0 0.45982872622509668 -0.01035431822432146 0 0.48261795830076532 -0.0084137270416950408 0 0.48385521188952352 -0.03103713942335571 0 0.45982872622509668 -0.01035431822432146 0 0.48385521188952352 -0.03103713942335571 0 0.46768790053651399 -0.040232759786602873 0 0.45982872622509668 -0.01035431822432146 0 0.48261795830076532 -0.0084137270416950408 0 0.48385521188952352 -0.03103713942335571 0 0.5 -0.021802032108444391 0 0.48385521188952352 -0.03103713942335571 0 0.49518245524492172 -0.045789595090724652 0 0.49482530481253351 -0.04804557135493729 0 0.5 -0.021802032108444391 0 0.49518245524492172 -0.045789595090724652 0 0.49999999999998263 -0.049535357113803247 0 0.48385521188952352 -0.03103713942335571 0 0.5 -0.021802032108444391 0 0.49518245524492172 -0.045789595090724652 0 0.49482530481253351 -0.04804557135493729 0 0.47636674367150789 -0.060588545727567042 0 0.49016972248203172 -0.07745302065780417 0 0.49999999999998263 -0.049535357113803247 0 0.49482530481253351 -0.04804557135493729 0 0.49016972248203172 -0.07745302065780417 0 0.49999999999998263 -0.049535357113803247 0 0.49482530481253351 -0.04804557135493729 0 0.49518245524492172 -0.045789595090724652 0 0.49999999999998263 -0.049535357113803247 0 0.49482530481253351 -0.04804557135493729 0 0.49518245524492172 -0.045789595090724652 0 0.49482530481253351 -0.04804557135493729 0 0.49482530481253351 -0.04804557135493729 0 0.47636674367150789 -0.060588545727567042 0 0.46768790053651399 -0.040232759786602873 0 0.49482530481253351 -0.04804557135493729 0 0.46768790053651399 -0.040232759786602873 0 0.48385521188952352 -0.03103713942335571 0 0.49482530481253351 -0.04804557135493729 0 0.46768790053651399 -0.040232759786602873 0 0.46768790053651399 -0.040232759786602873 0 0.44055049626049481 -0.03241994821826754 0 0.47636674367150789 -0.060588545727567042 0 0.46768790053651399 -0.040232759786602873 0 0.44971823816913109 -0.058611894661768998 0 0.46768790053651399 -0.040232759786602873 0 0.44971823816913109 -0.058611894661768998 0 0.44055049626049481 -0.03241994821826754 0 0.44971823816913109 -0.058611894661768998 0 0.44055049626049481 -0.03241994821826754 0 0.42776585910878662 -0.047462582859365887 0 0.44055049626049481 -0.03241994821826754 0 0.43862233638968018 -0.01433991032473066 0 0.45982872622509668 -0.01035431822432146 0 0.45982872622509668 -0.01035431822432146 0 0.43604894017798812 -4.8564213765240817e-05 0 0.43862233638968018 -0.01433991032473066 0 0.45982872622509668 -0.01035431822432146 0 0.43604894017798812 -4.8564213765240817e-05 0 0.46768790053651399 -0.040232759786602873 0 0.44055049626049481 -0.03241994821826754 0 0.45982872622509668 -0.01035431822432146 0 0.47499259514944292 -0.1202547269832886 0 0.48551414015152222 -0.10686046996066979 0 0.48085855782101261 -0.13626791926353529 0 0.47418157221881441 -0.11112465676427991 0 0.47528951870947961 -0.09927779745641295 0 0.46093003486481321 -0.11810563265674839 0 0.48551414015152222 -0.10686046996066979 0 0.48085855782101261 -0.13626791926353529 0 0.47499259514944292 -0.1202547269832886 0 0.46093003486481321 -0.11810563265674839 0 0.47239045088042492 -0.13005034139104371 0 0.47499259514944292 -0.1202547269832886 0 0.47418157221881441 -0.11112465676427991 0 0.46093003486481321 -0.11810563265674839 0 0.47499259514944292 -0.1202547269832886 0 0.47418157221881441 -0.11112465676427991 0 0.48551414015152222 -0.10686046996066979 0 0.48986304781109291 -0.1242692167884092 0 0.49384429699065369 -0.1173080088948287 0 0.48551414015152222 -0.10686046996066979 0 0.48986304781109291 -0.1242692167884092 0 0.48551414015152222 -0.10686046996066979 0 0.48085855782101261 -0.13626791926353529 0 0.49384429699065369 -0.1173080088948287 0 0.5 -0.1051480109548549 0 0.5 -0.13295433787538069 0 0.48986304781109291 -0.1242692167884092 0 0.49384429699065369 -0.1173080088948287 0 0.5 -0.13295433787538069 0 0.49384429699065369 -0.1173080088948287 0 0.48551414015152222 -0.10686046996066979 0 0.5 -0.1051480109548549 0 0.48551414015152222 -0.10686046996066979 0 0.5 -0.1051480109548549 0 0.49016972248203172 -0.07745302065780417 0 0.48551414015152222 -0.10686046996066979 0 0.47528951870947961 -0.09927779745641295 0 0.4786949329242487 -0.090297096352784045 0 0.47418157221881441 -0.11112465676427991 0 0.48551414015152222 -0.10686046996066979 0 0.47528951870947961 -0.09927779745641295 0 0.47494193394216588 -0.078729965701305249 0 0.4786949329242487 -0.090297096352784045 0 0.46755934933604398 -0.089164227987728051 0 0.47528951870947961 -0.09927779745641295 0 0.4786949329242487 -0.090297096352784045 0 0.46755934933604398 -0.089164227987728051 0 0.47494193394216588 -0.078729965701305249 0 0.4786949329242487 -0.090297096352784045 0 0.49016972248203172 -0.07745302065780417 0 0.48551414015152222 -0.10686046996066979 0 0.49016972248203172 -0.07745302065780417 0 0.5 -0.1051480109548549 0 0.49016972248203172 -0.07745302065780417 0 0.5 -0.077341684034329061 0 0.48551414015152222 -0.10686046996066979 0 0.4786949329242487 -0.090297096352784045 0 0.49016972248203172 -0.07745302065780417 0 0.49999999999998263 -0.049535357113803247 0 0.49016972248203172 -0.07745302065780417 0 0.5 -0.077341684034329061 0 0.49482530481253351 -0.04804557135493729 0 0.49016972248203172 -0.07745302065780417 0 0.47636674367150789 -0.060588545727567042 0 0.47494193394216588 -0.078729965701305249 0 0.49016972248203172 -0.07745302065780417 0 0.47636674367150789 -0.060588545727567042 0 0.47494193394216588 -0.078729965701305249 0 0.4592808493329405 -0.078369632624057675 0 0.47636674367150789 -0.060588545727567042 0 0.44971823816913109 -0.058611894661768998 0 0.4592808493329405 -0.078369632624057675 0 0.47636674367150789 -0.060588545727567042 0 0.4592808493329405 -0.078369632624057675 0 0.44971823816913109 -0.058611894661768998 0 0.44126951216661869 -0.079236189142810429 0 0.42731029070553322 -0.068277018127587574 0 0.44971823816913109 -0.058611894661768998 0 0.44126951216661869 -0.079236189142810429 0 0.4592808493329405 -0.078369632624057675 0 0.4592808493329405 -0.078369632624057675 0 0.44219495499437311 -0.096150719520548239 0 0.44126951216661869 -0.079236189142810429 0 0.4592808493329405 -0.078369632624057675 0 0.44219495499437311 -0.096150719520548239 0 0.47494193394216588 -0.078729965701305249 0 0.4592808493329405 -0.078369632624057675 0 0.46755934933604398 -0.089164227987728051 0 0.4592808493329405 -0.078369632624057675 0 0.46755934933604398 -0.089164227987728051 0 0.44219495499437311 -0.096150719520548239 0 0.46755934933604398 -0.089164227987728051 0 0.46093003486481321 -0.11810563265674839 0 0.46755934933604398 -0.089164227987728051 0 0.44219495499437311 -0.096150719520548239 0 0.46093003486481321 -0.11810563265674839 0 0.47528951870947961 -0.09927779745641295 0 0.46755934933604398 -0.089164227987728051 0 0.46093003486481321 -0.11810563265674839 0 0.441730170532879 -0.1159420230490274 0 0.46093003486481321 -0.11810563265674839 0 0.44582693855797939 -0.1311402400572215 0 0.44219495499437311 -0.096150719520548239 0 0.441730170532879 -0.1159420230490274 0 0.46093003486481321 -0.11810563265674839 0 0.42510906065580589 -0.11393180641703871 0 0.40802316631723889 -0.13171289331352951 0 0.40725115801851319 -0.1169919833964142 0 0.42510906065580589 -0.11393180641703871 0 0.40802316631723889 -0.13171289331352951 0 0.40725115801851319 -0.1169919833964142 0 0.42510906065580589 -0.11393180641703871 0 0.4147200547274239 -0.1079547067436207 0 0.40725115801851319 -0.1169919833964142 0 0.4147200547274239 -0.1079547067436207 0 0.40692444267373179 -0.1088204768843429 0 0.441730170532879 -0.1159420230490274 0 0.42510906065580589 -0.11393180641703871 0 0.43087782981676859 -0.131879285754128 0 0.44219495499437311 -0.096150719520548239 0 0.42510906065580589 -0.11393180641703871 0 0.44219495499437311 -0.096150719520548239 0 0.441730170532879 -0.1159420230490274 0 0.42510906065580589 -0.11393180641703871 0 0.44219495499437311 -0.096150719520548239 0 0.42510906065580589 -0.11393180641703871 0 0.4234909377050316 -0.092737982748798881 0 0.42510906065580589 -0.11393180641703871 0 0.4147200547274239 -0.1079547067436207 0 0.4234909377050316 -0.092737982748798881 0 0.4147200547274239 -0.1079547067436207 0 0.40904120664506322 -0.09935874077938342 0 0.4234909377050316 -0.092737982748798881 0 0.4147200547274239 -0.1079547067436207 0 0.40692444267373179 -0.1088204768843429 0 0.40904120664506322 -0.09935874077938342 0 0.40904120664506322 -0.09935874077938342 0 0.4234909377050316 -0.092737982748798881 0 0.40226126486411301 -0.082186696628613137 0 0.4234909377050316 -0.092737982748798881 0 0.42731029070553322 -0.068277018127587574 0 0.40226126486411301 -0.082186696628613137 0 0.44126951216661869 -0.079236189142810429 0 0.4234909377050316 -0.092737982748798881 0 0.42731029070553322 -0.068277018127587574 0 0.44126951216661869 -0.079236189142810429 0 0.44219495499437311 -0.096150719520548239 0 0.4234909377050316 -0.092737982748798881 0 0.42731029070553322 -0.068277018127587574 0 0.40226126486411301 -0.082186696628613137 0 0.40783717842429862 -0.053396916639273179 0 0.40226126486411301 -0.082186696628613137 0 0.40783717842429862 -0.053396916639273179 0 0.38429333219820472 -0.067131704106828338 0 0.40226126486411301 -0.082186696628613137 0 0.40783717842429862 -0.053396916639273179 0 0.38429333219820472 -0.067131704106828338 0 0.38199460798391838 -0.085246791459625215 0 0.40226126486411301 -0.082186696628613137 0 0.38199460798391838 -0.085246791459625215 0 0.40226126486411301 -0.082186696628613137 0 0.39106825526090561 -0.1007030293946076 0 0.40226126486411301 -0.082186696628613137 0 0.39106825526090561 -0.1007030293946076 0 0.39668535130392929 -0.1109764766179535 0 0.40904120664506322 -0.09935874077938342 0 0.40226126486411301 -0.082186696628613137 0 0.39668535130392929 -0.1109764766179535 0 0.40226126486411301 -0.082186696628613137 0 0.39668535130392929 -0.1109764766179535 0 0.40692444267373179 -0.1088204768843429 0 0.40904120664506322 -0.09935874077938342 0 0.39668535130392929 -0.1109764766179535 0 0.39106825526090561 -0.1007030293946076 0 0.39668535130392929 -0.1109764766179535 0 0.39106825526090561 -0.1007030293946076 0 0.3799934613124491 -0.1141351934829782 0 0.39668535130392929 -0.1109764766179535 0 0.38199460798391838 -0.085246791459625215 0 0.39106825526090561 -0.1007030293946076 0 0.37706007999693841 -0.1011775095245466 0 0.39106825526090561 -0.1007030293946076 0 0.37706007999693841 -0.1011775095245466 0 0.3799934613124491 -0.1141351934829782 0 0.3799934613124491 -0.1141351934829782 0 0.39668535130392929 -0.1109764766179535 0 0.3932705088567644 -0.1286081277708763 0 0.3799934613124491 -0.1141351934829782 0 0.37104303648388809 -0.1272612894930944 0 0.3932705088567644 -0.1286081277708763 0 0.40224748518751269 -0.1211494002184121 0 0.3932705088567644 -0.1286081277708763 0 0.39668535130392929 -0.1109764766179535 0 0.3932705088567644 -0.1286081277708763 0 0.39668535130392929 -0.1109764766179535 0 0.40224748518751269 -0.1211494002184121 0 0.3932705088567644 -0.1286081277708763 0 0.40725115801851319 -0.1169919833964142 0 0.39668535130392929 -0.1109764766179535 0 0.40224748518751269 -0.1211494002184121 0 0.39668535130392929 -0.1109764766179535 0 0.40224748518751269 -0.1211494002184121 0 0.40725115801851319 -0.1169919833964142 0 0.40692444267373179 -0.1088204768843429 0 0.39668535130392929 -0.1109764766179535 0 0.40725115801851319 -0.1169919833964142 0 0.40224748518751269 -0.1211494002184121 0 0.40725115801851319 -0.1169919833964142 0 0.40224748518751269 -0.1211494002184121 0 0.40802316631723889 -0.13171289331352951 0 0.42156842614681772 -0.015954947998216139 0 0.41341309198447568 -0.024607136649931451 0 0.42934924071862562 -0.02029033689286578 0 0.41341309198447568 -0.024607136649931451 0 0.41617709331797431 -0.010335934375633319 0 0.42156842614681772 -0.015954947998216139 0 0.41341309198447568 -0.024607136649931451 0 0.41617709331797431 -0.010335934375633319 0 0.41341309198447568 -0.024607136649931451 0 0.40231254689356027 -0.037392070823486202 0 0.40309603266908228 -0.02802239201193971 0 0.41341309198447568 -0.024607136649931451 0 0.41078796895048542 -0.01389090533175278 0 0.39783226839882679 -0.020121444594939791 0 0.41341309198447568 -0.024607136649931451 0 0.41078796895048542 -0.01389090533175278 0 0.41617709331797431 -0.010335934375633319 0 0.41078796895048542 -0.01389090533175278 0 0.41617709331797431 -0.010335934375633319 0 0.40542454288086849 -0.004070234290400764 0 0.4122691541308795 0.010257189796790951 0 0.41617709331797431 -0.010335934375633319 0 0.40542454288086849 -0.004070234290400764 0 0.4122691541308795 0.010257189796790951 0 0.41617709331797431 -0.010335934375633319 0 0.42733427856619571 -0.0085863840744332814 0 0.42156842614681772 -0.015954947998216139 0 0.41617709331797431 -0.010335934375633319 0 0.42733427856619571 -0.0085863840744332814 0 0.42156842614681772 -0.015954947998216139 0 0.42733427856619571 -0.0085863840744332814 0 0.42934924071862562 -0.02029033689286578 0 0.43862233638968018 -0.01433991032473066 0 0.42733427856619571 -0.0085863840744332814 0 0.43604894017798812 -4.8564213765240817e-05 0 0.43862233638968018 -0.01433991032473066 0 0.42733427856619571 -0.0085863840744332814 0 0.42934924071862562 -0.02029033689286578 0 0.44055049626049481 -0.03241994821826754 0 0.43862233638968018 -0.01433991032473066 0 0.42934924071862562 -0.02029033689286578 0 0.44055049626049481 -0.03241994821826754 0 0.41341309198447568 -0.024607136649931451 0 0.42934924071862562 -0.02029033689286578 0 0.44055049626049481 -0.03241994821826754 0 0.41341309198447568 -0.024607136649931451 0 0.44055049626049481 -0.03241994821826754 0 0.41341309198447568 -0.024607136649931451 0 0.42776585910878662 -0.047462582859365887 0 0.44971823816913109 -0.058611894661768998 0 0.42731029070553322 -0.068277018127587574 0 0.42776585910878662 -0.047462582859365887 0 0.42731029070553322 -0.068277018127587574 0 0.42776585910878662 -0.047462582859365887 0 0.40783717842429862 -0.053396916639273179 0 0.41341309198447568 -0.024607136649931451 0 0.42776585910878662 -0.047462582859365887 0 0.40783717842429862 -0.053396916639273179 0 0.41341309198447568 -0.024607136649931451 0 0.40783717842429862 -0.053396916639273179 0 0.40231254689356027 -0.037392070823486202 0 0.41341309198447568 -0.024607136649931451 0 0.40783717842429862 -0.053396916639273179 0 0.40231254689356027 -0.037392070823486202 0 0.3981973431289102 -0.028872790202489229 0 0.40309603266908228 -0.02802239201193971 0 0.40231254689356027 -0.037392070823486202 0 0.38732801778773829 -0.04651698367670077 0 0.38934459454031273 -0.029067224222560958 0 0.40783717842429862 -0.053396916639273179 0 0.40231254689356027 -0.037392070823486202 0 0.38732801778773829 -0.04651698367670077 0 0.40231254689356027 -0.037392070823486202 0 0.38934459454031273 -0.029067224222560958 0 0.3981973431289102 -0.028872790202489229 0 0.38429333219820472 -0.067131704106828338 0 0.40783717842429862 -0.053396916639273179 0 0.38732801778773829 -0.04651698367670077 0 0.38429333219820472 -0.067131704106828338 0 0.38732801778773829 -0.04651698367670077 0 0.37042415964797237 -0.053058901563766692 0 0.38732801778773829 -0.04651698367670077 0 0.37068698927403948 -0.035605583580554698 0 0.37042415964797237 -0.053058901563766692 0 0.38732801778773829 -0.04651698367670077 0 0.38934459454031273 -0.029067224222560958 0 0.37068698927403948 -0.035605583580554698 0 0.38934459454031273 -0.029067224222560958 0 0.36983137800827248 -0.01206003687362641 0 0.37068698927403948 -0.035605583580554698 0 0.38934459454031273 -0.029067224222560958 0 0.39783226839882679 -0.020121444594939791 0 0.36983137800827248 -0.01206003687362641 0 0.39783226839882679 -0.020121444594939791 0 0.36983137800827248 -0.01206003687362641 0 0.38934459454031273 -0.029067224222560958 0 0.3981973431289102 -0.028872790202489229 0 0.39783226839882679 -0.020121444594939791 0 0.41341309198447568 -0.024607136649931451 0 0.39783226839882679 -0.020121444594939791 0 0.41341309198447568 -0.024607136649931451 0 0.39783226839882679 -0.020121444594939791 0 0.40309603266908228 -0.02802239201193971 0 0.3981973431289102 -0.028872790202489229 0 0.39783226839882679 -0.020121444594939791 0 0.40309603266908228 -0.02802239201193971 0 0.39212595536292472 0.0047271407553128551 0 0.39576254264207811 -0.011108662296721609 0 0.39212595536292472 0.0047271407553128551 0 0.40542454288086849 -0.004070234290400764 0 0.39576254264207811 -0.011108662296721609 0 0.41078796895048542 -0.01389090533175278 0 0.39783226839882679 -0.020121444594939791 0 0.39576254264207811 -0.011108662296721609 0 0.41078796895048542 -0.01389090533175278 0 0.39576254264207811 -0.011108662296721609 0 0.41078796895048542 -0.01389090533175278 0 0.40542454288086849 -0.004070234290400764 0 0.39576254264207811 -0.011108662296721609 0 0.39783226839882679 -0.020121444594939791 0 0.39576254264207811 -0.011108662296721609 0 0.39576254264207811 -0.011108662296721609 0 0.36983137800827248 -0.01206003687362641 0 0.36845156083710567 -0.0060515153414843056 0 0.39576254264207811 -0.011108662296721609 0 0.36845156083710567 -0.0060515153414843056 0 0.39212595536292472 0.0047271407553128551 0 0.39576254264207811 -0.011108662296721609 0 0.36845156083710567 -0.0060515153414843056 0 0.39783226839882679 -0.020121444594939791 0 0.39576254264207811 -0.011108662296721609 0 0.36983137800827248 -0.01206003687362641 0 0.36983137800827248 -0.01206003687362641 0 0.36845156083710567 -0.0060515153414843056 0 0.34183048761771712 -0.0039986291523161147 0 0.36983137800827248 -0.01206003687362641 0 0.35223914962217417 -0.02278106829858554 0 0.37068698927403948 -0.035605583580554698 0 0.36983137800827248 -0.01206003687362641 0 0.35223914962217417 -0.02278106829858554 0 0.34183048761771712 -0.0039986291523161147 0 0.36983137800827248 -0.01206003687362641 0 0.34183048761771712 -0.0039986291523161147 0 0.36845156083710567 -0.0060515153414843056 0 0.34114057903213352 -0.00099436838624600288 0 0.36845156083710567 -0.0060515153414843056 0 0.34183048761771712 -0.0039986291523161147 0 0.34114057903213352 -0.00099436838624600288 0 0.35223914962217417 -0.02278106829858554 0 0.34183048761771712 -0.0039986291523161147 0 0.33977780877024261 -0.017668132193127541 0 0.31382959722716158 0.0040627785689932028 0 0.34183048761771712 -0.0039986291523161147 0 0.34114057903213352 -0.00099436838624600288 0 0.34183048761771712 -0.0039986291523161147 0 0.33574973546384762 -0.01167659105592548 0 0.32194573769061952 -0.0077676308935595512 0 0.34183048761771712 -0.0039986291523161147 0 0.33574973546384762 -0.01167659105592548 0 0.33977780877024261 -0.017668132193127541 0 0.35223914962217417 -0.02278106829858554 0 0.33977780877024261 -0.017668132193127541 0 0.33879793226643329 -0.029417681387060649 0 0.33574973546384762 -0.01167659105592548 0 0.3302717388810405 -0.020466691071749941 0 0.3196214637881436 -0.021924893160697439 0 0.33977780877024261 -0.017668132193127541 0 0.33879793226643329 -0.029417681387060649 0 0.3302717388810405 -0.020466691071749941 0 0.33879793226643329 -0.029417681387060649 0 0.32862271298124018 -0.028919582591936679 0 0.3302717388810405 -0.020466691071749941 0 0.33574973546384762 -0.01167659105592548 0 0.33977780877024261 -0.017668132193127541 0 0.3302717388810405 -0.020466691071749941 0 0.3302717388810405 -0.020466691071749941 0 0.32526768976560849 -0.02407540610795475 0 0.3196214637881436 -0.021924893160697439 0 0.33574973546384762 -0.01167659105592548 0 0.3196214637881436 -0.021924893160697439 0 0.32862271298124018 -0.028919582591936679 0 0.3302717388810405 -0.020466691071749941 0 0.32526768976560849 -0.02407540610795475 0 0.32862271298124018 -0.028919582591936679 0 0.32095671603858011 -0.024994897592425049 0 0.3231679364015333 -0.033306441836977792 0 0.32862271298124018 -0.028919582591936679 0 0.32526768976560849 -0.02407540610795475 0 0.32095671603858011 -0.024994897592425049 0 0.32526768976560849 -0.02407540610795475 0 0.32095671603858011 -0.024994897592425049 0 0.3196214637881436 -0.021924893160697439 0 0.32095671603858011 -0.024994897592425049 0 0.3196214637881436 -0.021924893160697439 0 0.31660160940309118 -0.035871797032442469 0 0.32095671603858011 -0.024994897592425049 0 0.3196214637881436 -0.021924893160697439 0 0.33574973546384762 -0.01167659105592548 0 0.3196214637881436 -0.021924893160697439 0 0.32194573769061952 -0.0077676308935595512 0 0.30752965714041391 0.0058765203804442539 0 0.3196214637881436 -0.021924893160697439 0 0.32194573769061952 -0.0077676308935595512 0 0.31382959722716158 0.0040627785689932028 0 0.34183048761771712 -0.0039986291523161147 0 0.32194573769061952 -0.0077676308935595512 0 0.30752965714041391 0.0058765203804442539 0 0.3196214637881436 -0.021924893160697439 0 0.31292981148517318 -0.054457989835630861 0 0.33951515654934239 -0.057829064589421393 0 0.331762206516936 -0.074199649102278678 0 0.31292981148517318 -0.054457989835630861 0 0.32943454752299528 -0.042779626289088678 0 0.31292981148517318 -0.054457989835630861 0 0.32943454752299528 -0.042779626289088678 0 0.33951515654934239 -0.057829064589421393 0 0.31292981148517318 -0.054457989835630861 0 0.31660160940309118 -0.035871797032442469 0 0.32943454752299528 -0.042779626289088678 0 0.32095671603858011 -0.024994897592425049 0 0.31660160940309118 -0.035871797032442469 0 0.3231679364015333 -0.033306441836977792 0 0.32862271298124018 -0.028919582591936679 0 0.3231679364015333 -0.033306441836977792 0 0.32943454752299528 -0.042779626289088678 0 0.31660160940309118 -0.035871797032442469 0 0.3231679364015333 -0.033306441836977792 0 0.32943454752299528 -0.042779626289088678 0 0.33879793226643329 -0.029417681387060649 0 0.32943454752299528 -0.042779626289088678 0 0.35178468962230941 -0.045374559850196158 0 0.33879793226643329 -0.029417681387060649 0 0.32862271298124018 -0.028919582591936679 0 0.32943454752299528 -0.042779626289088678 0 0.32943454752299528 -0.042779626289088678 0 0.33951515654934239 -0.057829064589421393 0 0.35178468962230941 -0.045374559850196158 0 0.33951515654934239 -0.057829064589421393 0 0.35178468962230941 -0.045374559850196158 0 0.35802776935757019 -0.070665676604553529 0 0.35223914962217417 -0.02278106829858554 0 0.35178468962230941 -0.045374559850196158 0 0.37068698927403948 -0.035605583580554698 0 0.35223914962217417 -0.02278106829858554 0 0.33879793226643329 -0.029417681387060649 0 0.35178468962230941 -0.045374559850196158 0 0.35178468962230941 -0.045374559850196158 0 0.37068698927403948 -0.035605583580554698 0 0.37042415964797237 -0.053058901563766692 0 0.35178468962230941 -0.045374559850196158 0 0.37042415964797237 -0.053058901563766692 0 0.35802776935757019 -0.070665676604553529 0 0.38429333219820472 -0.067131704106828338 0 0.38199460798391838 -0.085246791459625215 0 0.35802776935757019 -0.070665676604553529 0 0.38429333219820472 -0.067131704106828338 0 0.37042415964797237 -0.053058901563766692 0 0.35802776935757019 -0.070665676604553529 0 0.38429333219820472 -0.067131704106828338 0 0.35802776935757019 -0.070665676604553529 0 0.38199460798391838 -0.085246791459625215 0 0.36577500316168848 -0.093055365242956031 0 0.35802776935757019 -0.070665676604553529 0 0.38199460798391838 -0.085246791459625215 0 0.37706007999693841 -0.1011775095245466 0 0.36577500316168848 -0.093055365242956031 0 0.35802776935757019 -0.070665676604553529 0 0.34487393367809682 -0.095216741312257352 0 0.331762206516936 -0.074199649102278678 0 0.36577500316168848 -0.093055365242956031 0 0.35802776935757019 -0.070665676604553529 0 0.34487393367809682 -0.095216741312257352 0 0.35802776935757019 -0.070665676604553529 0 0.331762206516936 -0.074199649102278678 0 0.3799934613124491 -0.1141351934829782 0 0.36192545204167298 -0.11208328153174781 0 0.37104303648388809 -0.1272612894930944 0 0.36192545204167298 -0.11208328153174781 0 0.35551888896884759 -0.1297027680154724 0 0.37104303648388809 -0.1272612894930944 0 0.37706007999693841 -0.1011775095245466 0 0.3799934613124491 -0.1141351934829782 0 0.36192545204167298 -0.11208328153174781 0 0.37706007999693841 -0.1011775095245466 0 0.36577500316168848 -0.093055365242956031 0 0.36192545204167298 -0.11208328153174781 0 0.36192545204167298 -0.11208328153174781 0 0.34487393367809682 -0.095216741312257352 0 0.34014121552940491 -0.1203166258242544 0 0.36577500316168848 -0.093055365242956031 0 0.36192545204167298 -0.11208328153174781 0 0.34487393367809682 -0.095216741312257352 0 0.36192545204167298 -0.11208328153174781 0 0.34014121552940491 -0.1203166258242544 0 0.35551888896884759 -0.1297027680154724 0 0.34014121552940491 -0.1203166258242544 0 0.32517348349888747 -0.118580130041643 0 0.32373683991627678 -0.1342707635111336 0 0.34014121552940491 -0.1203166258242544 0 0.32895182275083351 -0.1060869523066566 0 0.32517348349888747 -0.118580130041643 0 0.34487393367809682 -0.095216741312257352 0 0.34014121552940491 -0.1203166258242544 0 0.32895182275083351 -0.1060869523066566 0 0.34487393367809682 -0.095216741312257352 0 0.32895182275083351 -0.1060869523066566 0 0.32681031061177879 -0.089772122834636051 0 0.32895182275083351 -0.1060869523066566 0 0.31743464692623941 -0.099981704590172707 0 0.32681031061177879 -0.089772122834636051 0 0.31743464692623941 -0.099981704590172707 0 0.31638799147784608 -0.1118713826410174 0 0.30885616350321549 -0.1072846913931271 0 0.32895182275083351 -0.1060869523066566 0 0.31743464692623941 -0.099981704590172707 0 0.31638799147784608 -0.1118713826410174 0 0.32895182275083351 -0.1060869523066566 0 0.31638799147784608 -0.1118713826410174 0 0.32517348349888747 -0.118580130041643 0 0.31638799147784608 -0.1118713826410174 0 0.31399575267335023 -0.12250180558336519 0 0.30853123694459123 -0.1170064061326217 0 0.31638799147784608 -0.1118713826410174 0 0.31399575267335023 -0.12250180558336519 0 0.32517348349888747 -0.118580130041643 0 0.33951515654934239 -0.057829064589421393 0 0.35802776935757019 -0.070665676604553529 0 0.331762206516936 -0.074199649102278678 0 0.34487393367809682 -0.095216741312257352 0 0.331762206516936 -0.074199649102278678 0 0.32681031061177879 -0.089772122834636051 0 0.32681031061177879 -0.089772122834636051 0 0.30549664367630158 -0.077733621600003855 0 0.31220284993755582 -0.090742102146006851 0 0.331762206516936 -0.074199649102278678 0 0.32681031061177879 -0.089772122834636051 0 0.30549664367630158 -0.077733621600003855 0 0.31743464692623941 -0.099981704590172707 0 0.32681031061177879 -0.089772122834636051 0 0.31220284993755582 -0.090742102146006851 0 0.31292981148517318 -0.054457989835630861 0 0.331762206516936 -0.074199649102278678 0 0.30549664367630158 -0.077733621600003855 0 0.331762206516936 -0.074199649102278678 0 0.30549664367630158 -0.077733621600003855 0 0.31292981148517318 -0.054457989835630861 0 0.30549664367630158 -0.077733621600003855 0 0.29642507544735103 -0.06613635338217283 0 0.30549664367630158 -0.077733621600003855 0 0.29743178973804058 -0.092817056036521225 0 0.29642507544735103 -0.06613635338217283 0 0.29743178973804058 -0.092817056036521225 0 0.29642507544735103 -0.06613635338217283 0 0.31220284993755582 -0.090742102146006851 0 0.30524841693787119 -0.089877123387424693 0 0.30586238439958702 -0.098215713767166868 0 0.30549664367630158 -0.077733621600003855 0 0.31220284993755582 -0.090742102146006851 0 0.30524841693787119 -0.089877123387424693 0 0.30524841693787119 -0.089877123387424693 0 0.29743178973804058 -0.092817056036521225 0 0.30586238439958702 -0.098215713767166868 0 0.30549664367630158 -0.077733621600003855 0 0.30524841693787119 -0.089877123387424693 0 0.29743178973804058 -0.092817056036521225 0 0.29430385704143641 -0.093334685648855456 0 0.28333646668855839 -0.1038254721913715 0 0.27844545300264117 -0.078858311907156253 0 0.29743178973804058 -0.092817056036521225 0 0.29430385704143641 -0.093334685648855456 0 0.29347904805936648 -0.068220893163732282 0 0.29430385704143641 -0.093334685648855456 0 0.29347904805936648 -0.068220893163732282 0 0.27844545300264117 -0.078858311907156253 0 0.29430385704143641 -0.093334685648855456 0 0.29347904805936648 -0.068220893163732282 0 0.29743178973804058 -0.092817056036521225 0 0.29642507544735103 -0.06613635338217283 0 0.29347904805936648 -0.068220893163732282 0 0.28521560802072671 -0.062721316040594208 0 0.29347904805936648 -0.068220893163732282 0 0.27844545300264117 -0.078858311907156253 0 0.29347904805936648 -0.068220893163732282 0 0.27844545300264117 -0.078858311907156253 0 0.29642507544735103 -0.06613635338217283 0 0.29347904805936648 -0.068220893163732282 0 0.29301224914481439 -0.054007794946804598 0 0.29642507544735103 -0.06613635338217283 0 0.29347904805936648 -0.068220893163732282 0 0.29743178973804058 -0.092817056036521225 0 0.29843850402873079 -0.11949775869086959 0 0.29512866602350563 -0.1184484781339787 0 0.29843850402873079 -0.11949775869086959 0 0.29512866602350563 -0.1184484781339787 0 0.30010147488007238 -0.1276093355582181 0 0.29843850402873079 -0.11949775869086959 0 0.30554459793957989 -0.1238630007756472 0 0.30853123694459123 -0.1170064061326217 0 0.29843850402873079 -0.11949775869086959 0 0.30554459793957989 -0.1238630007756472 0 0.30010147488007238 -0.1276093355582181 0 0.31399575267335023 -0.12250180558336519 0 0.30554459793957989 -0.1238630007756472 0 0.30853123694459123 -0.1170064061326217 0 0.29843850402873079 -0.11949775869086959 0 0.30853123694459123 -0.1170064061326217 0 0.30885616350321549 -0.1072846913931271 0 0.31638799147784608 -0.1118713826410174 0 0.30853123694459123 -0.1170064061326217 0 0.30885616350321549 -0.1072846913931271 0 0.29843850402873079 -0.11949775869086959 0 0.30885616350321549 -0.1072846913931271 0 0.30586238439958702 -0.098215713767166868 0 0.29743178973804058 -0.092817056036521225 0 0.29843850402873079 -0.11949775869086959 0 0.30586238439958702 -0.098215713767166868 0 0.29743178973804058 -0.092817056036521225 0 0.29843850402873079 -0.11949775869086959 0 0.31743464692623941 -0.099981704590172707 0 0.30885616350321549 -0.1072846913931271 0 0.30586238439958702 -0.098215713767166868 0 0.31743464692623941 -0.099981704590172707 0 0.31220284993755582 -0.090742102146006851 0 0.30586238439958702 -0.098215713767166868 0 0.29430385704143641 -0.093334685648855456 0 0.29512866602350563 -0.1184484781339787 0 0.29430385704143641 -0.093334685648855456 0 0.28333646668855839 -0.1038254721913715 0 0.29512866602350563 -0.1184484781339787 0 0.29743178973804058 -0.092817056036521225 0 0.29430385704143641 -0.093334685648855456 0 0.29512866602350563 -0.1184484781339787 0 0.28333646668855839 -0.1038254721913715 0 0.29512866602350563 -0.1184484781339787 0 0.28822748037447399 -0.12879263247558709 0 0.28333646668855839 -0.1038254721913715 0 0.28822748037447399 -0.12879263247558709 0 0.26621118532108262 -0.1119181791838486 0 0.25741251913389712 -0.1305951081492244 0 0.28822748037447399 -0.12879263247558709 0 0.28333646668855839 -0.1038254721913715 0 0.26621118532108262 -0.1119181791838486 0 0.28822748037447399 -0.12879263247558709 0 0.28333646668855839 -0.1038254721913715 0 0.26621118532108262 -0.1119181791838486 0 0.26565518081306061 -0.08790840808238623 0 0.26621118532108262 -0.1119181791838486 0 0.25154255280112903 -0.1006059983499779 0 0.24954668948061209 -0.11284283178631641 0 0.26621118532108262 -0.1119181791838486 0 0.25154255280112903 -0.1006059983499779 0 0.26565518081306061 -0.08790840808238623 0 0.26621118532108262 -0.1119181791838486 0 0.25741251913389712 -0.1305951081492244 0 0.24954668948061209 -0.11284283178631641 0 0.27844545300264117 -0.078858311907156253 0 0.2741393958395883 -0.056877179510702792 0 0.28007443442101287 -0.061799103716356343 0 0.27844545300264117 -0.078858311907156253 0 0.2741393958395883 -0.056877179510702792 0 0.26628957168076178 -0.070692469674316694 0 0.27844545300264117 -0.078858311907156253 0 0.2741393958395883 -0.056877179510702792 0 0.28521560802072671 -0.062721316040594208 0 0.27844545300264117 -0.078858311907156253 0 0.28007443442101287 -0.061799103716356343 0 0.26628957168076178 -0.070692469674316694 0 0.27844545300264117 -0.078858311907156253 0 0.26565518081306061 -0.08790840808238623 0 0.28333646668855839 -0.1038254721913715 0 0.27844545300264117 -0.078858311907156253 0 0.26565518081306061 -0.08790840808238623 0 0.28333646668855839 -0.1038254721913715 0 0.27844545300264117 -0.078858311907156253 0 0.27844545300264117 -0.078858311907156253 0 0.26565518081306061 -0.08790840808238623 0 0.25154255280112903 -0.1006059983499779 0 0.25664035233608162 -0.078361863555500011 0 0.24390890644978661 -0.075150332687283522 0 0.25154255280112903 -0.1006059983499779 0 0.26565518081306061 -0.08790840808238623 0 0.25664035233608162 -0.078361863555500011 0 0.26628957168076178 -0.070692469674316694 0 0.26565518081306061 -0.08790840808238623 0 0.25664035233608162 -0.078361863555500011 0 0.25664035233608162 -0.078361863555500011 0 0.25256726729664603 -0.064532785491330763 0 0.24390890644978661 -0.075150332687283522 0 0.26628957168076178 -0.070692469674316694 0 0.25256726729664603 -0.064532785491330763 0 0.2741393958395883 -0.056877179510702792 0 0.26628957168076178 -0.070692469674316694 0 0.25664035233608162 -0.078361863555500011 0 0.25256726729664603 -0.064532785491330763 0 0.25256726729664603 -0.064532785491330763 0 0.25164978009717781 -0.053061021673298493 0 0.24617004458672351 -0.058202332164817121 0 0.25256726729664603 -0.064532785491330763 0 0.26131371929964131 -0.050907379716302707 0 0.27395317434556299 -0.0509436520349522 0 0.25256726729664603 -0.064532785491330763 0 0.25164978009717781 -0.053061021673298493 0 0.26131371929964131 -0.050907379716302707 0 0.25256726729664603 -0.064532785491330763 0 0.27395317434556299 -0.0509436520349522 0 0.25164978009717781 -0.053061021673298493 0 0.26131371929964131 -0.050907379716302707 0 0.2539732262079259 -0.044675773385505282 0 0.26131371929964131 -0.050907379716302707 0 0.26227784506780882 -0.045421506107560787 0 0.2539732262079259 -0.044675773385505282 0 0.26131371929964131 -0.050907379716302707 0 0.26742863268251632 -0.045985676557136583 0 0.26227784506780882 -0.045421506107560787 0 0.25256726729664603 -0.064532785491330763 0 0.27395317434556299 -0.0509436520349522 0 0.2741393958395883 -0.056877179510702792 0 0.26131371929964131 -0.050907379716302707 0 0.27395317434556299 -0.0509436520349522 0 0.26742863268251632 -0.045985676557136583 0 0.27395317434556299 -0.0509436520349522 0 0.2741393958395883 -0.056877179510702792 0 0.28351618772518777 -0.053458991616202503 0 0.2741393958395883 -0.056877179510702792 0 0.28007443442101287 -0.061799103716356343 0 0.28351618772518777 -0.053458991616202503 0 0.2807394014679111 -0.038000872253349499 0 0.27361436003936901 -0.034999677146069851 0 0.27240238673917438 -0.042113497984529957 0 0.2807394014679111 -0.038000872253349499 0 0.27361436003936901 -0.034999677146069851 0 0.28248009054126683 -0.027824818882371601 0 0.27395317434556299 -0.0509436520349522 0 0.2807394014679111 -0.038000872253349499 0 0.27240238673917438 -0.042113497984529957 0 0.27395317434556299 -0.0509436520349522 0 0.27240238673917438 -0.042113497984529957 0 0.26742863268251632 -0.045985676557136583 0 0.27361436003936901 -0.034999677146069851 0 0.27240238673917438 -0.042113497984529957 0 0.26639580208115188 -0.040117194771298603 0 0.27240238673917438 -0.042113497984529957 0 0.26742863268251632 -0.045985676557136583 0 0.26639580208115188 -0.040117194771298603 0 0.27361436003936901 -0.034999677146069851 0 0.26639580208115188 -0.040117194771298603 0 0.26859201328057281 -0.027442020841521631 0 0.2539732262079259 -0.044675773385505282 0 0.25845033672230949 -0.02738613623275089 0 0.26859201328057281 -0.027442020841521631 0 0.2539732262079259 -0.044675773385505282 0 0.25845033672230949 -0.02738613623275089 0 0.24422464309495209 -0.046986837608536558 0 0.25845033672230949 -0.02738613623275089 0 0.24422464309495209 -0.046986837608536558 0 0.26639580208115188 -0.040117194771298603 0 0.2539732262079259 -0.044675773385505282 0 0.26859201328057281 -0.027442020841521631 0 0.2539732262079259 -0.044675773385505282 0 0.26859201328057281 -0.027442020841521631 0 0.26639580208115188 -0.040117194771298603 0 0.26227784506780882 -0.045421506107560787 0 0.2539732262079259 -0.044675773385505282 0 0.26742863268251632 -0.045985676557136583 0 0.26639580208115188 -0.040117194771298603 0 0.26227784506780882 -0.045421506107560787 0 0.25013504981522988 -0.025019616072594848 0 0.25845033672230949 -0.02738613623275089 0 0.24524507923365879 -0.0330622213940093 0 0.25845033672230949 -0.02738613623275089 0 0.27267603034966698 -0.0077854348569651906 0 0.25845033672230949 -0.02738613623275089 0 0.25886508985187012 -0.013172853544477199 0 0.27267603034966698 -0.0077854348569651906 0 0.25013504981522988 -0.025019616072594848 0 0.25247407830029878 -0.019873092178793648 0 0.25845033672230949 -0.02738613623275089 0 0.25247407830029878 -0.019873092178793648 0 0.25845033672230949 -0.02738613623275089 0 0.25886508985187012 -0.013172853544477199 0 0.25598072684389089 -0.0058943492075353007 0 0.25006914023697918 -0.01208141302270524 0 0.2479891295484222 -0.0022684572774312019 0 0.25894279220913391 0.003459445712386486 0 0.25598072684389089 -0.0058943492075353007 0 0.2479891295484222 -0.0022684572774312019 0 0.25598072684389089 -0.0058943492075353007 0 0.25006914023697918 -0.01208141302270524 0 0.25886508985187012 -0.013172853544477199 0 0.25247407830029878 -0.019873092178793648 0 0.25006914023697918 -0.01208141302270524 0 0.25886508985187012 -0.013172853544477199 0 0.25886508985187012 -0.013172853544477199 0 0.26317147738524183 -0.0038637327990410169 0 0.27267603034966698 -0.0077854348569651906 0 0.25598072684389089 -0.0058943492075353007 0 0.25886508985187012 -0.013172853544477199 0 0.26317147738524183 -0.0038637327990410169 0 0.25894279220913391 0.003459445712386486 0 0.25598072684389089 -0.0058943492075353007 0 0.26317147738524183 -0.0038637327990410169 0 0.27267603034966698 -0.0077854348569651906 0 0.26859201328057281 -0.027442020841521631 0 0.28321080035321983 -0.010208268297538009 0 0.26939274767164711 0.0040745279013861191 0 0.26317147738524183 -0.0038637327990410169 0 0.27267603034966698 -0.0077854348569651906 0 0.28687677889875068 0.001725005618485562 0 0.27267603034966698 -0.0077854348569651906 0 0.28321080035321983 -0.010208268297538009 0 0.26859201328057281 -0.027442020841521631 0 0.28321080035321983 -0.010208268297538009 0 0.25845033672230949 -0.02738613623275089 0 0.27267603034966698 -0.0077854348569651906 0 0.26859201328057281 -0.027442020841521631 0 0.26859201328057281 -0.027442020841521631 0 0.28248009054126683 -0.027824818882371601 0 0.28321080035321983 -0.010208268297538009 0 0.27361436003936901 -0.034999677146069851 0 0.26859201328057281 -0.027442020841521631 0 0.28248009054126683 -0.027824818882371601 0 0.29465383366866438 -0.01919356567853802 0 0.28248009054126683 -0.027824818882371601 0 0.29533908139447967 -0.037354518578573179 0 0.29465383366866438 -0.01919356567853802 0 0.28248009054126683 -0.027824818882371601 0 0.28321080035321983 -0.010208268297538009 0 0.29465383366866438 -0.01919356567853802 0 0.29533908139447967 -0.037354518578573179 0 0.2978295874258669 0.0070254842464454832 0 0.28321080035321983 -0.010208268297538009 0 0.29396858594285019 -0.001032612778502764 0 0.2978295874258669 0.0070254842464454832 0 0.28687677889875068 0.001725005618485562 0 0.28321080035321983 -0.010208268297538009 0 0.29465383366866438 -0.01919356567853802 0 0.28321080035321983 -0.010208268297538009 0 0.29396858594285019 -0.001032612778502764 0 0.2978295874258669 0.0070254842464454832 0 0.28321080035321983 -0.010208268297538009 0 0.29465383366866438 -0.01919356567853802 0 0.29396858594285019 -0.001032612778502764 0 0.30752965714041391 0.0058765203804442539 0 0.29465383366866438 -0.01919356567853802 0 0.29396858594285019 -0.001032612778502764 0 0.30752965714041391 0.0058765203804442539 0 0.3196214637881436 -0.021924893160697439 0 0.29465383366866438 -0.01919356567853802 0 0.3196214637881436 -0.021924893160697439 0 0.29465383366866438 -0.01919356567853802 0 0.29533908139447967 -0.037354518578573179 0 0.3196214637881436 -0.021924893160697439 0 0.29533908139447967 -0.037354518578573179 0 0.3196214637881436 -0.021924893160697439 0 0.31660160940309118 -0.035871797032442469 0 0.29533908139447967 -0.037354518578573179 0 0.31292981148517318 -0.054457989835630861 0 0.31660160940309118 -0.035871797032442469 0 0.29533908139447967 -0.037354518578573179 0 0.31292981148517318 -0.054457989835630861 0 0.29642507544735103 -0.06613635338217283 0 0.31292981148517318 -0.054457989835630861 0 0.29642507544735103 -0.06613635338217283 0 0.29533908139447967 -0.037354518578573179 0 0.29642507544735103 -0.06613635338217283 0 0.29301224914481439 -0.054007794946804598 0 0.29533908139447967 -0.037354518578573179 0 0.27395317434556299 -0.0509436520349522 0 0.28351618772518777 -0.053458991616202503 0 0.29533908139447967 -0.037354518578573179 0 0.29301224914481439 -0.054007794946804598 0 0.28351618772518777 -0.053458991616202503 0 0.29533908139447967 -0.037354518578573179 0 0.29642507544735103 -0.06613635338217283 0 0.29533908139447967 -0.037354518578573179 0 0.29347904805936648 -0.068220893163732282 0 0.29301224914481439 -0.054007794946804598 0 0.28521560802072671 -0.062721316040594208 0 0.29347904805936648 -0.068220893163732282 0 0.29301224914481439 -0.054007794946804598 0 0.28521560802072671 -0.062721316040594208 0 0.29301224914481439 -0.054007794946804598 0 0.28351618772518777 -0.053458991616202503 0 0.28521560802072671 -0.062721316040594208 0 0.28007443442101287 -0.061799103716356343 0 0.28351618772518777 -0.053458991616202503 0 0.27395317434556299 -0.0509436520349522 0 0.29533908139447967 -0.037354518578573179 0 0.27395317434556299 -0.0509436520349522 0 0.2807394014679111 -0.038000872253349499 0 0.29533908139447967 -0.037354518578573179 0 0.2807394014679111 -0.038000872253349499 0 0.28248009054126683 -0.027824818882371601 0 0.29533908139447967 -0.037354518578573179 0 0.30290052143222262 -0.20369411332823331 0 0.28158405213751547 -0.22140539282722879 0 0.30290052143222262 -0.20369411332823331 0 0.28158405213751547 -0.22140539282722879 0 0.27747759048209231 -0.20168759245952969 0 0.28632476970011178 -0.18938030831719929 0 0.30290052143222262 -0.20369411332823331 0 0.2980095077463053 -0.17872695304401809 0 0.28632476970011178 -0.18938030831719929 0 0.30290052143222262 -0.20369411332823331 0 0.27747759048209231 -0.20168759245952969 0 0.30290052143222262 -0.20369411332823331 0 0.2980095077463053 -0.17872695304401809 0 0.32549301828835953 -0.18492261693889581 0 0.30290052143222262 -0.20369411332823331 0 0.2980095077463053 -0.17872695304401809 0 0.30290052143222262 -0.20369411332823331 0 0.30715254712033069 -0.22539943122446929 0 0.28158405213751547 -0.22140539282722879 0 0.30290052143222262 -0.20369411332823331 0 0.30715254712033069 -0.22539943122446929 0 0.30290052143222262 -0.20369411332823331 0 0.30715254712033069 -0.22539943122446929 0 0.32148368101975677 -0.2112815477794289 0 0.31140457280844042 -0.24710474912070499 0 0.29234931722919649 -0.23956849287787771 0 0.29718577407036301 -0.25519814195989071 0 0.30715254712033069 -0.22539943122446929 0 0.31140457280844042 -0.24710474912070499 0 0.29234931722919649 -0.23956849287787771 0 0.30715254712033069 -0.22539943122446929 0 0.31140457280844042 -0.24710474912070499 0 0.29234931722919649 -0.23956849287787771 0 0.27362138757170362 -0.2426007269765893 0 0.28009493911397709 -0.25531812806766069 0 0.29234931722919649 -0.23956849287787771 0 0.28158405213751547 -0.22140539282722879 0 0.27362138757170362 -0.2426007269765893 0 0.30715254712033069 -0.22539943122446929 0 0.29234931722919649 -0.23956849287787771 0 0.28158405213751547 -0.22140539282722879 0 0.28158405213751547 -0.22140539282722879 0 0.26621460642996558 -0.23052855599088379 0 0.27362138757170362 -0.2426007269765893 0 0.28158405213751547 -0.22140539282722879 0 0.26621460642996558 -0.23052855599088379 0 0.26307381511529532 -0.2143756044194241 0 0.26621460642996558 -0.23052855599088379 0 0.27362138757170362 -0.2426007269765893 0 0.26034160768121078 -0.2422716922893062 0 0.27362138757170362 -0.2426007269765893 0 0.26034160768121078 -0.2422716922893062 0 0.26515279713901752 -0.25474276698909742 0 0.26034160768121078 -0.2422716922893062 0 0.26515279713901752 -0.25474276698909742 0 0.25575058308532189 -0.25269357128633052 0 0.26034160768121078 -0.2422716922893062 0 0.25134951441318748 -0.22920843539767929 0 0.2499607574480687 -0.24385609709525671 0 0.25575058308532189 -0.25269357128633052 0 0.2462907050713771 -0.25204034373521428 0 0.2499607574480687 -0.24385609709525671 0 0.26034160768121078 -0.2422716922893062 0 0.25575058308532189 -0.25269357128633052 0 0.2499607574480687 -0.24385609709525671 0 0.26621460642996558 -0.23052855599088379 0 0.25134951441318748 -0.22920843539767929 0 0.26307381511529532 -0.2143756044194241 0 0.26621460642996558 -0.23052855599088379 0 0.26034160768121078 -0.2422716922893062 0 0.25134951441318748 -0.22920843539767929 0 0.25134951441318748 -0.22920843539767929 0 0.26307381511529532 -0.2143756044194241 0 0.24314545538918961 -0.20571013864437751 0 0.26307381511529532 -0.2143756044194241 0 0.2593871514889205 -0.19799184377322379 0 0.24314545538918961 -0.20571013864437751 0 0.26307381511529532 -0.2143756044194241 0 0.27747759048209231 -0.20168759245952969 0 0.2593871514889205 -0.19799184377322379 0 0.28158405213751547 -0.22140539282722879 0 0.26307381511529532 -0.2143756044194241 0 0.27747759048209231 -0.20168759245952969 0 0.27747759048209231 -0.20168759245952969 0 0.2593871514889205 -0.19799184377322379 0 0.269221803856454 -0.185599514949991 0 0.28632476970011178 -0.18938030831719929 0 0.27747759048209231 -0.20168759245952969 0 0.269221803856454 -0.185599514949991 0 0.2593871514889205 -0.19799184377322379 0 0.269221803856454 -0.185599514949991 0 0.2437278363918948 -0.18195096812212239 0 0.260919387449559 -0.16579352929295721 0 0.269221803856454 -0.185599514949991 0 0.2437278363918948 -0.18195096812212239 0 0.260919387449559 -0.16579352929295721 0 0.28401442498348639 -0.17719336780422379 0 0.260919387449559 -0.16579352929295721 0 0.27757308642867828 -0.16101723958663619 0 0.28401442498348639 -0.17719336780422379 0 0.260919387449559 -0.16579352929295721 0 0.27757308642867828 -0.16101723958663619 0 0.27224003922127837 -0.1473222684895614 0 0.260919387449559 -0.16579352929295721 0 0.269221803856454 -0.185599514949991 0 0.28401442498348639 -0.17719336780422379 0 0.28632476970011178 -0.18938030831719929 0 0.269221803856454 -0.185599514949991 0 0.28401442498348639 -0.17719336780422379 0 0.260919387449559 -0.16579352929295721 0 0.25452239946831973 -0.14829655140993131 0 0.27224003922127837 -0.1473222684895614 0 0.260919387449559 -0.16579352929295721 0 0.25452239946831973 -0.14829655140993131 0 0.23782434991563151 -0.15439369078169049 0 0.25741251913389712 -0.1305951081492244 0 0.25452239946831973 -0.14829655140993131 0 0.27224003922127837 -0.1473222684895614 0 0.27757308642867828 -0.16101723958663619 0 0.27224003922127837 -0.1473222684895614 0 0.2931184940603897 -0.15375979275980259 0 0.25741251913389712 -0.1305951081492244 0 0.27224003922127837 -0.1473222684895614 0 0.28822748037447399 -0.12879263247558709 0 0.29512866602350563 -0.1184484781339787 0 0.2959534750055749 -0.1435622706191019 0 0.29512866602350563 -0.1184484781339787 0 0.28822748037447399 -0.12879263247558709 0 0.2959534750055749 -0.1435622706191019 0 0.2959534750055749 -0.1435622706191019 0 0.2931184940603897 -0.15375979275980259 0 0.29606782433269818 -0.16881524064208181 0 0.28822748037447399 -0.12879263247558709 0 0.2959534750055749 -0.1435622706191019 0 0.2931184940603897 -0.15375979275980259 0 0.28822748037447399 -0.12879263247558709 0 0.2931184940603897 -0.15375979275980259 0 0.27224003922127837 -0.1473222684895614 0 0.28822748037447399 -0.12879263247558709 0 0.2931184940603897 -0.15375979275980259 0 0.2959534750055749 -0.1435622706191019 0 0.29606782433269818 -0.16881524064208181 0 0.2959534750055749 -0.1435622706191019 0 0.30786991093933941 -0.1327242262548293 0 0.31334084787329858 -0.14560100496875439 0 0.2959534750055749 -0.1435622706191019 0 0.30589655906226038 -0.156608858018214 0 0.31334084787329858 -0.14560100496875439 0 0.30589655906226038 -0.156608858018214 0 0.31666093946419188 -0.15748088094218049 0 0.31334084787329858 -0.14560100496875439 0 0.29512866602350563 -0.1184484781339787 0 0.2959534750055749 -0.1435622706191019 0 0.30010147488007238 -0.1276093355582181 0 0.2959534750055749 -0.1435622706191019 0 0.30786991093933941 -0.1327242262548293 0 0.30010147488007238 -0.1276093355582181 0 0.31399575267335023 -0.12250180558336519 0 0.30554459793957989 -0.1238630007756472 0 0.30786991093933941 -0.1327242262548293 0 0.30554459793957989 -0.1238630007756472 0 0.30786991093933941 -0.1327242262548293 0 0.30010147488007238 -0.1276093355582181 0 0.28401442498348639 -0.17719336780422379 0 0.29606782433269818 -0.16881524064208181 0 0.2980095077463053 -0.17872695304401809 0 0.28632476970011178 -0.18938030831719929 0 0.28401442498348639 -0.17719336780422379 0 0.2980095077463053 -0.17872695304401809 0 0.27757308642867828 -0.16101723958663619 0 0.2931184940603897 -0.15375979275980259 0 0.28401442498348639 -0.17719336780422379 0 0.2931184940603897 -0.15375979275980259 0 0.28401442498348639 -0.17719336780422379 0 0.29606782433269818 -0.16881524064208181 0 0.2931184940603897 -0.15375979275980259 0 0.29606782433269818 -0.16881524064208181 0 0.29606782433269818 -0.16881524064208181 0 0.30589655906226038 -0.156608858018214 0 0.31145366373618227 -0.1686264437044486 0 0.2959534750055749 -0.1435622706191019 0 0.29606782433269818 -0.16881524064208181 0 0.30589655906226038 -0.156608858018214 0 0.30589655906226038 -0.156608858018214 0 0.31145366373618227 -0.1686264437044486 0 0.31666093946419188 -0.15748088094218049 0 0.31145366373618227 -0.1686264437044486 0 0.2980095077463053 -0.17872695304401809 0 0.32549301828835953 -0.18492261693889581 0 0.29606782433269818 -0.16881524064208181 0 0.31145366373618227 -0.1686264437044486 0 0.2980095077463053 -0.17872695304401809 0 0.29606782433269818 -0.16881524064208181 0 0.2980095077463053 -0.17872695304401809 0 0.31145366373618227 -0.1686264437044486 0 0.32549301828835953 -0.18492261693889581 0 0.32738776678709508 -0.16545123116759969 0 0.31145366373618227 -0.1686264437044486 0 0.32738776678709508 -0.16545123116759969 0 0.31666093946419188 -0.15748088094218049 0 0.32738776678709508 -0.16545123116759969 0 0.31666093946419188 -0.15748088094218049 0 0.32968898845727718 -0.1497650634196834 0 0.32738776678709508 -0.16545123116759969 0 0.32968898845727718 -0.1497650634196834 0 0.34808551514449421 -0.1661511205495555 0 0.32549301828835953 -0.18492261693889581 0 0.32738776678709508 -0.16545123116759969 0 0.34808551514449421 -0.1661511205495555 0 0.32549301828835953 -0.18492261693889581 0 0.34808551514449421 -0.1661511205495555 0 0.32549301828835953 -0.18492261693889581 0 0.34808551514449421 -0.1661511205495555 0 0.34521429895780248 -0.1968392362703156 0 0.30786991093933941 -0.1327242262548293 0 0.32373683991627678 -0.1342707635111336 0 0.31334084787329858 -0.14560100496875439 0 0.31399575267335023 -0.12250180558336519 0 0.32517348349888747 -0.118580130041643 0 0.32373683991627678 -0.1342707635111336 0 0.31399575267335023 -0.12250180558336519 0 0.30786991093933941 -0.1327242262548293 0 0.32373683991627678 -0.1342707635111336 0 0.32373683991627678 -0.1342707635111336 0 0.31334084787329858 -0.14560100496875439 0 0.32968898845727718 -0.1497650634196834 0 0.31666093946419188 -0.15748088094218049 0 0.31334084787329858 -0.14560100496875439 0 0.32968898845727718 -0.1497650634196834 0 0.32373683991627678 -0.1342707635111336 0 0.32968898845727718 -0.1497650634196834 0 0.34485783347551252 -0.1433779188078016 0 0.32968898845727718 -0.1497650634196834 0 0.34485783347551252 -0.1433779188078016 0 0.34808551514449421 -0.1661511205495555 0 0.34014121552940491 -0.1203166258242544 0 0.32373683991627678 -0.1342707635111336 0 0.34485783347551252 -0.1433779188078016 0 0.34014121552940491 -0.1203166258242544 0 0.35551888896884759 -0.1297027680154724 0 0.34485783347551252 -0.1433779188078016 0 0.35551888896884759 -0.1297027680154724 0 0.34485783347551252 -0.1433779188078016 0 0.37067801200062889 -0.1473796241602153 0 0.34485783347551252 -0.1433779188078016 0 0.37067801200062889 -0.1473796241602153 0 0.34808551514449421 -0.1661511205495555 0 0.35551888896884759 -0.1297027680154724 0 0.37067801200062889 -0.1473796241602153 0 0.37104303648388809 -0.1272612894930944 0 0.34808551514449421 -0.1661511205495555 0 0.36752808638216261 -0.17990459429682831 0 0.34521429895780248 -0.1968392362703156 0 0.34808551514449421 -0.1661511205495555 0 0.37072349948513561 -0.1630779710757761 0 0.36752808638216261 -0.17990459429682831 0 0.37067801200062889 -0.1473796241602153 0 0.34808551514449421 -0.1661511205495555 0 0.37072349948513561 -0.1630779710757761 0 0.37067801200062889 -0.1473796241602153 0 0.34808551514449421 -0.1661511205495555 0 0.37072349948513561 -0.1630779710757761 0 0.36752808638216261 -0.17990459429682831 0 0.38565700028273392 -0.16791849986101029 0 0.36752808638216261 -0.17990459429682831 0 0.36890805570422369 -0.19954003101511669 0 0.34521429895780248 -0.1968392362703156 0 0.36752808638216261 -0.17990459429682831 0 0.36890805570422369 -0.19954003101511669 0 0.38551481473406651 -0.18910273675150999 0 0.36890805570422369 -0.19954003101511669 0 0.35851964138810982 -0.2171827375251118 0 0.37645297458065691 -0.21353851220024839 0 0.35851964138810982 -0.2171827375251118 0 0.34521429895780248 -0.1968392362703156 0 0.33865146772119931 -0.2184974665014994 0 0.36890805570422369 -0.19954003101511669 0 0.35851964138810982 -0.2171827375251118 0 0.34521429895780248 -0.1968392362703156 0 0.32549301828835953 -0.18492261693889581 0 0.34521429895780248 -0.1968392362703156 0 0.32148368101975677 -0.2112815477794289 0 0.34521429895780248 -0.1968392362703156 0 0.33865146772119931 -0.2184974665014994 0 0.32148368101975677 -0.2112815477794289 0 0.30290052143222262 -0.20369411332823331 0 0.32549301828835953 -0.18492261693889581 0 0.32148368101975677 -0.2112815477794289 0 0.30290052143222262 -0.20369411332823331 0 0.32549301828835953 -0.18492261693889581 0 0.31140457280844042 -0.24710474912070499 0 0.32841487832378857 -0.23419691532036521 0 0.32909477526671738 -0.25319804842994992 0 0.30715254712033069 -0.22539943122446929 0 0.31140457280844042 -0.24710474912070499 0 0.32841487832378857 -0.23419691532036521 0 0.30715254712033069 -0.22539943122446929 0 0.32148368101975677 -0.2112815477794289 0 0.32841487832378857 -0.23419691532036521 0 0.33865146772119931 -0.2184974665014994 0 0.32841487832378857 -0.23419691532036521 0 0.34678876975393269 -0.23153157971564481 0 0.33865146772119931 -0.2184974665014994 0 0.32148368101975677 -0.2112815477794289 0 0.32841487832378857 -0.23419691532036521 0 0.32841487832378857 -0.23419691532036521 0 0.34542116247921317 -0.24786541093840589 0 0.32909477526671738 -0.25319804842994992 0 0.32841487832378857 -0.23419691532036521 0 0.34542116247921317 -0.24786541093840589 0 0.34678876975393269 -0.23153157971564481 0 0.34542116247921317 -0.24786541093840589 0 0.36282952759798831 -0.23490181410806829 0 0.36211004630048071 -0.25874315800932568 0 0.34542116247921317 -0.24786541093840589 0 0.34678876975393269 -0.23153157971564481 0 0.36282952759798831 -0.23490181410806829 0 0.35851964138810982 -0.2171827375251118 0 0.33865146772119931 -0.2184974665014994 0 0.34678876975393269 -0.23153157971564481 0 0.35851964138810982 -0.2171827375251118 0 0.34678876975393269 -0.23153157971564481 0 0.36282952759798831 -0.23490181410806829 0 0.35851964138810982 -0.2171827375251118 0 0.37179579398026102 -0.22561915142401329 0 0.36282952759798831 -0.23490181410806829 0 0.35851964138810982 -0.2171827375251118 0 0.37179579398026102 -0.22561915142401329 0 0.37645297458065691 -0.21353851220024839 0 0.37179579398026102 -0.22561915142401329 0 0.36282952759798831 -0.23490181410806829 0 0.37754581309809132 -0.23651361028518689 0 0.36282952759798831 -0.23490181410806829 0 0.36876625398544938 -0.24898888889403961 0 0.36211004630048071 -0.25874315800932568 0 0.36282952759798831 -0.23490181410806829 0 0.36211004630048071 -0.25874315800932568 0 0.36282952759798831 -0.23490181410806829 0 0.36876625398544938 -0.24898888889403961 0 0.37754581309809132 -0.23651361028518689 0 0.37754581309809132 -0.23651361028518689 0 0.39300219267510322 -0.23842714914515989 0 0.3871149211879113 -0.25548270742864421 0 0.39300219267510322 -0.23842714914515989 0 0.3871149211879113 -0.25548270742864421 0 0.40207495352916539 -0.25113417058953519 0 0.39300219267510322 -0.23842714914515989 0 0.40723458142941671 -0.23497076085713389 0 0.40207495352916539 -0.25113417058953519 0 0.39851670543712209 -0.2244771902628257 0 0.41039622944065363 -0.2185270516157129 0 0.40723458142941671 -0.23497076085713389 0 0.39300219267510322 -0.23842714914515989 0 0.39851670543712209 -0.2244771902628257 0 0.40723458142941671 -0.23497076085713389 0 0.39300219267510322 -0.23842714914515989 0 0.39851670543712209 -0.2244771902628257 0 0.38505811203634721 -0.22522643630241351 0 0.39851670543712209 -0.2244771902628257 0 0.38505811203634721 -0.22522643630241351 0 0.39303519244684892 -0.21278300449704671 0 0.37754581309809132 -0.23651361028518689 0 0.39300219267510322 -0.23842714914515989 0 0.38505811203634721 -0.22522643630241351 0 0.37179579398026102 -0.22561915142401329 0 0.37754581309809132 -0.23651361028518689 0 0.38505811203634721 -0.22522643630241351 0 0.37179579398026102 -0.22561915142401329 0 0.38505811203634721 -0.22522643630241351 0 0.37645297458065691 -0.21353851220024839 0 0.38505811203634721 -0.22522643630241351 0 0.37645297458065691 -0.21353851220024839 0 0.39303519244684892 -0.21278300449704671 0 0.36890805570422369 -0.19954003101511669 0 0.37645297458065691 -0.21353851220024839 0 0.38544293285627962 -0.20314808770867229 0 0.37645297458065691 -0.21353851220024839 0 0.38544293285627962 -0.20314808770867229 0 0.39303519244684892 -0.21278300449704671 0 0.36890805570422369 -0.19954003101511669 0 0.38544293285627962 -0.20314808770867229 0 0.38551481473406651 -0.18910273675150999 0 0.38544293285627962 -0.20314808770867229 0 0.38551481473406651 -0.18910273675150999 0 0.40330362681560211 -0.20077615407943949 0 0.38551481473406651 -0.18910273675150999 0 0.40330362681560211 -0.20077615407943949 0 0.39995041381356911 -0.1868338584648204 0 0.40330362681560211 -0.20077615407943949 0 0.4125958117473455 -0.19170302267586259 0 0.39995041381356911 -0.1868338584648204 0 0.40330362681560211 -0.20077615407943949 0 0.39303519244684892 -0.21278300449704671 0 0.41039622944065363 -0.2185270516157129 0 0.38544293285627962 -0.20314808770867229 0 0.40330362681560211 -0.20077615407943949 0 0.39303519244684892 -0.21278300449704671 0 0.39851670543712209 -0.2244771902628257 0 0.39303519244684892 -0.21278300449704671 0 0.41039622944065363 -0.2185270516157129 0 0.40330362681560211 -0.20077615407943949 0 0.41039622944065363 -0.2185270516157129 0 0.42189732607146729 -0.20211324892629831 0 0.41039622944065363 -0.2185270516157129 0 0.42189732607146729 -0.20211324892629831 0 0.42790605200351661 -0.22140108800821251 0 0.40330362681560211 -0.20077615407943949 0 0.4125958117473455 -0.19170302267586259 0 0.42189732607146729 -0.20211324892629831 0 0.4125958117473455 -0.19170302267586259 0 0.42189732607146729 -0.20211324892629831 0 0.42233780496578233 -0.18319904235883591 0 0.42189732607146729 -0.20211324892629831 0 0.43389642119060762 -0.191962199940241 0 0.42233780496578233 -0.18319904235883591 0 0.42189732607146729 -0.20211324892629831 0 0.43389642119060762 -0.191962199940241 0 0.43723926749718739 -0.20471492206911249 0 0.43723926749718739 -0.20471492206911249 0 0.42790605200351661 -0.22140108800821251 0 0.44233814121790038 -0.22173902575952509 0 0.42189732607146729 -0.20211324892629831 0 0.43723926749718739 -0.20471492206911249 0 0.42790605200351661 -0.22140108800821251 0 0.43048550082884018 -0.24614270293406881 0 0.44233814121790038 -0.22173902575952509 0 0.42790605200351661 -0.22140108800821251 0 0.43048550082884018 -0.24614270293406881 0 0.44233814121790038 -0.22173902575952509 0 0.42790605200351661 -0.22140108800821251 0 0.43048550082884018 -0.24614270293406881 0 0.42088007225406548 -0.23367140350055049 0 0.43048550082884018 -0.24614270293406881 0 0.44582088554477811 -0.24525862245079941 0 0.43357426810421817 -0.25015303326672972 0 0.43048550082884018 -0.24614270293406881 0 0.42846035594967069 -0.25031232086228522 0 0.43357426810421817 -0.25015303326672972 0 0.43048550082884018 -0.24614270293406881 0 0.43357426810421817 -0.25015303326672972 0 0.43048550082884018 -0.24614270293406881 0 0.418537335240391 -0.2435876000290193 0 0.42846035594967069 -0.25031232086228522 0 0.43048550082884018 -0.24614270293406881 0 0.42846035594967069 -0.25031232086228522 0 0.43048550082884018 -0.24614270293406881 0 0.42088007225406548 -0.23367140350055049 0 0.43048550082884018 -0.24614270293406881 0 0.418537335240391 -0.2435876000290193 0 0.42088007225406548 -0.23367140350055049 0 0.418537335240391 -0.2435876000290193 0 0.40723458142941671 -0.23497076085713389 0 0.42088007225406548 -0.23367140350055049 0 0.418537335240391 -0.2435876000290193 0 0.40723458142941671 -0.23497076085713389 0 0.40207495352916539 -0.25113417058953519 0 0.418537335240391 -0.2435876000290193 0 0.40207495352916539 -0.25113417058953519 0 0.42846035594967069 -0.25031232086228522 0 0.41039622944065363 -0.2185270516157129 0 0.40723458142941671 -0.23497076085713389 0 0.42088007225406548 -0.23367140350055049 0 0.41039622944065363 -0.2185270516157129 0 0.42790605200351661 -0.22140108800821251 0 0.42088007225406548 -0.23367140350055049 0 0.3932705088567644 -0.1286081277708763 0 0.38946375456974969 -0.1482633138159434 0 0.40032650034539519 -0.13972272199131119 0 0.3932705088567644 -0.1286081277708763 0 0.38946375456974969 -0.1482633138159434 0 0.40224748518751269 -0.1211494002184121 0 0.40802316631723889 -0.13171289331352951 0 0.40224748518751269 -0.1211494002184121 0 0.40096691517672778 -0.13029828582353201 0 0.3932705088567644 -0.1286081277708763 0 0.40224748518751269 -0.1211494002184121 0 0.40096691517672778 -0.13029828582353201 0 0.40802316631723889 -0.13171289331352951 0 0.40096691517672778 -0.13029828582353201 0 0.40032650034539519 -0.13972272199131119 0 0.40802316631723889 -0.13171289331352951 0 0.40032650034539519 -0.13972272199131119 0 0.40802316631723889 -0.13171289331352951 0 0.40096691517672778 -0.13029828582353201 0 0.40032650034539519 -0.13972272199131119 0 0.3932705088567644 -0.1286081277708763 0 0.37067801200062889 -0.1473796241602153 0 0.37104303648388809 -0.1272612894930944 0 0.3932705088567644 -0.1286081277708763 0 0.37067801200062889 -0.1473796241602153 0 0.3932705088567644 -0.1286081277708763 0 0.37067801200062889 -0.1473796241602153 0 0.37072349948513561 -0.1630779710757761 0 0.38946375456974969 -0.1482633138159434 0 0.37067801200062889 -0.1473796241602153 0 0.3932705088567644 -0.1286081277708763 0 0.38946375456974969 -0.1482633138159434 0 0.40032650034539519 -0.13972272199131119 0 0.38946375456974969 -0.1482633138159434 0 0.40103769468862932 -0.15735650722112959 0 0.38946375456974969 -0.1482633138159434 0 0.40103769468862932 -0.15735650722112959 0 0.38565700028273392 -0.16791849986101029 0 0.40103769468862932 -0.15735650722112959 0 0.38565700028273392 -0.16791849986101029 0 0.40804365254297231 -0.17415516972609171 0 0.37072349948513561 -0.1630779710757761 0 0.38946375456974969 -0.1482633138159434 0 0.38565700028273392 -0.16791849986101029 0 0.38946375456974969 -0.1482633138159434 0 0.38565700028273392 -0.16791849986101029 0 0.38551481473406651 -0.18910273675150999 0 0.38565700028273392 -0.16791849986101029 0 0.39995041381356911 -0.1868338584648204 0 0.36752808638216261 -0.17990459429682831 0 0.38551481473406651 -0.18910273675150999 0 0.38565700028273392 -0.16791849986101029 0 0.38565700028273392 -0.16791849986101029 0 0.39995041381356911 -0.1868338584648204 0 0.40804365254297231 -0.17415516972609171 0 0.4125958117473455 -0.19170302267586259 0 0.40804365254297231 -0.17415516972609171 0 0.42233780496578233 -0.18319904235883591 0 0.4125958117473455 -0.19170302267586259 0 0.39995041381356911 -0.1868338584648204 0 0.40804365254297231 -0.17415516972609171 0 0.42233780496578233 -0.18319904235883591 0 0.43537196508735049 -0.18173276810905351 0 0.42169756570229522 -0.15672283071129131 0 0.43389642119060762 -0.191962199940241 0 0.42233780496578233 -0.18319904235883591 0 0.43537196508735049 -0.18173276810905351 0 0.43537196508735049 -0.18173276810905351 0 0.42169756570229522 -0.15672283071129131 0 0.43537196508735049 -0.18173276810905351 0 0.42169756570229522 -0.15672283071129131 0 0.44011919579772352 -0.15902857640534751 0 0.40804365254297231 -0.17415516972609171 0 0.42233780496578233 -0.18319904235883591 0 0.42169756570229522 -0.15672283071129131 0 0.40103769468862932 -0.15735650722112959 0 0.40804365254297231 -0.17415516972609171 0 0.42169756570229522 -0.15672283071129131 0 0.40032650034539519 -0.13972272199131119 0 0.40103769468862932 -0.15735650722112959 0 0.42169756570229522 -0.15672283071129131 0 0.42169756570229522 -0.15672283071129131 0 0.40802316631723889 -0.13171289331352951 0 0.40032650034539519 -0.13972272199131119 0 0.42169756570229522 -0.15672283071129131 0 0.40802316631723889 -0.13171289331352951 0 0.42169756570229522 -0.15672283071129131 0 0.43087782981676859 -0.131879285754128 0 0.44052259681213413 -0.14512254840888281 0 0.42169756570229522 -0.15672283071129131 0 0.44052259681213413 -0.14512254840888281 0 0.44011919579772352 -0.15902857640534751 0 0.42510906065580589 -0.11393180641703871 0 0.43087782981676859 -0.131879285754128 0 0.40802316631723889 -0.13171289331352951 0 0.42169756570229522 -0.15672283071129131 0 0.43087782981676859 -0.131879285754128 0 0.40802316631723889 -0.13171289331352951 0 0.46093003486481321 -0.11810563265674839 0 0.46623847963083442 -0.1374076686568538 0 0.47239045088042492 -0.13005034139104371 0 0.46093003486481321 -0.11810563265674839 0 0.45430072039358249 -0.1470470373257684 0 0.46093003486481321 -0.11810563265674839 0 0.46623847963083442 -0.1374076686568538 0 0.45430072039358249 -0.1470470373257684 0 0.46093003486481321 -0.11810563265674839 0 0.44582693855797939 -0.1311402400572215 0 0.45430072039358249 -0.1470470373257684 0 0.441730170532879 -0.1159420230490274 0 0.43087782981676859 -0.131879285754128 0 0.44582693855797939 -0.1311402400572215 0 0.43087782981676859 -0.131879285754128 0 0.44582693855797939 -0.1311402400572215 0 0.44052259681213413 -0.14512254840888281 0 0.44582693855797939 -0.1311402400572215 0 0.44052259681213413 -0.14512254840888281 0 0.45430072039358249 -0.1470470373257684 0 0.44052259681213413 -0.14512254840888281 0 0.45430072039358249 -0.1470470373257684 0 0.44011919579772352 -0.15902857640534751 0 0.46623847963083442 -0.1374076686568538 0 0.45430072039358249 -0.1470470373257684 0 0.46795215833203208 -0.14958538313512479 0 0.45430072039358249 -0.1470470373257684 0 0.46795215833203208 -0.14958538313512479 0 0.46249654728105127 -0.15875526896169859 0 0.46249654728105127 -0.15875526896169859 0 0.44767140592235177 -0.17598844199478861 0 0.4590637049386419 -0.17656280063954849 0 0.46795215833203208 -0.14958538313512479 0 0.46765797362325351 -0.16960743348544691 0 0.46249654728105127 -0.15875526896169859 0 0.46765797362325351 -0.16960743348544691 0 0.46249654728105127 -0.15875526896169859 0 0.4590637049386419 -0.17656280063954849 0 0.45430072039358249 -0.1470470373257684 0 0.46249654728105127 -0.15875526896169859 0 0.44767140592235177 -0.17598844199478861 0 0.46249654728105127 -0.15875526896169859 0 0.4590637049386419 -0.17656280063954849 0 0.45430072039358249 -0.1470470373257684 0 0.44011919579772352 -0.15902857640534751 0 0.44767140592235177 -0.17598844199478861 0 0.45430072039358249 -0.1470470373257684 0 0.44767140592235177 -0.17598844199478861 0 0.44767140592235177 -0.17598844199478861 0 0.45131049953134228 -0.18433764364674099 0 0.4590637049386419 -0.17656280063954849 0 0.43537196508735049 -0.18173276810905351 0 0.44011919579772352 -0.15902857640534751 0 0.44767140592235177 -0.17598844199478861 0 0.43389642119060762 -0.191962199940241 0 0.43537196508735049 -0.18173276810905351 0 0.44405046135624082 -0.18412940313962539 0 0.43537196508735049 -0.18173276810905351 0 0.44767140592235177 -0.17598844199478861 0 0.44405046135624082 -0.18412940313962539 0 0.44405046135624082 -0.18412940313962539 0 0.45131049953134228 -0.18433764364674099 0 0.4501360628432447 -0.19063724014234421 0 0.44767140592235177 -0.17598844199478861 0 0.44405046135624082 -0.18412940313962539 0 0.45131049953134228 -0.18433764364674099 0 0.46765797362325351 -0.16960743348544691 0 0.4590637049386419 -0.17656280063954849 0 0.45563086259623248 -0.19437033231739831 0 0.4590637049386419 -0.17656280063954849 0 0.45563086259623248 -0.19437033231739831 0 0.46765797362325351 -0.16960743348544691 0 0.45563086259623248 -0.19437033231739831 0 0.46765797362325351 -0.16960743348544691 0 0.46817453342310178 -0.17984984725849121 0 0.45563086259623248 -0.19437033231739831 0 0.45131049953134228 -0.18433764364674099 0 0.4590637049386419 -0.17656280063954849 0 0.45563086259623248 -0.19437033231739831 0 0.46817453342310178 -0.17984984725849121 0 0.47868008644015098 -0.18364062408913809 0 0.4864423059537345 -0.17561039486471769 0 0.46817453342310178 -0.17984984725849121 0 0.47868008644015098 -0.18364062408913809 0 0.47427671796452459 -0.19390449174425081 0 0.4864423059537345 -0.17561039486471769 0 0.5 -0.16076066479590659 0 0.5 -0.1885669917164324 0 0.47868008644015098 -0.18364062408913809 0 0.4864423059537345 -0.17561039486471769 0 0.5 -0.1885669917164324 0 0.4864423059537345 -0.17561039486471769 0 0.5 -0.16076066479590659 0 0.4874204893839118 -0.1629257968797283 0 0.5 -0.16076066479590659 0 0.4874204893839118 -0.1629257968797283 0 0.48836632050416018 -0.15319142364385391 0 0.46765797362325351 -0.16960743348544691 0 0.47968508465027437 -0.14484453465349531 0 0.46817453342310178 -0.17984984725849121 0 0.4864423059537345 -0.17561039486471769 0 0.47621222687475862 -0.15989320835224299 0 0.46765797362325351 -0.16960743348544691 0 0.46817453342310178 -0.17984984725849121 0 0.47621222687475862 -0.15989320835224299 0 0.4864423059537345 -0.17561039486471769 0 0.4874204893839118 -0.1629257968797283 0 0.47621222687475862 -0.15989320835224299 0 0.46817453342310178 -0.17984984725849121 0 0.47621222687475862 -0.15989320835224299 0 0.4874204893839118 -0.1629257968797283 0 0.47621222687475862 -0.15989320835224299 0 0.48836632050416018 -0.15319142364385391 0 0.46765797362325351 -0.16960743348544691 0 0.47621222687475862 -0.15989320835224299 0 0.47968508465027437 -0.14484453465349531 0 0.47621222687475862 -0.15989320835224299 0 0.48424992032641551 -0.13993656944599481 0 0.47621222687475862 -0.15989320835224299 0 0.48836632050416018 -0.15319142364385391 0 0.48424992032641551 -0.13993656944599481 0 0.46795215833203208 -0.14958538313512479 0 0.46765797362325351 -0.16960743348544691 0 0.47968508465027437 -0.14484453465349531 0 0.47621222687475862 -0.15989320835224299 0 0.47968508465027437 -0.14484453465349531 0 0.48424992032641551 -0.13993656944599481 0 0.46623847963083442 -0.1374076686568538 0 0.46795215833203208 -0.14958538313512479 0 0.47424994269801352 -0.1397372940967013 0 0.46795215833203208 -0.14958538313512479 0 0.47968508465027437 -0.14484453465349531 0 0.47424994269801352 -0.1397372940967013 0 0.47968508465027437 -0.14484453465349531 0 0.47994759956173211 -0.14051186616834291 0 0.47424994269801352 -0.1397372940967013 0 0.47968508465027437 -0.14484453465349531 0 0.48424992032641551 -0.13993656944599481 0 0.47994759956173211 -0.14051186616834291 0 0.5 -0.16076066479590659 0 0.48836632050416018 -0.15319142364385391 0 0.5 -0.13295433787538069 0 0.48836632050416018 -0.15319142364385391 0 0.5 -0.13295433787538069 0 0.48424992032641551 -0.13993656944599481 0 0.48916266477234061 -0.13224727383335569 0 0.48085855782101261 -0.13626791926353529 0 0.48424992032641551 -0.13993656944599481 0 0.5 -0.13295433787538069 0 0.48916266477234061 -0.13224727383335569 0 0.48424992032641551 -0.13993656944599481 0 0.48986304781109291 -0.1242692167884092 0 0.5 -0.13295433787538069 0 0.48916266477234061 -0.13224727383335569 0 0.48986304781109291 -0.1242692167884092 0 0.48916266477234061 -0.13224727383335569 0 0.48085855782101261 -0.13626791926353529 0 0.47499259514944292 -0.1202547269832886 0 0.48085855782101261 -0.13626791926353529 0 0.47239045088042492 -0.13005034139104371 0 0.48085855782101261 -0.13626791926353529 0 0.48424992032641551 -0.13993656944599481 0 0.47994759956173211 -0.14051186616834291 0 0.48085855782101261 -0.13626791926353529 0 0.47994759956173211 -0.14051186616834291 0 0.47424994269801352 -0.1397372940967013 0 0.48085855782101261 -0.13626791926353529 0 0.47424994269801352 -0.1397372940967013 0 0.47239045088042492 -0.13005034139104371 0 0.46623847963083442 -0.1374076686568538 0 0.47424994269801352 -0.1397372940967013 0 0.47239045088042492 -0.13005034139104371 0 0.45735248248792831 -0.2263504469462593 0 0.45606595353113982 -0.2348942090935259 0 0.45040787416373163 -0.22146407059246401 0 0.4593659812364308 -0.22004368230368379 0 0.45735248248792831 -0.2263504469462593 0 0.45040787416373163 -0.22146407059246401 0 0.4593659812364308 -0.22004368230368379 0 0.45735248248792831 -0.2263504469462593 0 0.47005683011064803 -0.22590290220369119 0 0.4593659812364308 -0.22004368230368379 0 0.46586242272604061 -0.21273545752659301 0 0.47005683011064803 -0.22590290220369119 0 0.45735248248792831 -0.2263504469462593 0 0.45606595353113982 -0.2348942090935259 0 0.47005683011064803 -0.22590290220369119 0 0.46661169077989217 -0.2415165845456661 0 0.45606595353113982 -0.2348942090935259 0 0.47005683011064803 -0.22590290220369119 0 0.46661169077989217 -0.2415165845456661 0 0.45571617873614662 -0.24946335937342859 0 0.47785808936807489 -0.24877368548012899 0 0.45571617873614662 -0.24946335937342859 0 0.47785808936807489 -0.24877368548012899 0 0.46661169077989217 -0.2415165845456661 0 0.45518121600666411 -0.24259067484840299 0 0.45571617873614662 -0.24946335937342859 0 0.46661169077989217 -0.2415165845456661 0 0.45518121600666411 -0.24259067484840299 0 0.45606595353113982 -0.2348942090935259 0 0.45571617873614662 -0.24946335937342859 0 0.43357426810421817 -0.25015303326672972 0 0.43048550082884018 -0.24614270293406881 0 0.44582088554477811 -0.24525862245079941 0 0.44233814121790038 -0.22173902575952509 0 0.45571617873614662 -0.24946335937342859 0 0.44582088554477811 -0.24525862245079941 0 0.43357426810421817 -0.25015303326672972 0 0.45518121600666411 -0.24259067484840299 0 0.45606595353113982 -0.2348942090935259 0 0.44582088554477811 -0.24525862245079941 0 0.45518121600666411 -0.24259067484840299 0 0.45571617873614662 -0.24946335937342859 0 0.44582088554477811 -0.24525862245079941 0 0.44582088554477811 -0.24525862245079941 0 0.44233814121790038 -0.22173902575952509 0 0.45040787416373163 -0.22146407059246401 0 0.44582088554477811 -0.24525862245079941 0 0.45040787416373163 -0.22146407059246401 0 0.45606595353113982 -0.2348942090935259 0 0.44582088554477811 -0.24525862245079941 0 0.45040787416373163 -0.22146407059246401 0 0.43723926749718739 -0.20471492206911249 0 0.44233814121790038 -0.22173902575952509 0 0.45499486278268447 -0.1976695187341285 0 0.45040787416373163 -0.22146407059246401 0 0.45499486278268447 -0.1976695187341285 0 0.44233814121790038 -0.22173902575952509 0 0.45040787416373163 -0.22146407059246401 0 0.45499486278268447 -0.1976695187341285 0 0.44233814121790038 -0.22173902575952509 0 0.45499486278268447 -0.1976695187341285 0 0.43723926749718739 -0.20471492206911249 0 0.44395992212319679 -0.19308347956624619 0 0.45499486278268447 -0.1976695187341285 0 0.43389642119060762 -0.191962199940241 0 0.44405046135624082 -0.18412940313962539 0 0.44395992212319679 -0.19308347956624619 0 0.43389642119060762 -0.191962199940241 0 0.43723926749718739 -0.20471492206911249 0 0.44395992212319679 -0.19308347956624619 0 0.44395992212319679 -0.19308347956624619 0 0.45499486278268447 -0.1976695187341285 0 0.45131049953134228 -0.18433764364674099 0 0.4501360628432447 -0.19063724014234421 0 0.45563086259623248 -0.19437033231739831 0 0.44395992212319679 -0.19308347956624619 0 0.4501360628432447 -0.19063724014234421 0 0.45499486278268447 -0.1976695187341285 0 0.44405046135624082 -0.18412940313962539 0 0.44395992212319679 -0.19308347956624619 0 0.4501360628432447 -0.19063724014234421 0 0.46817453342310178 -0.17984984725849121 0 0.46013683997144489 -0.19980648616473931 0 0.47427671796452459 -0.19390449174425081 0 0.46817453342310178 -0.17984984725849121 0 0.46013683997144489 -0.19980648616473931 0 0.46817453342310178 -0.17984984725849121 0 0.45563086259623248 -0.19437033231739831 0 0.46013683997144489 -0.19980648616473931 0 0.4501360628432447 -0.19063724014234421 0 0.45563086259623248 -0.19437033231739831 0 0.45499486278268447 -0.1976695187341285 0 0.45499486278268447 -0.1976695187341285 0 0.46013683997144489 -0.19980648616473931 0 0.45563086259623248 -0.19437033231739831 0 0.45499486278268447 -0.1976695187341285 0 0.45563086259623248 -0.19437033231739831 0 0.45499486278268447 -0.1976695187341285 0 0.46013683997144489 -0.19980648616473931 0 0.46013683997144489 -0.19980648616473931 0 0.46586242272604061 -0.21273545752659301 0 0.48006841998572208 -0.20808990240084899 0 0.45040787416373163 -0.22146407059246401 0 0.45499486278268447 -0.1976695187341285 0 0.4548395438527213 -0.21295904373074681 0 0.4593659812364308 -0.22004368230368379 0 0.45040787416373163 -0.22146407059246401 0 0.4548395438527213 -0.21295904373074681 0 0.4593659812364308 -0.22004368230368379 0 0.4548395438527213 -0.21295904373074681 0 0.46586242272604061 -0.21273545752659301 0 0.46013683997144489 -0.19980648616473931 0 0.4548395438527213 -0.21295904373074681 0 0.45499486278268447 -0.1976695187341285 0 0.46013683997144489 -0.19980648616473931 0 0.4548395438527213 -0.21295904373074681 0 0.46013683997144489 -0.19980648616473931 0 0.4548395438527213 -0.21295904373074681 0 0.46586242272604061 -0.21273545752659301 0 0.46013683997144489 -0.19980648616473931 0 0.48006841998572208 -0.20808990240084899 0 0.46586242272604061 -0.21273545752659301 0 0.48006841998572208 -0.20808990240084899 0 0.47005683011064803 -0.22590290220369119 0 0.46013683997144489 -0.19980648616473931 0 0.48006841998572208 -0.20808990240084899 0 0.47427671796452459 -0.19390449174425081 0 0.47868008644015098 -0.18364062408913809 0 0.47427671796452459 -0.19390449174425081 0 0.5 -0.1885669917164324 0 0.48006841998572208 -0.20808990240084899 0 0.47427671796452459 -0.19390449174425081 0 0.5 -0.1885669917164324 0 0.48006841998572208 -0.20808990240084899 0 0.5 -0.1885669917164324 0 0.49999999999999961 -0.21637331863695819 0 0.48006841998572208 -0.20808990240084899 0 0.49999999999999961 -0.21637331863695819 0 0.48006841998572208 -0.20808990240084899 0 0.49999999999999961 -0.21637331863695819 0 0.4862545149737133 -0.22430099187442659 0 0.49999999999999961 -0.21637331863695819 0 0.5 -0.2322286651118938 0 0.4862545149737133 -0.22430099187442659 0 0.5 -0.2322286651118938 0 0.4862545149737133 -0.22430099187442659 0 0.48731543898686108 -0.23834171508702701 0 0.4862545149737133 -0.22430099187442659 0 0.47005683011064803 -0.22590290220369119 0 0.48731543898686108 -0.23834171508702701 0 0.48006841998572208 -0.20808990240084899 0 0.4862545149737133 -0.22430099187442659 0 0.47005683011064803 -0.22590290220369119 0 0.46661169077989217 -0.2415165845456661 0 0.47005683011064803 -0.22590290220369119 0 0.48731543898686108 -0.23834171508702701 0 0.46661169077989217 -0.2415165845456661 0 0.47785808936807489 -0.24877368548012899 0 0.48731543898686108 -0.23834171508702701 0 0.47785808936807489 -0.24877368548012899 0 0.50000000000000333 -0.24808401158682941 0 0.48731543898686108 -0.23834171508702701 0 0.5 -0.2322286651118938 0 0.50000000000000333 -0.24808401158682941 0 0.48731543898686108 -0.23834171508702701 0 0.47785808936807489 -0.24877368548012899 0 0.50000000000000333 -0.24808401158682941 0 0.50000000000000333 -0.24808401158682941 0 0.48656724266228879 -0.26126228076250718 0 0.5 -0.26842994380811291 0 0.47785808936807489 -0.24877368548012899 0 0.50000000000000333 -0.24808401158682941 0 0.48656724266228879 -0.26126228076250718 0 0.5 -0.26842994380811291 0 0.48208681399926079 -0.27581357356502773 0 0.50000000000000111 -0.28877587602939642 0 0.48656724266228879 -0.26126228076250718 0 0.5 -0.26842994380811291 0 0.48208681399926079 -0.27581357356502773 0 0.48208681399926079 -0.27581357356502773 0 0.46068671901070851 -0.28535474144655731 0 0.48208681399926079 -0.27581357356502773 0 0.46768981413575761 -0.2649492641288182 0 0.46068671901070851 -0.28535474144655731 0 0.48656724266228879 -0.26126228076250718 0 0.48208681399926079 -0.27581357356502773 0 0.46768981413575761 -0.2649492641288182 0 0.47785808936807489 -0.24877368548012899 0 0.48656724266228879 -0.26126228076250718 0 0.46768981413575761 -0.2649492641288182 0 0.45571617873614662 -0.24946335937342859 0 0.47785808936807489 -0.24877368548012899 0 0.46768981413575761 -0.2649492641288182 0 0.45571617873614662 -0.24946335937342859 0 0.46768981413575761 -0.2649492641288182 0 0.44713049355746243 -0.26775388735664418 0 0.46768981413575761 -0.2649492641288182 0 0.44713049355746243 -0.26775388735664418 0 0.46068671901070851 -0.28535474144655731 0 0.44713049355746243 -0.26775388735664418 0 0.46068671901070851 -0.28535474144655731 0 0.45571617873614662 -0.24946335937342859 0 0.44713049355746243 -0.26775388735664418 0 0.43357426810421817 -0.25015303326672972 0 0.44713049355746243 -0.26775388735664418 0 0.43357426810421817 -0.25015303326672972 0 0.43808872290812301 -0.29542998993102848 0 0.44582747314286902 -0.31276753443956201 0 0.43031487288344161 -0.31703067604683871 0 0.43808872290812301 -0.29542998993102848 0 0.45932525709009708 -0.30194153040829069 0 0.44582747314286902 -0.31276753443956201 0 0.43808872290812301 -0.29542998993102848 0 0.46068671901070851 -0.28535474144655731 0 0.45932525709009708 -0.30194153040829069 0 0.43808872290812301 -0.29542998993102848 0 0.46068671901070851 -0.28535474144655731 0 0.44713049355746243 -0.26775388735664418 0 0.43808872290812301 -0.29542998993102848 0 0.46068671901070851 -0.28535474144655731 0 0.46068671901070851 -0.28535474144655731 0 0.47654280981399377 -0.30594164756046982 0 0.46068671901070851 -0.28535474144655731 0 0.45932525709009708 -0.30194153040829069 0 0.47654280981399377 -0.30594164756046982 0 0.45932525709009708 -0.30194153040829069 0 0.46020140703816609 -0.31790014661013011 0 0.44582747314286902 -0.31276753443956201 0 0.47654280981399377 -0.30594164756046982 0 0.46020140703816609 -0.31790014661013011 0 0.45932525709009708 -0.30194153040829069 0 0.47654280981399377 -0.30594164756046982 0 0.46020140703816609 -0.31790014661013011 0 0.47654280981399377 -0.30594164756046982 0 0.48452590656705868 -0.31630657706248883 0 0.48208681399926079 -0.27581357356502773 0 0.46068671901070851 -0.28535474144655731 0 0.47654280981399377 -0.30594164756046982 0 0.48208681399926079 -0.27581357356502773 0 0.47654280981399377 -0.30594164756046982 0 0.50000000000000111 -0.28877587602939642 0 0.50000000000000111 -0.28877587602939642 0 0.5 -0.31627016595707702 0 0.48452590656705868 -0.31630657706248883 0 0.47654280981399377 -0.30594164756046982 0 0.50000000000000111 -0.28877587602939642 0 0.47654280981399377 -0.30594164756046982 0 0.50000000000000111 -0.28877587602939642 0 0.48452590656705868 -0.31630657706248883 0 0.5 -0.31627016595707702 0 0.48452590656705868 -0.31630657706248883 0 0.4798244965011923 -0.33203805400226027 0 0.5 -0.31627016595707702 0 0.4798244965011923 -0.33203805400226027 0 0.5 -0.34376445588475768 0 0.4798244965011923 -0.33203805400226027 0 0.46847105179670839 -0.34389899480205388 0 0.46020140703816609 -0.31790014661013011 0 0.47654280981399377 -0.30594164756046982 0 0.47527365498010271 -0.31804660630883719 0 0.46020140703816609 -0.31790014661013011 0 0.48452590656705868 -0.31630657706248883 0 0.4798244965011923 -0.33203805400226027 0 0.47527365498010271 -0.31804660630883719 0 0.4798244965011923 -0.33203805400226027 0 0.47527365498010271 -0.31804660630883719 0 0.46020140703816609 -0.31790014661013011 0 0.47654280981399377 -0.30594164756046982 0 0.48452590656705868 -0.31630657706248883 0 0.47527365498010271 -0.31804660630883719 0 0.49999999999999711 -0.37125874581243851 0 0.48806042456369142 -0.35612155968098341 0 0.47674069655525092 -0.3698978429939776 0 0.4798244965011923 -0.33203805400226027 0 0.48806042456369142 -0.35612155968098341 0 0.5 -0.34376445588475768 0 0.49999999999999711 -0.37125874581243851 0 0.48806042456369142 -0.35612155968098341 0 0.5 -0.34376445588475768 0 0.4798244965011923 -0.33203805400226027 0 0.48806042456369142 -0.35612155968098341 0 0.46847105179670839 -0.34389899480205388 0 0.48806042456369142 -0.35612155968098341 0 0.47674069655525092 -0.3698978429939776 0 0.46847105179670839 -0.34389899480205388 0 0.47674069655525092 -0.3698978429939776 0 0.46847105179670839 -0.34389899480205388 0 0.47674069655525092 -0.3698978429939776 0 0.45392603783110008 -0.37108838658624999 0 0.46847105179670839 -0.34389899480205388 0 0.45392603783110008 -0.37108838658624999 0 0.46847105179670839 -0.34389899480205388 0 0.44672977628043381 -0.35017364189741718 0 0.45392603783110008 -0.37108838658624999 0 0.44672977628043381 -0.35017364189741718 0 0.42785183481717409 -0.36595316276467199 0 0.45392603783110008 -0.37108838658624999 0 0.42785183481717409 -0.36595316276467199 0 0.43242581624588322 -0.38730115333965082 0 0.46847105179670839 -0.34389899480205388 0 0.46020140703816609 -0.31790014661013011 0 0.46847105179670839 -0.34389899480205388 0 0.46020140703816609 -0.31790014661013011 0 0.45431986664039198 -0.33607192194780172 0 0.46847105179670839 -0.34389899480205388 0 0.44672977628043381 -0.35017364189741718 0 0.45431986664039198 -0.33607192194780172 0 0.44672977628043381 -0.35017364189741718 0 0.44127539957872802 -0.33175003730325792 0 0.42823689835664952 -0.34636857782623809 0 0.44672977628043381 -0.35017364189741718 0 0.45431986664039198 -0.33607192194780172 0 0.44127539957872802 -0.33175003730325792 0 0.46020140703816609 -0.31790014661013011 0 0.45431986664039198 -0.33607192194780172 0 0.44127539957872802 -0.33175003730325792 0 0.44127539957872802 -0.33175003730325792 0 0.44582747314286902 -0.31276753443956201 0 0.43031487288344161 -0.31703067604683871 0 0.46020140703816609 -0.31790014661013011 0 0.44127539957872802 -0.33175003730325792 0 0.46020140703816609 -0.31790014661013011 0 0.44127539957872802 -0.33175003730325792 0 0.44582747314286902 -0.31276753443956201 0 0.44127539957872802 -0.33175003730325792 0 0.43031487288344161 -0.31703067604683871 0 0.41707429101309201 -0.3297381436533145 0 0.44127539957872802 -0.33175003730325792 0 0.41707429101309201 -0.3297381436533145 0 0.42823689835664952 -0.34636857782623809 0 0.41707429101309201 -0.3297381436533145 0 0.42823689835664952 -0.34636857782623809 0 0.40866613474490449 -0.35252068697126149 0 0.41707429101309201 -0.3297381436533145 0 0.39289273070295128 -0.31558048689996993 0 0.41549072680553711 -0.30550523841549909 0 0.43031487288344161 -0.31703067604683871 0 0.41707429101309201 -0.3297381436533145 0 0.41549072680553711 -0.30550523841549909 0 0.44672977628043381 -0.35017364189741718 0 0.42785183481717409 -0.36595316276467199 0 0.42823689835664952 -0.34636857782623809 0 0.42785183481717409 -0.36595316276467199 0 0.40866613474490449 -0.35252068697126149 0 0.42785183481717409 -0.36595316276467199 0 0.42823689835664952 -0.34636857782623809 0 0.40866613474490449 -0.35252068697126149 0 0.42785183481717409 -0.36595316276467199 0 0.4111933065081313 -0.36805982019164402 0 0.41287057948892703 -0.38518927514730122 0 0.42785183481717409 -0.36595316276467199 0 0.40866613474490449 -0.35252068697126149 0 0.4111933065081313 -0.36805982019164402 0 0.39290052262193498 -0.35565000096393579 0 0.38249634533461108 -0.36797477098799591 0 0.39650622041158878 -0.3765742856902482 0 0.4111933065081313 -0.36805982019164402 0 0.39290052262193498 -0.35565000096393579 0 0.39650622041158878 -0.3765742856902482 0 0.40866613474490449 -0.35252068697126149 0 0.39290052262193498 -0.35565000096393579 0 0.38948043467263488 -0.33908821117785082 0 0.40866613474490449 -0.35252068697126149 0 0.38948043467263488 -0.33908821117785082 0 0.40866613474490449 -0.35252068697126149 0 0.4111933065081313 -0.36805982019164402 0 0.39290052262193498 -0.35565000096393579 0 0.39290052262193498 -0.35565000096393579 0 0.37818146540529818 -0.34934783795600571 0 0.38249634533461108 -0.36797477098799591 0 0.39290052262193498 -0.35565000096393579 0 0.37818146540529818 -0.34934783795600571 0 0.38948043467263488 -0.33908821117785082 0 0.37818146540529818 -0.34934783795600571 0 0.38249634533461108 -0.36797477098799591 0 0.37305712147220338 -0.36102055586376819 0 0.41707429101309201 -0.3297381436533145 0 0.40866613474490449 -0.35252068697126149 0 0.38948043467263488 -0.33908821117785082 0 0.41707429101309201 -0.3297381436533145 0 0.39289273070295128 -0.31558048689996993 0 0.38948043467263488 -0.33908821117785082 0 0.37818146540529818 -0.34934783795600571 0 0.38948043467263488 -0.33908821117785082 0 0.37212478857772979 -0.33864880005647208 0 0.38948043467263488 -0.33908821117785082 0 0.37029473460036533 -0.32565573538444043 0 0.38948043467263488 -0.33908821117785082 0 0.37029473460036533 -0.32565573538444043 0 0.37212478857772979 -0.33864880005647208 0 0.39289273070295128 -0.31558048689996993 0 0.38064079273778262 -0.31288188218018531 0 0.37029473460036533 -0.32565573538444043 0 0.39289273070295128 -0.31558048689996993 0 0.37029473460036533 -0.32565573538444043 0 0.39289273070295128 -0.31558048689996993 0 0.38948043467263488 -0.33908821117785082 0 0.37029473460036533 -0.32565573538444043 0 0.38064079273778262 -0.31288188218018531 0 0.37804720550635529 -0.30651687721429538 0 0.38870969627640167 -0.30439929484627132 0 0.38064079273778262 -0.31288188218018531 0 0.37804720550635529 -0.30651687721429538 0 0.37325959660283969 -0.31225701655594912 0 0.37804720550635529 -0.30651687721429538 0 0.38032829646105881 -0.29636137241382532 0 0.36761344479238373 -0.29508033606196837 0 0.37804720550635529 -0.30651687721429538 0 0.38870969627640167 -0.30439929484627132 0 0.38032829646105881 -0.29636137241382532 0 0.38870969627640167 -0.30439929484627132 0 0.3879772147484597 -0.29176707856862888 0 0.38032829646105881 -0.29636137241382532 0 0.39289273070295128 -0.31558048689996993 0 0.38064079273778262 -0.31288188218018531 0 0.38870969627640167 -0.30439929484627132 0 0.39289273070295128 -0.31558048689996993 0 0.39985527598894161 -0.30920798579428682 0 0.41549072680553711 -0.30550523841549909 0 0.39985527598894161 -0.30920798579428682 0 0.39681295496079538 -0.29611275996065012 0 0.40939030264251791 -0.28957609748361951 0 0.39985527598894161 -0.30920798579428682 0 0.40939030264251791 -0.28957609748361951 0 0.39289273070295128 -0.31558048689996993 0 0.41549072680553711 -0.30550523841549909 0 0.39289273070295128 -0.31558048689996993 0 0.38870969627640167 -0.30439929484627132 0 0.39985527598894161 -0.30920798579428682 0 0.38870969627640167 -0.30439929484627132 0 0.39681295496079538 -0.29611275996065012 0 0.3879772147484597 -0.29176707856862888 0 0.38870969627640167 -0.30439929484627132 0 0.39985527598894161 -0.30920798579428682 0 0.39681295496079538 -0.29611275996065012 0 0.39922652050867191 -0.28295197323892363 0 0.39681295496079538 -0.29611275996065012 0 0.40939030264251791 -0.28957609748361951 0 0.39922652050867191 -0.28295197323892363 0 0.39681295496079538 -0.29611275996065012 0 0.3879772147484597 -0.29176707856862888 0 0.39922652050867191 -0.28295197323892363 0 0.3879772147484597 -0.29176707856862888 0 0.38840358504398731 -0.28029486931936831 0 0.3879772147484597 -0.29176707856862888 0 0.37929392098169401 -0.28404327537796259 0 0.38840358504398731 -0.28029486931936831 0 0.38032829646105881 -0.29636137241382532 0 0.37929392098169401 -0.28404327537796259 0 0.36761344479238373 -0.29508033606196837 0 0.3879772147484597 -0.29176707856862888 0 0.38032829646105881 -0.29636137241382532 0 0.37929392098169401 -0.28404327537796259 0 0.37929392098169401 -0.28404327537796259 0 0.38326599173650672 -0.27147868498013239 0 0.3725796289452375 -0.26579697317357759 0 0.37929392098169401 -0.28404327537796259 0 0.38326599173650672 -0.27147868498013239 0 0.38840358504398731 -0.28029486931936831 0 0.38326599173650672 -0.27147868498013239 0 0.38840358504398731 -0.28029486931936831 0 0.39544519547575041 -0.26880031542545191 0 0.37754581309809132 -0.23651361028518689 0 0.3725796289452375 -0.26579697317357759 0 0.37754581309809132 -0.23651361028518689 0 0.3871149211879113 -0.25548270742864421 0 0.3725796289452375 -0.26579697317357759 0 0.38326599173650672 -0.27147868498013239 0 0.3871149211879113 -0.25548270742864421 0 0.39544519547575041 -0.26880031542545191 0 0.38326599173650672 -0.27147868498013239 0 0.3871149211879113 -0.25548270742864421 0 0.3725796289452375 -0.26579697317357759 0 0.3871149211879113 -0.25548270742864421 0 0.40207495352916539 -0.25113417058953519 0 0.39544519547575041 -0.26880031542545191 0 0.40207495352916539 -0.25113417058953519 0 0.39544519547575041 -0.26880031542545191 0 0.41892532929609411 -0.26994420917295231 0 0.39922652050867191 -0.28295197323892363 0 0.39544519547575041 -0.26880031542545191 0 0.41892532929609411 -0.26994420917295231 0 0.39922652050867191 -0.28295197323892363 0 0.38840358504398731 -0.28029486931936831 0 0.39544519547575041 -0.26880031542545191 0 0.41892532929609411 -0.26994420917295231 0 0.40939030264251791 -0.28957609748361951 0 0.41892532929609411 -0.26994420917295231 0 0.42674472615619141 -0.28201696019190231 0 0.40939030264251791 -0.28957609748361951 0 0.39922652050867191 -0.28295197323892363 0 0.41892532929609411 -0.26994420917295231 0 0.40939030264251791 -0.28957609748361951 0 0.40207495352916539 -0.25113417058953519 0 0.41892532929609411 -0.26994420917295231 0 0.42846035594967069 -0.25031232086228522 0 0.40207495352916539 -0.25113417058953519 0 0.42846035594967069 -0.25031232086228522 0 0.44713049355746243 -0.26775388735664418 0 0.4314427817274139 -0.26389233879167029 0 0.43357426810421817 -0.25015303326672972 0 0.41892532929609411 -0.26994420917295231 0 0.42846035594967069 -0.25031232086228522 0 0.41892532929609411 -0.26994420917295231 0 0.42846035594967069 -0.25031232086228522 0 0.4314427817274139 -0.26389233879167029 0 0.42846035594967069 -0.25031232086228522 0 0.4314427817274139 -0.26389233879167029 0 0.43357426810421817 -0.25015303326672972 0 0.42846035594967069 -0.25031232086228522 0 0.43357426810421817 -0.25015303326672972 0 0.41892532929609411 -0.26994420917295231 0 0.4314427817274139 -0.26389233879167029 0 0.42674472615619141 -0.28201696019190231 0 0.44713049355746243 -0.26775388735664418 0 0.4314427817274139 -0.26389233879167029 0 0.42674472615619141 -0.28201696019190231 0 0.43808872290812301 -0.29542998993102848 0 0.42674472615619141 -0.28201696019190231 0 0.41549072680553711 -0.30550523841549909 0 0.44713049355746243 -0.26775388735664418 0 0.43808872290812301 -0.29542998993102848 0 0.42674472615619141 -0.28201696019190231 0 0.43808872290812301 -0.29542998993102848 0 0.43031487288344161 -0.31703067604683871 0 0.41549072680553711 -0.30550523841549909 0 0.43808872290812301 -0.29542998993102848 0 0.41549072680553711 -0.30550523841549909 0 0.39985527598894161 -0.30920798579428682 0 0.41549072680553711 -0.30550523841549909 0 0.40939030264251791 -0.28957609748361951 0 0.42674472615619141 -0.28201696019190231 0 0.41549072680553711 -0.30550523841549909 0 0.40939030264251791 -0.28957609748361951 0 0.43773802119989941 -0.49999999999999978 0 0.45890943729545802 -0.4823892052391901 0 0.4796611806106722 -0.48718440019654963 0 0.43773802119989941 -0.49999999999999978 0 0.44535189907423273 -0.48425652050154361 0 0.43773802119989941 -0.49999999999999978 0 0.44535189907423273 -0.48425652050154361 0 0.45890943729545802 -0.4823892052391901 0 0.43920548674920379 -0.47249175324936749 0 0.44535189907423273 -0.48425652050154361 0 0.45296577694856682 -0.46851304100308783 0 0.43920548674920379 -0.47249175324936749 0 0.44535189907423273 -0.48425652050154361 0 0.42866409193048188 -0.47676758270227471 0 0.44535189907423273 -0.48425652050154361 0 0.45589009982111051 -0.4775459799915327 0 0.45296577694856682 -0.46851304100308783 0 0.44535189907423273 -0.48425652050154361 0 0.45296577694856682 -0.46851304100308783 0 0.45589009982111051 -0.4775459799915327 0 0.45890943729545802 -0.4823892052391901 0 0.46145872075250199 -0.4714816097570898 0 0.44535189907423273 -0.48425652050154361 0 0.45589009982111051 -0.4775459799915327 0 0.45890943729545802 -0.4823892052391901 0 0.45890943729545802 -0.4823892052391901 0 0.46145872075250199 -0.4714816097570898 0 0.47563876839417468 -0.4748936591889994 0 0.46145872075250199 -0.4714816097570898 0 0.45296577694856682 -0.46851304100308783 0 0.45589009982111051 -0.4775459799915327 0 0.46145872075250199 -0.4714816097570898 0 0.45296577694856682 -0.46851304100308783 0 0.43773802119989941 -0.49999999999999978 0 0.4796611806106722 -0.48718440019654963 0 0.5 -0.5 0 0.4796611806106722 -0.48718440019654963 0 0.5 -0.5 0 0.5 -0.47026069904804169 0 0.5 -0.47026069904804169 0 0.47563876839417468 -0.4748936591889994 0 0.47905351322328699 -0.46315238170412548 0 0.4796611806106722 -0.48718440019654963 0 0.5 -0.47026069904804169 0 0.47563876839417468 -0.4748936591889994 0 0.46145872075250199 -0.4714816097570898 0 0.47563876839417468 -0.4748936591889994 0 0.47905351322328699 -0.46315238170412548 0 0.45890943729545802 -0.4823892052391901 0 0.4796611806106722 -0.48718440019654963 0 0.47563876839417468 -0.4748936591889994 0 0.47905351322328699 -0.46315238170412548 0 0.45899603635761982 -0.45604406436020939 0 0.47905351322328699 -0.46315238170412548 0 0.4788951805990147 -0.44564391983896778 0 0.45899603635761982 -0.45604406436020939 0 0.5 -0.47026069904804169 0 0.47905351322328699 -0.46315238170412548 0 0.5 -0.44373220895607401 0 0.5 -0.47026069904804169 0 0.47905351322328699 -0.46315238170412548 0 0.5 -0.44373220895607401 0 0.4788951805990147 -0.44564391983896778 0 0.48552804520920678 -0.42799216931292611 0 0.47905351322328699 -0.46315238170412548 0 0.5 -0.44373220895607401 0 0.4788951805990147 -0.44564391983896778 0 0.4788951805990147 -0.44564391983896778 0 0.45899603635761982 -0.45604406436020939 0 0.46924702726821282 -0.43484773472326599 0 0.45899603635761982 -0.45604406436020939 0 0.46924702726821282 -0.43484773472326599 0 0.45899603635761982 -0.45604406436020939 0 0.44838303037477362 -0.43447900987216292 0 0.46924702726821282 -0.43484773472326599 0 0.46145872075250199 -0.4714816097570898 0 0.47905351322328699 -0.46315238170412548 0 0.45899603635761982 -0.45604406436020939 0 0.46145872075250199 -0.4714816097570898 0 0.45899603635761982 -0.45604406436020939 0 0.45296577694856682 -0.46851304100308783 0 0.45899603635761982 -0.45604406436020939 0 0.45296577694856682 -0.46851304100308783 0 0.44562172027540892 -0.45801600689332289 0 0.45296577694856682 -0.46851304100308783 0 0.42984017904353489 -0.46042986879056458 0 0.43920548674920379 -0.47249175324936749 0 0.45296577694856682 -0.46851304100308783 0 0.42984017904353489 -0.46042986879056458 0 0.44562172027540892 -0.45801600689332289 0 0.43764883001816302 -0.44847867026387339 0 0.42984017904353489 -0.46042986879056458 0 0.45899603635761982 -0.45604406436020939 0 0.44562172027540892 -0.45801600689332289 0 0.45296577694856682 -0.46851304100308783 0 0.45296577694856682 -0.46851304100308783 0 0.42984017904353489 -0.46042986879056458 0 0.45899603635761982 -0.45604406436020939 0 0.44562172027540892 -0.45801600689332289 0 0.43764883001816302 -0.44847867026387339 0 0.45899603635761982 -0.45604406436020939 0 0.43764883001816302 -0.44847867026387339 0 0.44838303037477362 -0.43447900987216292 0 0.43764883001816302 -0.44847867026387339 0 0.44838303037477362 -0.43447900987216292 0 0.43199803478474752 -0.43480066315574151 0 0.45899603635761982 -0.45604406436020939 0 0.43764883001816302 -0.44847867026387339 0 0.44838303037477362 -0.43447900987216292 0 0.43524810038533429 -0.42324892749070769 0 0.43199803478474752 -0.43480066315574151 0 0.44838303037477362 -0.43447900987216292 0 0.45481320319103757 -0.41743251132042969 0 0.43524810038533429 -0.42324892749070769 0 0.45481320319103757 -0.41743251132042969 0 0.43477646914432833 -0.40550992295969079 0 0.43524810038533429 -0.42324892749070769 0 0.45481320319103757 -0.41743251132042969 0 0.46680969583490778 -0.41274858841526157 0 0.46924702726821282 -0.43484773472326599 0 0.45481320319103757 -0.41743251132042969 0 0.46680969583490778 -0.41274858841526157 0 0.46697148891275431 -0.40002921638500172 0 0.44838303037477362 -0.43447900987216292 0 0.45481320319103757 -0.41743251132042969 0 0.46924702726821282 -0.43484773472326599 0 0.5 -0.44373220895607401 0 0.48552804520920678 -0.42799216931292611 0 0.5 -0.40208557795999961 0 0.46924702726821282 -0.43484773472326599 0 0.48552804520920678 -0.42799216931292611 0 0.47949801817880677 -0.41365140508632309 0 0.4788951805990147 -0.44564391983896778 0 0.46924702726821282 -0.43484773472326599 0 0.48552804520920678 -0.42799216931292611 0 0.46924702726821282 -0.43484773472326599 0 0.47949801817880677 -0.41365140508632309 0 0.48552804520920678 -0.42799216931292611 0 0.47949801817880677 -0.41365140508632309 0 0.5 -0.40208557795999961 0 0.46680969583490778 -0.41274858841526157 0 0.46924702726821282 -0.43484773472326599 0 0.47949801817880677 -0.41365140508632309 0 0.46680969583490778 -0.41274858841526157 0 0.47949801817880677 -0.41365140508632309 0 0.47485796399023311 -0.40328323013715978 0 0.47949801817880677 -0.41365140508632309 0 0.47485796399023311 -0.40328323013715978 0 0.48501034131379339 -0.39589669118590137 0 0.46680969583490778 -0.41274858841526157 0 0.47485796399023311 -0.40328323013715978 0 0.46697148891275431 -0.40002921638500172 0 0.47485796399023311 -0.40328323013715978 0 0.47548297721973709 -0.39513831255209197 0 0.46697148891275431 -0.40002921638500172 0 0.47548297721973709 -0.39513831255209197 0 0.47310568845609052 -0.38536867418522291 0 0.46697148891275431 -0.40002921638500172 0 0.47548297721973709 -0.39513831255209197 0 0.48501034131379339 -0.39589669118590137 0 0.47310568845609052 -0.38536867418522291 0 0.47485796399023311 -0.40328323013715978 0 0.47548297721973709 -0.39513831255209197 0 0.48501034131379339 -0.39589669118590137 0 0.47949801817880677 -0.41365140508632309 0 0.48974900908940078 -0.39245507544938019 0 0.47949801817880677 -0.41365140508632309 0 0.5 -0.40208557795999961 0 0.48974900908940078 -0.39245507544938019 0 0.47949801817880677 -0.41365140508632309 0 0.48974900908940078 -0.39245507544938019 0 0.48501034131379339 -0.39589669118590137 0 0.49999999999999711 -0.37125874581243851 0 0.5 -0.40208557795999961 0 0.48974900908940078 -0.39245507544938019 0 0.49999999999999711 -0.37125874581243851 0 0.47674069655525092 -0.3698978429939776 0 0.48974900908940078 -0.39245507544938019 0 0.49999999999999711 -0.37125874581243851 0 0.48974900908940078 -0.39245507544938019 0 0.47674069655525092 -0.3698978429939776 0 0.48501034131379339 -0.39589669118590137 0 0.47310568845609052 -0.38536867418522291 0 0.47674069655525092 -0.3698978429939776 0 0.48974900908940078 -0.39245507544938019 0 0.48501034131379339 -0.39589669118590137 0 0.47674069655525092 -0.3698978429939776 0 0.48501034131379339 -0.39589669118590137 0 0.45392603783110008 -0.37108838658624999 0 0.47310568845609052 -0.38536867418522291 0 0.45155556879862868 -0.3944603689424081 0 0.47674069655525092 -0.3698978429939776 0 0.45392603783110008 -0.37108838658624999 0 0.47310568845609052 -0.38536867418522291 0 0.45481320319103757 -0.41743251132042969 0 0.46697148891275431 -0.40002921638500172 0 0.45155556879862868 -0.3944603689424081 0 0.47310568845609052 -0.38536867418522291 0 0.46697148891275431 -0.40002921638500172 0 0.45155556879862868 -0.3944603689424081 0 0.45481320319103757 -0.41743251132042969 0 0.45155556879862868 -0.3944603689424081 0 0.43477646914432833 -0.40550992295969079 0 0.45155556879862868 -0.3944603689424081 0 0.43242581624588322 -0.38730115333965082 0 0.43477646914432833 -0.40550992295969079 0 0.45392603783110008 -0.37108838658624999 0 0.45155556879862868 -0.3944603689424081 0 0.43242581624588322 -0.38730115333965082 0 0.42785183481717409 -0.36595316276467199 0 0.43242581624588322 -0.38730115333965082 0 0.41287057948892703 -0.38518927514730122 0 0.43242581624588322 -0.38730115333965082 0 0.43477646914432833 -0.40550992295969079 0 0.41749483707519452 -0.40538692165420498 0 0.43242581624588322 -0.38730115333965082 0 0.41749483707519452 -0.40538692165420498 0 0.41287057948892703 -0.38518927514730122 0 0.41749483707519452 -0.40538692165420498 0 0.41287057948892703 -0.38518927514730122 0 0.40336078828097621 -0.40362515372992341 0 0.4111933065081313 -0.36805982019164402 0 0.41287057948892703 -0.38518927514730122 0 0.39650622041158878 -0.3765742856902482 0 0.41287057948892703 -0.38518927514730122 0 0.39650622041158878 -0.3765742856902482 0 0.39372170841196569 -0.3925803949292499 0 0.38249634533461108 -0.36797477098799591 0 0.39650622041158878 -0.3765742856902482 0 0.37900977316023637 -0.39091548517495972 0 0.39650622041158878 -0.3765742856902482 0 0.37900977316023637 -0.39091548517495972 0 0.39372170841196569 -0.3925803949292499 0 0.38249634533461108 -0.36797477098799591 0 0.37900977316023637 -0.39091548517495972 0 0.36724772315424481 -0.38247146420994571 0 0.37900977316023637 -0.39091548517495972 0 0.39372170841196569 -0.3925803949292499 0 0.37842665921942997 -0.40887405987875969 0 0.37900977316023637 -0.39091548517495972 0 0.37842665921942997 -0.40887405987875969 0 0.36824105802713031 -0.4000969440192842 0 0.39372170841196569 -0.3925803949292499 0 0.39194747191700757 -0.41402513481906722 0 0.37842665921942997 -0.40887405987875969 0 0.41287057948892703 -0.38518927514730122 0 0.39372170841196569 -0.3925803949292499 0 0.40336078828097621 -0.40362515372992341 0 0.39372170841196569 -0.3925803949292499 0 0.40336078828097621 -0.40362515372992341 0 0.39194747191700757 -0.41402513481906722 0 0.40336078828097621 -0.40362515372992341 0 0.39194747191700757 -0.41402513481906722 0 0.41036500379586138 -0.42217021861448573 0 0.39194747191700757 -0.41402513481906722 0 0.37842665921942997 -0.40887405987875969 0 0.3754845505291648 -0.42231636227288599 0 0.39194747191700757 -0.41402513481906722 0 0.38276612650569841 -0.43173139982273478 0 0.39495441733924969 -0.43334788207120151 0 0.39194747191700757 -0.41402513481906722 0 0.3754845505291648 -0.42231636227288599 0 0.38276612650569841 -0.43173139982273478 0 0.38276612650569841 -0.43173139982273478 0 0.39495441733924969 -0.43334788207120151 0 0.38358898323347101 -0.44426352436551808 0 0.39495441733924969 -0.43334788207120151 0 0.41630162367870638 -0.44091327616753739 0 0.39194747191700757 -0.41402513481906722 0 0.39495441733924969 -0.43334788207120151 0 0.41036500379586138 -0.42217021861448573 0 0.41036500379586138 -0.42217021861448573 0 0.42295569064062533 -0.42699492369753778 0 0.41630162367870638 -0.44091327616753739 0 0.39495441733924969 -0.43334788207120151 0 0.41036500379586138 -0.42217021861448573 0 0.41630162367870638 -0.44091327616753739 0 0.41749483707519452 -0.40538692165420498 0 0.40336078828097621 -0.40362515372992341 0 0.41036500379586138 -0.42217021861448573 0 0.41749483707519452 -0.40538692165420498 0 0.41036500379586138 -0.42217021861448573 0 0.42458756094721539 -0.41613405657310448 0 0.41036500379586138 -0.42217021861448573 0 0.42458756094721539 -0.41613405657310448 0 0.42295569064062533 -0.42699492369753778 0 0.43477646914432833 -0.40550992295969079 0 0.41749483707519452 -0.40538692165420498 0 0.42458756094721539 -0.41613405657310448 0 0.43477646914432833 -0.40550992295969079 0 0.42458756094721539 -0.41613405657310448 0 0.43524810038533429 -0.42324892749070769 0 0.43199803478474752 -0.43480066315574151 0 0.42295569064062533 -0.42699492369753778 0 0.41630162367870638 -0.44091327616753739 0 0.43524810038533429 -0.42324892749070769 0 0.43199803478474752 -0.43480066315574151 0 0.42295569064062533 -0.42699492369753778 0 0.42458756094721539 -0.41613405657310448 0 0.43524810038533429 -0.42324892749070769 0 0.42295569064062533 -0.42699492369753778 0 0.43764883001816302 -0.44847867026387339 0 0.41630162367870638 -0.44091327616753739 0 0.43764883001816302 -0.44847867026387339 0 0.42984017904353489 -0.46042986879056458 0 0.41630162367870638 -0.44091327616753739 0 0.43764883001816302 -0.44847867026387339 0 0.43199803478474752 -0.43480066315574151 0 0.41630162367870638 -0.44091327616753739 0 0.42984017904353489 -0.46042986879056458 0 0.41583716859034447 -0.46620520778226737 0 0.42866409193048188 -0.47676758270227471 0 0.42984017904353489 -0.46042986879056458 0 0.4067145811385029 -0.45234669657804139 0 0.42984017904353489 -0.46042986879056458 0 0.41583716859034447 -0.46620520778226737 0 0.4067145811385029 -0.45234669657804139 0 0.41583716859034447 -0.46620520778226737 0 0.4067145811385029 -0.45234669657804139 0 0.40148396946935899 -0.46677367853588281 0 0.42984017904353489 -0.46042986879056458 0 0.4067145811385029 -0.45234669657804139 0 0.41630162367870638 -0.44091327616753739 0 0.4067145811385029 -0.45234669657804139 0 0.38358898323347101 -0.44426352436551808 0 0.39182712026942329 -0.45690385307896481 0 0.39495441733924969 -0.43334788207120151 0 0.4067145811385029 -0.45234669657804139 0 0.41630162367870638 -0.44091327616753739 0 0.39495441733924969 -0.43334788207120151 0 0.4067145811385029 -0.45234669657804139 0 0.38358898323347101 -0.44426352436551808 0 0.4067145811385029 -0.45234669657804139 0 0.38358898323347101 -0.44426352436551808 0 0.38358898323347101 -0.44426352436551808 0 0.37514595674159079 -0.45476526552439389 0 0.39182712026942329 -0.45690385307896481 0 0.38276612650569841 -0.43173139982273478 0 0.38358898323347101 -0.44426352436551808 0 0.36596817218281208 -0.43846752572535042 0 0.37514595674159079 -0.45476526552439389 0 0.38538716437757631 -0.46842775420537441 0 0.39182712026942329 -0.45690385307896481 0 0.37514595674159079 -0.45476526552439389 0 0.38538716437757631 -0.46842775420537441 0 0.37212180294075042 -0.46808428500039262 0 0.38538716437757631 -0.46842775420537441 0 0.39182712026942329 -0.45690385307896481 0 0.40148396946935899 -0.46677367853588281 0 0.4067145811385029 -0.45234669657804139 0 0.39182712026942329 -0.45690385307896481 0 0.40148396946935899 -0.46677367853588281 0 0.39434508200087892 -0.48168095957978257 0 0.4057717135424021 -0.48929931529832937 0 0.41138522724611992 -0.47610642689805982 0 0.38538716437757631 -0.46842775420537441 0 0.40148396946935899 -0.46677367853588281 0 0.39434508200087892 -0.48168095957978257 0 0.40148396946935899 -0.46677367853588281 0 0.39434508200087892 -0.48168095957978257 0 0.41138522724611992 -0.47610642689805982 0 0.38538716437757631 -0.46842775420537441 0 0.39434508200087892 -0.48168095957978257 0 0.37586822855092661 -0.48439202442808083 0 0.38538716437757631 -0.46842775420537441 0 0.37586822855092661 -0.48439202442808083 0 0.37212180294075042 -0.46808428500039262 0 0.39434508200087892 -0.48168095957978257 0 0.37586822855092661 -0.48439202442808083 0 0.39289039342582149 -0.5 0 0.37586822855092661 -0.48439202442808083 0 0.39289039342582149 -0.5 0 0.3704665795387827 -0.49999999999999961 0 0.39434508200087892 -0.48168095957978257 0 0.39289039342582149 -0.5 0 0.4057717135424021 -0.48929931529832937 0 0.39289039342582149 -0.5 0 0.4057717135424021 -0.48929931529832937 0 0.41531420731286051 -0.5 0 0.4057717135424021 -0.48929931529832937 0 0.41138522724611992 -0.47610642689805982 0 0.425256426736628 -0.48969697811313823 0 0.4057717135424021 -0.48929931529832937 0 0.41531420731286051 -0.5 0 0.425256426736628 -0.48969697811313823 0 0.41583716859034447 -0.46620520778226737 0 0.41138522724611992 -0.47610642689805982 0 0.42866409193048188 -0.47676758270227471 0 0.41138522724611992 -0.47610642689805982 0 0.42866409193048188 -0.47676758270227471 0 0.425256426736628 -0.48969697811313823 0 0.41583716859034447 -0.46620520778226737 0 0.40148396946935899 -0.46677367853588281 0 0.41138522724611992 -0.47610642689805982 0 0.44535189907423273 -0.48425652050154361 0 0.42866409193048188 -0.47676758270227471 0 0.425256426736628 -0.48969697811313823 0 0.43920548674920379 -0.47249175324936749 0 0.42984017904353489 -0.46042986879056458 0 0.42866409193048188 -0.47676758270227471 0 0.43773802119989941 -0.49999999999999978 0 0.44535189907423273 -0.48425652050154361 0 0.425256426736628 -0.48969697811313823 0 0.43773802119989941 -0.49999999999999978 0 0.41531420731286051 -0.5 0 0.425256426736628 -0.48969697811313823 0 0.32577547594680167 -0.48549728563522948 0 0.313100747974287 -0.5 0 0.34178366375653479 -0.5 0 0.32577547594680167 -0.48549728563522948 0 0.33309118936964399 -0.46704031311580291 0 0.30810638268294871 -0.47012115952174682 0 0.353331436476917 -0.48488928282810861 0 0.33309118936964399 -0.46704031311580291 0 0.32577547594680167 -0.48549728563522948 0 0.353331436476917 -0.48488928282810861 0 0.33309118936964399 -0.46704031311580291 0 0.32577547594680167 -0.48549728563522948 0 0.353331436476917 -0.48488928282810861 0 0.32577547594680167 -0.48549728563522948 0 0.34178366375653479 -0.5 0 0.353331436476917 -0.48488928282810861 0 0.34178366375653479 -0.5 0 0.353331436476917 -0.48488928282810861 0 0.3704665795387827 -0.49999999999999961 0 0.353331436476917 -0.48488928282810861 0 0.3704665795387827 -0.49999999999999961 0 0.37586822855092661 -0.48439202442808083 0 0.353331436476917 -0.48488928282810861 0 0.37586822855092661 -0.48439202442808083 0 0.353331436476917 -0.48488928282810861 0 0.3704665795387827 -0.49999999999999961 0 0.37586822855092661 -0.48439202442808083 0 0.353331436476917 -0.48488928282810861 0 0.36174609683149922 -0.47333229839911978 0 0.37586822855092661 -0.48439202442808083 0 0.36174609683149922 -0.47333229839911978 0 0.37212180294075042 -0.46808428500039262 0 0.353331436476917 -0.48488928282810861 0 0.3511187368843669 -0.46644655109408317 0 0.33309118936964399 -0.46704031311580291 0 0.353331436476917 -0.48488928282810861 0 0.36174609683149922 -0.47333229839911978 0 0.3511187368843669 -0.46644655109408317 0 0.3511187368843669 -0.46644655109408317 0 0.34821094164401439 -0.44963138573543099 0 0.33309118936964399 -0.46704031311580291 0 0.3511187368843669 -0.46644655109408317 0 0.36000734278227892 -0.4581682973830864 0 0.34821094164401439 -0.44963138573543099 0 0.36174609683149922 -0.47333229839911978 0 0.3511187368843669 -0.46644655109408317 0 0.36000734278227892 -0.4581682973830864 0 0.36174609683149922 -0.47333229839911978 0 0.36000734278227892 -0.4581682973830864 0 0.37212180294075042 -0.46808428500039262 0 0.37514595674159079 -0.45476526552439389 0 0.36000734278227892 -0.4581682973830864 0 0.37212180294075042 -0.46808428500039262 0 0.38358898323347101 -0.44426352436551808 0 0.37514595674159079 -0.45476526552439389 0 0.36596817218281208 -0.43846752572535042 0 0.37514595674159079 -0.45476526552439389 0 0.36000734278227892 -0.4581682973830864 0 0.36596817218281208 -0.43846752572535042 0 0.36596817218281208 -0.43846752572535042 0 0.34821094164401439 -0.44963138573543099 0 0.34622956703096991 -0.43300533851794337 0 0.36000734278227892 -0.4581682973830864 0 0.36596817218281208 -0.43846752572535042 0 0.34821094164401439 -0.44963138573543099 0 0.34821094164401439 -0.44963138573543099 0 0.33295970409203041 -0.44505156475946112 0 0.34622956703096991 -0.43300533851794337 0 0.34821094164401439 -0.44963138573543099 0 0.33295970409203041 -0.44505156475946112 0 0.33309118936964399 -0.46704031311580291 0 0.33295970409203041 -0.44505156475946112 0 0.33309118936964399 -0.46704031311580291 0 0.31285094226236981 -0.44919134340349842 0 0.33309118936964399 -0.46704031311580291 0 0.31285094226236981 -0.44919134340349842 0 0.33309118936964399 -0.46704031311580291 0 0.31285094226236981 -0.44919134340349842 0 0.30810638268294871 -0.47012115952174682 0 0.33295970409203041 -0.44505156475946112 0 0.31285094226236981 -0.44919134340349842 0 0.32443481461114221 -0.42819348402864749 0 0.31285094226236981 -0.44919134340349842 0 0.32443481461114221 -0.42819348402864749 0 0.30716585811758268 -0.42152601893676211 0 0.32443481461114221 -0.42819348402864749 0 0.3377381929345476 -0.41993594981441068 0 0.31826237910007699 -0.40611857650776678 0 0.32443481461114221 -0.42819348402864749 0 0.31826237910007699 -0.40611857650776678 0 0.30716585811758268 -0.42152601893676211 0 0.3377381929345476 -0.41993594981441068 0 0.33955155732169001 -0.40481801647484189 0 0.31826237910007699 -0.40611857650776678 0 0.32443481461114221 -0.42819348402864749 0 0.3377381929345476 -0.41993594981441068 0 0.34622956703096991 -0.43300533851794337 0 0.33295970409203041 -0.44505156475946112 0 0.32443481461114221 -0.42819348402864749 0 0.34622956703096991 -0.43300533851794337 0 0.3377381929345476 -0.41993594981441068 0 0.34622956703096991 -0.43300533851794337 0 0.35818280584871282 -0.41603879828427831 0 0.36596817218281208 -0.43846752572535042 0 0.34622956703096991 -0.43300533851794337 0 0.35818280584871282 -0.41603879828427831 0 0.3754845505291648 -0.42231636227288599 0 0.36596817218281208 -0.43846752572535042 0 0.35818280584871282 -0.41603879828427831 0 0.3754845505291648 -0.42231636227288599 0 0.38276612650569841 -0.43173139982273478 0 0.36596817218281208 -0.43846752572535042 0 0.37842665921942997 -0.40887405987875969 0 0.3754845505291648 -0.42231636227288599 0 0.35818280584871282 -0.41603879828427831 0 0.37842665921942997 -0.40887405987875969 0 0.35818280584871282 -0.41603879828427831 0 0.36824105802713031 -0.4000969440192842 0 0.3377381929345476 -0.41993594981441068 0 0.35818280584871282 -0.41603879828427831 0 0.33955155732169001 -0.40481801647484189 0 0.35818280584871282 -0.41603879828427831 0 0.35120943534252291 -0.3914849644630724 0 0.33955155732169001 -0.40481801647484189 0 0.35818280584871282 -0.41603879828427831 0 0.35120943534252291 -0.3914849644630724 0 0.36824105802713031 -0.4000969440192842 0 0.37900977316023637 -0.39091548517495972 0 0.36824105802713031 -0.4000969440192842 0 0.36724772315424481 -0.38247146420994571 0 0.35120943534252291 -0.3914849644630724 0 0.36824105802713031 -0.4000969440192842 0 0.36724772315424481 -0.38247146420994571 0 0.36724772315424481 -0.38247146420994571 0 0.3553956415560332 -0.375446985373177 0 0.36664078794155069 -0.36853845970684512 0 0.35120943534252291 -0.3914849644630724 0 0.3553956415560332 -0.375446985373177 0 0.34024068493209042 -0.37145909403295352 0 0.35120943534252291 -0.3914849644630724 0 0.36724772315424481 -0.38247146420994571 0 0.3553956415560332 -0.375446985373177 0 0.35120943534252291 -0.3914849644630724 0 0.33045907805143321 -0.38798152631774108 0 0.34024068493209042 -0.37145909403295352 0 0.33045907805143321 -0.38798152631774108 0 0.34024068493209042 -0.37145909403295352 0 0.32473595581008968 -0.36877041147622941 0 0.33045907805143321 -0.38798152631774108 0 0.33955155732169001 -0.40481801647484189 0 0.31826237910007699 -0.40611857650776678 0 0.35120943534252291 -0.3914849644630724 0 0.33045907805143321 -0.38798152631774108 0 0.33955155732169001 -0.40481801647484189 0 0.33045907805143321 -0.38798152631774108 0 0.31826237910007699 -0.40611857650776678 0 0.30852465471842783 -0.38296478278532459 0 0.33045907805143321 -0.38798152631774108 0 0.30852465471842783 -0.38296478278532459 0 0.32473595581008968 -0.36877041147622941 0 0.30852465471842783 -0.38296478278532459 0 0.30157177088572762 -0.39984768184154418 0 0.28524522637625171 -0.38748256695808048 0 0.31826237910007699 -0.40611857650776678 0 0.30852465471842783 -0.38296478278532459 0 0.30157177088572762 -0.39984768184154418 0 0.30157177088572762 -0.39984768184154418 0 0.28524522637625171 -0.38748256695808048 0 0.28909827497095891 -0.41314244090476959 0 0.30852465471842783 -0.38296478278532459 0 0.28524522637625171 -0.38748256695808048 0 0.29576167506738288 -0.36584798696867898 0 0.28524522637625171 -0.38748256695808048 0 0.26194523537769671 -0.38343407302417171 0 0.27628411724202862 -0.36524783617958329 0 0.26194523537769671 -0.38343407302417171 0 0.2677956642119742 -0.40840362680373948 0 0.24730388124056729 -0.40448370284608931 0 0.28524522637625171 -0.38748256695808048 0 0.26194523537769671 -0.38343407302417171 0 0.2677956642119742 -0.40840362680373948 0 0.28524522637625171 -0.38748256695808048 0 0.2677956642119742 -0.40840362680373948 0 0.28909827497095891 -0.41314244090476959 0 0.2677956642119742 -0.40840362680373948 0 0.27472650047210662 -0.43131219108599711 0 0.28909827497095891 -0.41314244090476959 0 0.2677956642119742 -0.40840362680373948 0 0.24845486683426421 -0.43056678600332871 0 0.24730388124056729 -0.40448370284608931 0 0.2677956642119742 -0.40840362680373948 0 0.27472650047210662 -0.43131219108599711 0 0.24845486683426421 -0.43056678600332871 0 0.27472650047210662 -0.43131219108599711 0 0.26710508502781599 -0.44926171113960661 0 0.24845486683426421 -0.43056678600332871 0 0.27472650047210662 -0.43131219108599711 0 0.29418269027227539 -0.43431919247607059 0 0.28909827497095891 -0.41314244090476959 0 0.29418269027227539 -0.43431919247607059 0 0.28909827497095891 -0.41314244090476959 0 0.30716585811758268 -0.42152601893676211 0 0.31826237910007699 -0.40611857650776678 0 0.30157177088572762 -0.39984768184154418 0 0.30716585811758268 -0.42152601893676211 0 0.30157177088572762 -0.39984768184154418 0 0.28909827497095891 -0.41314244090476959 0 0.30716585811758268 -0.42152601893676211 0 0.31285094226236981 -0.44919134340349842 0 0.29418269027227539 -0.43431919247607059 0 0.30716585811758268 -0.42152601893676211 0 0.31285094226236981 -0.44919134340349842 0 0.29418269027227539 -0.43431919247607059 0 0.28597809560131299 -0.4567624239266439 0 0.31285094226236981 -0.44919134340349842 0 0.28597809560131299 -0.4567624239266439 0 0.30810638268294871 -0.47012115952174682 0 0.28597809560131299 -0.4567624239266439 0 0.27356505094757272 -0.46654042127887851 0 0.28658471780149791 -0.47429793876749549 0 0.28597809560131299 -0.4567624239266439 0 0.28658471780149791 -0.47429793876749549 0 0.30810638268294871 -0.47012115952174682 0 0.27472650047210662 -0.43131219108599711 0 0.29418269027227539 -0.43431919247607059 0 0.28597809560131299 -0.4567624239266439 0 0.27472650047210662 -0.43131219108599711 0 0.28597809560131299 -0.4567624239266439 0 0.26710508502781599 -0.44926171113960661 0 0.26710508502781599 -0.44926171113960661 0 0.25055382002994903 -0.45112655962101422 0 0.24845486683426421 -0.43056678600332871 0 0.25055382002994903 -0.45112655962101422 0 0.25749380142066591 -0.46566674131117769 0 0.24452211955108941 -0.47321082899062988 0 0.26710508502781599 -0.44926171113960661 0 0.25055382002994903 -0.45112655962101422 0 0.25749380142066591 -0.46566674131117769 0 0.26710508502781599 -0.44926171113960661 0 0.25749380142066591 -0.46566674131117769 0 0.27356505094757272 -0.46654042127887851 0 0.28597809560131299 -0.4567624239266439 0 0.26710508502781599 -0.44926171113960661 0 0.27356505094757272 -0.46654042127887851 0 0.25749380142066591 -0.46566674131117769 0 0.27356505094757272 -0.46654042127887851 0 0.27066355488657068 -0.48671329124946883 0 0.27356505094757272 -0.46654042127887851 0 0.27066355488657068 -0.48671329124946883 0 0.28658471780149791 -0.47429793876749549 0 0.27066355488657068 -0.48671329124946883 0 0.24310759435645521 -0.48732129405658853 0 0.24452211955108941 -0.47321082899062988 0 0.25749380142066591 -0.46566674131117769 0 0.27066355488657068 -0.48671329124946883 0 0.24452211955108941 -0.47321082899062988 0 0.25573491640979129 -0.5 0 0.27066355488657068 -0.48671329124946883 0 0.24310759435645521 -0.48732129405658853 0 0.27066355488657068 -0.48671329124946883 0 0.24310759435645521 -0.48732129405658853 0 0.25573491640979129 -0.5 0 0.27066355488657068 -0.48671329124946883 0 0.2844178321920392 -0.5 0 0.27066355488657068 -0.48671329124946883 0 0.2844178321920392 -0.5 0 0.29821951541668618 -0.48610528844234918 0 0.27066355488657068 -0.48671329124946883 0 0.29821951541668618 -0.48610528844234918 0 0.27066355488657068 -0.48671329124946883 0 0.28658471780149791 -0.47429793876749549 0 0.29821951541668618 -0.48610528844234918 0 0.28658471780149791 -0.47429793876749549 0 0.30810638268294871 -0.47012115952174682 0 0.29821951541668618 -0.48610528844234918 0 0.32577547594680167 -0.48549728563522948 0 0.30810638268294871 -0.47012115952174682 0 0.29821951541668618 -0.48610528844234918 0 0.313100747974287 -0.5 0 0.2844178321920392 -0.5 0 0.29821951541668618 -0.48610528844234918 0 0.32577547594680167 -0.48549728563522948 0 0.29821951541668618 -0.48610528844234918 0 0.32577547594680167 -0.48549728563522948 0 0.313100747974287 -0.5 0 0.29821951541668618 -0.48610528844234918 0 0.330274064289036 -0.28402767586280209 0 0.34332234684577362 -0.29793808318023329 0 0.34457666422559302 -0.26801309975333321 0 0.330274064289036 -0.28402767586280209 0 0.34332234684577362 -0.29793808318023329 0 0.32977293544345387 -0.30596193421111573 0 0.34332234684577362 -0.29793808318023329 0 0.32977293544345387 -0.30596193421111573 0 0.34206802946595682 -0.32786306660713371 0 0.31744302567780058 -0.29875438106107682 0 0.32081511337912821 -0.31891284763754968 0 0.29956219729229971 -0.30996262866796498 0 0.32977293544345387 -0.30596193421111573 0 0.31744302567780058 -0.29875438106107682 0 0.32081511337912821 -0.31891284763754968 0 0.31744302567780058 -0.29875438106107682 0 0.315203972569992 -0.28599406388836862 0 0.30893165249025939 -0.29458973757352408 0 0.330274064289036 -0.28402767586280209 0 0.32977293544345387 -0.30596193421111573 0 0.31744302567780058 -0.29875438106107682 0 0.330274064289036 -0.28402767586280209 0 0.31744302567780058 -0.29875438106107682 0 0.315203972569992 -0.28599406388836862 0 0.31616400359283131 -0.27140021809428472 0 0.31565659849655159 -0.26881006701694032 0 0.34457666422559302 -0.26801309975333321 0 0.31616400359283131 -0.27140021809428472 0 0.31565659849655159 -0.26881006701694032 0 0.330274064289036 -0.28402767586280209 0 0.315203972569992 -0.28599406388836862 0 0.31616400359283131 -0.27140021809428472 0 0.31140457280844042 -0.24710474912070499 0 0.31565659849655159 -0.26881006701694032 0 0.31140457280844042 -0.24710474912070499 0 0.31565659849655159 -0.26881006701694032 0 0.32909477526671738 -0.25319804842994992 0 0.34542116247921317 -0.24786541093840589 0 0.32909477526671738 -0.25319804842994992 0 0.34457666422559302 -0.26801309975333321 0 0.31565659849655159 -0.26881006701694032 0 0.32909477526671738 -0.25319804842994992 0 0.34457666422559302 -0.26801309975333321 0 0.31565659849655159 -0.26881006701694032 0 0.34457666422559302 -0.26801309975333321 0 0.330274064289036 -0.28402767586280209 0 0.31616400359283131 -0.27140021809428472 0 0.34457666422559302 -0.26801309975333321 0 0.35327842571551671 -0.2677733001931194 0 0.36211004630048071 -0.25874315800932568 0 0.36139056500297317 -0.28258450191058321 0 0.34457666422559302 -0.26801309975333321 0 0.35327842571551671 -0.2677733001931194 0 0.36139056500297317 -0.28258450191058321 0 0.34457666422559302 -0.26801309975333321 0 0.35327842571551671 -0.2677733001931194 0 0.34542116247921317 -0.24786541093840589 0 0.35327842571551671 -0.2677733001931194 0 0.36211004630048071 -0.25874315800932568 0 0.34542116247921317 -0.24786541093840589 0 0.34457666422559302 -0.26801309975333321 0 0.34542116247921317 -0.24786541093840589 0 0.34457666422559302 -0.26801309975333321 0 0.35327842571551671 -0.2677733001931194 0 0.36876625398544938 -0.24898888889403961 0 0.37754581309809132 -0.23651361028518689 0 0.3725796289452375 -0.26579697317357759 0 0.36876625398544938 -0.24898888889403961 0 0.36211004630048071 -0.25874315800932568 0 0.3725796289452375 -0.26579697317357759 0 0.36211004630048071 -0.25874315800932568 0 0.36139056500297317 -0.28258450191058321 0 0.36211004630048071 -0.25874315800932568 0 0.3725796289452375 -0.26579697317357759 0 0.36139056500297317 -0.28258450191058321 0 0.3725796289452375 -0.26579697317357759 0 0.36761344479238373 -0.29508033606196837 0 0.3725796289452375 -0.26579697317357759 0 0.36139056500297317 -0.28258450191058321 0 0.36761344479238373 -0.29508033606196837 0 0.36139056500297317 -0.28258450191058321 0 0.36067108370546558 -0.30642584581184062 0 0.36139056500297317 -0.28258450191058321 0 0.36761344479238373 -0.29508033606196837 0 0.36067108370546558 -0.30642584581184062 0 0.37929392098169401 -0.28404327537796259 0 0.3725796289452375 -0.26579697317357759 0 0.36761344479238373 -0.29508033606196837 0 0.34332234684577362 -0.29793808318023329 0 0.36139056500297317 -0.28258450191058321 0 0.36067108370546558 -0.30642584581184062 0 0.34332234684577362 -0.29793808318023329 0 0.34457666422559302 -0.26801309975333321 0 0.34332234684577362 -0.29793808318023329 0 0.34457666422559302 -0.26801309975333321 0 0.36139056500297317 -0.28258450191058321 0 0.34332234684577362 -0.29793808318023329 0 0.36067108370546558 -0.30642584581184062 0 0.35385294866325562 -0.31815161708919842 0 0.37804720550635529 -0.30651687721429538 0 0.36761344479238373 -0.29508033606196837 0 0.37325959660283969 -0.31225701655594912 0 0.36761344479238373 -0.29508033606196837 0 0.37325959660283969 -0.31225701655594912 0 0.36522996683296982 -0.32210974174446261 0 0.36761344479238373 -0.29508033606196837 0 0.3626472606395299 -0.32436369895035932 0 0.36761344479238373 -0.29508033606196837 0 0.36067108370546558 -0.30642584581184062 0 0.3626472606395299 -0.32436369895035932 0 0.36067108370546558 -0.30642584581184062 0 0.35995160240795782 -0.33026718971309799 0 0.37325959660283969 -0.31225701655594912 0 0.36522996683296982 -0.32210974174446261 0 0.37029473460036533 -0.32565573538444043 0 0.36761344479238373 -0.29508033606196837 0 0.3626472606395299 -0.32436369895035932 0 0.36522996683296982 -0.32210974174446261 0 0.36067108370546558 -0.30642584581184062 0 0.3626472606395299 -0.32436369895035932 0 0.35995160240795782 -0.33026718971309799 0 0.38064079273778262 -0.31288188218018531 0 0.37325959660283969 -0.31225701655594912 0 0.37029473460036533 -0.32565573538444043 0 0.3626472606395299 -0.32436369895035932 0 0.37029473460036533 -0.32565573538444043 0 0.35995160240795782 -0.33026718971309799 0 0.37029473460036533 -0.32565573538444043 0 0.35995160240795782 -0.33026718971309799 0 0.3626472606395299 -0.32436369895035932 0 0.36522996683296982 -0.32210974174446261 0 0.37029473460036533 -0.32565573538444043 0 0.36522996683296982 -0.32210974174446261 0 0.37029473460036533 -0.32565573538444043 0 0.35995160240795782 -0.33026718971309799 0 0.35941557651728179 -0.34802939929915899 0 0.37029473460036533 -0.32565573538444043 0 0.37212478857772979 -0.33864880005647208 0 0.35995160240795782 -0.33026718971309799 0 0.3654326502107581 -0.34245967622864359 0 0.35995160240795782 -0.33026718971309799 0 0.35941557651728179 -0.34802939929915899 0 0.37212478857772979 -0.33864880005647208 0 0.3654326502107581 -0.34245967622864359 0 0.37040156667629781 -0.34671437794913718 0 0.37212478857772979 -0.33864880005647208 0 0.3654326502107581 -0.34245967622864359 0 0.35995160240795782 -0.33026718971309799 0 0.35995160240795782 -0.33026718971309799 0 0.35941557651728179 -0.34802939929915899 0 0.34162477060798069 -0.33843815246039383 0 0.35941557651728179 -0.34802939929915899 0 0.34146637893605181 -0.3422169952266676 0 0.34162477060798069 -0.33843815246039383 0 0.35995160240795782 -0.33026718971309799 0 0.34162477060798069 -0.33843815246039383 0 0.35995160240795782 -0.33026718971309799 0 0.34764647170350632 -0.33021231032179682 0 0.34162477060798069 -0.33843815246039383 0 0.35995160240795782 -0.33026718971309799 0 0.34764647170350632 -0.33021231032179682 0 0.35274785573456591 -0.3260756163463463 0 0.34764647170350632 -0.33021231032179682 0 0.34206802946595682 -0.32786306660713371 0 0.34162477060798069 -0.33843815246039383 0 0.34764647170350632 -0.33021231032179682 0 0.34206802946595682 -0.32786306660713371 0 0.35385294866325562 -0.31815161708919842 0 0.35274785573456591 -0.3260756163463463 0 0.34206802946595682 -0.32786306660713371 0 0.34764647170350632 -0.33021231032179682 0 0.35274785573456591 -0.3260756163463463 0 0.34206802946595682 -0.32786306660713371 0 0.34332234684577362 -0.29793808318023329 0 0.35385294866325562 -0.31815161708919842 0 0.34206802946595682 -0.32786306660713371 0 0.36067108370546558 -0.30642584581184062 0 0.35995160240795782 -0.33026718971309799 0 0.35385294866325562 -0.31815161708919842 0 0.35995160240795782 -0.33026718971309799 0 0.35385294866325562 -0.31815161708919842 0 0.35274785573456591 -0.3260756163463463 0 0.38249634533461108 -0.36797477098799591 0 0.36724772315424481 -0.38247146420994571 0 0.36664078794155069 -0.36853845970684512 0 0.38249634533461108 -0.36797477098799591 0 0.36664078794155069 -0.36853845970684512 0 0.37305712147220338 -0.36102055586376819 0 0.3553956415560332 -0.375446985373177 0 0.36664078794155069 -0.36853845970684512 0 0.35901533294662008 -0.36129221050145399 0 0.36664078794155069 -0.36853845970684512 0 0.37305712147220338 -0.36102055586376819 0 0.36517854466496658 -0.35714892472411869 0 0.36664078794155069 -0.36853845970684512 0 0.36517854466496658 -0.35714892472411869 0 0.35901533294662008 -0.36129221050145399 0 0.36517854466496658 -0.35714892472411869 0 0.35941557651728179 -0.34802939929915899 0 0.35901533294662008 -0.36129221050145399 0 0.36517854466496658 -0.35714892472411869 0 0.36469303305047901 -0.34973837317986511 0 0.35941557651728179 -0.34802939929915899 0 0.36517854466496658 -0.35714892472411869 0 0.37030234625384911 -0.35279401393457888 0 0.36469303305047901 -0.34973837317986511 0 0.37818146540529818 -0.34934783795600571 0 0.37305712147220338 -0.36102055586376819 0 0.37030234625384911 -0.35279401393457888 0 0.37305712147220338 -0.36102055586376819 0 0.36517854466496658 -0.35714892472411869 0 0.37030234625384911 -0.35279401393457888 0 0.37818146540529818 -0.34934783795600571 0 0.37212478857772979 -0.33864880005647208 0 0.37040156667629781 -0.34671437794913718 0 0.37818146540529818 -0.34934783795600571 0 0.37030234625384911 -0.35279401393457888 0 0.37040156667629781 -0.34671437794913718 0 0.37030234625384911 -0.35279401393457888 0 0.37040156667629781 -0.34671437794913718 0 0.36469303305047901 -0.34973837317986511 0 0.3654326502107581 -0.34245967622864359 0 0.37040156667629781 -0.34671437794913718 0 0.36469303305047901 -0.34973837317986511 0 0.36469303305047901 -0.34973837317986511 0 0.35941557651728179 -0.34802939929915899 0 0.3654326502107581 -0.34245967622864359 0 0.36469303305047901 -0.34973837317986511 0 0.35941557651728179 -0.34802939929915899 0 0.35003449333301101 -0.35574942476505861 0 0.34024068493209042 -0.37145909403295352 0 0.34146637893605181 -0.3422169952266676 0 0.35941557651728179 -0.34802939929915899 0 0.35003449333301101 -0.35574942476505861 0 0.34146637893605181 -0.3422169952266676 0 0.35941557651728179 -0.34802939929915899 0 0.34146637893605181 -0.3422169952266676 0 0.35941557651728179 -0.34802939929915899 0 0.35901533294662008 -0.36129221050145399 0 0.35941557651728179 -0.34802939929915899 0 0.35003449333301101 -0.35574942476505861 0 0.35901533294662008 -0.36129221050145399 0 0.35003449333301101 -0.35574942476505861 0 0.35901533294662008 -0.36129221050145399 0 0.34024068493209042 -0.37145909403295352 0 0.3553956415560332 -0.375446985373177 0 0.35901533294662008 -0.36129221050145399 0 0.34024068493209042 -0.37145909403295352 0 0.34024068493209042 -0.37145909403295352 0 0.33264239376833749 -0.35548373211026962 0 0.32473595581008968 -0.36877041147622941 0 0.34024068493209042 -0.37145909403295352 0 0.33264239376833749 -0.35548373211026962 0 0.34146637893605181 -0.3422169952266676 0 0.34024068493209042 -0.37145909403295352 0 0.34146637893605181 -0.3422169952266676 0 0.33264239376833749 -0.35548373211026962 0 0.32969677432389999 -0.34883746930945858 0 0.32350037713642671 -0.3535383953733186 0 0.33264239376833749 -0.35548373211026962 0 0.33484083241944268 -0.34588391539316982 0 0.34146637893605181 -0.3422169952266676 0 0.33264239376833749 -0.35548373211026962 0 0.33484083241944268 -0.34588391539316982 0 0.32969677432389999 -0.34883746930945858 0 0.33484083241944268 -0.34588391539316982 0 0.32969677432389999 -0.34883746930945858 0 0.33080291213000951 -0.34437854531234752 0 0.32969677432389999 -0.34883746930945858 0 0.33080291213000951 -0.34437854531234752 0 0.32576759743036687 -0.34544500479448842 0 0.32576759743036687 -0.34544500479448842 0 0.32008489300350967 -0.34478001059398899 0 0.32350037713642671 -0.3535383953733186 0 0.32969677432389999 -0.34883746930945858 0 0.32576759743036687 -0.34544500479448842 0 0.32350037713642671 -0.3535383953733186 0 0.32576759743036687 -0.34544500479448842 0 0.32008489300350967 -0.34478001059398899 0 0.3230261242077439 -0.3426129045732173 0 0.32008489300350967 -0.34478001059398899 0 0.31455300750316167 -0.34989325112993808 0 0.32350037713642671 -0.3535383953733186 0 0.32008489300350967 -0.34478001059398899 0 0.31455300750316167 -0.34989325112993808 0 0.31278358272303802 -0.34129775444127147 0 0.31455300750316167 -0.34989325112993808 0 0.32350037713642671 -0.3535383953733186 0 0.31266700858965563 -0.36105898834543543 0 0.33264239376833749 -0.35548373211026962 0 0.32350037713642671 -0.3535383953733186 0 0.32473595581008968 -0.36877041147622941 0 0.30852465471842783 -0.38296478278532459 0 0.31266700858965563 -0.36105898834543543 0 0.32473595581008968 -0.36877041147622941 0 0.32350037713642671 -0.3535383953733186 0 0.31266700858965563 -0.36105898834543543 0 0.32473595581008968 -0.36877041147622941 0 0.34332234684577362 -0.29793808318023329 0 0.34206802946595682 -0.32786306660713371 0 0.32977293544345387 -0.30596193421111573 0 0.34206802946595682 -0.32786306660713371 0 0.32081511337912821 -0.31891284763754968 0 0.34206802946595682 -0.32786306660713371 0 0.32602109842812482 -0.32927153728442071 0 0.32081511337912821 -0.31891284763754968 0 0.34206802946595682 -0.32786306660713371 0 0.32081511337912821 -0.31891284763754968 0 0.34206802946595682 -0.32786306660713371 0 0.34162477060798069 -0.33843815246039383 0 0.33801441914131958 -0.33597980122333287 0 0.34206802946595682 -0.32786306660713371 0 0.34162477060798069 -0.33843815246039383 0 0.34206802946595682 -0.32786306660713371 0 0.33503975802439162 -0.33352730776002742 0 0.32602109842812482 -0.32927153728442071 0 0.34206802946595682 -0.32786306660713371 0 0.33801441914131958 -0.33597980122333287 0 0.33503975802439162 -0.33352730776002742 0 0.34146637893605181 -0.3422169952266676 0 0.34162477060798069 -0.33843815246039383 0 0.33664845261102122 -0.34065682884787418 0 0.34146637893605181 -0.3422169952266676 0 0.34162477060798069 -0.33843815246039383 0 0.34162477060798069 -0.33843815246039383 0 0.33801441914131958 -0.33597980122333287 0 0.33664845261102122 -0.34065682884787418 0 0.34162477060798069 -0.33843815246039383 0 0.33664845261102122 -0.34065682884787418 0 0.33801441914131958 -0.33597980122333287 0 0.33664845261102122 -0.34065682884787418 0 0.334556636173299 -0.33621284741772872 0 0.33484083241944268 -0.34588391539316982 0 0.34146637893605181 -0.3422169952266676 0 0.33664845261102122 -0.34065682884787418 0 0.34146637893605181 -0.3422169952266676 0 0.33664845261102122 -0.34065682884787418 0 0.33080291213000951 -0.34437854531234752 0 0.33664845261102122 -0.34065682884787418 0 0.32753883147517121 -0.34023469067202677 0 0.33664845261102122 -0.34065682884787418 0 0.334556636173299 -0.33621284741772872 0 0.32852391491646382 -0.33468745183968091 0 0.33484083241944268 -0.34588391539316982 0 0.33080291213000951 -0.34437854531234752 0 0.33664845261102122 -0.34065682884787418 0 0.33503975802439162 -0.33352730776002742 0 0.32852391491646382 -0.33468745183968091 0 0.32602109842812482 -0.32927153728442071 0 0.334556636173299 -0.33621284741772872 0 0.33503975802439162 -0.33352730776002742 0 0.32852391491646382 -0.33468745183968091 0 0.33801441914131958 -0.33597980122333287 0 0.334556636173299 -0.33621284741772872 0 0.33503975802439162 -0.33352730776002742 0 0.32753883147517121 -0.34023469067202677 0 0.31871317492192791 -0.33999191223236508 0 0.30992165968220392 -0.33200201743577268 0 0.32852391491646382 -0.33468745183968091 0 0.32602109842812482 -0.32927153728442071 0 0.30992165968220392 -0.33200201743577268 0 0.33664845261102122 -0.34065682884787418 0 0.32852391491646382 -0.33468745183968091 0 0.30992165968220392 -0.33200201743577268 0 0.33664845261102122 -0.34065682884787418 0 0.32753883147517121 -0.34023469067202677 0 0.30992165968220392 -0.33200201743577268 0 0.32602109842812482 -0.32927153728442071 0 0.31516553794356478 -0.32688419612254632 0 0.30992165968220392 -0.33200201743577268 0 0.33664845261102122 -0.34065682884787418 0 0.30992165968220392 -0.33200201743577268 0 0.32753883147517121 -0.34023469067202677 0 0.3230261242077439 -0.3426129045732173 0 0.31871317492192791 -0.33999191223236508 0 0.33080291213000951 -0.34437854531234752 0 0.32576759743036687 -0.34544500479448842 0 0.32753883147517121 -0.34023469067202677 0 0.32576759743036687 -0.34544500479448842 0 0.32753883147517121 -0.34023469067202677 0 0.3230261242077439 -0.3426129045732173 0 0.32008489300350967 -0.34478001059398899 0 0.3230261242077439 -0.3426129045732173 0 0.31871317492192791 -0.33999191223236508 0 0.31871317492192791 -0.33999191223236508 0 0.31278358272303802 -0.34129775444127147 0 0.30992165968220392 -0.33200201743577268 0 0.32008489300350967 -0.34478001059398899 0 0.31871317492192791 -0.33999191223236508 0 0.31278358272303802 -0.34129775444127147 0 0.32602109842812482 -0.32927153728442071 0 0.31516553794356478 -0.32688419612254632 0 0.32081511337912821 -0.31891284763754968 0 0.31516553794356478 -0.32688419612254632 0 0.32081511337912821 -0.31891284763754968 0 0.29956219729229971 -0.30996262866796498 0 0.31516553794356478 -0.32688419612254632 0 0.30992165968220392 -0.33200201743577268 0 0.29956219729229971 -0.30996262866796498 0 0.30992165968220392 -0.33200201743577268 0 0.28319486675338662 -0.32334720602367162 0 0.29956219729229971 -0.30996262866796498 0 0.32081511337912821 -0.31891284763754968 0 0.29956219729229971 -0.30996262866796498 0 0.31516553794356478 -0.32688419612254632 0 0.29956219729229971 -0.30996262866796498 0 0.31278358272303802 -0.34129775444127147 0 0.30544777269898171 -0.33968681455295602 0 0.30372917606317851 -0.34879110689567611 0 0.31278358272303802 -0.34129775444127147 0 0.30992165968220392 -0.33200201743577268 0 0.30544777269898171 -0.33968681455295602 0 0.30992165968220392 -0.33200201743577268 0 0.30544777269898171 -0.33968681455295602 0 0.29535667232750618 -0.33665637943910393 0 0.30544777269898171 -0.33968681455295602 0 0.29535667232750618 -0.33665637943910393 0 0.30372917606317851 -0.34879110689567611 0 0.30992165968220392 -0.33200201743577268 0 0.29535667232750618 -0.33665637943910393 0 0.28319486675338662 -0.32334720602367162 0 0.29535667232750618 -0.33665637943910393 0 0.28811986741475609 -0.34954264064797458 0 0.28056009198101312 -0.33712721632873971 0 0.29535667232750618 -0.33665637943910393 0 0.28319486675338662 -0.32334720602367162 0 0.28056009198101312 -0.33712721632873971 0 0.30992165968220392 -0.33200201743577268 0 0.28319486675338662 -0.32334720602367162 0 0.30852465471842783 -0.38296478278532459 0 0.31266700858965563 -0.36105898834543543 0 0.29576167506738288 -0.36584798696867898 0 0.31266700858965563 -0.36105898834543543 0 0.30372917606317851 -0.34879110689567611 0 0.29576167506738288 -0.36584798696867898 0 0.31455300750316167 -0.34989325112993808 0 0.31266700858965563 -0.36105898834543543 0 0.30372917606317851 -0.34879110689567611 0 0.31455300750316167 -0.34989325112993808 0 0.31278358272303802 -0.34129775444127147 0 0.30372917606317851 -0.34879110689567611 0 0.30372917606317851 -0.34879110689567611 0 0.28811986741475609 -0.34954264064797458 0 0.29576167506738288 -0.36584798696867898 0 0.29535667232750618 -0.33665637943910393 0 0.30372917606317851 -0.34879110689567611 0 0.28811986741475609 -0.34954264064797458 0 0.28811986741475609 -0.34954264064797458 0 0.29576167506738288 -0.36584798696867898 0 0.27628411724202862 -0.36524783617958329 0 0.28524522637625171 -0.38748256695808048 0 0.29576167506738288 -0.36584798696867898 0 0.27628411724202862 -0.36524783617958329 0 0.27628411724202862 -0.36524783617958329 0 0.26970242523906313 -0.3463930650348116 0 0.25620327224306561 -0.36049072758523892 0 0.28811986741475609 -0.34954264064797458 0 0.27628411724202862 -0.36524783617958329 0 0.26970242523906313 -0.3463930650348116 0 0.28811986741475609 -0.34954264064797458 0 0.26970242523906313 -0.3463930650348116 0 0.28056009198101312 -0.33712721632873971 0 0.26970242523906313 -0.3463930650348116 0 0.25620327224306561 -0.36049072758523892 0 0.25110761996098008 -0.33756133299550262 0 0.26194523537769671 -0.38343407302417171 0 0.27628411724202862 -0.36524783617958329 0 0.25620327224306561 -0.36049072758523892 0 0.26194523537769671 -0.38343407302417171 0 0.25620327224306561 -0.36049072758523892 0 0.2380746425401753 -0.37739124482652259 0 0.28319486675338662 -0.32334720602367162 0 0.25646807382456938 -0.31469239461157061 0 0.28319486675338662 -0.32334720602367162 0 0.25646807382456938 -0.31469239461157061 0 0.26668910057358802 -0.30550764638795852 0 0.28319486675338662 -0.32334720602367162 0 0.26642662817035351 -0.32969679049813649 0 0.25646807382456938 -0.31469239461157061 0 0.26970242523906313 -0.3463930650348116 0 0.26642662817035351 -0.32969679049813649 0 0.28056009198101312 -0.33712721632873971 0 0.28319486675338662 -0.32334720602367162 0 0.26642662817035351 -0.32969679049813649 0 0.28056009198101312 -0.33712721632873971 0 0.26970242523906313 -0.3463930650348116 0 0.26642662817035351 -0.32969679049813649 0 0.25110761996098008 -0.33756133299550262 0 0.26642662817035351 -0.32969679049813649 0 0.25110761996098008 -0.33756133299550262 0 0.25646807382456938 -0.31469239461157061 0 0.26020915296869068 -0.2933899210744732 0 0.26668910057358802 -0.30550764638795852 0 0.24613976577650579 -0.30323365481969039 0 0.25646807382456938 -0.31469239461157061 0 0.26668910057358802 -0.30550764638795852 0 0.24613976577650579 -0.30323365481969039 0 0.26020915296869068 -0.2933899210744732 0 0.25058364390229548 -0.28023087545190861 0 0.26295470628353768 -0.27026240406269297 0 0.26020915296869068 -0.2933899210744732 0 0.25058364390229548 -0.28023087545190861 0 0.24053263080688631 -0.28510356727772701 0 0.26020915296869068 -0.2933899210744732 0 0.24053263080688631 -0.28510356727772701 0 0.26020915296869068 -0.2933899210744732 0 0.28125845178791892 -0.29011251636532881 0 0.26295470628353768 -0.27026240406269297 0 0.26020915296869068 -0.2933899210744732 0 0.27988567513049512 -0.30167627487121951 0 0.28125845178791892 -0.29011251636532881 0 0.26020915296869068 -0.2933899210744732 0 0.26668910057358802 -0.30550764638795852 0 0.27988567513049512 -0.30167627487121951 0 0.26020915296869068 -0.2933899210744732 0 0.27988567513049512 -0.30167627487121951 0 0.28319486675338662 -0.32334720602367162 0 0.26668910057358802 -0.30550764638795852 0 0.27988567513049512 -0.30167627487121951 0 0.27988567513049512 -0.30167627487121951 0 0.29956219729229971 -0.30996262866796498 0 0.28125845178791892 -0.29011251636532881 0 0.29956219729229971 -0.30996262866796498 0 0.27988567513049512 -0.30167627487121951 0 0.28125845178791892 -0.29011251636532881 0 0.29956219729229971 -0.30996262866796498 0 0.28319486675338662 -0.32334720602367162 0 0.27988567513049512 -0.30167627487121951 0 0.29956219729229971 -0.30996262866796498 0 0.28125845178791892 -0.29011251636532881 0 0.30351741442094582 -0.28364787667668517 0 0.29956219729229971 -0.30996262866796498 0 0.30351741442094582 -0.28364787667668517 0 0.30893165249025939 -0.29458973757352408 0 0.29956219729229971 -0.30996262866796498 0 0.315203972569992 -0.28599406388836862 0 0.30351741442094582 -0.28364787667668517 0 0.30893165249025939 -0.29458973757352408 0 0.31744302567780058 -0.29875438106107682 0 0.30893165249025939 -0.29458973757352408 0 0.29956219729229971 -0.30996262866796498 0 0.31140457280844042 -0.24710474912070499 0 0.31565659849655159 -0.26881006701694032 0 0.29718577407036301 -0.25519814195989071 0 0.31565659849655159 -0.26881006701694032 0 0.29718577407036301 -0.25519814195989071 0 0.28930565239004458 -0.26953623553981648 0 0.31565659849655159 -0.26881006701694032 0 0.28930565239004458 -0.26953623553981648 0 0.31565659849655159 -0.26881006701694032 0 0.30351741442094582 -0.28364787667668517 0 0.28930565239004458 -0.26953623553981648 0 0.315203972569992 -0.28599406388836862 0 0.31616400359283131 -0.27140021809428472 0 0.30351741442094582 -0.28364787667668517 0 0.31616400359283131 -0.27140021809428472 0 0.31565659849655159 -0.26881006701694032 0 0.30351741442094582 -0.28364787667668517 0 0.28125845178791892 -0.29011251636532881 0 0.30351741442094582 -0.28364787667668517 0 0.28930565239004458 -0.26953623553981648 0 0.29234931722919649 -0.23956849287787771 0 0.29718577407036301 -0.25519814195989071 0 0.28009493911397709 -0.25531812806766069 0 0.29718577407036301 -0.25519814195989071 0 0.28930565239004458 -0.26953623553981648 0 0.28009493911397709 -0.25531812806766069 0 0.28009493911397709 -0.25531812806766069 0 0.26295470628353768 -0.27026240406269297 0 0.26515279713901752 -0.25474276698909742 0 0.28930565239004458 -0.26953623553981648 0 0.28009493911397709 -0.25531812806766069 0 0.26295470628353768 -0.27026240406269297 0 0.27362138757170362 -0.2426007269765893 0 0.28009493911397709 -0.25531812806766069 0 0.26515279713901752 -0.25474276698909742 0 0.28930565239004458 -0.26953623553981648 0 0.26295470628353768 -0.27026240406269297 0 0.28125845178791892 -0.29011251636532881 0 0.28930565239004458 -0.26953623553981648 0 0.26295470628353768 -0.27026240406269297 0 0.28125845178791892 -0.29011251636532881 0 0.26295470628353768 -0.27026240406269297 0 0.26295470628353768 -0.27026240406269297 0 0.25920525151110962 -0.26619618175379239 0 0.2333624491378041 -0.27107789530058801 0 0.26295470628353768 -0.27026240406269297 0 0.25920525151110962 -0.26619618175379239 0 0.26515279713901752 -0.25474276698909742 0 0.25909559454287789 -0.26033526294480458 0 0.25575058308532189 -0.25269357128633052 0 0.26295470628353768 -0.27026240406269297 0 0.25920525151110962 -0.26619618175379239 0 0.25909559454287789 -0.26033526294480458 0 0.26295470628353768 -0.27026240406269297 0 0.26515279713901752 -0.25474276698909742 0 0.25909559454287789 -0.26033526294480458 0 0.25920525151110962 -0.26619618175379239 0 0.25909559454287789 -0.26033526294480458 0 0.2525593813984649 -0.26013433662011259 0 0.2525593813984649 -0.26013433662011259 0 0.25575058308532189 -0.25269357128633052 0 0.2462907050713771 -0.25204034373521428 0 0.25909559454287789 -0.26033526294480458 0 0.2525593813984649 -0.26013433662011259 0 0.25575058308532189 -0.25269357128633052 0 0.2525593813984649 -0.26013433662011259 0 0.2372713891187809 -0.25677075628574592 0 0.2333624491378041 -0.27107789530058801 0 0.2525593813984649 -0.26013433662011259 0 0.2462907050713771 -0.25204034373521428 0 0.2372713891187809 -0.25677075628574592 0 0.2525593813984649 -0.26013433662011259 0 0.2372713891187809 -0.25677075628574592 0 0.2462907050713771 -0.25204034373521428 0 0.2372713891187809 -0.25677075628574592 0 0.2374752251495614 -0.24157268794541539 0 0.26295470628353768 -0.27026240406269297 0 0.2333624491378041 -0.27107789530058801 0 0.25058364390229548 -0.28023087545190861 0 0.2333624491378041 -0.27107789530058801 0 0.24053263080688631 -0.28510356727772701 0 0.25920525151110962 -0.26619618175379239 0 0.2525593813984649 -0.26013433662011259 0 0.2333624491378041 -0.27107789530058801 0 0.25058364390229548 -0.28023087545190861 0 0.26295470628353768 -0.27026240406269297 0 0.2333624491378041 -0.27107789530058801 0 0.2333624491378041 -0.27107789530058801 0 0.22391874229476511 -0.2824004848955064 0 0.24053263080688631 -0.28510356727772701 0 0.2333624491378041 -0.27107789530058801 0 0.22198339683909701 -0.25340717595137879 0 0.22391874229476511 -0.2824004848955064 0 0.22198339683909701 -0.25340717595137879 0 0.21277476220729311 -0.27908963951381288 0 0.22391874229476511 -0.2824004848955064 0 0.22198339683909701 -0.25340717595137879 0 0.22391874229476511 -0.2824004848955064 0 0.2372713891187809 -0.25677075628574592 0 0.2333624491378041 -0.27107789530058801 0 0.22198339683909701 -0.25340717595137879 0 0.2372713891187809 -0.25677075628574592 0 0.22198339683909701 -0.25340717595137879 0 0.2374752251495614 -0.24157268794541539 0 0.2372713891187809 -0.25677075628574592 0 0.22198339683909701 -0.25340717595137879 0 0.22198339683909701 -0.25340717595137879 0 0.19767743283581299 -0.26201501502554969 0 0.19815896102696709 -0.24816545406213189 0 0.22198339683909701 -0.25340717595137879 0 0.19815896102696709 -0.24816545406213189 0 0.22198339683909701 -0.25340717595137879 0 0.2070014623020448 -0.26844420161526761 0 0.19767743283581299 -0.26201501502554969 0 0.22198339683909701 -0.25340717595137879 0 0.21277476220729311 -0.27908963951381288 0 0.2070014623020448 -0.26844420161526761 0 0.21277476220729311 -0.27908963951381288 0 0.19627752834655959 -0.27465633278028612 0 0.20552852767052071 -0.28818040814850709 0 0.21277476220729311 -0.27908963951381288 0 0.2070014623020448 -0.26844420161526761 0 0.19627752834655959 -0.27465633278028612 0 0.2070014623020448 -0.26844420161526761 0 0.19627752834655959 -0.27465633278028612 0 0.19767743283581299 -0.26201501502554969 0 0.19627752834655959 -0.27465633278028612 0 0.19767743283581299 -0.26201501502554969 0 0.1861358052291735 -0.26379397041404468 0 0.19767743283581299 -0.26201501502554969 0 0.1861358052291735 -0.26379397041404468 0 0.19815896102696709 -0.24816545406213189 0 0.1861358052291735 -0.26379397041404468 0 0.18066177981631051 -0.25348299893649828 0 0.19815896102696709 -0.24816545406213189 0 0.20129939135720101 -0.31175464383988888 0 0.20552852767052071 -0.28818040814850709 0 0.1861316223780578 -0.30340045511113362 0 0.20552852767052071 -0.28818040814850709 0 0.18615950714984131 -0.28714944863913389 0 0.1861316223780578 -0.30340045511113362 0 0.19627752834655959 -0.27465633278028612 0 0.20552852767052071 -0.28818040814850709 0 0.18615950714984131 -0.28714944863913389 0 0.21277476220729311 -0.27908963951381288 0 0.20552852767052071 -0.28818040814850709 0 0.22391874229476511 -0.2824004848955064 0 0.20552852767052071 -0.28818040814850709 0 0.21283890344555609 -0.30228465628523993 0 0.22391874229476511 -0.2824004848955064 0 0.20129939135720101 -0.31175464383988888 0 0.20552852767052071 -0.28818040814850709 0 0.21283890344555609 -0.30228465628523993 0 0.225854087750432 -0.31139379383963389 0 0.22391874229476511 -0.2824004848955064 0 0.21283890344555609 -0.30228465628523993 0 0.225854087750432 -0.31139379383963389 0 0.22391874229476511 -0.2824004848955064 0 0.225854087750432 -0.31139379383963389 0 0.22391874229476511 -0.2824004848955064 0 0.24053263080688631 -0.28510356727772701 0 0.26020915296869068 -0.2933899210744732 0 0.24053263080688631 -0.28510356727772701 0 0.24613976577650579 -0.30323365481969039 0 0.225854087750432 -0.31139379383963389 0 0.24053263080688631 -0.28510356727772701 0 0.24613976577650579 -0.30323365481969039 0 0.225854087750432 -0.31139379383963389 0 0.24613976577650579 -0.30323365481969039 0 0.24147179610371719 -0.32145365581003182 0 0.25110761996098008 -0.33756133299550262 0 0.25646807382456938 -0.31469239461157061 0 0.24147179610371719 -0.32145365581003182 0 0.25646807382456938 -0.31469239461157061 0 0.24613976577650579 -0.30323365481969039 0 0.24147179610371719 -0.32145365581003182 0 0.25110761996098008 -0.33756133299550262 0 0.24147179610371719 -0.32145365581003182 0 0.2277894332060989 -0.3403871027837615 0 0.225854087750432 -0.31139379383963389 0 0.24147179610371719 -0.32145365581003182 0 0.2277894332060989 -0.3403871027837615 0 0.225854087750432 -0.31139379383963389 0 0.2277894332060989 -0.3403871027837615 0 0.2131017443993804 -0.32550716011161479 0 0.225854087750432 -0.31139379383963389 0 0.2277894332060989 -0.3403871027837615 0 0.25620327224306561 -0.36049072758523892 0 0.23939100935974761 -0.35412122659527612 0 0.2380746425401753 -0.37739124482652259 0 0.25110761996098008 -0.33756133299550262 0 0.2277894332060989 -0.3403871027837615 0 0.23939100935974761 -0.35412122659527612 0 0.25620327224306561 -0.36049072758523892 0 0.25110761996098008 -0.33756133299550262 0 0.23939100935974761 -0.35412122659527612 0 0.2277894332060989 -0.3403871027837615 0 0.23939100935974761 -0.35412122659527612 0 0.22160146260088931 -0.35672021721344238 0 0.2277894332060989 -0.3403871027837615 0 0.22160146260088931 -0.35672021721344238 0 0.21393580002607371 -0.34141846605291087 0 0.23939100935974761 -0.35412122659527612 0 0.22160146260088931 -0.35672021721344238 0 0.2380746425401753 -0.37739124482652259 0 0.22160146260088931 -0.35672021721344238 0 0.21646245367279571 -0.38358476595235552 0 0.22160146260088931 -0.35672021721344238 0 0.2380746425401753 -0.37739124482652259 0 0.21646245367279571 -0.38358476595235552 0 0.22160146260088931 -0.35672021721344238 0 0.19836301469614079 -0.36402790855933592 0 0.2025217842010896 -0.37807387373583923 0 0.22160146260088931 -0.35672021721344238 0 0.21646245367279571 -0.38358476595235552 0 0.2025217842010896 -0.37807387373583923 0 0.22160146260088931 -0.35672021721344238 0 0.20535211274276649 -0.35018034328080122 0 0.21393580002607371 -0.34141846605291087 0 0.22160146260088931 -0.35672021721344238 0 0.20535211274276649 -0.35018034328080122 0 0.19836301469614079 -0.36402790855933592 0 0.20535211274276649 -0.35018034328080122 0 0.19180082998577391 -0.35029167033112268 0 0.20100079568597551 -0.33875735092892167 0 0.19180082998577391 -0.35029167033112268 0 0.19836301469614079 -0.36402790855933592 0 0.18636698824462991 -0.36225910140511608 0 0.19180082998577391 -0.35029167033112268 0 0.18636698824462991 -0.36225910140511608 0 0.18448777755487131 -0.35210036546502188 0 0.20535211274276649 -0.35018034328080122 0 0.19180082998577391 -0.35029167033112268 0 0.19836301469614079 -0.36402790855933592 0 0.19836301469614079 -0.36402790855933592 0 0.19083927531350181 -0.37426462870353422 0 0.18636698824462991 -0.36225910140511608 0 0.19836301469614079 -0.36402790855933592 0 0.19083927531350181 -0.37426462870353422 0 0.2025217842010896 -0.37807387373583923 0 0.20129939135720101 -0.31175464383988888 0 0.21283890344555609 -0.30228465628523993 0 0.2131017443993804 -0.32550716011161479 0 0.21283890344555609 -0.30228465628523993 0 0.225854087750432 -0.31139379383963389 0 0.2131017443993804 -0.32550716011161479 0 0.2277894332060989 -0.3403871027837615 0 0.2131017443993804 -0.32550716011161479 0 0.21393580002607371 -0.34141846605291087 0 0.2131017443993804 -0.32550716011161479 0 0.21393580002607371 -0.34141846605291087 0 0.20100079568597551 -0.33875735092892167 0 0.20535211274276649 -0.35018034328080122 0 0.21393580002607371 -0.34141846605291087 0 0.20100079568597551 -0.33875735092892167 0 0.19180082998577391 -0.35029167033112268 0 0.20100079568597551 -0.33875735092892167 0 0.1840044286915227 -0.33601373309634508 0 0.20100079568597551 -0.33875735092892167 0 0.19352690233448341 -0.32516644492614982 0 0.1840044286915227 -0.33601373309634508 0 0.2131017443993804 -0.32550716011161479 0 0.20100079568597551 -0.33875735092892167 0 0.19352690233448341 -0.32516644492614982 0 0.20129939135720101 -0.31175464383988888 0 0.2131017443993804 -0.32550716011161479 0 0.19352690233448341 -0.32516644492614982 0 0.20129939135720101 -0.31175464383988888 0 0.19352690233448341 -0.32516644492614982 0 0.1861316223780578 -0.30340045511113362 0 0.19352690233448341 -0.32516644492614982 0 0.17526094699071121 -0.32121364916979261 0 0.1840044286915227 -0.33601373309634508 0 0.19352690233448341 -0.32516644492614982 0 0.17526094699071121 -0.32121364916979261 0 0.1861316223780578 -0.30340045511113362 0 0.17526094699071121 -0.32121364916979261 0 0.1840044286915227 -0.33601373309634508 0 0.17670370261134591 -0.35101137430815987 0 0.17526094699071121 -0.32121364916979261 0 0.16632300769682529 -0.33914532989683449 0 0.17670370261134591 -0.35101137430815987 0 0.17526094699071121 -0.32121364916979261 0 0.17670370261134591 -0.35101137430815987 0 0.16632300769682529 -0.33914532989683449 0 0.15635532043033851 -0.32762317205032648 0 0.15384528835215919 -0.34888323103730828 0 0.17526094699071121 -0.32121364916979261 0 0.16632300769682529 -0.33914532989683449 0 0.15635532043033851 -0.32762317205032648 0 0.17526094699071121 -0.32121364916979261 0 0.15635532043033851 -0.32762317205032648 0 0.16613015085753399 -0.29794196337136208 0 0.19083927531350181 -0.37426462870353422 0 0.18636698824462991 -0.36225910140511608 0 0.17814645823198061 -0.38080909944652741 0 0.17670370261134591 -0.35101137430815987 0 0.1695008882053643 -0.3539014675276998 0 0.17814645823198061 -0.38080909944652741 0 0.17670370261134591 -0.35101137430815987 0 0.17814645823198061 -0.38080909944652741 0 0.18636698824462991 -0.36225910140511608 0 0.17670370261134591 -0.35101137430815987 0 0.17814645823198061 -0.38080909944652741 0 0.18636698824462991 -0.36225910140511608 0 0.18448777755487131 -0.35210036546502188 0 0.17670370261134591 -0.35101137430815987 0 0.18448777755487131 -0.35210036546502188 0 0.18424918471087839 -0.34735428580016242 0 0.17670370261134591 -0.35101137430815987 0 0.19180082998577391 -0.35029167033112268 0 0.1840044286915227 -0.33601373309634508 0 0.18424918471087839 -0.34735428580016242 0 0.1840044286915227 -0.33601373309634508 0 0.18424918471087839 -0.34735428580016242 0 0.17670370261134591 -0.35101137430815987 0 0.19180082998577391 -0.35029167033112268 0 0.18448777755487131 -0.35210036546502188 0 0.18424918471087839 -0.34735428580016242 0 0.16632300769682529 -0.33914532989683449 0 0.1695008882053643 -0.3539014675276998 0 0.15384528835215919 -0.34888323103730828 0 0.1695008882053643 -0.3539014675276998 0 0.15622266046030589 -0.36560529067035252 0 0.15384528835215919 -0.34888323103730828 0 0.16632300769682529 -0.33914532989683449 0 0.17670370261134591 -0.35101137430815987 0 0.1695008882053643 -0.3539014675276998 0 0.1695008882053643 -0.3539014675276998 0 0.15622266046030589 -0.36560529067035252 0 0.1662516937484437 -0.37945746017663878 0 0.1695008882053643 -0.3539014675276998 0 0.17814645823198061 -0.38080909944652741 0 0.1662516937484437 -0.37945746017663878 0 0.1695008882053643 -0.3539014675276998 0 0.1662516937484437 -0.37945746017663878 0 0.15622266046030589 -0.36560529067035252 0 0.15384528835215919 -0.34888323103730828 0 0.13913284643621729 -0.36987147755796063 0 0.15622266046030589 -0.36560529067035252 0 0.13913284643621729 -0.36987147755796063 0 0.15122325216971341 -0.38057118911269922 0 0.15384528835215919 -0.34888323103730828 0 0.13913284643621729 -0.36987147755796063 0 0.1385684583736729 -0.34280877879487409 0 0.1385684583736729 -0.34280877879487409 0 0.1245186505824013 -0.36113750934922573 0 0.1203073559828662 -0.34481831064573482 0 0.13913284643621729 -0.36987147755796063 0 0.1385684583736729 -0.34280877879487409 0 0.13913284643621729 -0.36987147755796063 0 0.1385684583736729 -0.34280877879487409 0 0.1245186505824013 -0.36113750934922573 0 0.13913284643621729 -0.36987147755796063 0 0.12672469353237761 -0.38193719477194499 0 0.1245186505824013 -0.36113750934922573 0 0.15635532043033851 -0.32762317205032648 0 0.13800407031112841 -0.31574608003178772 0 0.16613015085753399 -0.29794196337136208 0 0.15635532043033851 -0.32762317205032648 0 0.15384528835215919 -0.34888323103730828 0 0.1385684583736729 -0.34280877879487409 0 0.15635532043033851 -0.32762317205032648 0 0.1385684583736729 -0.34280877879487409 0 0.13800407031112841 -0.31574608003178772 0 0.1385684583736729 -0.34280877879487409 0 0.13800407031112841 -0.31574608003178772 0 0.1385684583736729 -0.34280877879487409 0 0.1252730154641265 -0.33501756179834041 0 0.127277047630593 -0.32368123984794023 0 0.1385684583736729 -0.34280877879487409 0 0.1252730154641265 -0.33501756179834041 0 0.1203073559828662 -0.34481831064573482 0 0.13800407031112841 -0.31574608003178772 0 0.127277047630593 -0.32368123984794023 0 0.1207194796176513 -0.31206082339016011 0 0.1385684583736729 -0.34280877879487409 0 0.13800407031112841 -0.31574608003178772 0 0.127277047630593 -0.32368123984794023 0 0.13800407031112841 -0.31574608003178772 0 0.13743968224858391 -0.28868338126870119 0 0.1207194796176513 -0.31206082339016011 0 0.13800407031112841 -0.31574608003178772 0 0.13743968224858391 -0.28868338126870119 0 0.13800407031112841 -0.31574608003178772 0 0.13743968224858391 -0.28868338126870119 0 0.16613015085753399 -0.29794196337136208 0 0.13743968224858391 -0.28868338126870119 0 0.16013622185265231 -0.27370264407204231 0 0.16613015085753399 -0.29794196337136208 0 0.13743968224858391 -0.28868338126870119 0 0.13687529418603939 -0.26162068250561471 0 0.13743968224858391 -0.28868338126870119 0 0.13687529418603939 -0.26162068250561471 0 0.12122917553908071 -0.27280048239714111 0 0.13687529418603939 -0.26162068250561471 0 0.15867772839633809 -0.25707915377424612 0 0.15532271566916761 -0.23874085795770611 0 0.13687529418603939 -0.26162068250561471 0 0.16013622185265231 -0.27370264407204231 0 0.15867772839633809 -0.25707915377424612 0 0.13743968224858391 -0.28868338126870119 0 0.13687529418603939 -0.26162068250561471 0 0.16013622185265231 -0.27370264407204231 0 0.16013622185265231 -0.27370264407204231 0 0.17163424862532001 -0.26348395238230132 0 0.17866520103123101 -0.27392164610568698 0 0.16013622185265231 -0.27370264407204231 0 0.15867772839633809 -0.25707915377424612 0 0.17163424862532001 -0.26348395238230132 0 0.15867772839633809 -0.25707915377424612 0 0.17163424862532001 -0.26348395238230132 0 0.17304535898525439 -0.24904788565112909 0 0.17163424862532001 -0.26348395238230132 0 0.18066177981631051 -0.25348299893649828 0 0.17304535898525439 -0.24904788565112909 0 0.17163424862532001 -0.26348395238230132 0 0.1861358052291735 -0.26379397041404468 0 0.18066177981631051 -0.25348299893649828 0 0.19627752834655959 -0.27465633278028612 0 0.17866520103123101 -0.27392164610568698 0 0.18615950714984131 -0.28714944863913389 0 0.19627752834655959 -0.27465633278028612 0 0.1861358052291735 -0.26379397041404468 0 0.17866520103123101 -0.27392164610568698 0 0.17163424862532001 -0.26348395238230132 0 0.1861358052291735 -0.26379397041404468 0 0.17866520103123101 -0.27392164610568698 0 0.17866520103123101 -0.27392164610568698 0 0.18615950714984131 -0.28714944863913389 0 0.16613015085753399 -0.29794196337136208 0 0.18615950714984131 -0.28714944863913389 0 0.1861316223780578 -0.30340045511113362 0 0.16613015085753399 -0.29794196337136208 0 0.17526094699071121 -0.32121364916979261 0 0.1861316223780578 -0.30340045511113362 0 0.16613015085753399 -0.29794196337136208 0 0.16013622185265231 -0.27370264407204231 0 0.17866520103123101 -0.27392164610568698 0 0.16613015085753399 -0.29794196337136208 0 0.19650118937966099 -0.48458767462136337 0 0.18247472509388471 -0.47020227486163019 0 0.1839174807145193 -0.49999999999999789 0 0.19650118937966099 -0.48458767462136337 0 0.2054847406710314 -0.5 0 0.1839174807145193 -0.49999999999999789 0 0.19650118937966099 -0.48458767462136337 0 0.1995265252191368 -0.47051219141525807 0 0.18247472509388471 -0.47020227486163019 0 0.19650118937966099 -0.48458767462136337 0 0.1995265252191368 -0.47051219141525807 0 0.21142085222808771 -0.48158275099342862 0 0.1995265252191368 -0.47051219141525807 0 0.21142085222808771 -0.48158275099342862 0 0.21140626781342409 -0.46122374827882839 0 0.21142085222808771 -0.48158275099342862 0 0.23068219321441441 -0.47630316546961982 0 0.21140626781342409 -0.46122374827882839 0 0.19650118937966099 -0.48458767462136337 0 0.21142085222808771 -0.48158275099342862 0 0.2054847406710314 -0.5 0 0.21142085222808771 -0.48158275099342862 0 0.2054847406710314 -0.5 0 0.22705200062754341 -0.49999999999999972 0 0.21142085222808771 -0.48158275099342862 0 0.22705200062754341 -0.49999999999999972 0 0.23068219321441441 -0.47630316546961982 0 0.22705200062754341 -0.49999999999999972 0 0.24310759435645521 -0.48732129405658853 0 0.23068219321441441 -0.47630316546961982 0 0.22705200062754341 -0.49999999999999972 0 0.23068219321441441 -0.47630316546961982 0 0.25573491640979129 -0.5 0 0.22705200062754341 -0.49999999999999972 0 0.24310759435645521 -0.48732129405658853 0 0.24310759435645521 -0.48732129405658853 0 0.24452211955108941 -0.47321082899062988 0 0.23068219321441441 -0.47630316546961982 0 0.23068219321441441 -0.47630316546961982 0 0.23431238580128549 -0.45260633093924002 0 0.23068219321441441 -0.47630316546961982 0 0.23431238580128549 -0.45260633093924002 0 0.21140626781342409 -0.46122374827882839 0 0.24452211955108941 -0.47321082899062988 0 0.23068219321441441 -0.47630316546961982 0 0.23431238580128549 -0.45260633093924002 0 0.25055382002994903 -0.45112655962101422 0 0.24452211955108941 -0.47321082899062988 0 0.23431238580128549 -0.45260633093924002 0 0.25055382002994903 -0.45112655962101422 0 0.23431238580128549 -0.45260633093924002 0 0.24845486683426421 -0.43056678600332871 0 0.23431238580128549 -0.45260633093924002 0 0.2061844358166085 -0.43731386343018219 0 0.22816721351006641 -0.42382217308135922 0 0.23431238580128549 -0.45260633093924002 0 0.21140626781342409 -0.46122374827882839 0 0.2061844358166085 -0.43731386343018219 0 0.21140626781342409 -0.46122374827882839 0 0.1958295915806266 -0.45496450832104018 0 0.2061844358166085 -0.43731386343018219 0 0.1995265252191368 -0.47051219141525807 0 0.1958295915806266 -0.45496450832104018 0 0.18247472509388471 -0.47020227486163019 0 0.1995265252191368 -0.47051219141525807 0 0.21140626781342409 -0.46122374827882839 0 0.1958295915806266 -0.45496450832104018 0 0.1958295915806266 -0.45496450832104018 0 0.2061844358166085 -0.43731386343018219 0 0.18103196947325001 -0.44040454972326271 0 0.19189840580791451 -0.42494462472696731 0 0.2061844358166085 -0.43731386343018219 0 0.18103196947325001 -0.44040454972326271 0 0.19189840580791451 -0.42494462472696731 0 0.1954291475964339 -0.41062193775622902 0 0.2113234447447021 -0.41044931469126889 0 0.19189840580791451 -0.42494462472696731 0 0.1954291475964339 -0.41062193775622902 0 0.17958921385261531 -0.41060682458489489 0 0.19189840580791451 -0.42494462472696731 0 0.2113234447447021 -0.41044931469126889 0 0.2061844358166085 -0.43731386343018219 0 0.2113234447447021 -0.41044931469126889 0 0.2061844358166085 -0.43731386343018219 0 0.22816721351006641 -0.42382217308135922 0 0.2113234447447021 -0.41044931469126889 0 0.2061844358166085 -0.43731386343018219 0 0.23431238580128549 -0.45260633093924002 0 0.22816721351006641 -0.42382217308135922 0 0.24845486683426421 -0.43056678600332871 0 0.22816721351006641 -0.42382217308135922 0 0.24845486683426421 -0.43056678600332871 0 0.24730388124056729 -0.40448370284608931 0 0.22816721351006641 -0.42382217308135922 0 0.22802948983690591 -0.39972126622214238 0 0.24730388124056729 -0.40448370284608931 0 0.2113234447447021 -0.41044931469126889 0 0.22816721351006641 -0.42382217308135922 0 0.22802948983690591 -0.39972126622214238 0 0.22802948983690591 -0.39972126622214238 0 0.24730388124056729 -0.40448370284608931 0 0.2380746425401753 -0.37739124482652259 0 0.26194523537769671 -0.38343407302417171 0 0.24730388124056729 -0.40448370284608931 0 0.2380746425401753 -0.37739124482652259 0 0.22802948983690591 -0.39972126622214238 0 0.2380746425401753 -0.37739124482652259 0 0.21646245367279571 -0.38358476595235552 0 0.21646245367279571 -0.38358476595235552 0 0.19890552598050351 -0.3964869870217847 0 0.2025217842010896 -0.37807387373583923 0 0.2113234447447021 -0.41044931469126889 0 0.22802948983690591 -0.39972126622214238 0 0.21646245367279571 -0.38358476595235552 0 0.2113234447447021 -0.41044931469126889 0 0.21646245367279571 -0.38358476595235552 0 0.2113234447447021 -0.41044931469126889 0 0.21646245367279571 -0.38358476595235552 0 0.19890552598050351 -0.3964869870217847 0 0.1954291475964339 -0.41062193775622902 0 0.2113234447447021 -0.41044931469126889 0 0.19890552598050351 -0.3964869870217847 0 0.1954291475964339 -0.41062193775622902 0 0.19890552598050351 -0.3964869870217847 0 0.17958921385261531 -0.41060682458489489 0 0.19890552598050351 -0.3964869870217847 0 0.19000045151593811 -0.3880482826985161 0 0.17958921385261531 -0.41060682458489489 0 0.19890552598050351 -0.3964869870217847 0 0.19000045151593811 -0.3880482826985161 0 0.2025217842010896 -0.37807387373583923 0 0.19083927531350181 -0.37426462870353422 0 0.19000045151593811 -0.3880482826985161 0 0.2025217842010896 -0.37807387373583923 0 0.19083927531350181 -0.37426462870353422 0 0.19000045151593811 -0.3880482826985161 0 0.17814645823198061 -0.38080909944652741 0 0.17814645823198061 -0.38080909944652741 0 0.17958921385261531 -0.41060682458489489 0 0.19000045151593811 -0.3880482826985161 0 0.17814645823198061 -0.38080909944652741 0 0.17958921385261531 -0.41060682458489489 0 0.17814645823198061 -0.38080909944652741 0 0.17073561596382039 -0.39301209499015272 0 0.17958921385261531 -0.41060682458489489 0 0.16300249929152311 -0.40501345282557782 0 0.1662516937484437 -0.37945746017663878 0 0.1548118257048379 -0.39098754083749682 0 0.17073561596382039 -0.39301209499015272 0 0.16300249929152311 -0.40501345282557782 0 0.1662516937484437 -0.37945746017663878 0 0.17073561596382039 -0.39301209499015272 0 0.16300249929152311 -0.40501345282557782 0 0.17958921385261531 -0.41060682458489489 0 0.16300249929152311 -0.40501345282557782 0 0.1662516937484437 -0.37945746017663878 0 0.1662516937484437 -0.37945746017663878 0 0.15122325216971341 -0.38057118911269922 0 0.1548118257048379 -0.39098754083749682 0 0.17814645823198061 -0.38080909944652741 0 0.17073561596382039 -0.39301209499015272 0 0.1662516937484437 -0.37945746017663878 0 0.15622266046030589 -0.36560529067035252 0 0.1662516937484437 -0.37945746017663878 0 0.15122325216971341 -0.38057118911269922 0 0.15122325216971341 -0.38057118911269922 0 0.13969723449876181 -0.39693417632104711 0 0.1548118257048379 -0.39098754083749682 0 0.13913284643621729 -0.36987147755796063 0 0.15122325216971341 -0.38057118911269922 0 0.13969723449876181 -0.39693417632104711 0 0.13913284643621729 -0.36987147755796063 0 0.12672469353237761 -0.38193719477194499 0 0.13969723449876181 -0.39693417632104711 0 0.13913284643621729 -0.36987147755796063 0 0.13969723449876181 -0.39693417632104711 0 0.12672469353237761 -0.38193719477194499 0 0.13969723449876181 -0.39693417632104711 0 0.1219351525082772 -0.40864131998943182 0 0.16300249929152311 -0.40501345282557782 0 0.13969723449876181 -0.39693417632104711 0 0.1524997256598466 -0.41582351463554701 0 0.16300249929152311 -0.40501345282557782 0 0.13969723449876181 -0.39693417632104711 0 0.1548118257048379 -0.39098754083749682 0 0.13969723449876181 -0.39693417632104711 0 0.1524997256598466 -0.41582351463554701 0 0.14026162256130631 -0.42399687508413381 0 0.13969723449876181 -0.39693417632104711 0 0.14026162256130631 -0.42399687508413381 0 0.13969723449876181 -0.39693417632104711 0 0.14026162256130631 -0.42399687508413381 0 0.1219351525082772 -0.40864131998943182 0 0.1272554141007321 -0.42571201066291808 0 0.14026162256130631 -0.42399687508413381 0 0.1219351525082772 -0.40864131998943182 0 0.13018508541287829 -0.43658956786597553 0 0.14026162256130631 -0.42399687508413381 0 0.14082601062385081 -0.45105957384722029 0 0.13018508541287829 -0.43658956786597553 0 0.1272554141007321 -0.42571201066291808 0 0.14026162256130631 -0.42399687508413381 0 0.1524997256598466 -0.41582351463554701 0 0.14026162256130631 -0.42399687508413381 0 0.15975330483460251 -0.43056944547451692 0 0.14026162256130631 -0.42399687508413381 0 0.15975330483460251 -0.43056944547451692 0 0.14082601062385081 -0.45105957384722029 0 0.16300249929152311 -0.40501345282557782 0 0.15975330483460251 -0.43056944547451692 0 0.17958921385261531 -0.41060682458489489 0 0.16300249929152311 -0.40501345282557782 0 0.15975330483460251 -0.43056944547451692 0 0.16300249929152311 -0.40501345282557782 0 0.1524997256598466 -0.41582351463554701 0 0.15975330483460251 -0.43056944547451692 0 0.15975330483460251 -0.43056944547451692 0 0.17958921385261531 -0.41060682458489489 0 0.18103196947325001 -0.44040454972326271 0 0.17958921385261531 -0.41060682458489489 0 0.18103196947325001 -0.44040454972326271 0 0.19189840580791451 -0.42494462472696731 0 0.17958921385261531 -0.41060682458489489 0 0.18103196947325001 -0.44040454972326271 0 0.18103196947325001 -0.44040454972326271 0 0.16491961284223791 -0.45249038001545161 0 0.18247472509388471 -0.47020227486163019 0 0.18103196947325001 -0.44040454972326271 0 0.18247472509388471 -0.47020227486163019 0 0.1958295915806266 -0.45496450832104018 0 0.18103196947325001 -0.44040454972326271 0 0.18247472509388471 -0.47020227486163019 0 0.16491961284223791 -0.45249038001545161 0 0.1605120541856016 -0.47021605617062739 0 0.18247472509388471 -0.47020227486163019 0 0.15975330483460251 -0.43056944547451692 0 0.18103196947325001 -0.44040454972326271 0 0.16491961284223791 -0.45249038001545161 0 0.15975330483460251 -0.43056944547451692 0 0.16491961284223791 -0.45249038001545161 0 0.14082601062385081 -0.45105957384722029 0 0.14026162256130631 -0.42399687508413381 0 0.14082601062385081 -0.45105957384722029 0 0.14082601062385081 -0.45105957384722029 0 0.12543676829432579 -0.44683393452868708 0 0.12531186358948529 -0.45757018679138572 0 0.13018508541287829 -0.43658956786597553 0 0.14082601062385081 -0.45105957384722029 0 0.12543676829432579 -0.44683393452868708 0 0.14082601062385081 -0.45105957384722029 0 0.12842365125323091 -0.46593607888014599 0 0.13328939848609819 -0.47119455711627289 0 0.14082601062385081 -0.45105957384722029 0 0.14139039868639619 -0.47812227261030682 0 0.13328939848609819 -0.47119455711627289 0 0.12842365125323091 -0.46593607888014599 0 0.12531186358948529 -0.45757018679138572 0 0.1232316263288145 -0.46410889533344052 0 0.12842365125323091 -0.46593607888014599 0 0.1245497287119053 -0.47085317529077592 0 0.12311265484265969 -0.46777846846391841 0 0.14082601062385081 -0.45105957384722029 0 0.12842365125323091 -0.46593607888014599 0 0.12531186358948529 -0.45757018679138572 0 0.16491961284223791 -0.45249038001545161 0 0.14082601062385081 -0.45105957384722029 0 0.1605120541856016 -0.47021605617062739 0 0.14082601062385081 -0.45105957384722029 0 0.14139039868639619 -0.47812227261030682 0 0.14082601062385081 -0.45105957384722029 0 0.14139039868639619 -0.47812227261030682 0 0.1605120541856016 -0.47021605617062739 0 0.14139039868639619 -0.47812227261030682 0 0.15939735020609169 -0.48906113630515408 0 0.1605120541856016 -0.47021605617062739 0 0.14139039868639619 -0.47812227261030682 0 0.15939735020609169 -0.48906113630515408 0 0.14139039868639619 -0.47812227261030682 0 0.13328939848609819 -0.47119455711627289 0 0.13520794413867351 -0.47916570768291911 0 0.14139039868639619 -0.47812227261030682 0 0.13520794413867351 -0.47916570768291911 0 0.13309005864575499 -0.48654881223837643 0 0.13328939848609819 -0.47119455711627289 0 0.13520794413867351 -0.47916570768291911 0 0.1282166063692238 -0.47963436787526348 0 0.13520794413867351 -0.47916570768291911 0 0.1282166063692238 -0.47963436787526348 0 0.13309005864575499 -0.48654881223837643 0 0.12842365125323091 -0.46593607888014599 0 0.1275076222339897 -0.47406719287555171 0 0.1245497287119053 -0.47085317529077592 0 0.12842365125323091 -0.46593607888014599 0 0.13328939848609819 -0.47119455711627289 0 0.1275076222339897 -0.47406719287555171 0 0.13328939848609819 -0.47119455711627289 0 0.1282166063692238 -0.47963436787526348 0 0.1275076222339897 -0.47406719287555171 0 0.1282166063692238 -0.47963436787526348 0 0.1275076222339897 -0.47406719287555171 0 0.12271037357175291 -0.47562361121234281 0 0.14139039868639619 -0.47812227261030682 0 0.13309005864575499 -0.48654881223837643 0 0.1417493920694651 -0.49533619053082339 0 0.1325088383252874 -0.49999999999999689 0 0.11946717228548211 -0.4870343347309507 0 0.1325088383252874 -0.49999999999999689 0 0.13309005864575499 -0.48654881223837643 0 0.11946717228548211 -0.4870343347309507 0 0.1282166063692238 -0.47963436787526348 0 0.13309005864575499 -0.48654881223837643 0 0.11946717228548211 -0.4870343347309507 0 0.1325088383252874 -0.49999999999999689 0 0.13309005864575499 -0.48654881223837643 0 0.1417493920694651 -0.49533619053082339 0 0.1325088383252874 -0.49999999999999689 0 0.1417493920694651 -0.49533619053082339 0 0.15495657002553739 -0.5 0 0.14139039868639619 -0.47812227261030682 0 0.14937342774687271 -0.49062989986157102 0 0.15939735020609169 -0.48906113630515408 0 0.14139039868639619 -0.47812227261030682 0 0.1417493920694651 -0.49533619053082339 0 0.14139039868639619 -0.47812227261030682 0 0.1417493920694651 -0.49533619053082339 0 0.14937342774687271 -0.49062989986157102 0 0.1417493920694651 -0.49533619053082339 0 0.14937342774687271 -0.49062989986157102 0 0.15495657002553739 -0.5 0 0.14937342774687271 -0.49062989986157102 0 0.15495657002553739 -0.5 0 0.15939735020609169 -0.48906113630515408 0 0.15939735020609169 -0.48906113630515408 0 0.17467337585270831 -0.48420504396041608 0 0.1774043017257875 -0.50000000000000111 0 0.15939735020609169 -0.48906113630515408 0 0.1774043017257875 -0.50000000000000111 0 0.15495657002553739 -0.5 0 0.15939735020609169 -0.48906113630515408 0 0.1774043017257875 -0.50000000000000111 0 0.15939735020609169 -0.48906113630515408 0 0.1605120541856016 -0.47021605617062739 0 0.17467337585270831 -0.48420504396041608 0 0.1605120541856016 -0.47021605617062739 0 0.17467337585270831 -0.48420504396041608 0 0.18247472509388471 -0.47020227486163019 0 0.18247472509388471 -0.47020227486163019 0 0.1839174807145193 -0.49999999999999789 0 0.17467337585270831 -0.48420504396041608 0 0.18247472509388471 -0.47020227486163019 0 0.1839174807145193 -0.49999999999999789 0 0.17467337585270831 -0.48420504396041608 0 0.1839174807145193 -0.49999999999999789 0 0.1774043017257875 -0.50000000000000111 0 0.065949985054517032 -0.48884997455687013 0 0.080677891680827868 -0.48404188118506331 0 0.084758324792090334 -0.49999999999999989 0 0.065949985054517032 -0.48884997455687013 0 0.084758324792090334 -0.49999999999999989 0 0.055728539092515517 -0.5 0 0.065949985054517032 -0.48884997455687013 0 0.069113753880103546 -0.47032146630200872 0 0.080677891680827868 -0.48404188118506331 0 0.065949985054517032 -0.48884997455687013 0 0.069113753880103546 -0.47032146630200872 0 0.057596711449277201 -0.48334309492942701 0 0.069113753880103546 -0.47032146630200872 0 0.080677891680827868 -0.48404188118506331 0 0.088790870678748121 -0.47481427013272492 0 0.069113753880103546 -0.47032146630200872 0 0.088790870678748121 -0.47481427013272492 0 0.09506323621333454 -0.46277261346061632 0 0.080677891680827868 -0.48404188118506331 0 0.088790870678748121 -0.47481427013272492 0 0.094776523998680279 -0.48622369493371298 0 0.080677891680827868 -0.48404188118506331 0 0.084758324792090334 -0.49999999999999989 0 0.094776523998680279 -0.48622369493371298 0 0.084758324792090334 -0.49999999999999989 0 0.10099043700106421 -0.499999999999999 0 0.094776523998680279 -0.48622369493371298 0 0.084758324792090334 -0.49999999999999989 0 0.094776523998680279 -0.48622369493371298 0 0.10099043700106421 -0.499999999999999 0 0.1064255062456735 -0.47406866946190801 0 0.10099043700106421 -0.499999999999999 0 0.094776523998680279 -0.48622369493371298 0 0.1064255062456735 -0.47406866946190801 0 0.10099043700106421 -0.499999999999999 0 0.11946717228548211 -0.4870343347309507 0 0.1064255062456735 -0.47406866946190801 0 0.1325088383252874 -0.49999999999999689 0 0.1167496376631757 -0.5 0 0.11946717228548211 -0.4870343347309507 0 0.10099043700106421 -0.499999999999999 0 0.1167496376631757 -0.5 0 0.11946717228548211 -0.4870343347309507 0 0.12074084002908721 -0.47045370359981148 0 0.12271037357175291 -0.47562361121234281 0 0.11625567037499381 -0.47238364776222469 0 0.12074084002908721 -0.47045370359981148 0 0.11625567037499381 -0.47238364776222469 0 0.1192823524431306 -0.4663394170250621 0 0.12074084002908721 -0.47045370359981148 0 0.1245497287119053 -0.47085317529077592 0 0.12271037357175291 -0.47562361121234281 0 0.12074084002908721 -0.47045370359981148 0 0.1245497287119053 -0.47085317529077592 0 0.12311265484265969 -0.46777846846391841 0 0.1275076222339897 -0.47406719287555171 0 0.1245497287119053 -0.47085317529077592 0 0.12271037357175291 -0.47562361121234281 0 0.1282166063692238 -0.47963436787526348 0 0.11946717228548211 -0.4870343347309507 0 0.12271037357175291 -0.47562361121234281 0 0.11946717228548211 -0.4870343347309507 0 0.12271037357175291 -0.47562361121234281 0 0.11625567037499381 -0.47238364776222469 0 0.11946717228548211 -0.4870343347309507 0 0.1064255062456735 -0.47406866946190801 0 0.11946717228548211 -0.4870343347309507 0 0.11625567037499381 -0.47238364776222469 0 0.1064255062456735 -0.47406866946190801 0 0.11625567037499381 -0.47238364776222469 0 0.1064255062456735 -0.47406866946190801 0 0.11129693947086181 -0.46795476393154728 0 0.1064255062456735 -0.47406866946190801 0 0.10479472320527 -0.47244738986742602 0 0.1075632658294263 -0.46864028970971422 0 0.1064255062456735 -0.47406866946190801 0 0.1075632658294263 -0.46864028970971422 0 0.11129693947086181 -0.46795476393154728 0 0.088790870678748121 -0.47481427013272492 0 0.094776523998680279 -0.48622369493371298 0 0.10479472320527 -0.47244738986742602 0 0.1064255062456735 -0.47406866946190801 0 0.1075632658294263 -0.46864028970971422 0 0.088790870678748121 -0.47481427013272492 0 0.10479472320527 -0.47244738986742602 0 0.09506323621333454 -0.46277261346061632 0 0.10479472320527 -0.47244738986742602 0 0.1075632658294263 -0.46864028970971422 0 0.1064255062456735 -0.47406866946190801 0 0.10479472320527 -0.47244738986742602 0 0.094776523998680279 -0.48622369493371298 0 0.1064255062456735 -0.47406866946190801 0 0.10479472320527 -0.47244738986742602 0 0.094776523998680279 -0.48622369493371298 0 0.10479472320527 -0.47244738986742602 0 0.10479472320527 -0.47244738986742602 0 0.09506323621333454 -0.46277261346061632 0 0.1060131744550812 -0.45411466011360518 0 0.1075632658294263 -0.46864028970971422 0 0.11260152047704799 -0.44460220652757759 0 0.09506323621333454 -0.46277261346061632 0 0.10011436795704159 -0.45274002486564408 0 0.091519926973447546 -0.44626784630584138 0 0.09506323621333454 -0.46277261346061632 0 0.10386028492466159 -0.46021350167150438 0 0.09506323621333454 -0.46277261346061632 0 0.10386028492466159 -0.46021350167150438 0 0.10011436795704159 -0.45274002486564408 0 0.10386028492466159 -0.46021350167150438 0 0.1060131744550812 -0.45411466011360518 0 0.10011436795704159 -0.45274002486564408 0 0.10386028492466159 -0.46021350167150438 0 0.1060131744550812 -0.45411466011360518 0 0.1075632658294263 -0.46864028970971422 0 0.10479472320527 -0.47244738986742602 0 0.09506323621333454 -0.46277261346061632 0 0.1075632658294263 -0.46864028970971422 0 0.09506323621333454 -0.46277261346061632 0 0.10386028492466159 -0.46021350167150438 0 0.1075632658294263 -0.46864028970971422 0 0.1075632658294263 -0.46864028970971422 0 0.1123560704600764 -0.46204957042440498 0 0.11260152047704799 -0.44460220652757759 0 0.1075632658294263 -0.46864028970971422 0 0.1123560704600764 -0.46204957042440498 0 0.1075632658294263 -0.46864028970971422 0 0.11129693947086181 -0.46795476393154728 0 0.1123560704600764 -0.46204957042440498 0 0.1075632658294263 -0.46864028970971422 0 0.11260152047704799 -0.44460220652757759 0 0.11129693947086181 -0.46795476393154728 0 0.1123560704600764 -0.46204957042440498 0 0.11129693947086181 -0.46795476393154728 0 0.1149697984784732 -0.46556593525158491 0 0.1123560704600764 -0.46204957042440498 0 0.11625567037499381 -0.47238364776222469 0 0.1149697984784732 -0.46556593525158491 0 0.1192823524431306 -0.4663394170250621 0 0.11625567037499381 -0.47238364776222469 0 0.11129693947086181 -0.46795476393154728 0 0.1149697984784732 -0.46556593525158491 0 0.1149697984784732 -0.46556593525158491 0 0.1123560704600764 -0.46204957042440498 0 0.118705430672609 -0.46205297743075813 0 0.1123560704600764 -0.46204957042440498 0 0.11635977570981471 -0.45654396370023359 0 0.118705430672609 -0.46205297743075813 0 0.1123560704600764 -0.46204957042440498 0 0.11635977570981471 -0.45654396370023359 0 0.12531186358948529 -0.45757018679138572 0 0.11635977570981471 -0.45654396370023359 0 0.118705430672609 -0.46205297743075813 0 0.12543676829432579 -0.44683393452868708 0 0.12531186358948529 -0.45757018679138572 0 0.11635977570981471 -0.45654396370023359 0 0.12531186358948529 -0.45757018679138572 0 0.1232316263288145 -0.46410889533344052 0 0.118705430672609 -0.46205297743075813 0 0.1232316263288145 -0.46410889533344052 0 0.12311265484265969 -0.46777846846391841 0 0.1192823524431306 -0.4663394170250621 0 0.12842365125323091 -0.46593607888014599 0 0.1232316263288145 -0.46410889533344052 0 0.12311265484265969 -0.46777846846391841 0 0.12074084002908721 -0.47045370359981148 0 0.12311265484265969 -0.46777846846391841 0 0.1192823524431306 -0.4663394170250621 0 0.1149697984784732 -0.46556593525158491 0 0.1192823524431306 -0.4663394170250621 0 0.118705430672609 -0.46205297743075813 0 0.1232316263288145 -0.46410889533344052 0 0.1192823524431306 -0.4663394170250621 0 0.118705430672609 -0.46205297743075813 0 0.1123560704600764 -0.46204957042440498 0 0.11714561148417681 -0.43534544520691831 0 0.1123560704600764 -0.46204957042440498 0 0.11260152047704799 -0.44460220652757759 0 0.11714561148417681 -0.43534544520691831 0 0.1123560704600764 -0.46204957042440498 0 0.11635977570981471 -0.45654396370023359 0 0.11714561148417681 -0.43534544520691831 0 0.12543676829432579 -0.44683393452868708 0 0.11635977570981471 -0.45654396370023359 0 0.11714561148417681 -0.43534544520691831 0 0.13018508541287829 -0.43658956786597553 0 0.12543676829432579 -0.44683393452868708 0 0.11714561148417681 -0.43534544520691831 0 0.10592643308722841 -0.44437727779358549 0 0.083881602994700072 -0.43088647549478237 0 0.10592643308722841 -0.44437727779358549 0 0.091519926973447546 -0.44626784630584138 0 0.083881602994700072 -0.43088647549478237 0 0.11260152047704799 -0.44460220652757759 0 0.10592643308722841 -0.44437727779358549 0 0.1086116799951807 -0.43095684568344572 0 0.1060131744550812 -0.45411466011360518 0 0.10592643308722841 -0.44437727779358549 0 0.10011436795704159 -0.45274002486564408 0 0.1060131744550812 -0.45411466011360518 0 0.11260152047704799 -0.44460220652757759 0 0.10592643308722841 -0.44437727779358549 0 0.10592643308722841 -0.44437727779358549 0 0.10011436795704159 -0.45274002486564408 0 0.091519926973447546 -0.44626784630584138 0 0.09506323621333454 -0.46277261346061632 0 0.073976492589610171 -0.44180875358221461 0 0.09506323621333454 -0.46277261346061632 0 0.091519926973447546 -0.44626784630584138 0 0.073976492589610171 -0.44180875358221461 0 0.091519926973447546 -0.44626784630584138 0 0.073976492589610171 -0.44180875358221461 0 0.083881602994700072 -0.43088647549478237 0 0.069113753880103546 -0.47032146630200872 0 0.09506323621333454 -0.46277261346061632 0 0.09506323621333454 -0.46277261346061632 0 0.075948319170580939 -0.45709497223106438 0 0.073976492589610171 -0.44180875358221461 0 0.069113753880103546 -0.47032146630200872 0 0.09506323621333454 -0.46277261346061632 0 0.075948319170580939 -0.45709497223106438 0 0.069113753880103546 -0.47032146630200872 0 0.075948319170580939 -0.45709497223106438 0 0.064267892493667544 -0.45245405090636609 0 0.064267892493667544 -0.45245405090636609 0 0.073976492589610171 -0.44180875358221461 0 0.061221704008603092 -0.43412854505433712 0 0.075948319170580939 -0.45709497223106438 0 0.064267892493667544 -0.45245405090636609 0 0.073976492589610171 -0.44180875358221461 0 0.083881602994700072 -0.43088647549478237 0 0.061836772902171017 -0.41739567319598042 0 0.061221704008603092 -0.43412854505433712 0 0.073976492589610171 -0.44180875358221461 0 0.083881602994700072 -0.43088647549478237 0 0.061221704008603092 -0.43412854505433712 0 0.083881602994700072 -0.43088647549478237 0 0.061836772902171017 -0.41739567319598042 0 0.087852613914545186 -0.40334306140395609 0 0.070156507476487037 -0.39917662383738439 0 0.061836772902171017 -0.41739567319598042 0 0.087852613914545186 -0.40334306140395609 0 0.061836772902171017 -0.41739567319598042 0 0.090204007114443943 -0.4177400312392191 0 0.087852613914545186 -0.40334306140395609 0 0.061836772902171017 -0.41739567319598042 0 0.090204007114443943 -0.4177400312392191 0 0.083881602994700072 -0.43088647549478237 0 0.061836772902171017 -0.41739567319598042 0 0.090204007114443943 -0.4177400312392191 0 0.083881602994700072 -0.43088647549478237 0 0.10022705322515101 -0.42809075962971732 0 0.10592643308722841 -0.44437727779358549 0 0.083881602994700072 -0.43088647549478237 0 0.10022705322515101 -0.42809075962971732 0 0.10592643308722841 -0.44437727779358549 0 0.10022705322515101 -0.42809075962971732 0 0.1086116799951807 -0.43095684568344572 0 0.10022705322515101 -0.42809075962971732 0 0.1086116799951807 -0.43095684568344572 0 0.10561771621597441 -0.41891116251106192 0 0.11260152047704799 -0.44460220652757759 0 0.11714561148417681 -0.43534544520691831 0 0.11763977512467 -0.42056412334544119 0 0.11714561148417681 -0.43534544520691831 0 0.1219351525082772 -0.40864131998943182 0 0.11260152047704799 -0.44460220652757759 0 0.11763977512467 -0.42056412334544119 0 0.11260152047704799 -0.44460220652757759 0 0.1086116799951807 -0.43095684568344572 0 0.11763977512467 -0.42056412334544119 0 0.1272554141007321 -0.42571201066291808 0 0.11714561148417681 -0.43534544520691831 0 0.1219351525082772 -0.40864131998943182 0 0.1086116799951807 -0.43095684568344572 0 0.11763977512467 -0.42056412334544119 0 0.10561771621597441 -0.41891116251106192 0 0.13018508541287829 -0.43658956786597553 0 0.1272554141007321 -0.42571201066291808 0 0.11714561148417681 -0.43534544520691831 0 0.1219351525082772 -0.40864131998943182 0 0.11763977512467 -0.42056412334544119 0 0.1226780297722921 -0.39652604016330478 0 0.11763977512467 -0.42056412334544119 0 0.1063857367604352 -0.40565829933023112 0 0.1226780297722921 -0.39652604016330478 0 0.11714561148417681 -0.43534544520691831 0 0.1219351525082772 -0.40864131998943182 0 0.11763977512467 -0.42056412334544119 0 0.11763977512467 -0.42056412334544119 0 0.1226780297722921 -0.39652604016330478 0 0.11763977512467 -0.42056412334544119 0 0.10561771621597441 -0.41891116251106192 0 0.1063857367604352 -0.40565829933023112 0 0.090204007114443943 -0.4177400312392191 0 0.1063857367604352 -0.40565829933023112 0 0.087852613914545186 -0.40334306140395609 0 0.090204007114443943 -0.4177400312392191 0 0.10561771621597441 -0.41891116251106192 0 0.1063857367604352 -0.40565829933023112 0 0.090204007114443943 -0.4177400312392191 0 0.10022705322515101 -0.42809075962971732 0 0.10561771621597441 -0.41891116251106192 0 0.1063857367604352 -0.40565829933023112 0 0.11269819459067421 -0.38831450138448881 0 0.097085641119374302 -0.38571424072610178 0 0.1063857367604352 -0.40565829933023112 0 0.097085641119374302 -0.38571424072610178 0 0.087852613914545186 -0.40334306140395609 0 0.12672469353237761 -0.38193719477194499 0 0.1219351525082772 -0.40864131998943182 0 0.1063857367604352 -0.40565829933023112 0 0.1226780297722921 -0.39652604016330478 0 0.11269819459067421 -0.38831450138448881 0 0.12672469353237761 -0.38193719477194499 0 0.1219351525082772 -0.40864131998943182 0 0.1226780297722921 -0.39652604016330478 0 0.12672469353237761 -0.38193719477194499 0 0.11269819459067421 -0.38831450138448881 0 0.1080928822255358 -0.3703790814713866 0 0.12672469353237761 -0.38193719477194499 0 0.1226780297722921 -0.39652604016330478 0 0.11269819459067421 -0.38831450138448881 0 0.11269819459067421 -0.38831450138448881 0 0.097085641119374302 -0.38571424072610178 0 0.1080928822255358 -0.3703790814713866 0 0.097085641119374302 -0.38571424072610178 0 0.078524092076429908 -0.38558307009035819 0 0.085574671404253372 -0.36606529366265911 0 0.097085641119374302 -0.38571424072610178 0 0.078524092076429908 -0.38558307009035819 0 0.087852613914545186 -0.40334306140395609 0 0.078524092076429908 -0.38558307009035819 0 0.087852613914545186 -0.40334306140395609 0 0.070156507476487037 -0.39917662383738439 0 0.078524092076429908 -0.38558307009035819 0 0.070156507476487037 -0.39917662383738439 0 0.064141871653705745 -0.38905297891460661 0 0.070156507476487037 -0.39917662383738439 0 0.058427186835583247 -0.40050833558202109 0 0.061836772902171017 -0.41739567319598042 0 0.070156507476487037 -0.39917662383738439 0 0.064141871653705745 -0.38905297891460661 0 0.058427186835583247 -0.40050833558202109 0 0.078524092076429908 -0.38558307009035819 0 0.064141871653705745 -0.38905297891460661 0 0.064781398010314309 -0.37536455347105108 0 0.078524092076429908 -0.38558307009035819 0 0.064781398010314309 -0.37536455347105108 0 0.085574671404253372 -0.36606529366265911 0 0.064781398010314309 -0.37536455347105108 0 0.05115882120843647 -0.38571757356542352 0 0.043890455581289831 -0.3709268115488259 0 0.05115882120843647 -0.38571757356542352 0 0.043890455581289831 -0.3709268115488259 0 0.064141871653705745 -0.38905297891460661 0 0.064781398010314309 -0.37536455347105108 0 0.05115882120843647 -0.38571757356542352 0 0.064141871653705745 -0.38905297891460661 0 0.05115882120843647 -0.38571757356542352 0 0.058427186835583247 -0.40050833558202109 0 0.05115882120843647 -0.38571757356542352 0 0.058427186835583247 -0.40050833558202109 0 0.05115882120843647 -0.38571757356542352 0 0.058427186835583247 -0.40050833558202109 0 0.039291666751458072 -0.38953557003537942 0 0.058427186835583247 -0.40050833558202109 0 0.03861507037192409 -0.403184658796582 0 0.039291666751458072 -0.38953557003537942 0 0.039291666751458072 -0.38953557003537942 0 0.030780854092194759 -0.38031894893150719 0 0.043890455581289831 -0.3709268115488259 0 0.05115882120843647 -0.38571757356542352 0 0.039291666751458072 -0.38953557003537942 0 0.043890455581289831 -0.3709268115488259 0 0.030780854092194759 -0.38031894893150719 0 0.043890455581289831 -0.3709268115488259 0 0.030780854092194759 -0.38031894893150719 0 0.0132535835722172 -0.37610527220974688 0 0.01539336784167648 -0.38897364439718468 0 0.039291666751458072 -0.38953557003537942 0 0.030780854092194759 -0.38031894893150719 0 0.01539336784167648 -0.38897364439718468 0 0.030780854092194759 -0.38031894893150719 0 0.0132535835722172 -0.37610527220974688 0 0.022072978528308879 -0.36937310690127451 0 -0.0078283346885702904 -0.37476262999778609 0 -0.0023576536845698339 -0.39611583857600319 0 0.01539336784167648 -0.38897364439718468 0 -0.0078283346885702904 -0.37476262999778609 0 0.01539336784167648 -0.38897364439718468 0 -0.0078283346885702904 -0.37476262999778609 0 0.0132535835722172 -0.37610527220974688 0 0.01539336784167648 -0.38897364439718468 0 -0.0023576536845698339 -0.39611583857600319 0 -0.0081630895937607941 -0.41129335178386173 0 0.01158543002224671 -0.40754374071996963 0 -0.0023576536845698339 -0.39611583857600319 0 0.01539336784167648 -0.38897364439718468 0 0.01158543002224671 -0.40754374071996963 0 0.03861507037192409 -0.403184658796582 0 0.039291666751458072 -0.38953557003537942 0 0.01539336784167648 -0.38897364439718468 0 0.03861507037192409 -0.403184658796582 0 0.01539336784167648 -0.38897364439718468 0 0.026736383496206509 -0.41290648431754168 0 0.01539336784167648 -0.38897364439718468 0 0.026736383496206509 -0.41290648431754168 0 0.01158543002224671 -0.40754374071996963 0 0.03861507037192409 -0.403184658796582 0 0.01539336784167648 -0.38897364439718468 0 0.026736383496206509 -0.41290648431754168 0 0.01158543002224671 -0.40754374071996963 0 0.01747615232015888 -0.42514842909431222 0 0.026736383496206509 -0.41290648431754168 0 0.01747615232015888 -0.42514842909431222 0 0.02768083642208749 -0.42593076319487821 0 0.01158543002224671 -0.40754374071996963 0 0.0026957591361241309 -0.41958824334712869 0 0.01747615232015888 -0.42514842909431222 0 -0.0081630895937607941 -0.41129335178386173 0 0.01158543002224671 -0.40754374071996963 0 0.0026957591361241309 -0.41958824334712869 0 0.0026957591361241309 -0.41958824334712869 0 0.003851027954898749 -0.43172418954792041 0 0.01747615232015888 -0.42514842909431222 0 0.003851027954898749 -0.43172418954792041 0 0.01410030331848921 -0.43483725365991388 0 0.01747615232015888 -0.42514842909431222 0 0.003851027954898749 -0.43172418954792041 0 0.01410030331848921 -0.43483725365991388 0 0.011432193992105429 -0.44462200732167467 0 0.01747615232015888 -0.42514842909431222 0 0.023728282280598981 -0.43798020184644493 0 0.01410030331848921 -0.43483725365991388 0 0.01747615232015888 -0.42514842909431222 0 0.023728282280598981 -0.43798020184644493 0 0.01747615232015888 -0.42514842909431222 0 0.02768083642208749 -0.42593076319487821 0 0.023728282280598981 -0.43798020184644493 0 0.026736383496206509 -0.41290648431754168 0 0.02768083642208749 -0.42593076319487821 0 0.042782527591385587 -0.42768793752121392 0 0.042782527591385587 -0.42768793752121392 0 0.023728282280598981 -0.43798020184644493 0 0.02768083642208749 -0.42593076319487821 0 0.042782527591385587 -0.42768793752121392 0 0.023728282280598981 -0.43798020184644493 0 0.042782527591385587 -0.42768793752121392 0 0.038339333849137569 -0.44224603439757942 0 0.023728282280598981 -0.43798020184644493 0 0.03861507037192409 -0.403184658796582 0 0.026736383496206509 -0.41290648431754168 0 0.042782527591385587 -0.42768793752121392 0 0.03861507037192409 -0.403184658796582 0 0.042782527591385587 -0.42768793752121392 0 0.061836772902171017 -0.41739567319598042 0 0.03861507037192409 -0.403184658796582 0 0.061836772902171017 -0.41739567319598042 0 0.058427186835583247 -0.40050833558202109 0 0.03861507037192409 -0.403184658796582 0 0.061836772902171017 -0.41739567319598042 0 0.042782527591385587 -0.42768793752121392 0 0.061836772902171017 -0.41739567319598042 0 0.061221704008603092 -0.43412854505433712 0 0.042782527591385587 -0.42768793752121392 0 0.061836772902171017 -0.41739567319598042 0 0.042782527591385587 -0.42768793752121392 0 0.061221704008603092 -0.43412854505433712 0 0.052693917870023622 -0.44730825455084611 0 0.064267892493667544 -0.45245405090636609 0 0.061221704008603092 -0.43412854505433712 0 0.052693917870023622 -0.44730825455084611 0 0.069113753880103546 -0.47032146630200872 0 0.064267892493667544 -0.45245405090636609 0 0.052594011880735161 -0.46258963849414558 0 0.064267892493667544 -0.45245405090636609 0 0.052693917870023622 -0.44730825455084611 0 0.052594011880735161 -0.46258963849414558 0 0.033446276913734967 -0.45792526049492271 0 0.024747075647264399 -0.46972246297684461 0 0.043164271546872197 -0.4778703191434 0 0.052693917870023622 -0.44730825455084611 0 0.052594011880735161 -0.46258963849414558 0 0.033446276913734967 -0.45792526049492271 0 0.052594011880735161 -0.46258963849414558 0 0.033446276913734967 -0.45792526049492271 0 0.043164271546872197 -0.4778703191434 0 0.033446276913734967 -0.45792526049492271 0 0.043164271546872197 -0.4778703191434 0 0.042782527591385587 -0.42768793752121392 0 0.052693917870023622 -0.44730825455084611 0 0.038339333849137569 -0.44224603439757942 0 0.033446276913734967 -0.45792526049492271 0 0.038339333849137569 -0.44224603439757942 0 0.023728282280598981 -0.43798020184644493 0 0.052693917870023622 -0.44730825455084611 0 0.033446276913734967 -0.45792526049492271 0 0.038339333849137569 -0.44224603439757942 0 0.023728282280598981 -0.43798020184644493 0 0.011432193992105429 -0.44462200732167467 0 0.01779212199045099 -0.45571080357091009 0 0.033446276913734967 -0.45792526049492271 0 0.023728282280598981 -0.43798020184644493 0 0.033446276913734967 -0.45792526049492271 0 0.023728282280598981 -0.43798020184644493 0 0.01779212199045099 -0.45571080357091009 0 0.023728282280598981 -0.43798020184644493 0 0.011432193992105429 -0.44462200732167467 0 0.01410030331848921 -0.43483725365991388 0 0.023728282280598981 -0.43798020184644493 0 0.011432193992105429 -0.44462200732167467 0 -0.01027783979290609 -0.4450418277695869 0 0.011432193992105429 -0.44462200732167467 0 0.0031349746952128348 -0.45732154608844711 0 -0.01027783979290609 -0.4450418277695869 0 0.003851027954898749 -0.43172418954792041 0 0.011432193992105429 -0.44462200732167467 0 0.011432193992105429 -0.44462200732167467 0 0.0031349746952128348 -0.45732154608844711 0 0.01779212199045099 -0.45571080357091009 0 -0.00094907817261298132 -0.47112804672216879 0 0.0031349746952128348 -0.45732154608844711 0 0.01026392841378935 -0.46669334269712659 0 0.0031349746952128348 -0.45732154608844711 0 0.01026392841378935 -0.46669334269712659 0 0.01779212199045099 -0.45571080357091009 0 0.01026392841378935 -0.46669334269712659 0 0.01779212199045099 -0.45571080357091009 0 0.024747075647264399 -0.46972246297684461 0 0.033446276913734967 -0.45792526049492271 0 0.01779212199045099 -0.45571080357091009 0 0.024747075647264399 -0.46972246297684461 0 0.024747075647264399 -0.46972246297684461 0 0.019392481307258409 -0.48478566889839131 0 0.043164271546872197 -0.4778703191434 0 0.01026392841378935 -0.46669334269712659 0 0.024747075647264399 -0.46972246297684461 0 0.019392481307258409 -0.48478566889839131 0 0.01026392841378935 -0.46669334269712659 0 0.0053352152350804568 -0.4807791696356124 0 0.019392481307258409 -0.48478566889839131 0 -0.0043176495648967151 -0.48070428616945038 0 -0.00094907817261298132 -0.47112804672216879 0 0.0053352152350804568 -0.4807791696356124 0 -0.00094907817261298132 -0.47112804672216879 0 0.01026392841378935 -0.46669334269712659 0 0.0053352152350804568 -0.4807791696356124 0 -0.0023310323066341181 -0.5 0 -0.0043793089323552817 -0.49170101865338262 0 0.019392481307258409 -0.48478566889839131 0 -0.0043793089323552817 -0.49170101865338262 0 0.019392481307258409 -0.48478566889839131 0 -0.0043793089323552817 -0.49170101865338262 0 0.0053352152350804568 -0.4807791696356124 0 0.019392481307258409 -0.48478566889839131 0 -0.0023310323066341181 -0.5 0 0.019392481307258409 -0.48478566889839131 0 0.026698753392940699 -0.5 0 0.019392481307258409 -0.48478566889839131 0 0.026698753392940699 -0.5 0 0.035353585390671842 -0.48974665193930511 0 0.035353585390671842 -0.48974665193930511 0 0.043164271546872197 -0.4778703191434 0 0.052158835315616027 -0.49633061971542908 0 0.026698753392940699 -0.5 0 0.055728539092515517 -0.5 0 0.052158835315616027 -0.49633061971542908 0 0.026698753392940699 -0.5 0 0.035353585390671842 -0.48974665193930511 0 0.052158835315616027 -0.49633061971542908 0 0.019392481307258409 -0.48478566889839131 0 0.035353585390671842 -0.48974665193930511 0 0.043164271546872197 -0.4778703191434 0 0.019392481307258409 -0.48478566889839131 0 0.043164271546872197 -0.4778703191434 0 0.069113753880103546 -0.47032146630200872 0 0.052594011880735161 -0.46258963849414558 0 0.043164271546872197 -0.4778703191434 0 0.069113753880103546 -0.47032146630200872 0 0.043164271546872197 -0.4778703191434 0 0.057596711449277201 -0.48334309492942701 0 0.069113753880103546 -0.47032146630200872 0 0.043164271546872197 -0.4778703191434 0 0.043164271546872197 -0.4778703191434 0 0.057596711449277201 -0.48334309492942701 0 0.052158835315616027 -0.49633061971542908 0 0.065949985054517032 -0.48884997455687013 0 0.057596711449277201 -0.48334309492942701 0 0.052158835315616027 -0.49633061971542908 0 0.043164271546872197 -0.4778703191434 0 0.052158835315616027 -0.49633061971542908 0 0.065949985054517032 -0.48884997455687013 0 0.055728539092515517 -0.5 0 0.052158835315616027 -0.49633061971542908 0 0.091646396761647708 -0.28947790237370968 0 0.07071546022358817 -0.28620470259943642 0 0.079999995207784586 -0.26983589460815821 0 0.091646396761647708 -0.28947790237370968 0 0.072783535289555654 -0.30157633939854622 0 0.07071546022358817 -0.28620470259943642 0 0.091646396761647708 -0.28947790237370968 0 0.087363613427391865 -0.30807629250996549 0 0.072783535289555654 -0.30157633939854622 0 0.072783535289555654 -0.30157633939854622 0 0.073259594084162577 -0.32259772896999273 0 0.056038135353808333 -0.31320409925325249 0 0.087363613427391865 -0.30807629250996549 0 0.072783535289555654 -0.30157633939854622 0 0.073259594084162577 -0.32259772896999273 0 0.072783535289555654 -0.30157633939854622 0 0.07071546022358817 -0.28620470259943642 0 0.04944647540011983 -0.29680206833493911 0 0.07071546022358817 -0.28620470259943642 0 0.079999995207784586 -0.26983589460815821 0 0.059700898458833078 -0.27333130828182889 0 0.06835359365392131 -0.25019388684260668 0 0.079999995207784586 -0.26983589460815821 0 0.08421140423371333 -0.243891226620808 0 0.06835359365392131 -0.25019388684260668 0 0.079999995207784586 -0.26983589460815821 0 0.06835359365392131 -0.25019388684260668 0 0.079999995207784586 -0.26983589460815821 0 0.059700898458833078 -0.27333130828182889 0 0.079999995207784586 -0.26983589460815821 0 0.097662046653794854 -0.25561444261418242 0 0.08421140423371333 -0.243891226620808 0 0.079999995207784586 -0.26983589460815821 0 0.1034904733698796 -0.27103876000237981 0 0.097662046653794854 -0.25561444261418242 0 0.091646396761647708 -0.28947790237370968 0 0.079999995207784586 -0.26983589460815821 0 0.091646396761647708 -0.28947790237370968 0 0.079999995207784586 -0.26983589460815821 0 0.1034904733698796 -0.27103876000237981 0 0.1034904733698796 -0.27103876000237981 0 0.097662046653794854 -0.25561444261418242 0 0.1147239364606354 -0.25215539330366038 0 0.13687529418603939 -0.26162068250561471 0 0.1147239364606354 -0.25215539330366038 0 0.1223190960555403 -0.2394332616338683 0 0.1034904733698796 -0.27103876000237981 0 0.1147239364606354 -0.25215539330366038 0 0.12122917553908071 -0.27280048239714111 0 0.13687529418603939 -0.26162068250561471 0 0.1147239364606354 -0.25215539330366038 0 0.12122917553908071 -0.27280048239714111 0 0.1034904733698796 -0.27103876000237981 0 0.12122917553908071 -0.27280048239714111 0 0.11361649143026541 -0.29050419490534962 0 0.13743968224858391 -0.28868338126870119 0 0.12122917553908071 -0.27280048239714111 0 0.11361649143026541 -0.29050419490534962 0 0.091646396761647708 -0.28947790237370968 0 0.11361649143026541 -0.29050419490534962 0 0.10329279831551071 -0.3091199101392611 0 0.091646396761647708 -0.28947790237370968 0 0.1034904733698796 -0.27103876000237981 0 0.11361649143026541 -0.29050419490534962 0 0.091646396761647708 -0.28947790237370968 0 0.10329279831551071 -0.3091199101392611 0 0.091646396761647708 -0.28947790237370968 0 0.087363613427391865 -0.30807629250996549 0 0.10329279831551071 -0.3091199101392611 0 0.11361649143026541 -0.29050419490534962 0 0.10329279831551071 -0.3091199101392611 0 0.1207194796176513 -0.31206082339016011 0 0.13743968224858391 -0.28868338126870119 0 0.11361649143026541 -0.29050419490534962 0 0.1207194796176513 -0.31206082339016011 0 0.10329279831551071 -0.3091199101392611 0 0.11030782598785099 -0.32334328523235578 0 0.1149391998693738 -0.32876191790481257 0 0.10329279831551071 -0.3091199101392611 0 0.1207194796176513 -0.31206082339016011 0 0.1149391998693738 -0.32876191790481257 0 0.127277047630593 -0.32368123984794023 0 0.1207194796176513 -0.31206082339016011 0 0.1149391998693738 -0.32876191790481257 0 0.1252730154641265 -0.33501756179834041 0 0.127277047630593 -0.32368123984794023 0 0.1149391998693738 -0.32876191790481257 0 0.11030782598785099 -0.32334328523235578 0 0.1149391998693738 -0.32876191790481257 0 0.1071562875265276 -0.34088406714172798 0 0.1252730154641265 -0.33501756179834041 0 0.1149391998693738 -0.32876191790481257 0 0.1203073559828662 -0.34481831064573482 0 0.1149391998693738 -0.32876191790481257 0 0.1071562875265276 -0.34088406714172798 0 0.1203073559828662 -0.34481831064573482 0 0.11030782598785099 -0.32334328523235578 0 0.1071562875265276 -0.34088406714172798 0 0.088168702518997374 -0.33920446067117932 0 0.11030782598785099 -0.32334328523235578 0 0.088168702518997374 -0.33920446067117932 0 0.11030782598785099 -0.32334328523235578 0 0.092685396428672781 -0.32103820683708328 0 0.088168702518997374 -0.33920446067117932 0 0.10329279831551071 -0.3091199101392611 0 0.11030782598785099 -0.32334328523235578 0 0.092685396428672781 -0.32103820683708328 0 0.087363613427391865 -0.30807629250996549 0 0.10329279831551071 -0.3091199101392611 0 0.092685396428672781 -0.32103820683708328 0 0.10329279831551071 -0.3091199101392611 0 0.1149391998693738 -0.32876191790481257 0 0.1245186505824013 -0.36113750934922573 0 0.111761677400382 -0.35565256239397869 0 0.1080928822255358 -0.3703790814713866 0 0.12672469353237761 -0.38193719477194499 0 0.1245186505824013 -0.36113750934922573 0 0.1080928822255358 -0.3703790814713866 0 0.1245186505824013 -0.36113750934922573 0 0.111761677400382 -0.35565256239397869 0 0.1203073559828662 -0.34481831064573482 0 0.1071562875265276 -0.34088406714172798 0 0.111761677400382 -0.35565256239397869 0 0.1203073559828662 -0.34481831064573482 0 0.1071562875265276 -0.34088406714172798 0 0.09828664694928807 -0.35383226801130691 0 0.088168702518997374 -0.33920446067117932 0 0.1071562875265276 -0.34088406714172798 0 0.111761677400382 -0.35565256239397869 0 0.09828664694928807 -0.35383226801130691 0 0.097085641119374302 -0.38571424072610178 0 0.1080928822255358 -0.3703790814713866 0 0.085574671404253372 -0.36606529366265911 0 0.111761677400382 -0.35565256239397869 0 0.09828664694928807 -0.35383226801130691 0 0.1080928822255358 -0.3703790814713866 0 0.09828664694928807 -0.35383226801130691 0 0.1080928822255358 -0.3703790814713866 0 0.085574671404253372 -0.36606529366265911 0 0.085574671404253372 -0.36606529366265911 0 0.066029579050143783 -0.35506563611000291 0 0.088168702518997374 -0.33920446067117932 0 0.09828664694928807 -0.35383226801130691 0 0.085574671404253372 -0.36606529366265911 0 0.088168702518997374 -0.33920446067117932 0 0.066029579050143783 -0.35506563611000291 0 0.088168702518997374 -0.33920446067117932 0 0.064781398010314309 -0.37536455347105108 0 0.085574671404253372 -0.36606529366265911 0 0.066029579050143783 -0.35506563611000291 0 0.066029579050143783 -0.35506563611000291 0 0.088168702518997374 -0.33920446067117932 0 0.073259594084162577 -0.32259772896999273 0 0.066029579050143783 -0.35506563611000291 0 0.073259594084162577 -0.32259772896999273 0 0.048222299164917798 -0.333319266554439 0 0.092685396428672781 -0.32103820683708328 0 0.088168702518997374 -0.33920446067117932 0 0.073259594084162577 -0.32259772896999273 0 0.087363613427391865 -0.30807629250996549 0 0.092685396428672781 -0.32103820683708328 0 0.073259594084162577 -0.32259772896999273 0 0.073259594084162577 -0.32259772896999273 0 0.056038135353808333 -0.31320409925325249 0 0.048222299164917798 -0.333319266554439 0 0.056038135353808333 -0.31320409925325249 0 0.048222299164917798 -0.333319266554439 0 0.036478772830285791 -0.31172509300834528 0 0.048222299164917798 -0.333319266554439 0 0.033610930591278822 -0.35000849021355163 0 0.023331405601267931 -0.32909016887827719 0 0.048222299164917798 -0.333319266554439 0 0.023331405601267931 -0.32909016887827719 0 0.036478772830285791 -0.31172509300834528 0 0.066029579050143783 -0.35506563611000291 0 0.048355778033110031 -0.35315995845717169 0 0.043890455581289831 -0.3709268115488259 0 0.066029579050143783 -0.35506563611000291 0 0.043890455581289831 -0.3709268115488259 0 0.064781398010314309 -0.37536455347105108 0 0.066029579050143783 -0.35506563611000291 0 0.043890455581289831 -0.3709268115488259 0 0.066029579050143783 -0.35506563611000291 0 0.048222299164917798 -0.333319266554439 0 0.048355778033110031 -0.35315995845717169 0 0.048222299164917798 -0.333319266554439 0 0.048355778033110031 -0.35315995845717169 0 0.033610930591278822 -0.35000849021355163 0 0.048355778033110031 -0.35315995845717169 0 0.033610930591278822 -0.35000849021355163 0 0.043890455581289831 -0.3709268115488259 0 0.033610930591278822 -0.35000849021355163 0 0.03286340713970079 -0.36889202113574671 0 0.043890455581289831 -0.3709268115488259 0 0.033610930591278822 -0.35000849021355163 0 0.043890455581289831 -0.3709268115488259 0 0.030780854092194759 -0.38031894893150719 0 0.03286340713970079 -0.36889202113574671 0 0.043890455581289831 -0.3709268115488259 0 0.033610930591278822 -0.35000849021355163 0 0.03286340713970079 -0.36889202113574671 0 0.022072978528308879 -0.36937310690127451 0 0.030780854092194759 -0.38031894893150719 0 0.03286340713970079 -0.36889202113574671 0 0.022072978528308879 -0.36937310690127451 0 0.033610930591278822 -0.35000849021355163 0 0.022072978528308879 -0.36937310690127451 0 0.014393680356963701 -0.35536411395587292 0 0.033610930591278822 -0.35000849021355163 0 0.014393680356963701 -0.35536411395587292 0 0.0105762414372169 -0.3395135522035268 0 -0.00014080085946228561 -0.35082738964002957 0 0.014393680356963701 -0.35536411395587292 0 0.0105762414372169 -0.3395135522035268 0 -0.00014080085946228561 -0.35082738964002957 0 0.014393680356963701 -0.35536411395587292 0 0.0058490520874761691 -0.36709803082098191 0 0.022072978528308879 -0.36937310690127451 0 0.014393680356963701 -0.35536411395587292 0 0.0058490520874761691 -0.36709803082098191 0 0.022072978528308879 -0.36937310690127451 0 0.0058490520874761691 -0.36709803082098191 0 0.0132535835722172 -0.37610527220974688 0 0.022072978528308879 -0.36937310690127451 0 0.0058490520874761691 -0.36709803082098191 0 -0.0078283346885702904 -0.37476262999778609 0 0.0132535835722172 -0.37610527220974688 0 0.0058490520874761691 -0.36709803082098191 0 0.023331405601267931 -0.32909016887827719 0 0.013051880611257029 -0.30817184754300292 0 0.023331405601267931 -0.32909016887827719 0 0.013051880611257029 -0.30817184754300292 0 0.036478772830285791 -0.31172509300834528 0 0.033610930591278822 -0.35000849021355163 0 0.023331405601267931 -0.32909016887827719 0 0.0105762414372169 -0.3395135522035268 0 0.033610930591278822 -0.35000849021355163 0 0.023331405601267931 -0.32909016887827719 0 0.023331405601267931 -0.32909016887827719 0 0.0105762414372169 -0.3395135522035268 0 3.5896068887442723e-05 -0.32803491845883598 0 -0.00014080085946228561 -0.35082738964002957 0 0.0105762414372169 -0.3395135522035268 0 3.5896068887442723e-05 -0.32803491845883598 0 -0.0063780240591087903 -0.31078717533589839 0 3.5896068887442723e-05 -0.32803491845883598 0 0.013051880611257029 -0.30817184754300292 0 0.023331405601267931 -0.32909016887827719 0 3.5896068887442723e-05 -0.32803491845883598 0 0.013051880611257029 -0.30817184754300292 0 0.013051880611257029 -0.30817184754300292 0 0.0027723556212477219 -0.28725352620772771 0 0.0027723556212477219 -0.28725352620772771 0 0.026109415510684009 -0.29202779727133188 0 -0.0017476628817073611 -0.27805551369469472 0 0.0027723556212477219 -0.28725352620772771 0 0.01602201902671789 -0.28191194131808539 0 0.013051880611257029 -0.30817184754300292 0 0.0027723556212477219 -0.28725352620772771 0 0.026109415510684009 -0.29202779727133188 0 0.0027723556212477219 -0.28725352620772771 0 0.026109415510684009 -0.29202779727133188 0 0.01602201902671789 -0.28191194131808539 0 -0.0074917523477661804 -0.29461577546968681 0 0.013051880611257029 -0.30817184754300292 0 0.0027723556212477219 -0.28725352620772771 0 -0.0017476628817073611 -0.27805551369469472 0 0.0027723556212477219 -0.28725352620772771 0 0.026109415510684009 -0.29202779727133188 0 0.01602201902671789 -0.28191194131808539 0 0.036314123194761641 -0.27872041929058161 0 0.013051880611257029 -0.30817184754300292 0 0.026109415510684009 -0.29202779727133188 0 0.036478772830285791 -0.31172509300834528 0 0.026109415510684009 -0.29202779727133188 0 0.036478772830285791 -0.31172509300834528 0 0.04944647540011983 -0.29680206833493911 0 0.026109415510684009 -0.29202779727133188 0 0.04944647540011983 -0.29680206833493911 0 0.036314123194761641 -0.27872041929058161 0 0.026109415510684009 -0.29202779727133188 0 0.04944647540011983 -0.29680206833493911 0 0.04944647540011983 -0.29680206833493911 0 0.059700898458833078 -0.27333130828182889 0 0.036314123194761641 -0.27872041929058161 0 0.07071546022358817 -0.28620470259943642 0 0.04944647540011983 -0.29680206833493911 0 0.059700898458833078 -0.27333130828182889 0 0.072783535289555654 -0.30157633939854622 0 0.04944647540011983 -0.29680206833493911 0 0.056038135353808333 -0.31320409925325249 0 0.036478772830285791 -0.31172509300834528 0 0.04944647540011983 -0.29680206833493911 0 0.072783535289555654 -0.30157633939854622 0 0.056038135353808333 -0.31320409925325249 0 0.04944647540011983 -0.29680206833493911 0 0.06835359365392131 -0.25019388684260668 0 0.044986508142045613 -0.25948109579330381 0 0.047362788675733028 -0.24199119006041811 0 0.06835359365392131 -0.25019388684260668 0 0.059700898458833078 -0.27333130828182889 0 0.044986508142045613 -0.25948109579330381 0 0.06835359365392131 -0.25019388684260668 0 0.044986508142045613 -0.25948109579330381 0 0.059700898458833078 -0.27333130828182889 0 0.036314123194761641 -0.27872041929058161 0 0.044986508142045613 -0.25948109579330381 0 0.036314123194761641 -0.27872041929058161 0 0.044986508142045613 -0.25948109579330381 0 0.02161942263016943 -0.26876830474400021 0 0.044986508142045613 -0.25948109579330381 0 0.02161942263016943 -0.26876830474400021 0 0.044986508142045613 -0.25948109579330381 0 0.029973277209287209 -0.25054958921230208 0 0.02161942263016943 -0.26876830474400021 0 0.044986508142045613 -0.25948109579330381 0 0.029973277209287209 -0.25054958921230208 0 0.047362788675733028 -0.24199119006041811 0 0.029973277209287209 -0.25054958921230208 0 0.015960739131678031 -0.25406337006458851 0 0.02161942263016943 -0.26876830474400021 0 0.01602201902671789 -0.28191194131808539 0 0.036314123194761641 -0.27872041929058161 0 0.02161942263016943 -0.26876830474400021 0 -0.0017476628817073611 -0.27805551369469472 0 0.01602201902671789 -0.28191194131808539 0 0.02161942263016943 -0.26876830474400021 0 -0.0017476628817073611 -0.27805551369469472 0 0.02161942263016943 -0.26876830474400021 0 -0.0017476628817073611 -0.27805551369469472 0 0.02161942263016943 -0.26876830474400021 0 0.0057386521092319797 -0.26220041049146298 0 0.015960739131678031 -0.25406337006458851 0 0.02161942263016943 -0.26876830474400021 0 0.0057386521092319797 -0.26220041049146298 0 0.015960739131678031 -0.25406337006458851 0 0.0057386521092319797 -0.26220041049146298 0 0.0025328853753160741 -0.24958102673793139 0 0.0010854142569982001 -0.23807309260292489 0 0.010575476039053681 -0.22730954243123891 0 0.017210747296828609 -0.24036453645492739 0 0.0010854142569982001 -0.23807309260292489 0 0.0025328853753160741 -0.24958102673793139 0 0.017210747296828609 -0.24036453645492739 0 0.015960739131678031 -0.25406337006458851 0 0.0025328853753160741 -0.24958102673793139 0 0.017210747296828609 -0.24036453645492739 0 -0.0061584899570064598 -0.22962027277065361 0 0.0010854142569982001 -0.23807309260292489 0 0.010575476039053681 -0.22730954243123891 0 -0.0061584899570064598 -0.22962027277065361 0 0.010575476039053681 -0.22730954243123891 0 0.0064165675551885711 -0.21575046092143421 0 -0.0061584899570064598 -0.22962027277065361 0 0.0064165675551885711 -0.21575046092143421 0 0.010575476039053681 -0.22730954243123891 0 0.0064165675551885711 -0.21575046092143421 0 0.021509429760601551 -0.21557394742371069 0 0.010575476039053681 -0.22730954243123891 0 0.0064165675551885711 -0.21575046092143421 0 0.010575476039053681 -0.22730954243123891 0 0.02225812238200572 -0.22838936745028471 0 0.017210747296828609 -0.24036453645492739 0 0.010575476039053681 -0.22730954243123891 0 0.02225812238200572 -0.22838936745028471 0 0.021509429760601551 -0.21557394742371069 0 0.02225812238200572 -0.22838936745028471 0 0.029479073121619459 -0.22118232130399371 0 0.021509429760601551 -0.21557394742371069 0 0.02225812238200572 -0.22838936745028471 0 0.029479073121619459 -0.22118232130399371 0 0.031866256870133697 -0.23515517363185631 0 0.029973277209287209 -0.25054958921230208 0 0.017210747296828609 -0.24036453645492739 0 0.031866256870133697 -0.23515517363185631 0 0.02225812238200572 -0.22838936745028471 0 0.017210747296828609 -0.24036453645492739 0 0.031866256870133697 -0.23515517363185631 0 0.029973277209287209 -0.25054958921230208 0 0.015960739131678031 -0.25406337006458851 0 0.017210747296828609 -0.24036453645492739 0 -0.0015622250741301779 -0.1935745667631632 0 0.01896638504685547 -0.20190848785827681 0 0.0091962193441852118 -0.18107109871456811 0 -0.0015622250741301779 -0.1935745667631632 0 0.0064165675551885711 -0.21575046092143421 0 0.01896638504685547 -0.20190848785827681 0 -0.0015622250741301779 -0.1935745667631632 0 0.0064165675551885711 -0.21575046092143421 0 0.0064165675551885711 -0.21575046092143421 0 0.01896638504685547 -0.20190848785827681 0 0.0064165675551885711 -0.21575046092143421 0 0.021509429760601551 -0.21557394742371069 0 0.01896638504685547 -0.20190848785827681 0 0.029479073121619459 -0.22118232130399371 0 0.021509429760601551 -0.21557394742371069 0 0.033558692489570878 -0.21195100443687931 0 0.021509429760601551 -0.21557394742371069 0 0.029251690937081031 -0.20258635003767089 0 0.033558692489570878 -0.21195100443687931 0 0.021509429760601551 -0.21557394742371069 0 0.01896638504685547 -0.20190848785827681 0 0.029251690937081031 -0.20258635003767089 0 0.01896638504685547 -0.20190848785827681 0 0.031516202538524517 -0.1880665147951214 0 0.0091962193441852118 -0.18107109871456811 0 0.01896638504685547 -0.20190848785827681 0 0.029251690937081031 -0.20258635003767089 0 0.031516202538524517 -0.1880665147951214 0 0.01896638504685547 -0.20190848785827681 0 0.031516202538524517 -0.1880665147951214 0 0.043838458457815248 -0.18986676967386279 0 0.039506267971797952 -0.20154200132731501 0 0.055741541871671067 -0.19352675789948551 0 0.043838458457815248 -0.18986676967386279 0 0.031516202538524517 -0.1880665147951214 0 0.039506267971797952 -0.20154200132731501 0 0.031516202538524517 -0.1880665147951214 0 0.039506267971797952 -0.20154200132731501 0 0.029251690937081031 -0.20258635003767089 0 0.031516202538524517 -0.1880665147951214 0 0.039506267971797952 -0.20154200132731501 0 0.039506267971797952 -0.20154200132731501 0 0.033558692489570878 -0.21195100443687931 0 0.047496333405074677 -0.2150174878595065 0 0.039506267971797952 -0.20154200132731501 0 0.047496333405074677 -0.2150174878595065 0 0.029251690937081031 -0.20258635003767089 0 0.039506267971797952 -0.20154200132731501 0 0.033558692489570878 -0.21195100443687931 0 0.033558692489570878 -0.21195100443687931 0 0.047496333405074677 -0.2150174878595065 0 0.033558692489570878 -0.21195100443687931 0 0.047496333405074677 -0.2150174878595065 0 0.039554961726260877 -0.22474601638733641 0 0.039506267971797952 -0.20154200132731501 0 0.047496333405074677 -0.2150174878595065 0 0.05523956109653505 -0.20714630445374671 0 0.047496333405074677 -0.2150174878595065 0 0.05523956109653505 -0.20714630445374671 0 0.064206587222380762 -0.21869398638814641 0 0.047496333405074677 -0.2150174878595065 0 0.064206587222380762 -0.21869398638814641 0 0.039506267971797952 -0.20154200132731501 0 0.05523956109653505 -0.20714630445374671 0 0.055741541871671067 -0.19352675789948551 0 0.05523956109653505 -0.20714630445374671 0 0.055741541871671067 -0.19352675789948551 0 0.069247075011750078 -0.20695128879428309 0 0.055741541871671067 -0.19352675789948551 0 0.069247075011750078 -0.20695128879428309 0 0.029973277209287209 -0.25054958921230208 0 0.031866256870133697 -0.23515517363185631 0 0.047362788675733028 -0.24199119006041811 0 0.031866256870133697 -0.23515517363185631 0 0.039554961726260877 -0.22474601638733641 0 0.047362788675733028 -0.24199119006041811 0 0.029479073121619459 -0.22118232130399371 0 0.031866256870133697 -0.23515517363185631 0 0.039554961726260877 -0.22474601638733641 0 0.029479073121619459 -0.22118232130399371 0 0.033558692489570878 -0.21195100443687931 0 0.039554961726260877 -0.22474601638733641 0 0.047496333405074677 -0.2150174878595065 0 0.05536207860111314 -0.2282833045590259 0 0.064206587222380762 -0.21869398638814641 0 0.05536207860111314 -0.2282833045590259 0 0.063311866646695691 -0.24149928944984211 0 0.064206587222380762 -0.21869398638814641 0 0.039554961726260877 -0.22474601638733641 0 0.05536207860111314 -0.2282833045590259 0 0.047362788675733028 -0.24199119006041811 0 0.047496333405074677 -0.2150174878595065 0 0.039554961726260877 -0.22474601638733641 0 0.05536207860111314 -0.2282833045590259 0 0.047496333405074677 -0.2150174878595065 0 0.05536207860111314 -0.2282833045590259 0 0.05536207860111314 -0.2282833045590259 0 0.063311866646695691 -0.24149928944984211 0 0.06835359365392131 -0.25019388684260668 0 0.047362788675733028 -0.24199119006041811 0 0.063311866646695691 -0.24149928944984211 0 0.05536207860111314 -0.2282833045590259 0 0.047362788675733028 -0.24199119006041811 0 0.063311866646695691 -0.24149928944984211 0 0.06835359365392131 -0.25019388684260668 0 0.08421140423371333 -0.243891226620808 0 0.06835359365392131 -0.25019388684260668 0 0.063311866646695691 -0.24149928944984211 0 0.063311866646695691 -0.24149928944984211 0 0.074219814037010917 -0.24224782663387789 0 0.081086434463253185 -0.23335707181355411 0 0.06835359365392131 -0.25019388684260668 0 0.063311866646695691 -0.24149928944984211 0 0.074219814037010917 -0.24224782663387789 0 0.06835359365392131 -0.25019388684260668 0 0.074219814037010917 -0.24224782663387789 0 0.08421140423371333 -0.243891226620808 0 0.08421140423371333 -0.243891226620808 0 0.081086434463253185 -0.23335707181355411 0 0.10006921481350529 -0.2375885663990091 0 0.08421140423371333 -0.243891226620808 0 0.10006921481350529 -0.2375885663990091 0 0.074219814037010917 -0.24224782663387789 0 0.08421140423371333 -0.243891226620808 0 0.081086434463253185 -0.23335707181355411 0 0.081086434463253185 -0.23335707181355411 0 0.085851572697872774 -0.2234561975504171 0 0.10006921481350529 -0.2375885663990091 0 0.085851572697872774 -0.2234561975504171 0 0.08275260815182911 -0.2203758196890806 0 0.098293187803831117 -0.21887499219370271 0 0.085851572697872774 -0.2234561975504171 0 0.10006921481350529 -0.2375885663990091 0 0.081086434463253185 -0.23335707181355411 0 0.085851572697872774 -0.2234561975504171 0 0.080916841039686133 -0.2223704849167896 0 0.085851572697872774 -0.2234561975504171 0 0.080916841039686133 -0.2223704849167896 0 0.085851572697872774 -0.2234561975504171 0 0.08275260815182911 -0.2203758196890806 0 0.080916841039686133 -0.2223704849167896 0 0.085851572697872774 -0.2234561975504171 0 0.08275260815182911 -0.2203758196890806 0 0.08275260815182911 -0.2203758196890806 0 0.080916841039686133 -0.2223704849167896 0 0.063311866646695691 -0.24149928944984211 0 0.080916841039686133 -0.2223704849167896 0 0.063311866646695691 -0.24149928944984211 0 0.080916841039686133 -0.2223704849167896 0 0.064206587222380762 -0.21869398638814641 0 0.080916841039686133 -0.2223704849167896 0 0.064206587222380762 -0.21869398638814641 0 0.063311866646695691 -0.24149928944984211 0 0.081086434463253185 -0.23335707181355411 0 0.080916841039686133 -0.2223704849167896 0 0.080916841039686133 -0.2223704849167896 0 0.064206587222380762 -0.21869398638814641 0 0.069247075011750078 -0.20695128879428309 0 0.05523956109653505 -0.20714630445374671 0 0.064206587222380762 -0.21869398638814641 0 0.069247075011750078 -0.20695128879428309 0 0.08275260815182911 -0.2203758196890806 0 0.069247075011750078 -0.20695128879428309 0 0.08275260815182911 -0.2203758196890806 0 0.080916841039686133 -0.2223704849167896 0 0.069247075011750078 -0.20695128879428309 0 0.055741541871671067 -0.19352675789948551 0 0.069247075011750078 -0.20695128879428309 0 0.070887819862862286 -0.1914088031202833 0 0.069247075011750078 -0.20695128879428309 0 0.070887819862862286 -0.1914088031202833 0 0.082832551139222166 -0.19914513048671481 0 0.070887819862862286 -0.1914088031202833 0 0.082832551139222166 -0.19914513048671481 0 0.081821336385090343 -0.18186245165470949 0 0.082832551139222166 -0.19914513048671481 0 0.097084301305641635 -0.20480362112478781 0 0.095405874932467813 -0.18887779734800569 0 0.082832551139222166 -0.19914513048671481 0 0.095405874932467813 -0.18887779734800569 0 0.081821336385090343 -0.18186245165470949 0 0.08275260815182911 -0.2203758196890806 0 0.082832551139222166 -0.19914513048671481 0 0.097084301305641635 -0.20480362112478781 0 0.08275260815182911 -0.2203758196890806 0 0.069247075011750078 -0.20695128879428309 0 0.082832551139222166 -0.19914513048671481 0 0.08275260815182911 -0.2203758196890806 0 0.097084301305641635 -0.20480362112478781 0 0.098293187803831117 -0.21887499219370271 0 0.08275260815182911 -0.2203758196890806 0 0.097084301305641635 -0.20480362112478781 0 0.097084301305641635 -0.20480362112478781 0 0.1146962174531268 -0.21673223195775559 0 0.098293187803831117 -0.21887499219370271 0 0.097084301305641635 -0.20480362112478781 0 0.095405874932467813 -0.18887779734800569 0 0.11141599445945349 -0.1892314225604943 0 0.097084301305641635 -0.20480362112478781 0 0.11141599445945349 -0.1892314225604943 0 0.097084301305641635 -0.20480362112478781 0 0.1210323504124224 -0.2015702574875764 0 0.11141599445945349 -0.1892314225604943 0 0.1210323504124224 -0.2015702574875764 0 0.11141599445945349 -0.1892314225604943 0 0.13523084618428721 -0.18276855246186111 0 0.1210323504124224 -0.2015702574875764 0 0.1146962174531268 -0.21673223195775559 0 0.13583218450739579 -0.2116030352811932 0 0.097084301305641635 -0.20480362112478781 0 0.1210323504124224 -0.2015702574875764 0 0.1146962174531268 -0.21673223195775559 0 0.1110812394106853 -0.22900709064647229 0 0.12594488917549271 -0.2231145762792166 0 0.1363109061234978 -0.23455798374252809 0 0.1110812394106853 -0.22900709064647229 0 0.1223190960555403 -0.2394332616338683 0 0.1363109061234978 -0.23455798374252809 0 0.1110812394106853 -0.22900709064647229 0 0.1363109061234978 -0.23455798374252809 0 0.1146962174531268 -0.21673223195775559 0 0.1110812394106853 -0.22900709064647229 0 0.12594488917549271 -0.2231145762792166 0 0.1110812394106853 -0.22900709064647229 0 0.1223190960555403 -0.2394332616338683 0 0.1084330749156753 -0.23426436422737831 0 0.1147239364606354 -0.25215539330366038 0 0.1223190960555403 -0.2394332616338683 0 0.1084330749156753 -0.23426436422737831 0 0.097662046653794854 -0.25561444261418242 0 0.1147239364606354 -0.25215539330366038 0 0.10006921481350529 -0.2375885663990091 0 0.1147239364606354 -0.25215539330366038 0 0.10006921481350529 -0.2375885663990091 0 0.1084330749156753 -0.23426436422737831 0 0.097662046653794854 -0.25561444261418242 0 0.08421140423371333 -0.243891226620808 0 0.10006921481350529 -0.2375885663990091 0 0.10006921481350529 -0.2375885663990091 0 0.1084330749156753 -0.23426436422737831 0 0.1147239364606354 -0.25215539330366038 0 0.10006921481350529 -0.2375885663990091 0 0.085851572697872774 -0.2234561975504171 0 0.1110812394106853 -0.22900709064647229 0 0.1146962174531268 -0.21673223195775559 0 0.1110812394106853 -0.22900709064647229 0 0.098293187803831117 -0.21887499219370271 0 0.085851572697872774 -0.2234561975504171 0 0.1110812394106853 -0.22900709064647229 0 0.098293187803831117 -0.21887499219370271 0 0.085851572697872774 -0.2234561975504171 0 0.1110812394106853 -0.22900709064647229 0 0.10006921481350529 -0.2375885663990091 0 0.1110812394106853 -0.22900709064647229 0 0.10006921481350529 -0.2375885663990091 0 0.1084330749156753 -0.23426436422737831 0 0.1040552578412003 -0.15282191894301261 0 0.1005807427949069 -0.13366374688330029 0 0.11727103389215909 -0.1361484369810822 0 0.1005807427949069 -0.13366374688330029 0 0.11727103389215909 -0.1361484369810822 0 0.1051359327507693 -0.1227177542784853 0 0.1040552578412003 -0.15282191894301261 0 0.1005807427949069 -0.13366374688330029 0 0.082362828069140165 -0.1319846138898183 0 0.11727103389215909 -0.1361484369810822 0 0.1154331983948798 -0.1174886032934183 0 0.13404900744611239 -0.12609877526333699 0 0.11727103389215909 -0.1361484369810822 0 0.1051359327507693 -0.1227177542784853 0 0.1154331983948798 -0.1174886032934183 0 0.1040552578412003 -0.15282191894301261 0 0.11727103389215909 -0.1361484369810822 0 0.1232701832726428 -0.15427141090171109 0 0.11727103389215909 -0.1361484369810822 0 0.1232701832726428 -0.15427141090171109 0 0.13444198148756639 -0.1449420832838656 0 0.1040552578412003 -0.15282191894301261 0 0.12574768761326591 -0.17365922399620121 0 0.1040552578412003 -0.15282191894301261 0 0.1002282447692335 -0.17458527697826651 0 0.12574768761326591 -0.17365922399620121 0 0.1040552578412003 -0.15282191894301261 0 0.1232701832726428 -0.15427141090171109 0 0.12574768761326591 -0.17365922399620121 0 0.11141599445945349 -0.1892314225604943 0 0.1002282447692335 -0.17458527697826651 0 0.12574768761326591 -0.17365922399620121 0 0.11141599445945349 -0.1892314225604943 0 0.12574768761326591 -0.17365922399620121 0 0.13523084618428721 -0.18276855246186111 0 0.11141599445945349 -0.1892314225604943 0 0.12574768761326591 -0.17365922399620121 0 0.095405874932467813 -0.18887779734800569 0 0.11141599445945349 -0.1892314225604943 0 0.1002282447692335 -0.17458527697826651 0 0.1040552578412003 -0.15282191894301261 0 0.1002282447692335 -0.17458527697826651 0 0.08311303581058499 -0.16124853818171381 0 0.095405874932467813 -0.18887779734800569 0 0.1002282447692335 -0.17458527697826651 0 0.081821336385090343 -0.18186245165470949 0 0.1002282447692335 -0.17458527697826651 0 0.08311303581058499 -0.16124853818171381 0 0.081821336385090343 -0.18186245165470949 0 0.08311303581058499 -0.16124853818171381 0 0.081821336385090343 -0.18186245165470949 0 0.066780308608768796 -0.17493307235476979 0 0.070887819862862286 -0.1914088031202833 0 0.081821336385090343 -0.18186245165470949 0 0.066780308608768796 -0.17493307235476979 0 0.055741541871671067 -0.19352675789948551 0 0.070887819862862286 -0.1914088031202833 0 0.066780308608768796 -0.17493307235476979 0 0.08311303581058499 -0.16124853818171381 0 0.066780308608768796 -0.17493307235476979 0 0.065413952892267702 -0.150678580858252 0 0.065413952892267702 -0.150678580858252 0 0.082362828069140165 -0.1319846138898183 0 0.08311303581058499 -0.16124853818171381 0 0.065413952892267702 -0.150678580858252 0 0.082362828069140165 -0.1319846138898183 0 0.1040552578412003 -0.15282191894301261 0 0.08311303581058499 -0.16124853818171381 0 0.082362828069140165 -0.1319846138898183 0 0.1040552578412003 -0.15282191894301261 0 0.082362828069140165 -0.1319846138898183 0 0.1005807427949069 -0.13366374688330029 0 0.082362828069140165 -0.1319846138898183 0 0.095577299328253623 -0.1174095529111252 0 0.082362828069140165 -0.1319846138898183 0 0.070308403876621794 -0.13238109852993221 0 0.069837722907261313 -0.1199532536492431 0 0.065413952892267702 -0.150678580858252 0 0.082362828069140165 -0.1319846138898183 0 0.070308403876621794 -0.13238109852993221 0 0.082362828069140165 -0.1319846138898183 0 0.069837722907261313 -0.1199532536492431 0 0.065413952892267702 -0.150678580858252 0 0.070308403876621794 -0.13238109852993221 0 0.06118566078759103 -0.13005342953014129 0 0.070308403876621794 -0.13238109852993221 0 0.06118566078759103 -0.13005342953014129 0 0.069837722907261313 -0.1199532536492431 0 0.065413952892267702 -0.150678580858252 0 0.06118566078759103 -0.13005342953014129 0 0.053245925046226952 -0.14076102386291889 0 0.06118566078759103 -0.13005342953014129 0 0.049352038069647858 -0.1295439288512826 0 0.048525659269531229 -0.11802361343548989 0 0.049352038069647858 -0.1295439288512826 0 0.053245925046226952 -0.14076102386291889 0 0.041700188437408421 -0.13409859591225329 0 0.06118566078759103 -0.13005342953014129 0 0.049352038069647858 -0.1295439288512826 0 0.053245925046226952 -0.14076102386291889 0 0.065413952892267702 -0.150678580858252 0 0.053245925046226952 -0.14076102386291889 0 0.048465077715394989 -0.16937254782668559 0 0.053245925046226952 -0.14076102386291889 0 0.040505841312838547 -0.14468304457988079 0 0.048465077715394989 -0.16937254782668559 0 0.040505841312838547 -0.14468304457988079 0 0.03393783807298914 -0.14093707321474161 0 0.030230252537669321 -0.1566253376229266 0 0.040505841312838547 -0.14468304457988079 0 0.030230252537669321 -0.1566253376229266 0 0.040505841312838547 -0.14468304457988079 0 0.03393783807298914 -0.14093707321474161 0 0.041700188437408421 -0.13409859591225329 0 0.03393783807298914 -0.14093707321474161 0 0.041700188437408421 -0.13409859591225329 0 0.024480650806643651 -0.1375151559245551 0 0.041700188437408421 -0.13409859591225329 0 0.042102756807481732 -0.1247829815156095 0 0.031290738437872938 -0.1201921761368282 0 0.049352038069647858 -0.1295439288512826 0 0.041700188437408421 -0.13409859591225329 0 0.042102756807481732 -0.1247829815156095 0 0.053245925046226952 -0.14076102386291889 0 0.040505841312838547 -0.14468304457988079 0 0.041700188437408421 -0.13409859591225329 0 0.055741541871671067 -0.19352675789948551 0 0.066780308608768796 -0.17493307235476979 0 0.048465077715394989 -0.16937254782668559 0 0.043838458457815248 -0.18986676967386279 0 0.055741541871671067 -0.19352675789948551 0 0.048465077715394989 -0.16937254782668559 0 0.066780308608768796 -0.17493307235476979 0 0.065413952892267702 -0.150678580858252 0 0.048465077715394989 -0.16937254782668559 0 0.065413952892267702 -0.150678580858252 0 0.048465077715394989 -0.16937254782668559 0 0.040505841312838547 -0.14468304457988079 0 0.048465077715394989 -0.16937254782668559 0 0.030230252537669321 -0.1566253376229266 0 0.048465077715394989 -0.16937254782668559 0 0.033338822752702377 -0.1705348433046637 0 0.030230252537669321 -0.1566253376229266 0 0.043838458457815248 -0.18986676967386279 0 0.031516202538524517 -0.1880665147951214 0 0.048465077715394989 -0.16937254782668559 0 0.031516202538524517 -0.1880665147951214 0 0.048465077715394989 -0.16937254782668559 0 0.031516202538524517 -0.1880665147951214 0 0.048465077715394989 -0.16937254782668559 0 0.033338822752702377 -0.1705348433046637 0 0.031516202538524517 -0.1880665147951214 0 0.033338822752702377 -0.1705348433046637 0 0.01995466376250531 -0.16856763066597699 0 0.031516202538524517 -0.1880665147951214 0 0.01995466376250531 -0.16856763066597699 0 0.031516202538524517 -0.1880665147951214 0 0.01995466376250531 -0.16856763066597699 0 0.0091962193441852118 -0.18107109871456811 0 0.01995466376250531 -0.16856763066597699 0 0.030230252537669321 -0.1566253376229266 0 0.008868239412810253 -0.14987004135808221 0 0.033338822752702377 -0.1705348433046637 0 0.01995466376250531 -0.16856763066597699 0 0.030230252537669321 -0.1566253376229266 0 0.01995466376250531 -0.16856763066597699 0 0.030230252537669321 -0.1566253376229266 0 -0.0025999653858941639 -0.16131422913783491 0 0.0067086063528142403 -0.16809244781376179 0 0.008868239412810253 -0.14987004135808221 0 0.01995466376250531 -0.16856763066597699 0 0.008868239412810253 -0.14987004135808221 0 0.01995466376250531 -0.16856763066597699 0 0.0067086063528142403 -0.16809244781376179 0 0.008868239412810253 -0.14987004135808221 0 -0.0084927016390539001 -0.17431231470194719 0 0.0067086063528142403 -0.16809244781376179 0 0.0091962193441852118 -0.18107109871456811 0 0.01995466376250531 -0.16856763066597699 0 0.0091962193441852118 -0.18107109871456811 0 0.01995466376250531 -0.16856763066597699 0 0.0067086063528142403 -0.16809244781376179 0 0.0091962193441852118 -0.18107109871456811 0 -0.0015622250741301779 -0.1935745667631632 0 0.0091962193441852118 -0.18107109871456811 0 0.041700188437408421 -0.13409859591225329 0 0.014197789575412951 -0.12328672932727321 0 0.031290738437872938 -0.1201921761368282 0 0.041700188437408421 -0.13409859591225329 0 0.024480650806643651 -0.1375151559245551 0 0.014197789575412951 -0.12328672932727321 0 0.041700188437408421 -0.13409859591225329 0 0.014197789575412951 -0.12328672932727321 0 0.024480650806643651 -0.1375151559245551 0 0.011332123714495041 -0.13546109466502479 0 0.014197789575412951 -0.12328672932727321 0 0.03393783807298914 -0.14093707321474161 0 0.030230252537669321 -0.1566253376229266 0 0.024480650806643651 -0.1375151559245551 0 0.030230252537669321 -0.1566253376229266 0 0.024480650806643651 -0.1375151559245551 0 0.008868239412810253 -0.14987004135808221 0 0.024480650806643651 -0.1375151559245551 0 0.008868239412810253 -0.14987004135808221 0 0.011332123714495041 -0.13546109466502479 0 -0.00221818493688669 -0.13117245205018849 0 -0.0031786103040098569 -0.14705450477373769 0 0.008868239412810253 -0.14987004135808221 0 -0.0031786103040098569 -0.14705450477373769 0 -0.0025999653858941639 -0.16131422913783491 0 0.008868239412810253 -0.14987004135808221 0 -0.00221818493688669 -0.13117245205018849 0 0.008868239412810253 -0.14987004135808221 0 -0.00221818493688669 -0.13117245205018849 0 0.011332123714495041 -0.13546109466502479 0 0.014197789575412951 -0.12328672932727321 0 -0.00221818493688669 -0.13117245205018849 0 0.008868239412810253 -0.14987004135808221 0 0.011332123714495041 -0.13546109466502479 0 -0.013304609286582791 -0.1124748627422944 0 0.014197789575412951 -0.12328672932727321 0 0.014197789575412951 -0.12328672932727321 0 0.020945276257035669 -0.1055296092587116 0 0.0046245275045138064 -0.1076828264142336 0 -0.013304609286582791 -0.1124748627422944 0 0.014197789575412951 -0.12328672932727321 0 0.0046245275045138064 -0.1076828264142336 0 0.014197789575412951 -0.12328672932727321 0 0.020945276257035669 -0.1055296092587116 0 0.031290738437872938 -0.1201921761368282 0 0.020945276257035669 -0.1055296092587116 0 0.031290738437872938 -0.1201921761368282 0 0.040241467446851142 -0.1026788937802551 0 0.020945276257035669 -0.1055296092587116 0 0.028115865357471449 -0.087896533900266943 0 0.040241467446851142 -0.1026788937802551 0 0.020945276257035669 -0.1055296092587116 0 0.0072012692200917657 -0.09144049599341271 0 0.028115865357471449 -0.087896533900266943 0 -0.0070294542012635762 -0.10327829347153671 0 0.0046245275045138064 -0.1076828264142336 0 0.0072012692200917657 -0.09144049599341271 0 0.020945276257035669 -0.1055296092587116 0 0.0046245275045138064 -0.1076828264142336 0 0.0072012692200917657 -0.09144049599341271 0 0.0072012692200917657 -0.09144049599341271 0 0.0054575408194632406 -0.073720759659108445 0 0.018511759797904249 -0.077210571545524964 0 -0.0056293594721457006 -0.082036805430144924 0 0.0072012692200917657 -0.09144049599341271 0 0.0054575408194632406 -0.073720759659108445 0 0.0054575408194632406 -0.073720759659108445 0 0.018354718881549058 -0.065167425818499949 0 0.003426744450576454 -0.054815297075420773 0 -0.0072319765520409062 -0.068818796064575097 0 0.0054575408194632406 -0.073720759659108445 0 0.003426744450576454 -0.054815297075420773 0 0.0054575408194632406 -0.073720759659108445 0 0.018354718881549058 -0.065167425818499949 0 0.018511759797904249 -0.077210571545524964 0 0.018511759797904249 -0.077210571545524964 0 0.028115865357471449 -0.087896533900266943 0 0.033429404710945708 -0.067827642356336801 0 0.018354718881549058 -0.065167425818499949 0 0.018511759797904249 -0.077210571545524964 0 0.033429404710945708 -0.067827642356336801 0 0.0072012692200917657 -0.09144049599341271 0 0.018511759797904249 -0.077210571545524964 0 0.028115865357471449 -0.087896533900266943 0 0.028115865357471449 -0.087896533900266943 0 0.044094628308957058 -0.087651847290754856 0 0.040241467446851142 -0.1026788937802551 0 0.028115865357471449 -0.087896533900266943 0 0.044094628308957058 -0.087651847290754856 0 0.033429404710945708 -0.067827642356336801 0 0.044094628308957058 -0.087651847290754856 0 0.033429404710945708 -0.067827642356336801 0 0.052580487019044733 -0.06457445167855122 0 0.052580487019044733 -0.06457445167855122 0 0.057640786708643768 -0.07951032993234286 0 0.068682665651441266 -0.069637891440837665 0 0.044094628308957058 -0.087651847290754856 0 0.052580487019044733 -0.06457445167855122 0 0.057640786708643768 -0.07951032993234286 0 0.044094628308957058 -0.087651847290754856 0 0.057640786708643768 -0.07951032993234286 0 0.064045145718632748 -0.088800152685812248 0 0.056223070490067702 -0.1049071233711502 0 0.048525659269531229 -0.11802361343548989 0 0.040241467446851142 -0.1026788937802551 0 0.044094628308957058 -0.087651847290754856 0 0.056223070490067702 -0.1049071233711502 0 0.064045145718632748 -0.088800152685812248 0 0.06118566078759103 -0.13005342953014129 0 0.056223070490067702 -0.1049071233711502 0 0.048525659269531229 -0.11802361343548989 0 0.048525659269531229 -0.11802361343548989 0 0.042102756807481732 -0.1247829815156095 0 0.031290738437872938 -0.1201921761368282 0 0.048525659269531229 -0.11802361343548989 0 0.031290738437872938 -0.1201921761368282 0 0.040241467446851142 -0.1026788937802551 0 0.049352038069647858 -0.1295439288512826 0 0.048525659269531229 -0.11802361343548989 0 0.042102756807481732 -0.1247829815156095 0 0.044094628308957058 -0.087651847290754856 0 0.056223070490067702 -0.1049071233711502 0 0.040241467446851142 -0.1026788937802551 0 0.020415517075116841 0.0076517724901667356 0 0.020207185183206099 -0.010785841930981459 0 0.039787151186370009 -0.0039594854922263374 0 0.020207185183206099 -0.010785841930981459 0 0.0047038114401232534 -0.001040937293712483 0 0.0026421611525163911 -0.019923693291100199 0 0.020415517075116841 0.0076517724901667356 0 0.020207185183206099 -0.010785841930981459 0 0.0047038114401232534 -0.001040937293712483 0 0.020207185183206099 -0.010785841930981459 0 0.0026421611525163911 -0.019923693291100199 0 0.018057611388834851 -0.030223969914345401 0 0.0026421611525163911 -0.019923693291100199 0 0.018057611388834851 -0.030223969914345401 0 0.001114662024295677 -0.034644724797188199 0 0.018057611388834851 -0.030223969914345401 0 0.03214982838215158 -0.036550164909951742 0 0.03396684481877061 -0.021771474300517551 0 0.020207185183206099 -0.010785841930981459 0 0.018057611388834851 -0.030223969914345401 0 0.03396684481877061 -0.021771474300517551 0 0.018057611388834851 -0.030223969914345401 0 0.010882918392325341 -0.043546784918672053 0 0.022583515379492949 -0.04946345385366932 0 0.018057611388834851 -0.030223969914345401 0 0.022583515379492949 -0.04946345385366932 0 0.03214982838215158 -0.036550164909951742 0 0.010882918392325341 -0.043546784918672053 0 0.001114662024295677 -0.034644724797188199 0 0.003426744450576454 -0.054815297075420773 0 0.018057611388834851 -0.030223969914345401 0 0.010882918392325341 -0.043546784918672053 0 0.001114662024295677 -0.034644724797188199 0 0.018354718881549058 -0.065167425818499949 0 0.003426744450576454 -0.054815297075420773 0 0.022583515379492949 -0.04946345385366932 0 0.010882918392325341 -0.043546784918672053 0 0.003426744450576454 -0.054815297075420773 0 0.022583515379492949 -0.04946345385366932 0 0.018354718881549058 -0.065167425818499949 0 0.033429404710945708 -0.067827642356336801 0 0.022583515379492949 -0.04946345385366932 0 0.033429404710945708 -0.067827642356336801 0 0.022583515379492949 -0.04946345385366932 0 0.040434423972952403 -0.049093231793294147 0 0.033429404710945708 -0.067827642356336801 0 0.052580487019044733 -0.06457445167855122 0 0.040434423972952403 -0.049093231793294147 0 0.052580487019044733 -0.06457445167855122 0 0.040434423972952403 -0.049093231793294147 0 0.05544232884238081 -0.044875881875575382 0 0.052580487019044733 -0.06457445167855122 0 0.05544232884238081 -0.044875881875575382 0 0.068339170937992105 -0.053424337060716878 0 0.040434423972952403 -0.049093231793294147 0 0.05544232884238081 -0.044875881875575382 0 0.045706746350707102 -0.032198694687932281 0 0.05544232884238081 -0.044875881875575382 0 0.045706746350707102 -0.032198694687932281 0 0.061157621829282929 -0.025231604425866621 0 0.040434423972952403 -0.049093231793294147 0 0.045706746350707102 -0.032198694687932281 0 0.03214982838215158 -0.036550164909951742 0 0.022583515379492949 -0.04946345385366932 0 0.040434423972952403 -0.049093231793294147 0 0.03214982838215158 -0.036550164909951742 0 0.045706746350707102 -0.032198694687932281 0 0.03214982838215158 -0.036550164909951742 0 0.03396684481877061 -0.021771474300517551 0 0.045706746350707102 -0.032198694687932281 0 0.03396684481877061 -0.021771474300517551 0 0.047710046720236987 -0.018368172826886429 0 0.061157621829282929 -0.025231604425866621 0 0.047710046720236987 -0.018368172826886429 0 0.057931869416054299 -0.0086796052278893948 0 0.045706746350707102 -0.032198694687932281 0 0.061157621829282929 -0.025231604425866621 0 0.047710046720236987 -0.018368172826886429 0 0.053306813386582982 0.0056008818424343951 0 0.057931869416054299 -0.0086796052278893948 0 0.039787151186370009 -0.0039594854922263374 0 0.047710046720236987 -0.018368172826886429 0 0.057931869416054299 -0.0086796052278893948 0 0.039787151186370009 -0.0039594854922263374 0 0.053306813386582982 0.0056008818424343951 0 0.065940651683257009 0.0024831850618150888 0 0.057931869416054299 -0.0086796052278893948 0 0.020207185183206099 -0.010785841930981459 0 0.03396684481877061 -0.021771474300517551 0 0.039787151186370009 -0.0039594854922263374 0 0.03396684481877061 -0.021771474300517551 0 0.047710046720236987 -0.018368172826886429 0 0.039787151186370009 -0.0039594854922263374 0 0.07992851590561921 0.0082161523869754144 0 0.085319843464057188 -0.007629982329875426 0 0.074177093133044117 -0.010507922444979889 0 0.07992851590561921 0.0082161523869754144 0 0.085319843464057188 -0.007629982329875426 0 0.09649789417263642 -0.0037639840011086311 0 0.093491186985964037 -0.01472799792969565 0 0.085319843464057188 -0.007629982329875426 0 0.09649789417263642 -0.0037639840011086311 0 0.093491186985964037 -0.01472799792969565 0 0.085319843464057188 -0.007629982329875426 0 0.083581835824733053 -0.016535058395947159 0 0.085319843464057188 -0.007629982329875426 0 0.074177093133044117 -0.010507922444979889 0 0.083581835824733053 -0.016535058395947159 0 0.061157621829282929 -0.025231604425866621 0 0.057931869416054299 -0.0086796052278893948 0 0.074177093133044117 -0.010507922444979889 0 0.065940651683257009 0.0024831850618150888 0 0.057931869416054299 -0.0086796052278893948 0 0.074177093133044117 -0.010507922444979889 0 0.061157621829282929 -0.025231604425866621 0 0.077044537184394621 -0.024954964190685061 0 0.071280738265345076 -0.03811759874850193 0 0.061157621829282929 -0.025231604425866621 0 0.074177093133044117 -0.010507922444979889 0 0.077044537184394621 -0.024954964190685061 0 0.077044537184394621 -0.024954964190685061 0 0.087876518356205288 -0.024854425084499782 0 0.083696735197635597 -0.035074751153617953 0 0.077044537184394621 -0.024954964190685061 0 0.083581835824733053 -0.016535058395947159 0 0.087876518356205288 -0.024854425084499782 0 0.074177093133044117 -0.010507922444979889 0 0.077044537184394621 -0.024954964190685061 0 0.083581835824733053 -0.016535058395947159 0 0.093491186985964037 -0.01472799792969565 0 0.083581835824733053 -0.016535058395947159 0 0.087876518356205288 -0.024854425084499782 0 0.093491186985964037 -0.01472799792969565 0 0.087876518356205288 -0.024854425084499782 0 0.096892307268332672 -0.02266252034611416 0 0.087876518356205288 -0.024854425084499782 0 0.093921030959280866 -0.033511072873054298 0 0.096892307268332672 -0.02266252034611416 0 0.087876518356205288 -0.024854425084499782 0 0.083696735197635597 -0.035074751153617953 0 0.093921030959280866 -0.033511072873054298 0 0.088828324516270887 -0.041348533459236683 0 0.095977453204919599 -0.050472192210401508 0 0.093921030959280866 -0.033511072873054298 0 0.088828324516270887 -0.041348533459236683 0 0.083696735197635597 -0.035074751153617953 0 0.093921030959280866 -0.033511072873054298 0 0.088828324516270887 -0.041348533459236683 0 0.081718078703247488 -0.046336117599872988 0 0.095977453204919599 -0.050472192210401508 0 0.088828324516270887 -0.041348533459236683 0 0.081718078703247488 -0.046336117599872988 0 0.083696735197635597 -0.035074751153617953 0 0.081718078703247488 -0.046336117599872988 0 0.083696735197635597 -0.035074751153617953 0 0.071280738265345076 -0.03811759874850193 0 0.05544232884238081 -0.044875881875575382 0 0.061157621829282929 -0.025231604425866621 0 0.071280738265345076 -0.03811759874850193 0 0.05544232884238081 -0.044875881875575382 0 0.071280738265345076 -0.03811759874850193 0 0.068339170937992105 -0.053424337060716878 0 0.077044537184394621 -0.024954964190685061 0 0.083696735197635597 -0.035074751153617953 0 0.071280738265345076 -0.03811759874850193 0 0.081718078703247488 -0.046336117599872988 0 0.071280738265345076 -0.03811759874850193 0 0.068339170937992105 -0.053424337060716878 0 0.081718078703247488 -0.046336117599872988 0 0.068339170937992105 -0.053424337060716878 0 0.079819511512682115 -0.059373961925762081 0 0.068339170937992105 -0.053424337060716878 0 0.079819511512682115 -0.059373961925762081 0 0.068682665651441266 -0.069637891440837665 0 0.079819511512682115 -0.059373961925762081 0 0.095977453204919599 -0.050472192210401508 0 0.084380189065810102 -0.076999271316981366 0 0.081718078703247488 -0.046336117599872988 0 0.079819511512682115 -0.059373961925762081 0 0.095977453204919599 -0.050472192210401508 0 0.095977453204919599 -0.050472192210401508 0 0.1084893608633546 -0.054995312108922077 0 0.1003826539890946 -0.069656067773248523 0 0.095977453204919599 -0.050472192210401508 0 0.1084893608633546 -0.054995312108922077 0 0.10497618281608501 -0.042163163930312997 0 0.1084893608633546 -0.054995312108922077 0 0.12021542192502691 -0.05736310542253667 0 0.11225492598618329 -0.067700646346746801 0 0.12021542192502691 -0.05736310542253667 0 0.1181844865236701 -0.045884275653046647 0 0.1350650896680477 -0.050994701792827862 0 0.1084893608633546 -0.054995312108922077 0 0.12021542192502691 -0.05736310542253667 0 0.1181844865236701 -0.045884275653046647 0 0.1084893608633546 -0.054995312108922077 0 0.1181844865236701 -0.045884275653046647 0 0.10497618281608501 -0.042163163930312997 0 0.1181844865236701 -0.045884275653046647 0 0.1169603374125384 -0.034526050343312617 0 0.10497618281608501 -0.042163163930312997 0 0.10497618281608501 -0.042163163930312997 0 0.1139069069496291 -0.021464697665753471 0 0.1169603374125384 -0.034526050343312617 0 0.10497618281608501 -0.042163163930312997 0 0.1139069069496291 -0.021464697665753471 0 0.1181844865236701 -0.045884275653046647 0 0.1169603374125384 -0.034526050343312617 0 0.1283586559847627 -0.040725310836502493 0 0.095977453204919599 -0.050472192210401508 0 0.10497618281608501 -0.042163163930312997 0 0.1075747173440291 -0.023945113103821601 0 0.095977453204919599 -0.050472192210401508 0 0.093921030959280866 -0.033511072873054298 0 0.1075747173440291 -0.023945113103821601 0 0.095977453204919599 -0.050472192210401508 0 0.1075747173440291 -0.023945113103821601 0 0.10497618281608501 -0.042163163930312997 0 0.1075747173440291 -0.023945113103821601 0 0.1139069069496291 -0.021464697665753471 0 0.093921030959280866 -0.033511072873054298 0 0.096892307268332672 -0.02266252034611416 0 0.1075747173440291 -0.023945113103821601 0 0.093491186985964037 -0.01472799792969565 0 0.096892307268332672 -0.02266252034611416 0 0.10169828607787421 -0.015923098960230999 0 0.096892307268332672 -0.02266252034611416 0 0.10169828607787421 -0.015923098960230999 0 0.1075747173440291 -0.023945113103821601 0 0.10169828607787421 -0.015923098960230999 0 0.1075747173440291 -0.023945113103821601 0 0.1082483433893755 -0.0084409933366877514 0 0.1169603374125384 -0.034526050343312617 0 0.1213672368215104 -0.025634276355807499 0 0.12969235634276979 -0.031284000123743903 0 0.1169603374125384 -0.034526050343312617 0 0.1213672368215104 -0.025634276355807499 0 0.1139069069496291 -0.021464697665753471 0 0.1213672368215104 -0.025634276355807499 0 0.1139069069496291 -0.021464697665753471 0 0.12490934658110441 -0.01526235729042 0 0.11917198148314 0.002581966002757949 0 0.1075747173440291 -0.023945113103821601 0 0.1139069069496291 -0.021464697665753471 0 0.11917198148314 0.002581966002757949 0 0.1139069069496291 -0.021464697665753471 0 0.1228376310831711 -0.00076623140119310329 0 0.11917198148314 0.002581966002757949 0 0.1075747173440291 -0.023945113103821601 0 0.1082483433893755 -0.0084409933366877514 0 0.1139069069496291 -0.021464697665753471 0 0.12490934658110441 -0.01526235729042 0 0.1228376310831711 -0.00076623140119310329 0 0.1139069069496291 -0.021464697665753471 0 0.1228376310831711 -0.00076623140119310329 0 0.11917198148314 0.002581966002757949 0 0.1075747173440291 -0.023945113103821601 0 0.11917198148314 0.002581966002757949 0 0.1105415625726717 -0.0014271332550589229 0 0.1082483433893755 -0.0084409933366877514 0 0.1078625722471533 0.0022823866337398822 0 0.1105415625726717 -0.0014271332550589229 0 0.1039166904039584 -0.0028966343462391718 0 0.1039166904039584 -0.0028966343462391718 0 0.1082483433893755 -0.0084409933366877514 0 0.10154047648190589 -0.00941290969201335 0 0.1105415625726717 -0.0014271332550589229 0 0.1039166904039584 -0.0028966343462391718 0 0.1082483433893755 -0.0084409933366877514 0 0.10169828607787421 -0.015923098960230999 0 0.1082483433893755 -0.0084409933366877514 0 0.10154047648190589 -0.00941290969201335 0 0.093491186985964037 -0.01472799792969565 0 0.10154047648190589 -0.00941290969201335 0 0.09649789417263642 -0.0037639840011086311 0 0.093491186985964037 -0.01472799792969565 0 0.10169828607787421 -0.015923098960230999 0 0.10154047648190589 -0.00941290969201335 0 0.1039166904039584 -0.0028966343462391718 0 0.10154047648190589 -0.00941290969201335 0 0.09649789417263642 -0.0037639840011086311 0 0.088046088292129038 -0.10430519341125349 0 0.072782924926700548 -0.1035263504235614 0 0.088717560391344957 -0.092993146067331611 0 0.088046088292129038 -0.10430519341125349 0 0.080670658246847674 -0.112136361820053 0 0.072782924926700548 -0.1035263504235614 0 0.088046088292129038 -0.10430519341125349 0 0.088717560391344957 -0.092993146067331611 0 0.100171096126226 -0.096028489315426471 0 0.088046088292129038 -0.10430519341125349 0 0.089116900718008318 -0.11226838151764811 0 0.096817389343646892 -0.1088784313235004 0 0.088046088292129038 -0.10430519341125349 0 0.089116900718008318 -0.11226838151764811 0 0.080670658246847674 -0.112136361820053 0 0.089116900718008318 -0.11226838151764811 0 0.082844213492092533 -0.1195429602861619 0 0.095577299328253623 -0.1174095529111252 0 0.082362828069140165 -0.1319846138898183 0 0.082844213492092533 -0.1195429602861619 0 0.095577299328253623 -0.1174095529111252 0 0.082362828069140165 -0.1319846138898183 0 0.095577299328253623 -0.1174095529111252 0 0.082362828069140165 -0.1319846138898183 0 0.082844213492092533 -0.1195429602861619 0 0.069837722907261313 -0.1199532536492431 0 0.089116900718008318 -0.11226838151764811 0 0.082844213492092533 -0.1195429602861619 0 0.080670658246847674 -0.112136361820053 0 0.080670658246847674 -0.112136361820053 0 0.069837722907261313 -0.1199532536492431 0 0.072782924926700548 -0.1035263504235614 0 0.06118566078759103 -0.13005342953014129 0 0.072782924926700548 -0.1035263504235614 0 0.06118566078759103 -0.13005342953014129 0 0.069837722907261313 -0.1199532536492431 0 0.072782924926700548 -0.1035263504235614 0 0.06118566078759103 -0.13005342953014129 0 0.056223070490067702 -0.1049071233711502 0 0.072782924926700548 -0.1035263504235614 0 0.082844213492092533 -0.1195429602861619 0 0.080670658246847674 -0.112136361820053 0 0.069837722907261313 -0.1199532536492431 0 0.056223070490067702 -0.1049071233711502 0 0.072782924926700548 -0.1035263504235614 0 0.064045145718632748 -0.088800152685812248 0 0.057640786708643768 -0.07951032993234286 0 0.064045145718632748 -0.088800152685812248 0 0.068682665651441266 -0.069637891440837665 0 0.064045145718632748 -0.088800152685812248 0 0.068682665651441266 -0.069637891440837665 0 0.084380189065810102 -0.076999271316981366 0 0.072782924926700548 -0.1035263504235614 0 0.064045145718632748 -0.088800152685812248 0 0.084380189065810102 -0.076999271316981366 0 0.052580487019044733 -0.06457445167855122 0 0.068339170937992105 -0.053424337060716878 0 0.068682665651441266 -0.069637891440837665 0 0.079819511512682115 -0.059373961925762081 0 0.068682665651441266 -0.069637891440837665 0 0.084380189065810102 -0.076999271316981366 0 0.095977453204919599 -0.050472192210401508 0 0.084380189065810102 -0.076999271316981366 0 0.1003826539890946 -0.069656067773248523 0 0.095977453204919599 -0.050472192210401508 0 0.084380189065810102 -0.076999271316981366 0 0.084380189065810102 -0.076999271316981366 0 0.095693843046354268 -0.0841642264331387 0 0.1003826539890946 -0.069656067773248523 0 0.072782924926700548 -0.1035263504235614 0 0.084380189065810102 -0.076999271316981366 0 0.072782924926700548 -0.1035263504235614 0 0.084380189065810102 -0.076999271316981366 0 0.088717560391344957 -0.092993146067331611 0 0.084380189065810102 -0.076999271316981366 0 0.088717560391344957 -0.092993146067331611 0 0.095693843046354268 -0.0841642264331387 0 0.088717560391344957 -0.092993146067331611 0 0.095693843046354268 -0.0841642264331387 0 0.100171096126226 -0.096028489315426471 0 0.095693843046354268 -0.0841642264331387 0 0.1061825878765964 -0.082065358753895937 0 0.100171096126226 -0.096028489315426471 0 0.095693843046354268 -0.0841642264331387 0 0.1061825878765964 -0.082065358753895937 0 0.1003826539890946 -0.069656067773248523 0 0.1061825878765964 -0.082065358753895937 0 0.1152940355071756 -0.093458773729521216 0 0.100171096126226 -0.096028489315426471 0 0.1061825878765964 -0.082065358753895937 0 0.1003826539890946 -0.069656067773248523 0 0.11225492598618329 -0.067700646346746801 0 0.1084893608633546 -0.054995312108922077 0 0.1003826539890946 -0.069656067773248523 0 0.11225492598618329 -0.067700646346746801 0 0.1061825878765964 -0.082065358753895937 0 0.11225492598618329 -0.067700646346746801 0 0.1171317857577618 -0.078667044940758796 0 0.1171317857577618 -0.078667044940758796 0 0.12857779857738699 -0.078718698725873171 0 0.12708324658387871 -0.067240591211139955 0 0.11225492598618329 -0.067700646346746801 0 0.1171317857577618 -0.078667044940758796 0 0.12708324658387871 -0.067240591211139955 0 0.12021542192502691 -0.05736310542253667 0 0.11225492598618329 -0.067700646346746801 0 0.12708324658387871 -0.067240591211139955 0 0.1061825878765964 -0.082065358753895937 0 0.1152940355071756 -0.093458773729521216 0 0.1171317857577618 -0.078667044940758796 0 0.1171317857577618 -0.078667044940758796 0 0.1286838548293292 -0.09135300801218077 0 0.12857779857738699 -0.078718698725873171 0 0.1152940355071756 -0.093458773729521216 0 0.1171317857577618 -0.078667044940758796 0 0.1286838548293292 -0.09135300801218077 0 0.1152940355071756 -0.093458773729521216 0 0.1230450488982011 -0.098166020395255585 0 0.1286838548293292 -0.09135300801218077 0 0.1152940355071756 -0.093458773729521216 0 0.1230450488982011 -0.098166020395255585 0 0.1196469902177196 -0.1061558951397697 0 0.1230450488982011 -0.098166020395255585 0 0.1196469902177196 -0.1061558951397697 0 0.12917406780106669 -0.1036793655145172 0 0.1196469902177196 -0.1061558951397697 0 0.1094725419179296 -0.1044020385603272 0 0.1154331983948798 -0.1174886032934183 0 0.1152940355071756 -0.093458773729521216 0 0.1196469902177196 -0.1061558951397697 0 0.1094725419179296 -0.1044020385603272 0 0.1152940355071756 -0.093458773729521216 0 0.1094725419179296 -0.1044020385603272 0 0.100171096126226 -0.096028489315426471 0 0.1094725419179296 -0.1044020385603272 0 0.096817389343646892 -0.1088784313235004 0 0.100171096126226 -0.096028489315426471 0 0.088046088292129038 -0.10430519341125349 0 0.096817389343646892 -0.1088784313235004 0 0.100171096126226 -0.096028489315426471 0 0.096817389343646892 -0.1088784313235004 0 0.1051359327507693 -0.1227177542784853 0 0.1154331983948798 -0.1174886032934183 0 0.096817389343646892 -0.1088784313235004 0 0.1154331983948798 -0.1174886032934183 0 0.1005807427949069 -0.13366374688330029 0 0.095577299328253623 -0.1174095529111252 0 0.1051359327507693 -0.1227177542784853 0 0.1094725419179296 -0.1044020385603272 0 0.096817389343646892 -0.1088784313235004 0 0.1154331983948798 -0.1174886032934183 0 0.089116900718008318 -0.11226838151764811 0 0.096817389343646892 -0.1088784313235004 0 0.095577299328253623 -0.1174095529111252 0 0.096817389343646892 -0.1088784313235004 0 0.095577299328253623 -0.1174095529111252 0 0.1051359327507693 -0.1227177542784853 0 0.1154331983948798 -0.1174886032934183 0 0.13404900744611239 -0.12609877526333699 0 0.1196469902177196 -0.1061558951397697 0 0.1154331983948798 -0.1174886032934183 0 0.12686113813069899 -0.1114359576666621 0 0.1154331983948798 -0.1174886032934183 0 0.12686113813069899 -0.1114359576666621 0 0.13390982127973511 -0.11942472678041111 0 0.1154331983948798 -0.1174886032934183 0 0.13390982127973511 -0.11942472678041111 0 0.13404900744611239 -0.12609877526333699 0 0.12686113813069899 -0.1114359576666621 0 0.13614161296009411 -0.11043119760519431 0 0.13390982127973511 -0.11942472678041111 0 0.13614161296009411 -0.11043119760519431 0 0.14023431030656019 -0.11642081500581559 0 0.13390982127973511 -0.11942472678041111 0 0.13614161296009411 -0.11043119760519431 0 0.14023431030656019 -0.11642081500581559 0 0.14347338005148061 -0.1082488085161593 0 0.13773130733042549 -0.12113088311922759 0 0.1427320902892944 -0.12257921542734659 0 0.13404900744611239 -0.12609877526333699 0 0.13390982127973511 -0.11942472678041111 0 0.13773130733042549 -0.12113088311922759 0 0.13404900744611239 -0.12609877526333699 0 0.13390982127973511 -0.11942472678041111 0 0.13404900744611239 -0.12609877526333699 0 0.14023431030656019 -0.11642081500581559 0 0.13773130733042549 -0.12113088311922759 0 0.1427320902892944 -0.12257921542734659 0 0.14023431030656019 -0.11642081500581559 0 0.13390982127973511 -0.11942472678041111 0 0.13773130733042549 -0.12113088311922759 0 0.1427320902892944 -0.12257921542734659 0 0.15192118682329561 -0.12273271218809589 0 0.1490682445489844 -0.1279194233146575 0 0.1427320902892944 -0.12257921542734659 0 0.1474293378639818 -0.11515719203513899 0 0.15192118682329561 -0.12273271218809589 0 0.14023431030656019 -0.11642081500581559 0 0.1427320902892944 -0.12257921542734659 0 0.1474293378639818 -0.11515719203513899 0 0.1474293378639818 -0.11515719203513899 0 0.15201290161170181 -0.107226104105896 0 0.14347338005148061 -0.1082488085161593 0 0.14023431030656019 -0.11642081500581559 0 0.1474293378639818 -0.11515719203513899 0 0.14347338005148061 -0.1082488085161593 0 0.1474293378639818 -0.11515719203513899 0 0.15419764536576119 -0.1149677746217292 0 0.15201290161170181 -0.107226104105896 0 0.15419764536576119 -0.1149677746217292 0 0.15201290161170181 -0.107226104105896 0 0.1590985184781393 -0.1107939778183322 0 0.15419764536576119 -0.1149677746217292 0 0.15192118682329561 -0.12273271218809589 0 0.1605262820516872 -0.11892888696118289 0 0.1474293378639818 -0.11515719203513899 0 0.15419764536576119 -0.1149677746217292 0 0.15192118682329561 -0.12273271218809589 0 0.153855148049276 -0.097460838801678593 0 0.15201290161170181 -0.107226104105896 0 0.1462355681673109 -0.099255024001954253 0 0.153855148049276 -0.097460838801678593 0 0.1462355681673109 -0.099255024001954253 0 0.1490737095502995 -0.088653392770718792 0 0.153855148049276 -0.097460838801678593 0 0.15201290161170181 -0.107226104105896 0 0.16008969536972259 -0.10263897543636979 0 0.14347338005148061 -0.1082488085161593 0 0.1462355681673109 -0.099255024001954253 0 0.13800617896953651 -0.1013117005447786 0 0.15201290161170181 -0.107226104105896 0 0.14347338005148061 -0.1082488085161593 0 0.1462355681673109 -0.099255024001954253 0 0.1462355681673109 -0.099255024001954253 0 0.13800617896953651 -0.1013117005447786 0 0.14099209077157121 -0.092629299272494275 0 0.13800617896953651 -0.1013117005447786 0 0.1286838548293292 -0.09135300801218077 0 0.14099209077157121 -0.092629299272494275 0 0.13614161296009411 -0.11043119760519431 0 0.13800617896953651 -0.1013117005447786 0 0.12917406780106669 -0.1036793655145172 0 0.13614161296009411 -0.11043119760519431 0 0.14347338005148061 -0.1082488085161593 0 0.13800617896953651 -0.1013117005447786 0 0.1196469902177196 -0.1061558951397697 0 0.12686113813069899 -0.1114359576666621 0 0.12917406780106669 -0.1036793655145172 0 0.12686113813069899 -0.1114359576666621 0 0.13614161296009411 -0.11043119760519431 0 0.12917406780106669 -0.1036793655145172 0 0.1230450488982011 -0.098166020395255585 0 0.12917406780106669 -0.1036793655145172 0 0.1286838548293292 -0.09135300801218077 0 0.13800617896953651 -0.1013117005447786 0 0.12917406780106669 -0.1036793655145172 0 0.1286838548293292 -0.09135300801218077 0 0.1286838548293292 -0.09135300801218077 0 0.12857779857738699 -0.078718698725873171 0 0.13748132505412469 -0.08396770010957226 0 0.13748132505412469 -0.08396770010957226 0 0.1367334774756912 -0.073531819827653083 0 0.14538989296775451 -0.078880163337803719 0 0.12857779857738699 -0.078718698725873171 0 0.13748132505412469 -0.08396770010957226 0 0.1367334774756912 -0.073531819827653083 0 0.1286838548293292 -0.09135300801218077 0 0.13748132505412469 -0.08396770010957226 0 0.14099209077157121 -0.092629299272494275 0 0.12857779857738699 -0.078718698725873171 0 0.12708324658387871 -0.067240591211139955 0 0.1367334774756912 -0.073531819827653083 0 0.12708324658387871 -0.067240591211139955 0 0.1367334774756912 -0.073531819827653083 0 0.14110971147140131 -0.064913967020147179 0 0.1367334774756912 -0.073531819827653083 0 0.14110971147140131 -0.064913967020147179 0 0.14964674351361701 -0.070099729323911744 0 0.14110971147140131 -0.064913967020147179 0 0.14964674351361701 -0.070099729323911744 0 0.15194569281242609 -0.056105127932606663 0 0.1367334774756912 -0.073531819827653083 0 0.14964674351361701 -0.070099729323911744 0 0.14538989296775451 -0.078880163337803719 0 0.14964674351361701 -0.070099729323911744 0 0.14538989296775451 -0.078880163337803719 0 0.15822082836811369 -0.079982126599630443 0 0.14964674351361701 -0.070099729323911744 0 0.15822082836811369 -0.079982126599630443 0 0.1603896916223197 -0.069044426588861466 0 0.14964674351361701 -0.070099729323911744 0 0.1603896916223197 -0.069044426588861466 0 0.15194569281242609 -0.056105127932606663 0 0.13748132505412469 -0.08396770010957226 0 0.14099209077157121 -0.092629299272494275 0 0.1490737095502995 -0.088653392770718792 0 0.1462355681673109 -0.099255024001954253 0 0.14099209077157121 -0.092629299272494275 0 0.1490737095502995 -0.088653392770718792 0 0.13748132505412469 -0.08396770010957226 0 0.14538989296775451 -0.078880163337803719 0 0.1490737095502995 -0.088653392770718792 0 0.14538989296775451 -0.078880163337803719 0 0.1490737095502995 -0.088653392770718792 0 0.15822082836811369 -0.079982126599630443 0 0.153855148049276 -0.097460838801678593 0 0.1490737095502995 -0.088653392770718792 0 0.1594354292934542 -0.091737259282716963 0 0.1490737095502995 -0.088653392770718792 0 0.1594354292934542 -0.091737259282716963 0 0.15822082836811369 -0.079982126599630443 0 0.1594354292934542 -0.091737259282716963 0 0.15822082836811369 -0.079982126599630443 0 0.1684140015429216 -0.087293140772549349 0 0.15822082836811369 -0.079982126599630443 0 0.1684140015429216 -0.087293140772549349 0 0.1694423915093585 -0.075846288749261012 0 0.1684140015429216 -0.087293140772549349 0 0.1776016981043757 -0.094466756631608209 0 0.16825903644140999 -0.098606158866582916 0 0.1594354292934542 -0.091737259282716963 0 0.1684140015429216 -0.087293140772549349 0 0.16825903644140999 -0.098606158866582916 0 0.15822082836811369 -0.079982126599630443 0 0.1603896916223197 -0.069044426588861466 0 0.1694423915093585 -0.075846288749261012 0 0.1603896916223197 -0.069044426588861466 0 0.1694423915093585 -0.075846288749261012 0 0.17187576892014289 -0.062138750134232333 0 0.17971720707086189 -0.073145871694163048 0 0.17187576892014289 -0.062138750134232333 0 0.19180584502786041 -0.068172372335855602 0 0.17187576892014289 -0.062138750134232333 0 0.19180584502786041 -0.068172372335855602 0 0.1694423915093585 -0.075846288749261012 0 0.17971720707086189 -0.073145871694163048 0 0.17187576892014289 -0.062138750134232333 0 0.1694423915093585 -0.075846288749261012 0 0.17971720707086189 -0.073145871694163048 0 0.17803685153179119 -0.083473416706129469 0 0.17971720707086189 -0.073145871694163048 0 0.18645595400882431 -0.078186102724248294 0 0.19180584502786041 -0.068172372335855602 0 0.1684140015429216 -0.087293140772549349 0 0.17803685153179119 -0.083473416706129469 0 0.1776016981043757 -0.094466756631608209 0 0.1684140015429216 -0.087293140772549349 0 0.1694423915093585 -0.075846288749261012 0 0.17803685153179119 -0.083473416706129469 0 0.17803685153179119 -0.083473416706129469 0 0.18645595400882431 -0.078186102724248294 0 0.18748362772352481 -0.090285751384613616 0 0.17971720707086189 -0.073145871694163048 0 0.17803685153179119 -0.083473416706129469 0 0.18645595400882431 -0.078186102724248294 0 0.17803685153179119 -0.083473416706129469 0 0.18748362772352481 -0.090285751384613616 0 0.1776016981043757 -0.094466756631608209 0 0.1776016981043757 -0.094466756631608209 0 0.1757785255420414 -0.1036637588673371 0 0.18737718651252391 -0.1018645954104864 0 0.18748362772352481 -0.090285751384613616 0 0.1776016981043757 -0.094466756631608209 0 0.18737718651252391 -0.1018645954104864 0 0.1776016981043757 -0.094466756631608209 0 0.1757785255420414 -0.1036637588673371 0 0.16825903644140999 -0.098606158866582916 0 0.1757785255420414 -0.1036637588673371 0 0.17797479248166551 -0.1125427820454727 0 0.16787713834435419 -0.11000951374301229 0 0.1757785255420414 -0.1036637588673371 0 0.18737718651252391 -0.1018645954104864 0 0.17797479248166551 -0.1125427820454727 0 0.18737718651252391 -0.1018645954104864 0 0.18701697985041221 -0.11880972375357141 0 0.17797479248166551 -0.1125427820454727 0 0.18701697985041221 -0.11880972375357141 0 0.173543926957343 -0.1211375462363173 0 0.17990838590865871 -0.12844737664361131 0 0.18701697985041221 -0.11880972375357141 0 0.173543926957343 -0.1211375462363173 0 0.17797479248166551 -0.1125427820454727 0 0.173543926957343 -0.1211375462363173 0 0.17797479248166551 -0.1125427820454727 0 0.16787713834435419 -0.11000951374301229 0 0.173543926957343 -0.1211375462363173 0 0.16787713834435419 -0.11000951374301229 0 0.1605262820516872 -0.11892888696118289 0 0.173543926957343 -0.1211375462363173 0 0.1605262820516872 -0.11892888696118289 0 0.1641162962428066 -0.126449221113482 0 0.15192118682329561 -0.12273271218809589 0 0.1605262820516872 -0.11892888696118289 0 0.1587247560068413 -0.12564209046719049 0 0.1605262820516872 -0.11892888696118289 0 0.1587247560068413 -0.12564209046719049 0 0.1641162962428066 -0.126449221113482 0 0.15419764536576119 -0.1149677746217292 0 0.1605262820516872 -0.11892888696118289 0 0.1590985184781393 -0.1107939778183322 0 0.16787713834435419 -0.11000951374301229 0 0.1605262820516872 -0.11892888696118289 0 0.1590985184781393 -0.1107939778183322 0 0.15201290161170181 -0.107226104105896 0 0.1590985184781393 -0.1107939778183322 0 0.16008969536972259 -0.10263897543636979 0 0.16787713834435419 -0.11000951374301229 0 0.1590985184781393 -0.1107939778183322 0 0.16008969536972259 -0.10263897543636979 0 0.1594354292934542 -0.091737259282716963 0 0.16008969536972259 -0.10263897543636979 0 0.16825903644140999 -0.098606158866582916 0 0.153855148049276 -0.097460838801678593 0 0.1594354292934542 -0.091737259282716963 0 0.16008969536972259 -0.10263897543636979 0 0.1757785255420414 -0.1036637588673371 0 0.16787713834435419 -0.11000951374301229 0 0.16825903644140999 -0.098606158866582916 0 0.16787713834435419 -0.11000951374301229 0 0.16008969536972259 -0.10263897543636979 0 0.16825903644140999 -0.098606158866582916 0 0.1552076984021574 -0.0047487866015848753 0 0.1380919344669613 -0.01469948322874493 0 0.1606476670511833 -0.017066892083396779 0 0.14127976741107601 0.00215554095495248 0 0.1552076984021574 -0.0047487866015848753 0 0.1380919344669613 -0.01469948322874493 0 0.14127976741107601 0.00215554095495248 0 0.1228376310831711 -0.00076623140119310329 0 0.1380919344669613 -0.01469948322874493 0 0.1228376310831711 -0.00076623140119310329 0 0.1380919344669613 -0.01469948322874493 0 0.12490934658110441 -0.01526235729042 0 0.1228376310831711 -0.00076623140119310329 0 0.1380919344669613 -0.01469948322874493 0 0.1380919344669613 -0.01469948322874493 0 0.1415761600091012 -0.038003691908970592 0 0.12969235634276979 -0.031284000123743903 0 0.1213672368215104 -0.025634276355807499 0 0.12490934658110441 -0.01526235729042 0 0.12969235634276979 -0.031284000123743903 0 0.12490934658110441 -0.01526235729042 0 0.1380919344669613 -0.01469948322874493 0 0.12969235634276979 -0.031284000123743903 0 0.1380919344669613 -0.01469948322874493 0 0.15334623785075199 -0.02863273505629621 0 0.1415761600091012 -0.038003691908970592 0 0.1380919344669613 -0.01469948322874493 0 0.15334623785075199 -0.02863273505629621 0 0.1606476670511833 -0.017066892083396779 0 0.1380919344669613 -0.01469948322874493 0 0.15334623785075199 -0.02863273505629621 0 0.15437572795414581 -0.042117567211766717 0 0.1415761600091012 -0.038003691908970592 0 0.15194569281242609 -0.056105127932606663 0 0.15334623785075199 -0.02863273505629621 0 0.15437572795414581 -0.042117567211766717 0 0.1415761600091012 -0.038003691908970592 0 0.1181844865236701 -0.045884275653046647 0 0.1283586559847627 -0.040725310836502493 0 0.1350650896680477 -0.050994701792827862 0 0.1415761600091012 -0.038003691908970592 0 0.12969235634276979 -0.031284000123743903 0 0.1283586559847627 -0.040725310836502493 0 0.1169603374125384 -0.034526050343312617 0 0.12969235634276979 -0.031284000123743903 0 0.1283586559847627 -0.040725310836502493 0 0.1415761600091012 -0.038003691908970592 0 0.1283586559847627 -0.040725310836502493 0 0.1350650896680477 -0.050994701792827862 0 0.1181844865236701 -0.045884275653046647 0 0.1350650896680477 -0.050994701792827862 0 0.12021542192502691 -0.05736310542253667 0 0.12708324658387871 -0.067240591211139955 0 0.1350650896680477 -0.050994701792827862 0 0.12708324658387871 -0.067240591211139955 0 0.14110971147140131 -0.064913967020147179 0 0.1350650896680477 -0.050994701792827862 0 0.14110971147140131 -0.064913967020147179 0 0.15194569281242609 -0.056105127932606663 0 0.1415761600091012 -0.038003691908970592 0 0.1350650896680477 -0.050994701792827862 0 0.15194569281242609 -0.056105127932606663 0 0.1350650896680477 -0.050994701792827862 0 0.15194569281242609 -0.056105127932606663 0 0.14110971147140131 -0.064913967020147179 0 0.1350650896680477 -0.050994701792827862 0 0.15194569281242609 -0.056105127932606663 0 0.15194569281242609 -0.056105127932606663 0 0.16860054123454279 -0.042565986883847551 0 0.15437572795414581 -0.042117567211766717 0 0.15194569281242609 -0.056105127932606663 0 0.16860054123454279 -0.042565986883847551 0 0.1603896916223197 -0.069044426588861466 0 0.15194569281242609 -0.056105127932606663 0 0.17187576892014289 -0.062138750134232333 0 0.15194569281242609 -0.056105127932606663 0 0.165016394264413 -0.053661354003145263 0 0.17187576892014289 -0.062138750134232333 0 0.15194569281242609 -0.056105127932606663 0 0.165016394264413 -0.053661354003145263 0 0.16860054123454279 -0.042565986883847551 0 0.15194569281242609 -0.056105127932606663 0 0.17187576892014289 -0.062138750134232333 0 0.165016394264413 -0.053661354003145263 0 0.17187576892014289 -0.062138750134232333 0 0.18345715790010181 -0.056135992415964377 0 0.165016394264413 -0.053661354003145263 0 0.18345715790010181 -0.056135992415964377 0 0.16860054123454279 -0.042565986883847551 0 0.17187576892014289 -0.062138750134232333 0 0.18345715790010181 -0.056135992415964377 0 0.19180584502786041 -0.068172372335855602 0 0.18345715790010181 -0.056135992415964377 0 0.17385144243116649 -0.043269821226828903 0 0.18595588634396351 -0.043176695624854357 0 0.18345715790010181 -0.056135992415964377 0 0.17385144243116649 -0.043269821226828903 0 0.16860054123454279 -0.042565986883847551 0 0.18345715790010181 -0.056135992415964377 0 0.16860054123454279 -0.042565986883847551 0 0.18595588634396351 -0.043176695624854357 0 0.1782733089797521 -0.034702753096601993 0 0.1941468740000297 -0.021798736782002521 0 0.17385144243116649 -0.043269821226828903 0 0.18595588634396351 -0.043176695624854357 0 0.1782733089797521 -0.034702753096601993 0 0.17385144243116649 -0.043269821226828903 0 0.1782733089797521 -0.034702753096601993 0 0.16860054123454279 -0.042565986883847551 0 0.1782733089797521 -0.034702753096601993 0 0.16860054123454279 -0.042565986883847551 0 0.17385144243116649 -0.043269821226828903 0 0.1782733089797521 -0.034702753096601993 0 0.1782733089797521 -0.034702753096601993 0 0.16860054123454279 -0.042565986883847551 0 0.1670526359884773 -0.02836254214418232 0 0.15334623785075199 -0.02863273505629621 0 0.16860054123454279 -0.042565986883847551 0 0.1670526359884773 -0.02836254214418232 0 0.15334623785075199 -0.02863273505629621 0 0.15437572795414581 -0.042117567211766717 0 0.16860054123454279 -0.042565986883847551 0 0.15334623785075199 -0.02863273505629621 0 0.16860054123454279 -0.042565986883847551 0 0.15334623785075199 -0.02863273505629621 0 0.1606476670511833 -0.017066892083396779 0 0.1670526359884773 -0.02836254214418232 0 0.1606476670511833 -0.017066892083396779 0 0.1670526359884773 -0.02836254214418232 0 0.1743954248261565 -0.018844343600769399 0 0.1782733089797521 -0.034702753096601993 0 0.1743954248261565 -0.018844343600769399 0 0.1918659379284415 -0.0083679514935210662 0 0.1782733089797521 -0.034702753096601993 0 0.1670526359884773 -0.02836254214418232 0 0.1743954248261565 -0.018844343600769399 0 0.1782733089797521 -0.034702753096601993 0 0.1918659379284415 -0.0083679514935210662 0 0.1782733089797521 -0.034702753096601993 0 0.1941468740000297 -0.021798736782002521 0 0.1743954248261565 -0.018844343600769399 0 0.17983697574181159 -0.0080573062328258595 0 0.1918659379284415 -0.0083679514935210662 0 0.1743954248261565 -0.018844343600769399 0 0.17983697574181159 -0.0080573062328258595 0 0.17056947168728639 -0.0076341498549102596 0 0.17983697574181159 -0.0080573062328258595 0 0.18580903226614379 -0.0011502469314075439 0 0.17786282304025339 -0.001583287003114023 0 0.17983697574181159 -0.0080573062328258595 0 0.18580903226614379 -0.0011502469314075439 0 0.1918659379284415 -0.0083679514935210662 0 0.17983697574181159 -0.0080573062328258595 0 0.17786282304025339 -0.001583287003114023 0 0.17056947168728639 -0.0076341498549102596 0 0.17227434920368959 0.00081991249798677823 0 0.17786282304025339 -0.001583287003114023 0 0.17056947168728639 -0.0076341498549102596 0 0.17227434920368959 0.00081991249798677823 0 0.16550177429739321 0.001625335581948511 0 0.17056947168728639 -0.0076341498549102596 0 0.1606476670511833 -0.017066892083396779 0 0.1743954248261565 -0.018844343600769399 0 0.17056947168728639 -0.0076341498549102596 0 0.1552076984021574 -0.0047487866015848753 0 0.1606476670511833 -0.017066892083396779 0 0.17056947168728639 -0.0076341498549102596 0 0.15830422717032419 0.0026668804518291322 0 0.16550177429739321 0.001625335581948511 0 0.1552076984021574 -0.0047487866015848753 0 0.16550177429739321 0.001625335581948511 0 0.1552076984021574 -0.0047487866015848753 0 0.17056947168728639 -0.0076341498549102596 0 0.21653748859829491 -0.0035968485671754561 0 0.20239897911060981 -0.0049616950454924097 0 0.1941468740000297 -0.021798736782002521 0 0.21653748859829491 -0.0035968485671754561 0 0.1941468740000297 -0.021798736782002521 0 0.20955206102217341 -0.019021580532265901 0 0.21653748859829491 -0.0035968485671754561 0 0.20955206102217341 -0.019021580532265901 0 0.22864161374710179 -0.024239001361894639 0 0.21653748859829491 -0.0035968485671754561 0 0.1941468740000297 -0.021798736782002521 0 0.20938161325362409 0.0025060029461209908 0 0.21653748859829491 -0.0035968485671754561 0 0.20239897911060981 -0.0049616950454924097 0 0.19981118715584381 0.0070254328827108366 0 0.20239897911060981 -0.0049616950454924097 0 0.1918659379284415 -0.0083679514935210662 0 0.19981118715584381 0.0070254328827108366 0 0.1918659379284415 -0.0083679514935210662 0 0.20239897911060981 -0.0049616950454924097 0 0.1918659379284415 -0.0083679514935210662 0 0.1941468740000297 -0.021798736782002521 0 0.1894192936343001 0.0060385698470956234 0 0.18580903226614379 -0.0011502469314075439 0 0.1918659379284415 -0.0083679514935210662 0 0.1894192936343001 0.0060385698470956234 0 0.1918659379284415 -0.0083679514935210662 0 0.1918659379284415 -0.0083679514935210662 0 0.1941468740000297 -0.021798736782002521 0 0.1782733089797521 -0.034702753096601993 0 0.1918659379284415 -0.0083679514935210662 0 0.1941468740000297 -0.021798736782002521 0 0.1941468740000297 -0.021798736782002521 0 0.2031559883210855 -0.029985938475911671 0 0.20955206102217341 -0.019021580532265901 0 0.20955206102217341 -0.019021580532265901 0 0.21066165658577479 -0.033085676709690801 0 0.22864161374710179 -0.024239001361894639 0 0.2031559883210855 -0.029985938475911671 0 0.20955206102217341 -0.019021580532265901 0 0.21066165658577479 -0.033085676709690801 0 0.21864271396698939 -0.038649087319523719 0 0.21066165658577479 -0.033085676709690801 0 0.21034122995680221 -0.050048420551560682 0 0.21066165658577479 -0.033085676709690801 0 0.1982633616763636 -0.046037759879686967 0 0.21034122995680221 -0.050048420551560682 0 0.2031559883210855 -0.029985938475911671 0 0.21066165658577479 -0.033085676709690801 0 0.1982633616763636 -0.046037759879686967 0 0.21864271396698939 -0.038649087319523719 0 0.21034122995680221 -0.050048420551560682 0 0.21819242210762169 -0.050823402618315167 0 0.1941468740000297 -0.021798736782002521 0 0.2031559883210855 -0.029985938475911671 0 0.1982633616763636 -0.046037759879686967 0 0.18595588634396351 -0.043176695624854357 0 0.1941468740000297 -0.021798736782002521 0 0.1982633616763636 -0.046037759879686967 0 0.1941468740000297 -0.021798736782002521 0 0.1982633616763636 -0.046037759879686967 0 0.1982633616763636 -0.046037759879686967 0 0.19180584502786041 -0.068172372335855602 0 0.20237984935269879 -0.070276782977371152 0 0.1982633616763636 -0.046037759879686967 0 0.20237984935269879 -0.070276782977371152 0 0.18345715790010181 -0.056135992415964377 0 0.1982633616763636 -0.046037759879686967 0 0.19180584502786041 -0.068172372335855602 0 0.18345715790010181 -0.056135992415964377 0 0.18595588634396351 -0.043176695624854357 0 0.1982633616763636 -0.046037759879686967 0 0.21034122995680221 -0.050048420551560682 0 0.21390737605136481 -0.061417813804776289 0 0.20237984935269879 -0.070276782977371152 0 0.1982633616763636 -0.046037759879686967 0 0.21034122995680221 -0.050048420551560682 0 0.20237984935269879 -0.070276782977371152 0 0.21034122995680221 -0.050048420551560682 0 0.21819242210762169 -0.050823402618315167 0 0.21390737605136481 -0.061417813804776289 0 0.2255736282180465 -0.056882305063223393 0 0.23627526009844421 -0.049694667024589079 0 0.23165324526163639 -0.065502610206523884 0 0.21390737605136481 -0.061417813804776289 0 0.2255736282180465 -0.056882305063223393 0 0.2221192681341374 -0.068345353637844553 0 0.21819242210762169 -0.050823402618315167 0 0.21390737605136481 -0.061417813804776289 0 0.2255736282180465 -0.056882305063223393 0 0.21819242210762169 -0.050823402618315167 0 0.2255736282180465 -0.056882305063223393 0 0.22546512762764079 -0.044057692677509197 0 0.2255736282180465 -0.056882305063223393 0 0.23627526009844421 -0.049694667024589079 0 0.22546512762764079 -0.044057692677509197 0 0.24617004458672351 -0.058202332164817121 0 0.23627526009844421 -0.049694667024589079 0 0.24390890644978661 -0.075150332687283522 0 0.23627526009844421 -0.049694667024589079 0 0.24390890644978661 -0.075150332687283522 0 0.25164978009717781 -0.053061021673298493 0 0.24617004458672351 -0.058202332164817121 0 0.24422464309495209 -0.046986837608536558 0 0.24617004458672351 -0.058202332164817121 0 0.24422464309495209 -0.046986837608536558 0 0.23627526009844421 -0.049694667024589079 0 0.25164978009717781 -0.053061021673298493 0 0.2539732262079259 -0.044675773385505282 0 0.24422464309495209 -0.046986837608536558 0 0.24422464309495209 -0.046986837608536558 0 0.23627526009844421 -0.049694667024589079 0 0.24524507923365879 -0.0330622213940093 0 0.25845033672230949 -0.02738613623275089 0 0.24422464309495209 -0.046986837608536558 0 0.24524507923365879 -0.0330622213940093 0 0.23627526009844421 -0.049694667024589079 0 0.24524507923365879 -0.0330622213940093 0 0.22864161374710179 -0.024239001361894639 0 0.21864271396698939 -0.038649087319523719 0 0.21066165658577479 -0.033085676709690801 0 0.22864161374710179 -0.024239001361894639 0 0.23627526009844421 -0.049694667024589079 0 0.22864161374710179 -0.024239001361894639 0 0.21864271396698939 -0.038649087319523719 0 0.22546512762764079 -0.044057692677509197 0 0.22864161374710179 -0.024239001361894639 0 0.23627526009844421 -0.049694667024589079 0 0.22546512762764079 -0.044057692677509197 0 0.22864161374710179 -0.024239001361894639 0 0.21864271396698939 -0.038649087319523719 0 0.21819242210762169 -0.050823402618315167 0 0.22546512762764079 -0.044057692677509197 0 0.22864161374710179 -0.024239001361894639 0 0.24437070500465241 -0.019757014484825589 0 0.23246643938152739 -0.0092251246746631842 0 0.24524507923365879 -0.0330622213940093 0 0.22864161374710179 -0.024239001361894639 0 0.24437070500465241 -0.019757014484825589 0 0.25013504981522988 -0.025019616072594848 0 0.24524507923365879 -0.0330622213940093 0 0.24437070500465241 -0.019757014484825589 0 0.25247407830029878 -0.019873092178793648 0 0.25006914023697918 -0.01208141302270524 0 0.24437070500465241 -0.019757014484825589 0 0.25013504981522988 -0.025019616072594848 0 0.25247407830029878 -0.019873092178793648 0 0.24437070500465241 -0.019757014484825589 0 0.24437070500465241 -0.019757014484825589 0 0.242989310538931 -0.0092135161021761666 0 0.23246643938152739 -0.0092251246746631842 0 0.25006914023697918 -0.01208141302270524 0 0.242989310538931 -0.0092135161021761666 0 0.2479891295484222 -0.0022684572774312019 0 0.25006914023697918 -0.01208141302270524 0 0.24437070500465241 -0.019757014484825589 0 0.242989310538931 -0.0092135161021761666 0 0.2429424487767215 0.0026164120279975069 0 0.2479891295484222 -0.0022684572774312019 0 0.24005113852307369 -0.0027355710512556022 0 0.242989310538931 -0.0092135161021761666 0 0.2479891295484222 -0.0022684572774312019 0 0.24005113852307369 -0.0027355710512556022 0 0.23517440673197429 0.0051848507458196356 0 0.24005113852307369 -0.0027355710512556022 0 0.23246643938152739 -0.0092251246746631842 0 0.242989310538931 -0.0092135161021761666 0 0.24005113852307369 -0.0027355710512556022 0 0.23246643938152739 -0.0092251246746631842 0 0.22100796739575951 0.001216664300799794 0 0.22864161374710179 -0.024239001361894639 0 0.23246643938152739 -0.0092251246746631842 0 0.23517440673197429 0.0051848507458196356 0 0.22100796739575951 0.001216664300799794 0 0.23246643938152739 -0.0092251246746631842 0 0.22100796739575951 0.001216664300799794 0 0.21653748859829491 -0.0035968485671754561 0 0.22864161374710179 -0.024239001361894639 0 0.22100796739575951 0.001216664300799794 0 0.22864161374710179 -0.024239001361894639 0 0.206496337029034 -0.094515806075055359 0 0.21061282470536921 -0.1187548291727395 0 0.206496337029034 -0.094515806075055359 0 0.22623965631488491 -0.089683688039789988 0 0.22333782165884589 -0.10574313483481231 0 0.206496337029034 -0.094515806075055359 0 0.21061282470536921 -0.1187548291727395 0 0.22333782165884589 -0.10574313483481231 0 0.18737718651252391 -0.1018645954104864 0 0.18701697985041221 -0.11880972375357141 0 0.21061282470536921 -0.1187548291727395 0 0.18701697985041221 -0.11880972375357141 0 0.21061282470536921 -0.1187548291727395 0 0.19260125287660149 -0.13207131947283501 0 0.18748362772352481 -0.090285751384613616 0 0.18737718651252391 -0.1018645954104864 0 0.206496337029034 -0.094515806075055359 0 0.18737718651252391 -0.1018645954104864 0 0.206496337029034 -0.094515806075055359 0 0.21061282470536921 -0.1187548291727395 0 0.18748362772352481 -0.090285751384613616 0 0.206496337029034 -0.094515806075055359 0 0.19448955746265811 -0.082220240722777116 0 0.206496337029034 -0.094515806075055359 0 0.19448955746265811 -0.082220240722777116 0 0.20237984935269879 -0.070276782977371152 0 0.18645595400882431 -0.078186102724248294 0 0.18748362772352481 -0.090285751384613616 0 0.19448955746265811 -0.082220240722777116 0 0.18645595400882431 -0.078186102724248294 0 0.19448955746265811 -0.082220240722777116 0 0.19180584502786041 -0.068172372335855602 0 0.19448955746265811 -0.082220240722777116 0 0.19180584502786041 -0.068172372335855602 0 0.20237984935269879 -0.070276782977371152 0 0.21390737605136481 -0.061417813804776289 0 0.20237984935269879 -0.070276782977371152 0 0.21248527081093549 -0.070330245212121473 0 0.20237984935269879 -0.070276782977371152 0 0.21248527081093549 -0.070330245212121473 0 0.2145783618208984 -0.079628257083024359 0 0.21248527081093549 -0.070330245212121473 0 0.2145783618208984 -0.079628257083024359 0 0.2221192681341374 -0.068345353637844553 0 0.21390737605136481 -0.061417813804776289 0 0.21248527081093549 -0.070330245212121473 0 0.2221192681341374 -0.068345353637844553 0 0.206496337029034 -0.094515806075055359 0 0.20237984935269879 -0.070276782977371152 0 0.2145783618208984 -0.079628257083024359 0 0.206496337029034 -0.094515806075055359 0 0.2145783618208984 -0.079628257083024359 0 0.22623965631488491 -0.089683688039789988 0 0.206496337029034 -0.094515806075055359 0 0.20237984935269879 -0.070276782977371152 0 0.2145783618208984 -0.079628257083024359 0 0.22623965631488491 -0.089683688039789988 0 0.23038916340776741 -0.077440392619678861 0 0.22623965631488491 -0.089683688039789988 0 0.23038916340776741 -0.077440392619678861 0 0.23781669784438761 -0.088769324738514177 0 0.22623965631488491 -0.089683688039789988 0 0.23781669784438761 -0.088769324738514177 0 0.23714180950183539 -0.10160942858925499 0 0.2145783618208984 -0.079628257083024359 0 0.2221192681341374 -0.068345353637844553 0 0.23038916340776741 -0.077440392619678861 0 0.2255736282180465 -0.056882305063223393 0 0.2221192681341374 -0.068345353637844553 0 0.23165324526163639 -0.065502610206523884 0 0.2221192681341374 -0.068345353637844553 0 0.23038916340776741 -0.077440392619678861 0 0.23165324526163639 -0.065502610206523884 0 0.25256726729664603 -0.064532785491330763 0 0.24617004458672351 -0.058202332164817121 0 0.24390890644978661 -0.075150332687283522 0 0.23627526009844421 -0.049694667024589079 0 0.23165324526163639 -0.065502610206523884 0 0.24390890644978661 -0.075150332687283522 0 0.23038916340776741 -0.077440392619678861 0 0.23165324526163639 -0.065502610206523884 0 0.24390890644978661 -0.075150332687283522 0 0.25154255280112903 -0.1006059983499779 0 0.24390890644978661 -0.075150332687283522 0 0.25154255280112903 -0.1006059983499779 0 0.24390890644978661 -0.075150332687283522 0 0.23781669784438761 -0.088769324738514177 0 0.23038916340776741 -0.077440392619678861 0 0.24390890644978661 -0.075150332687283522 0 0.23781669784438761 -0.088769324738514177 0 0.25154255280112903 -0.1006059983499779 0 0.23714180950183539 -0.10160942858925499 0 0.24954668948061209 -0.11284283178631641 0 0.25154255280112903 -0.1006059983499779 0 0.23781669784438761 -0.088769324738514177 0 0.23714180950183539 -0.10160942858925499 0 0.23714180950183539 -0.10160942858925499 0 0.22333782165884589 -0.10574313483481231 0 0.23542538064511609 -0.1194854446592761 0 0.22623965631488491 -0.089683688039789988 0 0.23714180950183539 -0.10160942858925499 0 0.22333782165884589 -0.10574313483481231 0 0.21061282470536921 -0.1187548291727395 0 0.22333782165884589 -0.10574313483481231 0 0.23542538064511609 -0.1194854446592761 0 0.25741251913389712 -0.1305951081492244 0 0.23542538064511609 -0.1194854446592761 0 0.24954668948061209 -0.11284283178631641 0 0.23714180950183539 -0.10160942858925499 0 0.23542538064511609 -0.1194854446592761 0 0.24954668948061209 -0.11284283178631641 0 0.25741251913389712 -0.1305951081492244 0 0.25452239946831973 -0.14829655140993131 0 0.23191914561449989 -0.13726295483178369 0 0.25741251913389712 -0.1305951081492244 0 0.23542538064511609 -0.1194854446592761 0 0.23191914561449989 -0.13726295483178369 0 0.25452239946831973 -0.14829655140993131 0 0.23782434991563151 -0.15439369078169049 0 0.23191914561449989 -0.13726295483178369 0 0.23782434991563151 -0.15439369078169049 0 0.2147293123817042 -0.1429938522704238 0 0.23782434991563151 -0.15439369078169049 0 0.2147293123817042 -0.1429938522704238 0 0.21952864142792899 -0.1712536350637954 0 0.23782434991563151 -0.15439369078169049 0 0.23191914561449989 -0.13726295483178369 0 0.2147293123817042 -0.1429938522704238 0 0.21061282470536921 -0.1187548291727395 0 0.23542538064511609 -0.1194854446592761 0 0.23191914561449989 -0.13726295483178369 0 0.21061282470536921 -0.1187548291727395 0 0.23191914561449989 -0.13726295483178369 0 0.2147293123817042 -0.1429938522704238 0 0.2147293123817042 -0.1429938522704238 0 0.19260125287660149 -0.13207131947283501 0 0.21061282470536921 -0.1187548291727395 0 0.2147293123817042 -0.1429938522704238 0 0.19260125287660149 -0.13207131947283501 0 0.21061282470536921 -0.1187548291727395 0 0.2147293123817042 -0.1429938522704238 0 0.2147293123817042 -0.1429938522704238 0 0.20548350855114439 -0.15623176612928341 0 0.19677556980284089 -0.14597147697610061 0 0.20548350855114439 -0.15623176612928341 0 0.19677556980284089 -0.14597147697610061 0 0.19325106823209409 -0.153061144976989 0 0.19677556980284089 -0.14597147697610061 0 0.19325106823209409 -0.153061144976989 0 0.18786488322971459 -0.15098965934649999 0 0.19325106823209409 -0.153061144976989 0 0.18786488322971459 -0.15098965934649999 0 0.1842505296355367 -0.15589311325690541 0 0.19677556980284089 -0.14597147697610061 0 0.18786488322971459 -0.15098965934649999 0 0.188659048266132 -0.1418371739210742 0 0.2147293123817042 -0.1429938522704238 0 0.19677556980284089 -0.14597147697610061 0 0.19260125287660149 -0.13207131947283501 0 0.19677556980284089 -0.14597147697610061 0 0.188659048266132 -0.1418371739210742 0 0.19260125287660149 -0.13207131947283501 0 0.18830323417204939 -0.1765657128700695 0 0.20313295091115369 -0.1678787213591082 0 0.20600005448239761 -0.18645800734220749 0 0.18830323417204939 -0.1765657128700695 0 0.20600005448239761 -0.18645800734220749 0 0.1956377870383576 -0.1970896374814364 0 0.19325106823209409 -0.153061144976989 0 0.18830323417204939 -0.1765657128700695 0 0.19325106823209409 -0.153061144976989 0 0.18830323417204939 -0.1765657128700695 0 0.20313295091115369 -0.1678787213591082 0 0.19325106823209409 -0.153061144976989 0 0.18830323417204939 -0.1765657128700695 0 0.18144082188941271 -0.16389154531309821 0 0.20548350855114439 -0.15623176612928341 0 0.19325106823209409 -0.153061144976989 0 0.20313295091115369 -0.1678787213591082 0 0.20548350855114439 -0.15623176612928341 0 0.20313295091115369 -0.1678787213591082 0 0.21952864142792899 -0.1712536350637954 0 0.2147293123817042 -0.1429938522704238 0 0.21952864142792899 -0.1712536350637954 0 0.2147293123817042 -0.1429938522704238 0 0.20548350855114439 -0.15623176612928341 0 0.21952864142792899 -0.1712536350637954 0 0.20600005448239761 -0.18645800734220749 0 0.21952864142792899 -0.1712536350637954 0 0.22432797047415351 -0.19951341785716731 0 0.20313295091115369 -0.1678787213591082 0 0.20600005448239761 -0.18645800734220749 0 0.21952864142792899 -0.1712536350637954 0 0.21952864142792899 -0.1712536350637954 0 0.2437278363918948 -0.18195096812212239 0 0.22432797047415351 -0.19951341785716731 0 0.21952864142792899 -0.1712536350637954 0 0.22432797047415351 -0.19951341785716731 0 0.23782434991563151 -0.15439369078169049 0 0.21952864142792899 -0.1712536350637954 0 0.2437278363918948 -0.18195096812212239 0 0.260919387449559 -0.16579352929295721 0 0.23782434991563151 -0.15439369078169049 0 0.260919387449559 -0.16579352929295721 0 0.23782434991563151 -0.15439369078169049 0 0.2437278363918948 -0.18195096812212239 0 0.2437278363918948 -0.18195096812212239 0 0.24314545538918961 -0.20571013864437751 0 0.22432797047415351 -0.19951341785716731 0 0.2593871514889205 -0.19799184377322379 0 0.2437278363918948 -0.18195096812212239 0 0.24314545538918961 -0.20571013864437751 0 0.22432797047415351 -0.19951341785716731 0 0.2342802842193491 -0.2219117808856606 0 0.21564630723174069 -0.21833189921059021 0 0.24314545538918961 -0.20571013864437751 0 0.22432797047415351 -0.19951341785716731 0 0.2342802842193491 -0.2219117808856606 0 0.2462907050713771 -0.25204034373521428 0 0.2499607574480687 -0.24385609709525671 0 0.2374752251495614 -0.24157268794541539 0 0.25134951441318748 -0.22920843539767929 0 0.2499607574480687 -0.24385609709525671 0 0.2374752251495614 -0.24157268794541539 0 0.25134951441318748 -0.22920843539767929 0 0.24314545538918961 -0.20571013864437751 0 0.2342802842193491 -0.2219117808856606 0 0.25134951441318748 -0.22920843539767929 0 0.2374752251495614 -0.24157268794541539 0 0.2342802842193491 -0.2219117808856606 0 0.2374752251495614 -0.24157268794541539 0 0.22060620183210919 -0.232775489656291 0 0.2342802842193491 -0.2219117808856606 0 0.22060620183210919 -0.232775489656291 0 0.2342802842193491 -0.2219117808856606 0 0.21564630723174069 -0.21833189921059021 0 0.22198339683909701 -0.25340717595137879 0 0.2374752251495614 -0.24157268794541539 0 0.22060620183210919 -0.232775489656291 0 0.22198339683909701 -0.25340717595137879 0 0.22060620183210919 -0.232775489656291 0 0.22198339683909701 -0.25340717595137879 0 0.22060620183210919 -0.232775489656291 0 0.20573671357227499 -0.23448295905173899 0 0.22198339683909701 -0.25340717595137879 0 0.20573671357227499 -0.23448295905173899 0 0.19815896102696709 -0.24816545406213189 0 0.22060620183210919 -0.232775489656291 0 0.20573671357227499 -0.23448295905173899 0 0.21564630723174069 -0.21833189921059021 0 0.20573671357227499 -0.23448295905173899 0 0.19801089506944891 -0.22061097325298201 0 0.21564630723174069 -0.21833189921059021 0 0.20573671357227499 -0.23448295905173899 0 0.19801089506944891 -0.22061097325298201 0 0.18862314846194941 -0.23474346369713109 0 0.19801089506944891 -0.22061097325298201 0 0.18862314846194941 -0.23474346369713109 0 0.17884496266341901 -0.22149700646801701 0 0.20573671357227499 -0.23448295905173899 0 0.18862314846194941 -0.23474346369713109 0 0.19815896102696709 -0.24816545406213189 0 0.20600005448239761 -0.18645800734220749 0 0.22432797047415351 -0.19951341785716731 0 0.20571207111442141 -0.20503903284801611 0 0.22432797047415351 -0.19951341785716731 0 0.21564630723174069 -0.21833189921059021 0 0.20571207111442141 -0.20503903284801611 0 0.19801089506944891 -0.22061097325298201 0 0.21564630723174069 -0.21833189921059021 0 0.20571207111442141 -0.20503903284801611 0 0.19801089506944891 -0.22061097325298201 0 0.19227081910603411 -0.2100117569492751 0 0.17884496266341901 -0.22149700646801701 0 0.20571207111442141 -0.20503903284801611 0 0.19227081910603411 -0.2100117569492751 0 0.1956377870383576 -0.1970896374814364 0 0.19801089506944891 -0.22061097325298201 0 0.20571207111442141 -0.20503903284801611 0 0.19227081910603411 -0.2100117569492751 0 0.18830323417204939 -0.1765657128700695 0 0.1956377870383576 -0.1970896374814364 0 0.18335540011200491 -0.20007028076315 0 0.19227081910603411 -0.2100117569492751 0 0.1956377870383576 -0.1970896374814364 0 0.18335540011200491 -0.20007028076315 0 0.1956377870383576 -0.1970896374814364 0 0.18335540011200491 -0.20007028076315 0 0.20600005448239761 -0.18645800734220749 0 0.20571207111442141 -0.20503903284801611 0 0.1956377870383576 -0.1970896374814364 0 0.18830323417204939 -0.1765657128700695 0 0.18335540011200491 -0.20007028076315 0 0.18335540011200491 -0.20007028076315 0 0.16873688803845349 -0.19227854821165941 0 0.17543185729929969 -0.18273889272689711 0 0.19227081910603411 -0.2100117569492751 0 0.18335540011200491 -0.20007028076315 0 0.17884496266341901 -0.22149700646801701 0 0.18335540011200491 -0.20007028076315 0 0.17884496266341901 -0.22149700646801701 0 0.18335540011200491 -0.20007028076315 0 0.16621660047528611 -0.21253283526692829 0 0.17884496266341901 -0.22149700646801701 0 0.16621660047528611 -0.21253283526692829 0 0.1593158439583067 -0.2059041094785751 0 0.15302060169630469 -0.2217977003443504 0 0.18335540011200491 -0.20007028076315 0 0.16621660047528611 -0.21253283526692829 0 0.1593158439583067 -0.2059041094785751 0 0.16621660047528611 -0.21253283526692829 0 0.1593158439583067 -0.2059041094785751 0 0.1593158439583067 -0.2059041094785751 0 0.15759932706250929 -0.18907488386135229 0 0.16873688803845349 -0.19227854821165941 0 0.18335540011200491 -0.20007028076315 0 0.1593158439583067 -0.2059041094785751 0 0.18335540011200491 -0.20007028076315 0 0.1593158439583067 -0.2059041094785751 0 0.16873688803845349 -0.19227854821165941 0 0.18066177981631051 -0.25348299893649828 0 0.19815896102696709 -0.24816545406213189 0 0.17433452521483719 -0.24292373217288479 0 0.19815896102696709 -0.24816545406213189 0 0.17433452521483719 -0.24292373217288479 0 0.18862314846194941 -0.23474346369713109 0 0.19815896102696709 -0.24816545406213189 0 0.17433452521483719 -0.24292373217288479 0 0.18066177981631051 -0.25348299893649828 0 0.17304535898525439 -0.24904788565112909 0 0.17433452521483719 -0.24292373217288479 0 0.17304535898525439 -0.24904788565112909 0 0.17433452521483719 -0.24292373217288479 0 0.18862314846194941 -0.23474346369713109 0 0.17433452521483719 -0.24292373217288479 0 0.17884496266341901 -0.22149700646801701 0 0.17433452521483719 -0.24292373217288479 0 0.17884496266341901 -0.22149700646801701 0 0.17433452521483719 -0.24292373217288479 0 0.17884496266341901 -0.22149700646801701 0 0.16512535944417561 -0.22744738033917331 0 0.16512535944417561 -0.22744738033917331 0 0.15532271566916761 -0.23874085795770611 0 0.15302060169630469 -0.2217977003443504 0 0.16621660047528611 -0.21253283526692829 0 0.17884496266341901 -0.22149700646801701 0 0.16512535944417561 -0.22744738033917331 0 0.16621660047528611 -0.21253283526692829 0 0.16512535944417561 -0.22744738033917331 0 0.15302060169630469 -0.2217977003443504 0 0.17304535898525439 -0.24904788565112909 0 0.17433452521483719 -0.24292373217288479 0 0.15532271566916761 -0.23874085795770611 0 0.15867772839633809 -0.25707915377424612 0 0.17304535898525439 -0.24904788565112909 0 0.15532271566916761 -0.23874085795770611 0 0.17433452521483719 -0.24292373217288479 0 0.16512535944417561 -0.22744738033917331 0 0.15532271566916761 -0.23874085795770611 0 0.17433452521483719 -0.24292373217288479 0 0.15532271566916761 -0.23874085795770611 0 0.15532271566916761 -0.23874085795770611 0 0.1363109061234978 -0.23455798374252809 0 0.13687529418603939 -0.26162068250561471 0 0.15532271566916761 -0.23874085795770611 0 0.1363109061234978 -0.23455798374252809 0 0.15532271566916761 -0.23874085795770611 0 0.15302060169630469 -0.2217977003443504 0 0.1363109061234978 -0.23455798374252809 0 0.15302060169630469 -0.2217977003443504 0 0.1363109061234978 -0.23455798374252809 0 0.13583218450739579 -0.2116030352811932 0 0.12594488917549271 -0.2231145762792166 0 0.1363109061234978 -0.23455798374252809 0 0.13583218450739579 -0.2116030352811932 0 0.1363109061234978 -0.23455798374252809 0 0.13583218450739579 -0.2116030352811932 0 0.13687529418603939 -0.26162068250561471 0 0.1363109061234978 -0.23455798374252809 0 0.13687529418603939 -0.26162068250561471 0 0.1223190960555403 -0.2394332616338683 0 0.1363109061234978 -0.23455798374252809 0 0.1593158439583067 -0.2059041094785751 0 0.15759932706250929 -0.18907488386135229 0 0.14727334507129489 -0.19433633097022029 0 0.14727334507129489 -0.19433633097022029 0 0.13523084618428721 -0.18276855246186111 0 0.1593158439583067 -0.2059041094785751 0 0.14727334507129489 -0.19433633097022029 0 0.1593158439583067 -0.2059041094785751 0 0.14727334507129489 -0.19433633097022029 0 0.13583218450739579 -0.2116030352811932 0 0.1593158439583067 -0.2059041094785751 0 0.13583218450739579 -0.2116030352811932 0 0.1593158439583067 -0.2059041094785751 0 0.15302060169630469 -0.2217977003443504 0 0.13583218450739579 -0.2116030352811932 0 0.1146962174531268 -0.21673223195775559 0 0.12594488917549271 -0.2231145762792166 0 0.13583218450739579 -0.2116030352811932 0 0.1146962174531268 -0.21673223195775559 0 0.13583218450739579 -0.2116030352811932 0 0.13583218450739579 -0.2116030352811932 0 0.13523084618428721 -0.18276855246186111 0 0.1210323504124224 -0.2015702574875764 0 0.13583218450739579 -0.2116030352811932 0 0.13523084618428721 -0.18276855246186111 0 0.14727334507129489 -0.19433633097022029 0 0.13583218450739579 -0.2116030352811932 0 0.13523084618428721 -0.18276855246186111 0 0.13523084618428721 -0.18276855246186111 0 0.13483495552902119 -0.16378539130439421 0 0.13523084618428721 -0.18276855246186111 0 0.14953284821028701 -0.17659781711855899 0 0.13483495552902119 -0.16378539130439421 0 0.12574768761326591 -0.17365922399620121 0 0.13523084618428721 -0.18276855246186111 0 0.13483495552902119 -0.16378539130439421 0 0.12574768761326591 -0.17365922399620121 0 0.13523084618428721 -0.18276855246186111 0 0.15759932706250929 -0.18907488386135229 0 0.14727334507129489 -0.19433633097022029 0 0.14953284821028701 -0.17659781711855899 0 0.14727334507129489 -0.19433633097022029 0 0.13523084618428721 -0.18276855246186111 0 0.14953284821028701 -0.17659781711855899 0 0.15759932706250929 -0.18907488386135229 0 0.14953284821028701 -0.17659781711855899 0 0.16056198994912749 -0.17787080610445691 0 0.14953284821028701 -0.17659781711855899 0 0.15118562361057611 -0.16212531631630639 0 0.13483495552902119 -0.16378539130439421 0 0.15118562361057611 -0.16212531631630639 0 0.13483495552902119 -0.16378539130439421 0 0.15272907190244081 -0.1550331303974728 0 0.15118562361057611 -0.16212531631630639 0 0.15272907190244081 -0.1550331303974728 0 0.15987479688754311 -0.1572750313981319 0 0.14953284821028701 -0.17659781711855899 0 0.15118562361057611 -0.16212531631630639 0 0.1601367247146048 -0.167216461388007 0 0.1232701832726428 -0.15427141090171109 0 0.12574768761326591 -0.17365922399620121 0 0.13483495552902119 -0.16378539130439421 0 0.12574768761326591 -0.17365922399620121 0 0.13483495552902119 -0.16378539130439421 0 0.13483495552902119 -0.16378539130439421 0 0.13444198148756639 -0.1449420832838656 0 0.14315652521050079 -0.14523933820255211 0 0.1232701832726428 -0.15427141090171109 0 0.13483495552902119 -0.16378539130439421 0 0.13444198148756639 -0.1449420832838656 0 0.13483495552902119 -0.16378539130439421 0 0.13444198148756639 -0.1449420832838656 0 0.13444198148756639 -0.1449420832838656 0 0.1434537453928684 -0.13532839273855221 0 0.14315652521050079 -0.14523933820255211 0 0.13444198148756639 -0.1449420832838656 0 0.13404900744611239 -0.12609877526333699 0 0.13444198148756639 -0.1449420832838656 0 0.13404900744611239 -0.12609877526333699 0 0.1434537453928684 -0.13532839273855221 0 0.11727103389215909 -0.1361484369810822 0 0.13444198148756639 -0.1449420832838656 0 0.13404900744611239 -0.12609877526333699 0 0.13404900744611239 -0.12609877526333699 0 0.1490682445489844 -0.1279194233146575 0 0.1609569453379138 -0.13854421730491809 0 0.13404900744611239 -0.12609877526333699 0 0.1609569453379138 -0.13854421730491809 0 0.13404900744611239 -0.12609877526333699 0 0.1434537453928684 -0.13532839273855221 0 0.1609569453379138 -0.13854421730491809 0 0.1434537453928684 -0.13532839273855221 0 0.14993504674019009 -0.14021612160814689 0 0.1609569453379138 -0.13854421730491809 0 0.1427320902892944 -0.12257921542734659 0 0.13404900744611239 -0.12609877526333699 0 0.1490682445489844 -0.1279194233146575 0 0.1434537453928684 -0.13532839273855221 0 0.14993504674019009 -0.14021612160814689 0 0.14315652521050079 -0.14523933820255211 0 0.14993504674019009 -0.14021612160814689 0 0.15469010670848909 -0.14221164189652771 0 0.1609569453379138 -0.13854421730491809 0 0.15568199284830581 -0.1296421963895899 0 0.1490682445489844 -0.1279194233146575 0 0.1609569453379138 -0.13854421730491809 0 0.15192118682329561 -0.12273271218809589 0 0.15568199284830581 -0.1296421963895899 0 0.1587247560068413 -0.12564209046719049 0 0.15192118682329561 -0.12273271218809589 0 0.15568199284830581 -0.1296421963895899 0 0.1490682445489844 -0.1279194233146575 0 0.13483495552902119 -0.16378539130439421 0 0.15469010670848909 -0.14221164189652771 0 0.13483495552902119 -0.16378539130439421 0 0.14315652521050079 -0.14523933820255211 0 0.15469010670848909 -0.14221164189652771 0 0.13483495552902119 -0.16378539130439421 0 0.15469010670848909 -0.14221164189652771 0 0.15272907190244081 -0.1550331303974728 0 0.14993504674019009 -0.14021612160814689 0 0.14315652521050079 -0.14523933820255211 0 0.15469010670848909 -0.14221164189652771 0 0.15272907190244081 -0.1550331303974728 0 0.16278769519534109 -0.1503194818261428 0 0.15987479688754311 -0.1572750313981319 0 0.16278769519534109 -0.1503194818261428 0 0.15987479688754311 -0.1572750313981319 0 0.16866771310860729 -0.15951236945753941 0 0.15469010670848909 -0.14221164189652771 0 0.15272907190244081 -0.1550331303974728 0 0.16278769519534109 -0.1503194818261428 0 0.15469010670848909 -0.14221164189652771 0 0.16278769519534109 -0.1503194818261428 0 0.1609569453379138 -0.13854421730491809 0 0.16278769519534109 -0.1503194818261428 0 0.1609569453379138 -0.13854421730491809 0 0.17433915911560069 -0.15342176620747169 0 0.16278769519534109 -0.1503194818261428 0 0.17433915911560069 -0.15342176620747169 0 0.16866771310860729 -0.15951236945753941 0 0.1609569453379138 -0.13854421730491809 0 0.16898528270356589 -0.1319020538664718 0 0.17739448715537109 -0.13831623988886119 0 0.1587247560068413 -0.12564209046719049 0 0.1613780220681113 -0.13045743568360191 0 0.1641162962428066 -0.126449221113482 0 0.15568199284830581 -0.1296421963895899 0 0.1587247560068413 -0.12564209046719049 0 0.1613780220681113 -0.13045743568360191 0 0.15568199284830581 -0.1296421963895899 0 0.1613780220681113 -0.13045743568360191 0 0.1609569453379138 -0.13854421730491809 0 0.1613780220681113 -0.13045743568360191 0 0.1609569453379138 -0.13854421730491809 0 0.16898528270356589 -0.1319020538664718 0 0.173543926957343 -0.1211375462363173 0 0.16898528270356589 -0.1319020538664718 0 0.1641162962428066 -0.126449221113482 0 0.1613780220681113 -0.13045743568360191 0 0.16898528270356589 -0.1319020538664718 0 0.1641162962428066 -0.126449221113482 0 0.173543926957343 -0.1211375462363173 0 0.16898528270356589 -0.1319020538664718 0 0.17990838590865871 -0.12844737664361131 0 0.16898528270356589 -0.1319020538664718 0 0.17739448715537109 -0.13831623988886119 0 0.17990838590865871 -0.12844737664361131 0 0.188659048266132 -0.1418371739210742 0 0.19260125287660149 -0.13207131947283501 0 0.17739448715537109 -0.13831623988886119 0 0.19260125287660149 -0.13207131947283501 0 0.17739448715537109 -0.13831623988886119 0 0.17990838590865871 -0.12844737664361131 0 0.18701697985041221 -0.11880972375357141 0 0.19260125287660149 -0.13207131947283501 0 0.17990838590865871 -0.12844737664361131 0 0.18786488322971459 -0.15098965934649999 0 0.1609569453379138 -0.13854421730491809 0 0.17433915911560069 -0.15342176620747169 0 0.18786488322971459 -0.15098965934649999 0 0.1609569453379138 -0.13854421730491809 0 0.18786488322971459 -0.15098965934649999 0 0.1609569453379138 -0.13854421730491809 0 0.17739448715537109 -0.13831623988886119 0 0.18786488322971459 -0.15098965934649999 0 0.188659048266132 -0.1418371739210742 0 0.17739448715537109 -0.13831623988886119 0 0.18786488322971459 -0.15098965934649999 0 0.17433915911560069 -0.15342176620747169 0 0.1842505296355367 -0.15589311325690541 0 0.17433915911560069 -0.15342176620747169 0 0.1842505296355367 -0.15589311325690541 0 0.18144082188941271 -0.16389154531309821 0 0.19325106823209409 -0.153061144976989 0 0.1842505296355367 -0.15589311325690541 0 0.18144082188941271 -0.16389154531309821 0 0.18830323417204939 -0.1765657128700695 0 0.18144082188941271 -0.16389154531309821 0 0.17072519494025609 -0.1704686386871877 0 0.17433915911560069 -0.15342176620747169 0 0.18144082188941271 -0.16389154531309821 0 0.16866771310860729 -0.15951236945753941 0 0.18144082188941271 -0.16389154531309821 0 0.16866771310860729 -0.15951236945753941 0 0.17072519494025609 -0.1704686386871877 0 0.18830323417204939 -0.1765657128700695 0 0.18335540011200491 -0.20007028076315 0 0.17543185729929969 -0.18273889272689711 0 0.18830323417204939 -0.1765657128700695 0 0.17543185729929969 -0.18273889272689711 0 0.17072519494025609 -0.1704686386871877 0 0.17543185729929969 -0.18273889272689711 0 0.16056198994912749 -0.17787080610445691 0 0.17072519494025609 -0.1704686386871877 0 0.16873688803845349 -0.19227854821165941 0 0.17543185729929969 -0.18273889272689711 0 0.16056198994912749 -0.17787080610445691 0 0.15759932706250929 -0.18907488386135229 0 0.16873688803845349 -0.19227854821165941 0 0.16056198994912749 -0.17787080610445691 0 0.14953284821028701 -0.17659781711855899 0 0.16056198994912749 -0.17787080610445691 0 0.1601367247146048 -0.167216461388007 0 0.16056198994912749 -0.17787080610445691 0 0.1601367247146048 -0.167216461388007 0 0.17072519494025609 -0.1704686386871877 0 0.1601367247146048 -0.167216461388007 0 0.15987479688754311 -0.1572750313981319 0 0.16866771310860729 -0.15951236945753941 0 0.15118562361057611 -0.16212531631630639 0 0.1601367247146048 -0.167216461388007 0 0.15987479688754311 -0.1572750313981319 0 0.1601367247146048 -0.167216461388007 0 0.16866771310860729 -0.15951236945753941 0 0.17072519494025609 -0.1704686386871877 0 
</DataArray>
</Points>
<Cells>
<DataArray type="UInt32" Name="connectivity" format="ascii">
0 1 2 3 4 5 6 7 8 9 10 11 12 13 14 15 16 17 18 19 20 21 22 23 24 25 26 27 28 29 30 31 32 33 34 35 36 37 38 39 40 41 42 43 44 45 46 47 48 49 50 51 52 53 54 55 56 57 58 59 60 61 62 63 64 65 66 67 68 69 70 71 72 73 74 75 76 77 78 79 80 81 82 83 84 85 86 87 88 89 90 91 92 93 94 95 96 97 98 99 100 101 102 103 104 105 106 107 108 109 110 111 112 113 114 115 116 117 118 119 120 121 122 123 124 125 126 127 128 129 130 131 132 133 134 135 136 137 138 139 140 141 142 143 144 145 146 147 148 149 150 151 152 153 154 155 156 157 158 159 160 161 162 163 164 165 166 167 168 169 170 171 172 173 174 175 176 177 178 179 180 181 182 183 184 185 186 187 188 189 190 191 192 193 194 195 196 197 198 199 200 201 202 203 204 205 206 207 208 209 210 211 212 213 214 215 216 217 218 219 220 221 222 223 224 225 226 227 228 229 230 231 232 233 234 235 236 237 238 239 240 241 242 243 244 245 246 247 248 249 250 251 252 253 254 255 256 257 258 259 260 261 262 263 264 265 266 267 268 269 270 271 272 273 274 275 276 277 278 279 280 281 282 283 284 285 286 287 288 289 290 291 292 293 294 295 296 297 298 299 300 301 302 303 304 305 306 307 308 309 310 311 312 313 314 315 316 317 318 319 320 321 322 323 324 325 326 327 328 329 330 331 332 333 334 335 336 337 338 339 340 341 342 343 344 345 346 347 348 349 350 351 352 353 354 355 356 357 358 359 360 361 362 363 364 365 366 367 368 369 370 371 372 373 374 375 376 377 378 379 380 381 382 383 384 385 386 387 388 389 390 391 392 393 394 395 396 397 398 399 400 401 402 403 404 405 406 407 408 409 410 411 412 413 414 415 416 417 418 419 420 421 422 423 424 425 426 427 428 429 430 431 432 433 434 435 436 437 438 439 440 441 442 443 444 445 446 447 448 449 450 451 452 453 454 455 456 457 458 459 460 461 462 463 464 465 466 467 468 469 470 471 472 473 474 475 476 477 478 479 480 481 482 483 484 485 486 487 488 489 490 491 492 493 494 495 496 497 498 499 500 501 502 503 504 505 506 507 508 509 510 511 512 513 514 515 516 517 518 519 520 521 522 523 524 525 526 527 528 529 530 531 532 533 534 535 536 537 538 539 540 541 542 543 544 545 546 547 548 549 550 551 552 553 554 555 556 557 558 559 560 561 562 563 564 565 566 567 568 569 570 571 572 573 574 575 576 577 578 579 580 581 582 583 584 585 586 587 588 589 590 591 592 593 594 595 596 597 598 599 600 601 602 603 604 605 606 607 608 609 610 611 612 613 614 615 616 617 618 619 620 621 622 623 624 625 626 627 628 629 630 631 632 633 634 635 636 637 638 639 640 641 642 643 644 645 646 647 648 649 650 651 652 653 654 655 656 657 658 659 660 661 662 663 664 665 666 667 668 669 670 671 672 673 674 675 676 677 678 679 680 681 682 683 684 685 686 687 688 689 690 691 692 693 694 695 696 697 698 699 700 701 702 703 704 705 706 707 708 709 710 711 712 713 714 715 716 717 718 719 720 721 722 723 724 725 726 727 728 729 730 731 732 733 734 735 736 737 738 739 740 741 742 743 744 745 746 747 748 749 750 751 752 753 754 755 756 757 758 759 760 761 762 763 764 765 766 767 768 769 770 771 772 773 774 775 776 777 778 779 780 781 782 783 784 785 786 787 788 789 790 791 792 793 794 795 796 797 798 799 800 801 802 803 804 805 806 807 808 809 810 811 812 813 814 815 816 817 818 819 820 821 822 823 824 825 826 827 828 829 830 831 832 833 834 835 836 837 838 839 840 841 842 843 844 845 846 847 848 849 850 851 852 853 854 855 856 857 858 859 860 861 862 863 864 865 866 867 868 869 870 871 872 873 874 875 876 877 878 879 880 881 882 883 884 885 886 887 888 889 890 891 892 893 894 895 896 897 898 899 900 901 902 903 904 905 906 907 908 909 910 911 912 913 914 915 916 917 918 919 920 921 922 923 924 925 926 927 928 929 930 931 932 933 934 935 936 937 938 939 940 941 942 943 944 945 946 947 948 949 950 951 952 953 954 955 956 957 958 959 960 961 962 963 964 965 966 967 968 969 970 971 972 973 974 975 976 977 978 979 980 981 982 983 984 985 986 987 988 989 990 991 992 993 994 995 996 997 998 999 1000 1001 1002 1003 1004 1005 1006 1007 1008 1009 1010 1011 1012 1013 1014 1015 1016 1017 1018 1019 1020 1021 1022 1023 1024 1025 1026 1027 1028 1029 1030 1031 1032 1033 1034 1035 1036 1037 1038 1039 1040 1041 1042 1043 1044 1045 1046 1047 1048 1049 1050 1051 1052 1053 1054 1055 1056 1057 1058 1059 1060 1061 1062 1063 1064 1065 1066 1067 1068 1069 1070 1071 1072 1073 1074 1075 1076 1077 1078 1079 1080 1081 1082 1083 1084 1085 1086 1087 1088 1089 1090 1091 1092 1093 1094 1095 1096 1097 1098 1099 1100 1101 1102 1103 1104 1105 1106 1107 1108 1109 1110 1111 1112 1113 1114 1115 1116 1117 1118 1119 1120 1121 1122 1123 1124 1125 1126 1127 1128 1129 1130 1131 1132 1133 1134 1135 1136 1137 1138 1139 1140 1141 1142 1143 1144 1145 1146 1147 1148 1149 1150 1151 1152 1153 1154 1155 1156 1157 1158 1159 1160 1161 1162 1163 1164 1165 1166 1167 1168 1169 1170 1171 1172 1173 1174 1175 1176 1177 1178 1179 1180 1181 1182 1183 1184 1185 1186 1187 1188 1189 1190 1191 1192 1193 1194 1195 1196 1197 1198 1199 1200 1201 1202 1203 1204 1205 1206 1207 1208 1209 1210 1211 1212 1213 1214 1215 1216 1217 1218 1219 1220 1221 1222 1223 1224 1225 1226 1227 1228 1229 1230 1231 1232 1233 1234 1235 1236 1237 1238 1239 1240 1241 1242 1243 1244 1245 1246 1247 1248 1249 1250 1251 1252 1253 1254 1255 1256 1257 1258 1259 1260 1261 1262 1263 1264 1265 1266 1267 1268 1269 1270 1271 1272 1273 1274 1275 1276 1277 1278 1279 1280 1281 1282 1283 1284 1285 1286 1287 1288 1289 1290 1291 1292 1293 1294 1295 1296 1297 1298 1299 1300 1301 1302 1303 1304 1305 1306 1307 1308 1309 1310 1311 1312 1313 1314 1315 1316 1317 1318 1319 1320 1321 1322 1323 1324 1325 1326 1327 1328 1329 1330 1331 1332 1333 1334 1335 1336 1337 1338 1339 1340 1341 1342 1343 1344 1345 1346 1347 1348 1349 1350 1351 1352 1353 1354 1355 1356 1357 1358 1359 1360 1361 1362 1363 1364 1365 1366 1367 1368 1369 1370 1371 1372 1373 1374 1375 1376 1377 1378 1379 1380 1381 1382 1383 1384 1385 1386 1387 1388 1389 1390 1391 1392 1393 1394 1395 1396 1397 1398 1399 1400 1401 1402 1403 1404 1405 1406 1407 1408 1409 1410 1411 1412 1413 1414 1415 1416 1417 1418 1419 1420 1421 1422 1423 1424 1425 1426 1427 1428 1429 1430 1431 1432 1433 1434 1435 1436 1437 1438 1439 1440 1441 1442 1443 1444 1445 1446 1447 1448 1449 1450 1451 1452 1453 1454 1455 1456 1457 1458 1459 1460 1461 1462 1463 1464 1465 1466 1467 1468 1469 1470 1471 1472 1473 1474 1475 1476 1477 1478 1479 1480 1481 1482 1483 1484 1485 1486 1487 1488 1489 1490 1491 1492 1493 1494 1495 1496 1497 1498 1499 1500 1501 1502 1503 1504 1505 1506 1507 1508 1509 1510 1511 1512 1513 1514 1515 1516 1517 1518 1519 1520 1521 1522 1523 1524 1525 1526 1527 1528 1529 1530 1531 1532 1533 1534 1535 1536 1537 1538 1539 1540 1541 1542 1543 1544 1545 1546 1547 1548 1549 1550 1551 1552 1553 1554 1555 1556 1557 1558 1559 1560 1561 1562 1563 1564 1565 1566 1567 1568 1569 1570 1571 1572 1573 1574 1575 1576 1577 1578 1579 1580 1581 1582 1583 1584 1585 1586 1587 1588 1589 1590 1591 1592 1593 1594 1595 1596 1597 1598 1599 1600 1601 1602 1603 1604 1605 1606 1607 1608 1609 1610 1611 1612 1613 1614 1615 1616 1617 1618 1619 1620 1621 1622 1623 1624 1625 1626 1627 1628 1629 1630 1631 1632 1633 1634 1635 1636 1637 1638 1639 1640 1641 1642 1643 1644 1645 1646 1647 1648 1649 1650 1651 1652 1653 1654 1655 1656 1657 1658 1659 1660 1661 1662 1663 1664 1665 1666 1667 1668 1669 1670 1671 1672 1673 1674 1675 1676 1677 1678 1679 1680 1681 1682 1683 1684 1685 1686 1687 1688 1689 1690 1691 1692 1693 1694 1695 1696 1697 1698 1699 1700 1701 1702 1703 1704 1705 1706 1707 1708 1709 1710 1711 1712 1713 1714 1715 1716 1717 1718 1719 1720 1721 1722 1723 1724 1725 1726 1727 1728 1729 1730 1731 1732 1733 1734 1735 1736 1737 1738 1739 1740 1741 1742 1743 1744 1745 1746 1747 1748 1749 1750 1751 1752 1753 1754 1755 1756 1757 1758 1759 1760 1761 1762 1763 1764 1765 1766 1767 1768 1769 1770 1771 1772 1773 1774 1775 1776 1777 1778 1779 1780 1781 1782 1783 1784 1785 1786 1787 1788 1789 1790 1791 1792 1793 1794 1795 1796 1797 1798 1799 1800 1801 1802 1803 1804 1805 1806 1807 1808 1809 1810 1811 1812 1813 1814 1815 1816 1817 1818 1819 1820 1821 1822 1823 1824 1825 1826 1827 1828 1829 1830 1831 1832 1833 1834 1835 1836 1837 1838 1839 1840 1841 1842 1843 1844 1845 1846 1847 1848 1849 1850 1851 1852 1853 1854 1855 1856 1857 1858 1859 1860 1861 1862 1863 1864 1865 1866 1867 1868 1869 1870 1871 1872 1873 1874 1875 1876 1877 1878 1879 1880 1881 1882 1883 1884 1885 1886 1887 1888 1889 1890 1891 1892 1893 1894 1895 1896 1897 1898 1899 1900 1901 1902 1903 1904 1905 1906 1907 1908 1909 1910 1911 1912 1913 1914 1915 1916 1917 1918 1919 1920 1921 1922 1923 1924 1925 1926 1927 1928 1929 1930 1931 1932 1933 1934 1935 1936 1937 1938 1939 1940 1941 1942 1943 1944 1945 1946 1947 1948 1949 1950 1951 1952 1953 1954 1955 1956 1957 1958 1959 1960 1961 1962 1963 1964 1965 1966 1967 1968 1969 1970 1971 1972 1973 1974 1975 1976 1977 1978 1979 1980 1981 1982 1983 1984 1985 1986 1987 1988 1989 1990 1991 1992 1993 1994 1995 1996 1997 1998 1999 2000 2001 2002 2003 2004 2005 2006 2007 2008 2009 2010 2011 2012 2013 2014 2015 2016 2017 2018 2019 2020 2021 2022 2023 2024 2025 2026 2027 2028 2029 2030 2031 2032 2033 2034 2035 2036 2037 2038 2039 2040 2041 2042 2043 2044 2045 2046 2047 2048 2049 2050 2051 2052 2053 2054 2055 2056 2057 2058 2059 2060 2061 2062 2063 2064 2065 2066 2067 2068 2069 2070 2071 2072 2073 2074 2075 2076 2077 2078 2079 2080 2081 2082 2083 2084 2085 2086 2087 2088 2089 2090 2091 2092 2093 2094 2095 2096 2097 2098 2099 2100 2101 2102 2103 2104 2105 2106 2107 2108 2109 2110 2111 2112 2113 2114 2115 2116 2117 2118 2119 2120 2121 2122 2123 2124 2125 2126 2127 2128 2129 2130 2131 2132 2133 2134 2135 2136 2137 2138 2139 2140 2141 2142 2143 2144 2145 2146 2147 2148 2149 2150 2151 2152 2153 2154 2155 2156 2157 2158 2159 2160 2161 2162 2163 2164 2165 2166 2167 2168 2169 2170 2171 2172 2173 2174 2175 2176 2177 2178 2179 2180 2181 2182 2183 2184 2185 2186 2187 2188 2189 2190 2191 2192 2193 2194 2195 2196 2197 2198 2199 2200 2201 2202 2203 2204 2205 2206 2207 2208 2209 2210 2211 2212 2213 2214 2215 2216 2217 2218 2219 2220 2221 2222 2223 2224 2225 2226 2227 2228 2229 2230 2231 2232 2233 2234 2235 2236 2237 2238 2239 2240 2241 2242 2243 2244 2245 2246 2247 2248 2249 2250 2251 2252 2253 2254 2255 2256 2257 2258 2259 2260 2261 2262 2263 2264 2265 2266 2267 2268 2269 2270 2271 2272 2273 2274 2275 2276 2277 2278 2279 2280 2281 2282 2283 2284 2285 2286 2287 2288 2289 2290 2291 2292 2293 2294 2295 2296 2297 2298 2299 2300 2301 2302 2303 2304 2305 2306 2307 2308 2309 2310 2311 2312 2313 2314 2315 2316 2317 2318 2319 2320 2321 2322 2323 2324 2325 2326 2327 2328 2329 2330 2331 2332 2333 2334 2335 2336 2337 2338 2339 2340 2341 2342 2343 2344 2345 2346 2347 2348 2349 2350 2351 2352 2353 2354 2355 2356 2357 2358 2359 2360 2361 2362 2363 2364 2365 2366 2367 2368 2369 2370 2371 2372 2373 2374 2375 2376 2377 2378 2379 2380 2381 2382 2383 2384 2385 2386 2387 2388 2389 2390 2391 2392 2393 2394 2395 2396 2397 2398 2399 2400 2401 2402 2403 2404 2405 2406 2407 2408 2409 2410 2411 2412 2413 2414 2415 2416 2417 2418 2419 2420 2421 2422 2423 2424 2425 2426 2427 2428 2429 2430 2431 2432 2433 2434 2435 2436 2437 2438 2439 2440 2441 2442 2443 2444 2445 2446 2447 2448 2449 2450 2451 2452 2453 2454 2455 2456 2457 2458 2459 2460 2461 2462 2463 2464 2465 2466 2467 2468 2469 2470 2471 2472 2473 2474 2475 2476 2477 2478 2479 2480 2481 2482 2483 2484 2485 2486 2487 2488 2489 2490 2491 2492 2493 2494 2495 2496 2497 2498 2499 2500 2501 2502 2503 2504 2505 2506 2507 2508 2509 2510 2511 2512 2513 2514 2515 2516 2517 2518 2519 2520 2521 2522 2523 2524 2525 2526 2527 2528 2529 2530 2531 2532 2533 2534 2535 2536 2537 2538 2539 2540 2541 2542 2543 2544 2545 2546 2547 2548 2549 2550 2551 2552 2553 2554 2555 2556 2557 2558 2559 2560 2561 2562 2563 2564 2565 2566 2567 2568 2569 2570 2571 2572 2573 2574 2575 2576 2577 2578 2579 2580 2581 2582 2583 2584 2585 2586 2587 2588 2589 2590 2591 2592 2593 2594 2595 2596 2597 2598 2599 2600 2601 2602 2603 2604 2605 2606 2607 2608 2609 2610 2611 2612 2613 2614 2615 2616 2617 2618 2619 2620 2621 2622 2623 2624 2625 2626 2627 2628 2629 2630 2631 2632 2633 2634 2635 2636 2637 2638 2639 2640 2641 2642 2643 2644 2645 2646 2647 2648 2649 2650 2651 2652 2653 2654 2655 2656 2657 2658 2659 2660 2661 2662 2663 2664 2665 2666 2667 2668 2669 2670 2671 2672 2673 2674 2675 2676 2677 2678 2679 2680 2681 2682 2683 2684 2685 2686 2687 2688 2689 2690 2691 2692 2693 2694 2695 2696 2697 2698 2699 2700 2701 2702 2703 2704 2705 2706 2707 2708 2709 2710 2711 2712 2713 2714 2715 2716 2717 2718 2719 2720 2721 2722 2723 2724 2725 2726 2727 2728 2729 2730 2731 2732 2733 2734 2735 2736 2737 2738 2739 2740 2741 2742 2743 2744 2745 2746 2747 2748 2749 2750 2751 2752 2753 2754 2755 2756 2757 2758 2759 2760 2761 2762 2763 2764 2765 2766 2767 2768 2769 2770 2771 2772 2773 2774 2775 2776 2777 2778 2779 2780 2781 2782 2783 2784 2785 2786 2787 2788 2789 2790 2791 2792 2793 2794 2795 2796 2797 2798 2799 2800 2801 2802 2803 2804 2805 2806 2807 2808 2809 2810 2811 2812 2813 2814 2815 2816 2817 2818 2819 2820 2821 2822 2823 2824 2825 2826 2827 2828 2829 2830 2831 2832 2833 2834 2835 2836 2837 2838 2839 2840 2841 2842 2843 2844 2845 2846 2847 2848 2849 2850 2851 2852 2853 2854 2855 2856 2857 2858 2859 2860 2861 2862 2863 2864 2865 2866 2867 2868 2869 2870 2871 2872 2873 2874 2875 2876 2877 2878 2879 2880 2881 2882 2883 2884 2885 2886 2887 2888 2889 2890 2891 2892 2893 2894 2895 2896 2897 2898 2899 2900 2901 2902 2903 2904 2905 2906 2907 2908 2909 2910 2911 2912 2913 2914 2915 2916 2917 2918 2919 2920 2921 2922 2923 2924 2925 2926 2927 2928 2929 2930 2931 2932 2933 2934 2935 2936 2937 2938 2939 2940 2941 2942 2943 2944 2945 2946 2947 2948 2949 2950 2951 2952 2953 2954 2955 2956 2957 2958 2959 2960 2961 2962 2963 2964 2965 2966 2967 2968 2969 2970 2971 2972 2973 2974 2975 2976 2977 2978 2979 2980 2981 2982 2983 2984 2985 2986 2987 2988 2989 2990 2991 2992 2993 2994 2995 2996 2997 2998 2999 3000 3001 3002 3003 3004 3005 3006 3007 3008 3009 3010 3011 3012 3013 3014 3015 3016 3017 3018 3019 3020 3021 3022 3023 3024 3025 3026 3027 3028 3029 3030 3031 3032 3033 3034 3035 3036 3037 3038 3039 3040 3041 3042 3043 3044 3045 3046 3047 3048 3049 3050 3051 3052 3053 3054 3055 3056 3057 3058 3059 3060 3061 3062 3063 3064 3065 3066 3067 3068 3069 3070 3071 3072 3073 3074 3075 3076 3077 3078 3079 3080 3081 3082 3083 3084 3085 3086 3087 3088 3089 3090 3091 3092 3093 3094 3095 3096 3097 3098 3099 3100 3101 3102 3103 3104 3105 3106 3107 3108 3109 3110 3111 3112 3113 3114 3115 3116 3117 3118 3119 3120 3121 3122 3123 3124 3125 3126 3127 3128 3129 3130 3131 3132 3133 3134 3135 3136 3137 3138 3139 3140 3141 3142 3143 3144 3145 3146 3147 3148 3149 3150 3151 3152 3153 3154 3155 3156 3157 3158 3159 3160 3161 3162 3163 3164 3165 3166 3167 3168 3169 3170 3171 3172 3173 3174 3175 3176 3177 3178 3179 3180 3181 3182 3183 3184 3185 3186 3187 3188 3189 3190 3191 3192 3193 3194 3195 3196 3197 3198 3199 3200 3201 3202 3203 3204 3205 3206 3207 3208 3209 3210 3211 3212 3213 3214 3215 3216 3217 3218 3219 3220 3221 3222 3223 3224 3225 3226 3227 3228 3229 3230 3231 3232 3233 3234 3235 3236 3237 3238 3239 3240 3241 3242 3243 3244 3245 3246 3247 3248 3249 3250 3251 3252 3253 3254 3255 3256 3257 3258 3259 3260 3261 3262 3263 3264 3265 3266 3267 3268 3269 3270 3271 3272 3273 3274 3275 3276 3277 3278 3279 3280 3281 3282 3283 3284 3285 3286 3287 3288 3289 3290 3291 3292 3293 3294 3295 3296 3297 3298 3299 3300 3301 3302 3303 3304 3305 3306 3307 3308 3309 3310 3311 3312 3313 3314 3315 3316 3317 3318 3319 3320 3321 3322 3323 3324 3325 3326 3327 3328 3329 3330 3331 3332 3333 3334 3335 3336 3337 3338 3339 3340 3341 3342 3343 3344 3345 3346 3347 3348 3349 3350 3351 3352 3353 3354 3355 3356 3357 3358 3359 3360 3361 3362 3363 3364 3365 3366 3367 3368 3369 3370 3371 3372 3373 3374 3375 3376 3377 3378 3379 3380 3381 3382 3383 3384 3385 3386 3387 3388 3389 3390 3391 3392 3393 3394 3395 3396 3397 3398 3399 3400 3401 3402 3403 3404 3405 3406 3407 3408 3409 3410 3411 3412 3413 3414 3415 3416 3417 3418 3419 3420 3421 3422 3423 3424 3425 3426 3427 3428 3429 3430 3431 3432 3433 3434 3435 3436 3437 3438 3439 3440 3441 3442 3443 3444 3445 3446 3447 3448 3449 3450 3451 3452 3453 3454 3455 3456 3457 3458 3459 3460 3461 3462 3463 3464 3465 3466 3467 3468 3469 3470 3471 3472 3473 3474 3475 3476 3477 3478 3479 3480 3481 3482 3483 3484 3485 3486 3487 3488 3489 3490 3491 3492 3493 3494 3495 3496 3497 3498 3499 3500 3501 3502 3503 3504 3505 3506 3507 3508 3509 3510 3511 3512 3513 3514 3515 3516 3517 3518 3519 3520 3521 3522 3523 3524 3525 3526 3527 3528 3529 3530 3531 3532 3533 3534 3535 3536 3537 3538 3539 3540 3541 3542 3543 3544 3545 3546 3547 3548 3549 3550 3551 3552 3553 3554 3555 3556 3557 3558 3559 3560 3561 3562 3563 3564 3565 3566 3567 3568 3569 3570 3571 3572 3573 3574 3575 3576 3577 3578 3579 3580 3581 3582 3583 3584 3585 3586 3587 3588 3589 3590 3591 3592 3593 3594 3595 3596 3597 3598 3599 3600 3601 3602 3603 3604 3605 3606 3607 3608 3609 3610 3611 3612 3613 3614 3615 3616 3617 3618 3619 3620 3621 3622 3623 3624 3625 3626 3627 3628 3629 3630 3631 3632 3633 3634 3635 3636 3637 3638 3639 3640 3641 3642 3643 3644 3645 3646 3647 3648 3649 3650 3651 3652 3653 3654 3655 3656 3657 3658 3659 3660 3661 3662 3663 3664 3665 3666 3667 3668 3669 3670 3671 3672 3673 3674 3675 3676 3677 3678 3679 3680 3681 3682 3683 3684 3685 3686 3687 3688 3689 3690 3691 3692 3693 3694 3695 3696 3697 3698 3699 3700 3701 3702 3703 3704 3705 3706 3707 3708 3709 3710 3711 3712 3713 3714 3715 3716 3717 3718 3719 3720 3721 3722 3723 3724 3725 3726 3727 3728 3729 3730 3731 3732 3733 3734 3735 3736 3737 3738 3739 3740 3741 3742 3743 3744 3745 3746 3747 3748 3749 3750 3751 3752 3753 3754 3755 3756 3757 3758 3759 3760 3761 3762 3763 3764 3765 3766 3767 3768 3769 3770 3771 3772 3773 3774 3775 3776 3777 3778 3779 3780 3781 3782 3783 3784 3785 3786 3787 3788 3789 3790 3791 3792 3793 3794 3795 3796 3797 3798 3799 3800 3801 3802 3803 3804 3805 3806 3807 3808 3809 3810 3811 3812 3813 3814 3815 3816 3817 3818 3819 3820 3821 3822 3823 3824 3825 3826 3827 3828 3829 3830 3831 3832 3833 3834 3835 3836 3837 3838 3839 3840 3841 3842 3843 3844 3845 3846 3847 3848 3849 3850 3851 3852 3853 3854 3855 3856 3857 3858 3859 3860 3861 3862 3863 3864 3865 3866 3867 3868 3869 3870 3871 3872 3873 3874 3875 3876 3877 3878 3879 3880 3881 3882 3883 3884 3885 3886 3887 3888 3889 3890 3891 3892 3893 3894 3895 3896 3897 3898 3899 3900 3901 3902 3903 3904 3905 3906 3907 3908 3909 3910 3911 3912 3913 3914 3915 3916 3917 3918 3919 3920 3921 3922 3923 3924 3925 3926 3927 3928 3929 3930 3931 3932 3933 3934 3935 3936 3937 3938 3939 3940 3941 3942 3943 3944 3945 3946 3947 3948 3949 3950 3951 3952 3953 3954 3955 3956 3957 3958 3959 3960 3961 3962 3963 3964 3965 3966 3967 3968 3969 3970 3971 3972 3973 3974 3975 3976 3977 3978 3979 3980 3981 3982 3983 3984 3985 3986 3987 3988 3989 3990 3991 3992 3993 3994 3995 3996 3997 3998 3999 4000 4001 4002 4003 4004 4005 4006 4007 4008 4009 4010 4011 4012 4013 4014 4015 4016 4017 4018 4019 4020 4021 4022 4023 4024 4025 4026 4027 4028 4029 4030 4031 4032 4033 4034 4035 4036 4037 4038 4039 4040 4041 4042 4043 4044 4045 4046 4047 4048 4049 4050 4051 4052 4053 4054 4055 4056 4057 4058 4059 4060 4061 4062 4063 4064 4065 4066 4067 4068 4069 4070 4071 4072 4073 4074 4075 4076 4077 4078 4079 4080 4081 4082 4083 4084 4085 4086 4087 4088 4089 4090 4091 4092 4093 4094 4095 4096 4097 4098 4099 4100 4101 4102 4103 4104 4105 4106 4107 4108 4109 4110 4111 4112 4113 4114 4115 4116 4117 4118 4119 4120 4121 4122 4123 4124 4125 4126 4127 4128 4129 4130 4131 4132 4133 4134 4135 4136 4137 4138 4139 4140 4141 4142 4143 4144 4145 4146 4147 4148 4149 4150 4151 4152 4153 4154 4155 4156 4157 4158 4159 4160 4161 4162 4163 4164 4165 4166 4167 4168 4169 4170 4171 4172 4173 4174 4175 4176 4177 4178 4179 4180 4181 4182 4183 4184 4185 4186 4187 4188 4189 4190 4191 4192 4193 4194 4195 4196 4197 4198 4199 4200 4201 4202 4203 4204 4205 4206 4207 4208 4209 4210 4211 4212 4213 4214 4215 4216 4217 4218 4219 4220 4221 4222 4223 4224 4225 4226 4227 4228 4229 4230 4231 4232 4233 4234 4235 4236 4237 4238 4239 4240 4241 4242 4243 4244 4245 4246 4247 4248 4249 4250 4251 4252 4253 4254 4255 4256 4257 4258 4259 4260 4261 4262 4263 4264 4265 4266 4267 4268 4269 4270 4271 4272 4273 4274 4275 4276 4277 4278 4279 4280 4281 4282 4283 4284 4285 4286 4287 4288 4289 4290 4291 4292 4293 4294 4295 4296 4297 4298 4299 4300 4301 4302 4303 4304 4305 4306 4307 4308 4309 4310 4311 4312 4313 4314 4315 4316 4317 4318 4319 4320 4321 4322 4323 4324 4325 4326 4327 4328 4329 4330 4331 4332 4333 4334 4335 4336 4337 4338 4339 4340 4341 4342 4343 4344 4345 4346 4347 4348 4349 4350 4351 4352 4353 4354 4355 4356 4357 4358 4359 4360 4361 4362 4363 4364 4365 4366 4367 4368 4369 4370 4371 4372 4373 4374 4375 4376 4377 4378 4379 4380 4381 4382 4383 4384 4385 4386 4387 4388 4389 4390 4391 4392 4393 4394 4395 4396 4397 4398 4399 4400 4401 4402 4403 4404 4405 4406 4407 4408 4409 4410 4411 4412 4413 4414 4415 4416 4417 4418 4419 4420 4421 4422 4423 4424 4425 4426 4427 4428 4429 4430 4431 4432 4433 4434 4435 4436 4437 4438 4439 4440 4441 4442 4443 4444 4445 4446 4447 4448 4449 4450 4451 4452 4453 4454 4455 4456 4457 4458 4459 4460 4461 4462 4463 4464 4465 4466 4467 4468 4469 4470 4471 4472 4473 4474 4475 4476 4477 4478 4479 4480 4481 4482 4483 4484 4485 4486 4487 4488 4489 4490 4491 4492 4493 4494 4495 4496 4497 4498 4499 4500 4501 4502 4503 4504 4505 4506 4507 4508 4509 4510 4511 4512 4513 4514 4515 4516 4517 4518 4519 4520 4521 4522 4523 4524 4525 4526 4527 4528 4529 4530 4531 4532 4533 4534 4535 4536 4537 4538 4539 4540 4541 4542 4543 4544 4545 4546 4547 4548 4549 4550 4551 4552 4553 4554 4555 4556 4557 4558 4559 4560 4561 4562 4563 4564 4565 4566 4567 4568 4569 4570 4571 4572 4573 4574 4575 4576 4577 4578 4579 4580 4581 4582 4583 4584 4585 4586 4587 4588 4589 4590 4591 4592 4593 4594 4595 4596 4597 4598 4599 4600 4601 4602 4603 4604 4605 4606 4607 4608 4609 4610 4611 4612 4613 4614 4615 4616 4617 4618 4619 4620 4621 4622 4623 4624 4625 4626 4627 4628 4629 4630 4631 4632 4633 4634 4635 4636 4637 4638 4639 4640 4641 4642 4643 4644 4645 4646 4647 4648 4649 4650 4651 4652 4653 4654 4655 4656 4657 4658 4659 4660 4661 4662 4663 4664 4665 4666 4667 4668 4669 4670 4671 4672 4673 4674 4675 4676 4677 4678 4679 4680 4681 4682 4683 4684 4685 4686 4687 4688 4689 4690 4691 4692 4693 4694 4695 4696 4697 4698 4699 4700 4701 4702 4703 4704 4705 4706 4707 4708 4709 4710 4711 4712 4713 4714 4715 4716 4717 4718 4719 4720 4721 4722 4723 4724 4725 4726 4727 4728 4729 4730 4731 4732 4733 4734 4735 4736 4737 4738 4739 4740 4741 4742 4743 4744 4745 4746 4747 4748 4749 4750 4751 4752 4753 4754 4755 4756 4757 4758 4759 4760 4761 4762 4763 4764 4765 4766 4767 4768 4769 4770 4771 4772 4773 4774 4775 4776 4777 4778 4779 4780 4781 4782 4783 4784 4785 4786 4787 4788 4789 4790 4791 4792 4793 4794 4795 4796 4797 4798 4799 4800 4801 4802 4803 4804 4805 4806 4807 4808 4809 4810 4811 4812 4813 4814 4815 4816 4817 4818 4819 4820 4821 4822 4823 4824 4825 4826 4827 4828 4829 4830 4831 4832 4833 4834 4835 4836 4837 4838 4839 4840 4841 4842 4843 4844 4845 4846 4847 4848 4849 4850 4851 4852 4853 4854 4855 4856 4857 4858 4859 4860 4861 4862 4863 4864 4865 4866 4867 4868 4869 4870 4871 4872 4873 4874 4875 4876 4877 4878 4879 4880 4881 4882 4883 4884 4885 4886 4887 4888 4889 4890 4891 4892 4893 4894 4895 4896 4897 4898 4899 4900 4901 4902 4903 4904 4905 4906 4907 4908 4909 4910 4911 4912 4913 4914 4915 4916 4917 4918 4919 4920 4921 4922 4923 4924 4925 4926 4927 4928 4929 4930 4931 4932 4933 4934 4935 4936 4937 4938 4939 4940 4941 4942 4943 4944 4945 4946 4947 4948 4949 4950 4951 4952 4953 4954 4955 4956 4957 4958 4959 4960 4961 4962 4963 4964 4965 4966 4967 4968 4969 4970 4971 4972 4973 4974 4975 4976 4977 4978 4979 4980 4981 4982 4983 4984 4985 4986 4987 4988 4989 4990 4991 4992 4993 4994 4995 4996 4997 4998 4999 5000 5001 5002 5003 5004 5005 5006 5007 5008 5009 5010 5011 5012 5013 5014 5015 5016 5017 5018 5019 5020 5021 5022 5023 5024 5025 5026 5027 5028 5029 5030 5031 5032 5033 5034 5035 5036 5037 5038 5039 5040 5041 5042 5043 5044 5045 5046 5047 5048 5049 5050 5051 5052 5053 5054 5055 5056 5057 5058 5059 5060 5061 5062 5063 5064 5065 5066 5067 5068 5069 5070 5071 5072 5073 5074 5075 5076 5077 5078 5079 5080 5081 5082 5083 5084 5085 5086 5087 5088 5089 5090 5091 5092 5093 5094 5095 5096 5097 5098 5099 5100 5101 5102 5103 5104 5105 5106 5107 5108 5109 5110 5111 5112 5113 5114 5115 5116 5117 5118 5119 5120 5121 5122 5123 5124 5125 5126 5127 5128 5129 5130 5131 5132 5133 5134 5135 5136 5137 5138 5139 5140 5141 5142 5143 5144 5145 5146 5147 5148 5149 5150 5151 5152 5153 5154 5155 5156 5157 5158 5159 5160 5161 5162 5163 5164 5165 5166 5167 5168 5169 5170 5171 5172 5173 5174 5175 5176 5177 5178 5179 5180 5181 5182 5183 5184 5185 5186 5187 5188 5189 5190 5191 5192 5193 5194 5195 5196 5197 5198 5199 5200 5201 5202 5203 5204 5205 5206 5207 5208 5209 5210 5211 5212 5213 5214 5215 5216 5217 5218 5219 5220 5221 5222 5223 5224 5225 5226 5227 5228 5229 5230 5231 5232 5233 5234 5235 5236 5237 5238 5239 5240 5241 5242 5243 5244 5245 5246 5247 5248 5249 5250 5251 5252 5253 5254 5255 5256 5257 5258 5259 5260 5261 5262 5263 5264 5265 5266 5267 5268 5269 5270 5271 5272 5273 5274 5275 5276 5277 5278 5279 5280 5281 5282 5283 5284 5285 5286 5287 5288 5289 5290 5291 5292 5293 5294 5295 5296 5297 5298 5299 5300 5301 5302 5303 5304 5305 5306 5307 5308 5309 5310 5311 5312 5313 5314 5315 5316 5317 5318 5319 5320 5321 5322 5323 5324 5325 5326 5327 5328 5329 5330 5331 5332 5333 5334 5335 5336 5337 5338 5339 5340 5341 5342 5343 5344 5345 5346 5347 5348 5349 5350 5351 5352 5353 5354 5355 5356 5357 5358 5359 5360 5361 5362 5363 5364 5365 5366 5367 5368 5369 5370 5371 5372 5373 5374 5375 5376 5377 5378 5379 5380 5381 5382 5383 5384 5385 5386 5387 5388 5389 5390 5391 5392 5393 5394 5395 5396 5397 5398 5399 5400 5401 5402 5403 5404 5405 5406 5407 5408 5409 5410 5411 5412 5413 5414 5415 5416 5417 5418 5419 5420 5421 5422 5423 5424 5425 5426 5427 5428 5429 5430 5431 5432 5433 5434 5435 5436 5437 5438 5439 5440 5441 5442 5443 5444 5445 5446 5447 5448 5449 5450 5451 5452 5453 5454 5455 5456 5457 5458 5459 5460 5461 5462 5463 5464 5465 5466 5467 5468 5469 5470 5471 5472 5473 5474 5475 5476 5477 5478 5479 5480 5481 5482 5483 5484 5485 5486 5487 5488 5489 5490 5491 5492 5493 5494 5495 5496 5497 5498 5499 5500 5501 5502 5503 5504 5505 5506 5507 5508 5509 5510 5511 5512 5513 5514 5515 5516 5517 5518 5519 5520 5521 5522 5523 5524 5525 5526 5527 5528 5529 5530 5531 5532 5533 5534 5535 5536 5537 5538 5539 5540 5541 5542 5543 5544 5545 5546 5547 5548 5549 5550 5551 5552 5553 5554 5555 5556 5557 5558 5559 5560 5561 5562 5563 5564 5565 5566 5567 5568 5569 5570 5571 5572 5573 5574 5575 5576 5577 5578 5579 5580 5581 5582 5583 5584 5585 5586 5587 5588 5589 5590 5591 5592 5593 5594 5595 5596 5597 5598 5599 5600 5601 5602 5603 5604 5605 5606 5607 5608 5609 5610 5611 5612 5613 5614 5615 5616 5617 5618 5619 5620 5621 5622 5623 5624 5625 5626 5627 5628 5629 5630 5631 5632 5633 5634 5635 5636 5637 5638 5639 5640 5641 5642 5643 5644 5645 5646 5647 5648 5649 5650 5651 5652 5653 5654 5655 5656 5657 5658 5659 5660 5661 5662 5663 5664 5665 5666 5667 5668 5669 5670 5671 5672 5673 5674 5675 5676 5677 5678 5679 5680 5681 5682 5683 5684 5685 5686 5687 5688 5689 5690 5691 5692 5693 5694 5695 5696 5697 5698 5699 5700 5701 5702 5703 5704 5705 5706 5707 5708 5709 5710 5711 5712 5713 5714 5715 5716 5717 5718 5719 5720 5721 5722 5723 5724 5725 5726 5727 5728 5729 5730 5731 5732 5733 5734 5735 5736 5737 5738 5739 5740 5741 5742 5743 5744 5745 5746 5747 5748 5749 5750 5751 5752 5753 5754 5755 5756 5757 5758 5759 5760 5761 5762 5763 5764 5765 5766 5767 5768 5769 5770 5771 5772 5773 5774 5775 5776 5777 5778 5779 5780 5781 5782 5783 5784 5785 5786 5787 5788 5789 5790 5791 5792 5793 5794 5795 5796 5797 5798 5799 5800 5801 5802 5803 5804 5805 5806 5807 5808 5809 5810 5811 5812 5813 5814 5815 5816 5817 5818 5819 5820 5821 5822 5823 5824 5825 5826 5827 5828 5829 5830 5831 5832 5833 5834 5835 5836 5837 5838 5839 5840 5841 5842 5843 5844 5845 5846 5847 5848 5849 5850 5851 5852 5853 5854 5855 5856 5857 5858 5859 5860 5861 5862 5863 5864 5865 5866 5867 5868 5869 5870 5871 5872 5873 5874 5875 5876 5877 5878 5879 5880 5881 5882 5883 5884 5885 5886 5887 5888 5889 5890 5891 5892 5893 5894 5895 5896 5897 5898 5899 5900 5901 5902 5903 5904 5905 5906 5907 5908 5909 5910 5911 5912 5913 5914 5915 5916 5917 5918 5919 5920 5921 5922 5923 5924 5925 5926 5927 5928 5929 5930 5931 5932 5933 5934 5935 5936 5937 5938 5939 5940 5941 5942 5943 5944 5945 5946 5947 5948 5949 5950 5951 5952 5953 5954 5955 5956 5957 5958 5959 5960 5961 5962 5963 5964 5965 5966 5967 5968 5969 5970 5971 5972 5973 5974 5975 5976 5977 5978 5979 5980 5981 5982 5983 5984 5985 5986 5987 5988 5989 5990 5991 5992 5993 5994 5995 5996 5997 5998 5999 6000 6001 6002 6003 6004 6005 6006 6007 6008 6009 6010 6011 6012 6013 6014 6015 6016 6017 6018 6019 6020 6021 6022 6023 6024 6025 6026 6027 6028 6029 6030 6031 6032 6033 6034 6035 6036 6037 6038 6039 6040 6041 6042 6043 6044 6045 6046 6047 6048 6049 6050 6051 6052 6053 6054 6055 6056 6057 6058 6059 6060 6061 6062 6063 6064 6065 6066 6067 6068 6069 6070 6071 6072 6073 6074 6075 6076 6077 6078 6079 6080 6081 6082 6083 6084 6085 6086 6087 6088 6089 6090 6091 6092 6093 6094 6095 6096 6097 6098 6099 6100 6101 6102 6103 6104 6105 6106 6107 6108 6109 6110 6111 6112 6113 6114 6115 6116 6117 6118 6119 6120 6121 6122 6123 6124 6125 6126 6127 6128 6129 6130 6131 6132 6133 6134 6135 6136 6137 6138 6139 6140 6141 6142 6143 6144 6145 6146 6147 6148 6149 6150 6151 6152 6153 6154 6155 6156 6157 6158 6159 6160 6161 6162 6163 6164 6165 6166 6167 6168 6169 6170 6171 6172 6173 6174 6175 6176 6177 6178 6179 6180 6181 6182 6183 6184 6185 6186 6187 6188 6189 6190 6191 6192 6193 6194 6195 6196 6197 6198 6199 6200 6201 6202 6203 6204 6205 6206 6207 6208 6209 6210 6211 6212 6213 6214 6215 6216 6217 6218 6219 6220 6221 6222 6223 6224 6225 6226 6227 6228 6229 6230 6231 6232 6233 6234 6235 6236 6237 6238 6239 6240 6241 6242 6243 6244 6245 6246 6247 6248 6249 6250 6251 6252 6253 6254 6255 6256 6257 6258 6259 6260 6261 6262 6263 6264 6265 6266 6267 6268 6269 6270 6271 6272 6273 6274 6275 6276 6277 6278 6279 6280 6281 6282 6283 6284 6285 6286 6287 6288 6289 6290 6291 6292 6293 6294 6295 6296 6297 6298 6299 6300 6301 6302 6303 6304 6305 6306 6307 6308 6309 6310 6311 6312 6313 6314 6315 6316 6317 6318 6319 6320 6321 6322 6323 6324 6325 6326 6327 6328 6329 6330 6331 6332 6333 6334 6335 6336 6337 6338 6339 6340 6341 6342 6343 6344 6345 6346 6347 6348 6349 6350 6351 6352 6353 6354 6355 6356 6357 6358 6359 6360 6361 6362 6363 6364 6365 6366 6367 6368 6369 6370 6371 6372 6373 6374 6375 6376 6377 6378 6379 6380 6381 6382 6383 6384 6385 6386 6387 6388 6389 6390 6391 6392 6393 6394 6395 6396 6397 6398 6399 6400 6401 6402 6403 6404 6405 6406 6407 6408 6409 6410 6411 6412 6413 6414 6415 6416 6417 6418 6419 6420 6421 6422 6423 6424 6425 6426 6427 6428 6429 6430 6431 6432 6433 6434 6435 6436 6437 6438 6439 6440 6441 6442 6443 6444 6445 6446 6447 6448 6449 6450 6451 6452 6453 6454 6455 6456 6457 6458 6459 6460 6461 6462 6463 6464 6465 6466 6467 6468 6469 6470 6471 6472 6473 6474 6475 6476 6477 6478 6479 6480 6481 6482 6483 6484 6485 6486 6487 6488 6489 6490 6491 6492 6493 6494 6495 6496 6497 6498 6499 6500 6501 6502 6503 6504 6505 6506 6507 6508 6509 6510 6511 6512 6513 6514 6515 6516 6517 6518 6519 6520 6521 6522 6523 6524 6525 6526 6527 6528 6529 6530 6531 6532 6533 6534 6535 6536 6537 6538 6539 6540 6541 6542 6543 6544 6545 6546 6547 6548 6549 6550 6551 6552 6553 6554 6555 6556 6557 6558 6559 6560 6561 6562 6563 6564 6565 6566 6567 6568 6569 6570 6571 6572 6573 6574 6575 6576 6577 6578 6579 6580 6581 6582 6583 6584 6585 6586 6587 6588 6589 6590 6591 6592 6593 6594 6595 6596 6597 6598 6599 6600 6601 6602 6603 6604 6605 6606 6607 6608 6609 6610 6611 6612 6613 6614 6615 6616 6617 6618 6619 6620 6621 6622 6623 6624 6625 6626 6627 6628 6629 6630 6631 6632 6633 6634 6635 6636 6637 6638 6639 6640 6641 6642 6643 6644 6645 6646 6647 6648 6649 6650 6651 6652 6653 6654 6655 6656 6657 6658 6659 6660 6661 6662 6663 6664 6665 6666 6667 6668 6669 6670 6671 6672 6673 6674 6675 6676 6677 6678 6679 6680 6681 6682 6683 6684 6685 6686 6687 6688 6689 6690 6691 6692 6693 6694 6695 6696 6697 6698 6699 6700 6701 6702 6703 6704 6705 6706 6707 6708 6709 6710 6711 6712 6713 6714 6715 6716 6717 6718 6719 6720 6721 6722 6723 6724 6725 6726 6727 6728 6729 6730 6731 6732 6733 6734 6735 6736 6737 6738 6739 6740 6741 6742 6743 6744 6745 6746 6747 6748 6749 6750 6751 6752 6753 6754 6755 6756 6757 6758 6759 6760 6761 6762 6763 6764 6765 6766 6767 6768 6769 6770 6771 6772 6773 6774 6775 6776 6777 6778 6779 6780 6781 6782 6783 6784 6785 6786 6787 6788 6789 6790 6791 6792 6793 6794 6795 6796 6797 6798 6799 6800 6801 6802 6803 6804 6805 6806 6807 6808 6809 6810 6811 6812 6813 6814 6815 6816 6817 6818 6819 6820 6821 6822 6823 6824 6825 6826 6827 6828 6829 6830 6831 6832 6833 6834 6835 6836 6837 6838 6839 6840 6841 6842 6843 6844 6845 6846 6847 6848 6849 6850 6851 6852 6853 6854 6855 6856 6857 6858 6859 6860 6861 6862 6863 6864 6865 6866 6867 6868 6869 6870 6871 6872 6873 6874 6875 6876 6877 6878 6879 6880 6881 6882 6883 6884 6885 6886 6887 6888 6889 6890 6891 6892 6893 6894 6895 6896 6897 6898 6899 6900 6901 6902 6903 6904 6905 6906 6907 6908 6909 6910 6911 6912 6913 6914 6915 6916 6917 6918 6919 6920 6921 6922 6923 6924 6925 6926 6927 6928 6929 6930 6931 6932 6933 6934 6935 6936 6937 6938 6939 6940 6941 6942 6943 6944 6945 6946 6947 6948 6949 6950 6951 6952 6953 6954 6955 6956 6957 6958 6959 6960 6961 6962 6963 6964 6965 6966 6967 6968 6969 6970 6971 6972 6973 6974 6975 6976 6977 6978 6979 6980 6981 6982 6983 6984 6985 6986 6987 6988 6989 6990 6991 6992 6993 6994 6995 6996 6997 6998 6999 7000 7001 7002 7003 7004 7005 7006 7007 7008 7009 7010 7011 7012 7013 7014 7015 7016 7017 7018 7019 7020 7021 7022 7023 7024 7025 7026 7027 7028 7029 7030 7031 7032 7033 7034 7035 7036 7037 7038 7039 7040 7041 7042 7043 7044 7045 7046 7047 7048 7049 7050 7051 7052 7053 7054 7055 7056 7057 7058 7059 7060 7061 7062 7063 7064 7065 7066 7067 7068 7069 7070 7071 7072 7073 7074 7075 7076 7077 7078 7079 7080 7081 7082 7083 7084 7085 7086 7087 7088 7089 7090 7091 7092 7093 7094 7095 7096 7097 7098 7099 7100 7101 7102 7103 7104 7105 7106 7107 7108 7109 7110 7111 7112 7113 7114 7115 7116 7117 7118 7119 7120 7121 7122 7123 7124 7125 7126 7127 7128 7129 7130 7131 7132 7133 7134 7135 7136 7137 7138 7139 7140 7141 7142 7143 7144 7145 7146 7147 7148 7149 7150 7151 7152 7153 7154 7155 7156 7157 7158 7159 7160 7161 7162 7163 7164 7165 7166 7167 7168 7169 7170 7171 7172 7173 7174 7175 7176 7177 7178 7179 7180 7181 7182 7183 7184 7185 7186 7187 7188 7189 7190 7191 7192 7193 7194 7195 7196 7197 7198 7199 7200 7201 7202 7203 7204 7205 7206 7207 7208 7209 7210 7211 7212 7213 7214 7215 7216 7217 7218 7219 7220 7221 7222 7223 7224 7225 7226 7227 7228 7229 7230 7231 7232 7233 7234 7235 7236 7237 7238 7239 7240 7241 7242 7243 7244 7245 7246 7247 7248 7249 7250 7251 7252 7253 7254 7255 7256 7257 7258 7259 7260 7261 7262 7263 7264 7265 7266 7267 7268 7269 7270 7271 7272 7273 7274 7275 7276 7277 7278 7279 7280 7281 7282 7283 7284 7285 7286 7287 7288 7289 7290 7291 7292 7293 7294 7295 7296 7297 7298 7299 7300 7301 7302 7303 7304 7305 7306 7307 7308 7309 7310 7311 7312 7313 7314 7315 7316 7317 7318 7319 7320 7321 7322 7323 7324 7325 7326 7327 7328 7329 7330 7331 7332 7333 7334 7335 7336 7337 7338 7339 7340 7341 7342 7343 7344 7345 7346 7347 7348 7349 7350 7351 7352 7353 7354 7355 7356 7357 7358 7359 7360 7361 7362 7363 7364 7365 7366 7367 7368 7369 7370 7371 7372 7373 7374 7375 7376 7377 7378 7379 7380 7381 7382 7383 7384 7385 7386 7387 7388 7389 7390 7391 7392 7393 7394 7395 7396 7397 7398 7399 7400 7401 7402 7403 7404 7405 7406 7407 7408 7409 7410 7411 7412 7413 7414 7415 7416 7417 7418 7419 7420 7421 7422 7423 7424 7425 7426 7427 7428 7429 7430 7431 7432 7433 7434 7435 7436 7437 7438 7439 7440 7441 7442 7443 7444 7445 7446 7447 7448 7449 7450 7451 7452 7453 7454 7455 7456 7457 7458 7459 7460 7461 7462 7463 7464 7465 7466 7467 7468 7469 7470 7471 7472 7473 7474 7475 7476 7477 7478 7479 7480 7481 7482 7483 7484 7485 7486 7487 7488 7489 7490 7491 7492 7493 7494 7495 7496 7497 7498 7499 7500 7501 7502 7503 7504 7505 7506 7507 7508 7509 7510 7511 7512 7513 7514 7515 7516 7517 7518 7519 7520 7521 7522 7523 7524 7525 7526 7527 7528 7529 7530 7531 7532 7533 7534 7535 7536 7537 7538 7539 7540 7541 7542 7543 7544 7545 7546 7547 7548 7549 7550 7551 7552 7553 7554 7555 7556 7557 7558 7559 7560 7561 7562 7563 7564 7565 7566 7567 7568 7569 7570 7571 7572 7573 7574 7575 7576 7577 7578 7579 7580 7581 7582 7583 7584 7585 7586 7587 7588 7589 7590 7591 7592 7593 7594 7595 7596 7597 7598 7599 7600 7601 7602 7603 7604 7605 7606 7607 7608 7609 7610 7611 7612 7613 7614 7615 7616 7617 7618 7619 7620 7621 7622 7623 7624 7625 7626 7627 7628 7629 7630 7631 7632 7633 7634 7635 7636 7637 7638 7639 7640 7641 7642 7643 7644 7645 7646 7647 7648 7649 7650 7651 7652 7653 7654 7655 7656 7657 7658 7659 7660 7661 7662 7663 7664 7665 7666 7667 7668 7669 7670 7671 7672 7673 7674 7675 7676 7677 7678 7679 7680 7681 7682 7683 7684 7685 7686 7687 7688 7689 7690 7691 7692 7693 7694 7695 7696 7697 7698 7699 7700 7701 7702 7703 7704 7705 7706 7707 7708 7709 7710 7711 7712 7713 7714 7715 7716 7717 7718 7719 7720 7721 7722 7723 7724 7725 7726 7727 7728 7729 7730 7731 7732 7733 7734 7735 7736 7737 7738 7739 7740 7741 7742 7743 7744 7745 7746 7747 7748 7749 7750 7751 7752 7753 7754 7755 7756 7757 7758 7759 7760 7761 7762 7763 7764 7765 7766 7767 7768 7769 7770 7771 7772 7773 7774 7775 7776 7777 7778 7779 7780 7781 7782 7783 7784 7785 7786 7787 7788 7789 7790 7791 7792 7793 7794 7795 7796 7797 7798 7799 7800 7801 7802 7803 7804 7805 7806 7807 7808 7809 7810 7811 7812 7813 7814 7815 7816 7817 7818 7819 7820 7821 7822 7823 7824 7825 7826 7827 7828 7829 7830 7831 7832 7833 7834 7835 7836 7837 7838 7839 7840 7841 7842 7843 7844 7845 7846 7847 7848 7849 7850 7851 7852 7853 7854 7855 7856 7857 7858 7859 7860 7861 7862 7863 7864 7865 7866 7867 7868 7869 7870 7871 7872 7873 7874 7875 7876 7877 7878 7879 7880 7881 7882 7883 7884 7885 7886 7887 7888 7889 7890 7891 7892 7893 7894 7895 7896 7897 7898 7899 7900 7901 7902 7903 7904 7905 7906 7907 7908 7909 7910 7911 7912 7913 7914 7915 7916 7917 7918 7919 7920 7921 7922 7923 7924 7925 7926 7927 7928 7929 7930 7931 7932 7933 7934 7935 7936 7937 7938 7939 7940 7941 7942 7943 7944 7945 7946 7947 7948 7949 7950 7951 7952 7953 7954 7955 7956 7957 7958 7959 7960 7961 7962 7963 7964 7965 7966 7967 7968 7969 7970 7971 7972 7973 7974 7975 7976 7977 7978 7979 7980 7981 7982 7983 7984 7985 7986 7987 7988 7989 7990 7991 7992 7993 7994 7995 7996 7997 7998 7999 8000 8001 8002 8003 8004 8005 8006 8007 8008 8009 8010 8011 8012 8013 8014 8015 8016 8017 8018 8019 8020 8021 8022 8023 8024 8025 8026 8027 8028 8029 8030 8031 8032 8033 8034 8035 8036 8037 8038 8039 8040 8041 8042 8043 8044 8045 8046 8047 8048 8049 8050 8051 8052 8053 8054 8055 8056 8057 8058 8059 8060 8061 8062 8063 8064 8065 8066 8067 8068 8069 8070 8071 8072 8073 8074 8075 8076 8077 8078 8079 8080 8081 8082 8083 8084 8085 8086 8087 8088 8089 8090 8091 8092 8093 8094 8095 8096 8097 8098 8099 8100 8101 8102 8103 8104 8105 8106 8107 8108 8109 8110 8111 8112 8113 8114 8115 8116 8117 8118 8119 8120 8121 8122 8123 8124 8125 8126 8127 8128 8129 8130 8131 8132 8133 8134 8135 8136 8137 8138 8139 8140 8141 8142 8143 8144 8145 8146 8147 8148 8149 8150 8151 8152 8153 8154 8155 8156 8157 8158 8159 8160 8161 8162 8163 8164 8165 8166 8167 8168 8169 8170 8171 8172 8173 8174 8175 8176 8177 8178 8179 8180 8181 8182 8183 8184 8185 8186 8187 8188 8189 8190 8191 8192 8193 8194 8195 8196 8197 8198 8199 8200 8201 8202 8203 8204 8205 8206 8207 8208 8209 8210 8211 8212 8213 8214 8215 8216 8217 8218 8219 8220 8221 8222 8223 8224 8225 8226 8227 8228 8229 8230 8231 8232 8233 8234 8235 8236 8237 8238 8239 8240 8241 8242 8243 8244 8245 8246 8247 8248 8249 8250 8251 8252 8253 8254 8255 8256 8257 8258 8259 8260 8261 8262 8263 8264 8265 8266 8267 8268 8269 8270 8271 8272 8273 8274 8275 8276 8277 8278 8279 8280 8281 8282 8283 8284 8285 8286 8287 8288 8289 8290 8291 8292 8293 8294 8295 8296 8297 8298 8299 8300 8301 8302 8303 8304 8305 8306 8307 8308 8309 8310 8311 8312 8313 8314 8315 8316 8317 8318 8319 8320 8321 8322 8323 8324 8325 8326 8327 8328 8329 8330 8331 8332 8333 8334 8335 8336 8337 8338 8339 8340 8341 8342 8343 8344 8345 8346 8347 8348 8349 8350 8351 8352 8353 8354 8355 8356 8357 8358 8359 8360 8361 8362 8363 8364 8365 8366 8367 8368 8369 8370 8371 8372 8373 8374 8375 8376 8377 8378 8379 8380 8381 8382 8383 8384 8385 8386 8387 8388 8389 8390 8391 8392 8393 8394 8395 8396 8397 8398 8399 8400 8401 8402 8403 8404 8405 8406 8407 8408 8409 8410 8411 8412 8413 8414 8415 8416 8417 8418 8419 8420 8421 8422 8423 8424 8425 8426 8427 8428 8429 8430 8431 8432 8433 8434 8435 8436 8437 8438 8439 8440 8441 8442 8443 8444 8445 8446 8447 8448 8449 8450 8451 8452 8453 8454 8455 8456 8457 8458 8459 8460 8461 8462 8463 8464 8465 8466 8467 8468 8469 8470 8471 8472 8473 8474 8475 8476 8477 8478 8479 8480 8481 8482 8483 8484 8485 8486 8487 8488 8489 8490 8491 8492 8493 8494 8495 8496 8497 8498 8499 8500 8501 8502 8503 8504 8505 8506 8507 8508 8509 8510 8511 8512 8513 8514 8515 8516 8517 8518 8519 8520 8521 8522 8523 8524 8525 8526 8527 8528 8529 8530 8531 8532 8533 8534 8535 8536 8537 8538 8539 8540 8541 8542 8543 8544 8545 8546 8547 8548 8549 8550 8551 8552 8553 8554 8555 8556 8557 8558 8559 8560 8561 8562 8563 8564 8565 8566 8567 8568 8569 8570 8571 8572 8573 8574 8575 8576 8577 8578 8579 8580 8581 8582 8583 8584 8585 8586 8587 8588 8589 8590 8591 8592 8593 8594 8595 8596 8597 8598 8599 8600 8601 8602 8603 8604 8605 8606 8607 8608 8609 8610 8611 8612 8613 8614 8615 8616 8617 8618 8619 8620 8621 8622 8623 8624 8625 8626 8627 8628 8629 8630 8631 8632 8633 8634 8635 8636 8637 8638 8639 8640 8641 8642 8643 8644 8645 8646 8647 8648 8649 8650 8651 8652 8653 8654 8655 8656 8657 8658 8659 8660 8661 8662 8663 8664 8665 8666 8667 8668 8669 8670 8671 8672 8673 8674 8675 8676 8677 8678 8679 8680 8681 8682 8683 8684 8685 8686 8687 8688 8689 8690 8691 8692 8693 8694 8695 8696 8697 8698 8699 8700 8701 8702 8703 8704 8705 8706 8707 8708 8709 8710 8711 8712 8713 8714 8715 8716 8717 8718 8719 8720 8721 8722 8723 8724 8725 8726 8727 8728 8729 8730 8731 8732 8733 8734 8735 8736 8737 8738 8739 8740 8741 8742 8743 8744 8745 8746 8747 8748 8749 8750 8751 8752 8753 8754 8755 8756 8757 8758 8759 8760 8761 8762 8763 8764 8765 8766 8767 8768 8769 8770 8771 8772 8773 8774 8775 8776 8777 8778 8779 8780 8781 8782 8783 8784 8785 8786 8787 8788 8789 8790 8791 8792 8793 8794 8795 8796 8797 8798 8799 8800 8801 8802 8803 8804 8805 8806 8807 8808 8809 8810 8811 8812 8813 8814 8815 8816 8817 8818 8819 8820 8821 8822 8823 8824 8825 8826 8827 8828 8829 8830 8831 8832 8833 8834 8835 8836 8837 8838 8839 8840 8841 8842 8843 8844 8845 8846 8847 8848 8849 8850 8851 8852 8853 8854 8855 8856 8857 8858 8859 8860 8861 8862 8863 8864 8865 8866 8867 8868 8869 8870 8871 8872 8873 8874 8875 8876 8877 8878 8879 8880 8881 8882 8883 8884 8885 8886 8887 8888 8889 8890 8891 8892 8893 8894 8895 8896 8897 8898 8899 8900 8901 8902 8903 8904 8905 8906 8907 8908 8909 8910 8911 8912 8913 8914 8915 8916 8917 8918 8919 8920 8921 8922 8923 8924 8925 8926 8927 8928 8929 8930 8931 8932 8933 8934 8935 8936 8937 8938 8939 8940 8941 8942 8943 8944 8945 8946 8947 8948 8949 8950 8951 8952 8953 8954 8955 8956 8957 8958 8959 8960 8961 8962 8963 8964 8965 8966 8967 8968 8969 8970 8971 8972 8973 8974 8975 8976 8977 8978 8979 8980 8981 8982 8983 8984 8985 8986 8987 8988 8989 8990 8991 8992 8993 8994 8995 8996 8997 8998 8999 9000 9001 9002 9003 9004 9005 9006 9007 9008 9009 9010 9011 9012 9013 9014 9015 9016 9017 9018 9019 9020 9021 9022 9023 9024 9025 9026 9027 9028 9029 9030 9031 9032 9033 9034 9035 9036 9037 9038 9039 9040 9041 9042 9043 9044 9045 9046 9047 9048 9049 9050 9051 9052 9053 9054 9055 9056 9057 9058 9059 9060 9061 9062 9063 9064 9065 9066 9067 9068 9069 9070 9071 9072 9073 9074 9075 9076 9077 9078 9079 9080 9081 9082 9083 9084 9085 9086 9087 9088 9089 9090 9091 9092 9093 9094 9095 9096 9097 9098 9099 9100 9101 9102 9103 9104 9105 9106 9107 9108 9109 9110 9111 9112 9113 9114 9115 9116 9117 9118 9119 9120 9121 9122 9123 9124 9125 9126 9127 9128 9129 9130 9131 9132 9133 9134 9135 9136 9137 9138 9139 9140 9141 9142 9143 9144 9145 9146 9147 9148 9149 9150 9151 9152 9153 9154 9155 9156 9157 9158 9159 9160 9161 9162 9163 9164 9165 9166 9167 9168 9169 9170 9171 9172 9173 9174 9175 9176 9177 9178 9179 9180 9181 9182 9183 9184 9185 9186 9187 9188 9189 9190 9191 9192 9193 9194 9195 9196 9197 9198 9199 9200 9201 9202 9203 9204 9205 9206 9207 9208 9209 9210 9211 9212 9213 9214 9215 9216 9217 9218 9219 9220 9221 9222 9223 9224 9225 9226 9227 9228 9229 9230 9231 9232 9233 9234 9235 9236 9237 9238 9239 9240 9241 9242 9243 9244 9245 9246 9247 9248 9249 9250 9251 9252 9253 9254 9255 9256 9257 9258 9259 9260 9261 9262 9263 9264 9265 9266 9267 9268 9269 9270 9271 9272 9273 9274 9275 9276 9277 9278 9279 9280 9281 9282 9283 9284 9285 9286 9287 9288 9289 9290 9291 9292 9293 9294 9295 9296 9297 9298 9299 9300 9301 9302 9303 9304 9305 9306 9307 9308 9309 9310 9311 9312 9313 9314 9315 9316 9317 9318 9319 9320 9321 9322 9323 9324 9325 9326 9327 9328 9329 9330 9331 9332 9333 9334 9335 9336 9337 9338 9339 9340 9341 9342 9343 9344 9345 9346 9347 9348 9349 9350 9351 9352 9353 9354 9355 9356 9357 9358 9359 9360 9361 9362 9363 9364 9365 9366 9367 9368 9369 9370 9371 9372 9373 9374 9375 9376 9377 9378 9379 9380 9381 9382 9383 9384 9385 9386 9387 9388 9389 9390 9391 9392 9393 9394 9395 9396 9397 9398 9399 9400 9401 9402 9403 9404 9405 9406 9407 9408 9409 9410 9411 9412 9413 9414 9415 9416 9417 9418 9419 9420 9421 9422 9423 9424 9425 9426 9427 9428 9429 9430 9431 9432 9433 9434 9435 9436 9437 9438 9439 9440 9441 9442 9443 9444 9445 9446 9447 9448 9449 9450 9451 9452 9453 9454 9455 9456 9457 9458 9459 9460 9461 9462 9463 9464 9465 9466 9467 9468 9469 9470 9471 9472 9473 9474 9475 9476 9477 9478 9479 9480 9481 9482 9483 9484 9485 9486 9487 9488 9489 9490 9491 9492 9493 9494 9495 9496 9497 9498 9499 9500 9501 9502 9503 9504 9505 9506 9507 9508 9509 9510 9511 9512 9513 9514 9515 9516 9517 9518 9519 9520 9521 9522 9523 9524 9525 9526 9527 9528 9529 9530 9531 9532 9533 9534 9535 9536 9537 9538 9539 9540 9541 9542 9543 9544 9545 9546 9547 9548 9549 9550 9551 9552 9553 9554 9555 9556 9557 9558 9559 9560 9561 9562 9563 9564 9565 9566 9567 9568 9569 9570 9571 9572 9573 9574 9575 9576 9577 9578 9579 9580 9581 9582 9583 9584 9585 9586 9587 9588 9589 9590 9591 9592 9593 9594 9595 9596 9597 9598 9599 9600 9601 9602 9603 9604 9605 9606 9607 9608 9609 9610 9611 9612 9613 9614 9615 9616 9617 9618 9619 9620 9621 9622 9623 9624 9625 9626 9627 9628 9629 9630 9631 9632 9633 9634 9635 9636 9637 9638 9639 9640 9641 9642 9643 9644 9645 9646 9647 9648 9649 9650 9651 9652 9653 9654 9655 9656 9657 9658 9659 9660 9661 9662 9663 9664 9665 9666 9667 9668 9669 9670 9671 9672 9673 9674 9675 9676 9677 9678 9679 9680 9681 9682 9683 9684 9685 9686 9687 9688 9689 9690 9691 9692 9693 9694 9695 9696 9697 9698 9699 9700 9701 9702 9703 9704 9705 9706 9707 9708 9709 9710 9711 9712 9713 9714 9715 9716 9717 9718 9719 9720 9721 9722 9723 9724 9725 9726 9727 9728 9729 9730 9731 9732 9733 9734 9735 9736 9737 9738 9739 9740 9741 9742 9743 9744 9745 9746 9747 9748 9749 9750 9751 9752 9753 9754 9755 9756 9757 9758 9759 9760 9761 9762 9763 9764 9765 9766 9767 9768 9769 9770 9771 9772 9773 9774 9775 9776 9777 9778 9779 9780 9781 9782 9783 9784 9785 9786 9787 9788 9789 9790 9791 9792 9793 9794 9795 9796 9797 9798 9799 9800 9801 9802 9803 9804 9805 9806 9807 9808 9809 9810 9811 9812 9813 9814 9815 9816 9817 9818 9819 9820 9821 9822 9823 9824 9825 9826 9827 9828 9829 9830 9831 9832 9833 9834 9835 9836 9837 9838 9839 9840 9841 9842 9843 9844 9845 9846 9847 9848 9849 9850 9851 9852 9853 9854 9855 9856 9857 9858 9859 9860 9861 9862 9863 9864 9865 9866 9867 9868 9869 9870 9871 9872 9873 9874 9875 9876 9877 9878 9879 9880 9881 9882 9883 9884 9885 9886 9887 9888 9889 9890 9891 9892 9893 9894 9895 9896 9897 9898 9899 9900 9901 9902 9903 9904 9905 9906 9907 9908 9909 9910 9911 9912 9913 9914 9915 9916 9917 9918 9919 9920 9921 9922 9923 9924 9925 9926 9927 9928 9929 9930 9931 9932 9933 9934 9935 9936 9937 9938 9939 9940 9941 9942 9943 9944 9945 9946 9947 9948 9949 9950 9951 9952 9953 9954 9955 9956 9957 9958 9959 9960 9961 9962 9963 9964 9965 9966 9967 9968 9969 9970 9971 9972 9973 9974 9975 9976 9977 9978 9979 9980 9981 9982 9983 9984 9985 9986 9987 9988 9989 9990 9991 9992 9993 9994 9995 9996 9997 9998 9999 10000 10001 10002 10003 10004 10005 10006 10007 10008 10009 10010 10011 10012 10013 10014 10015 10016 10017 10018 10019 10020 10021 10022 10023 10024 10025 10026 10027 10028 10029 10030 10031 10032 10033 10034 10035 10036 10037 10038 10039 10040 10041 10042 10043 10044 10045 10046 10047 10048 10049 10050 10051 10052 10053 10054 10055 10056 10057 10058 10059 10060 10061 10062 10063 10064 10065 10066 10067 10068 10069 10070 10071 10072 10073 10074 10075 10076 10077 10078 10079 10080 10081 10082 10083 10084 10085 10086 10087 10088 10089 10090 10091 10092 10093 10094 10095 10096 10097 10098 10099 10100 10101 10102 10103 10104 10105 10106 10107 10108 10109 10110 10111 10112 10113 10114 10115 10116 10117 10118 10119 10120 10121 10122 10123 10124 10125 10126 10127 10128 10129 10130 10131 10132 10133 10134 10135 10136 10137 10138 10139 10140 10141 10142 10143 10144 10145 10146 10147 10148 10149 10150 10151 10152 10153 10154 10155 10156 10157 10158 10159 10160 10161 10162 10163 10164 10165 10166 10167 10168 10169 10170 10171 10172 10173 10174 10175 10176 10177 10178 10179 10180 10181 10182 10183 10184 10185 10186 10187 10188 10189 10190 10191 10192 10193 10194 10195 10196 10197 10198 10199 10200 10201 10202 10203 10204 10205 10206 10207 10208 10209 10210 10211 10212 10213 10214 10215 10216 10217 10218 10219 10220 10221 10222 10223 10224 10225 10226 10227 10228 10229 10230 10231 10232 10233 10234 10235 10236 10237 10238 10239 10240 10241 10242 10243 10244 10245 10246 10247 10248 10249 10250 10251 10252 10253 10254 10255 10256 10257 10258 10259 10260 10261 10262 10263 10264 10265 10266 10267 10268 10269 10270 10271 10272 10273 10274 10275 10276 10277 10278 10279 10280 10281 10282 10283 10284 10285 10286 10287 10288 10289 10290 10291 10292 10293 10294 10295 10296 10297 10298 10299 10300 10301 10302 10303 10304 10305 10306 10307 10308 10309 10310 10311 10312 10313 10314 10315 10316 10317 10318 10319 10320 10321 10322 10323 10324 10325 10326 10327 10328 10329 10330 10331 10332 10333 10334 10335 10336 10337 10338 10339 10340 10341 10342 10343 10344 10345 10346 10347 10348 10349 10350 10351 10352 10353 10354 10355 10356 10357 10358 10359 10360 10361 10362 10363 10364 10365 10366 10367 10368 10369 10370 10371 10372 10373 10374 10375 10376 10377 10378 10379 10380 10381 10382 10383 10384 10385 10386 10387 10388 10389 10390 10391 10392 10393 10394 10395 10396 10397 10398 10399 10400 10401 10402 10403 10404 10405 10406 10407 10408 10409 10410 10411 10412 10413 10414 10415 10416 10417 10418 10419 10420 10421 10422 10423 10424 10425 10426 10427 10428 10429 10430 10431 10432 10433 10434 10435 10436 10437 10438 10439 10440 10441 10442 10443 10444 10445 10446 10447 10448 10449 10450 10451 10452 10453 10454 10455 10456 10457 10458 10459 10460 10461 10462 10463 10464 10465 10466 10467 10468 10469 10470 10471 10472 10473 10474 10475 10476 10477 10478 10479 10480 10481 10482 10483 10484 10485 10486 10487 10488 10489 10490 10491 10492 10493 10494 10495 10496 10497 10498 10499 10500 10501 10502 10503 10504 10505 10506 10507 10508 10509 10510 10511 10512 10513 10514 10515 10516 10517 10518 10519 10520 10521 10522 10523 10524 10525 10526 10527 10528 10529 10530 10531 10532 10533 10534 10535 10536 10537 10538 10539 10540 10541 10542 10543 10544 10545 10546 10547 10548 10549 10550 10551 10552 10553 10554 10555 10556 10557 10558 10559 10560 10561 10562 10563 10564 10565 10566 10567 10568 10569 10570 10571 10572 10573 10574 10575 10576 10577 10578 10579 10580 10581 10582 10583 10584 10585 10586 10587 10588 10589 10590 10591 10592 10593 10594 10595 10596 10597 10598 10599 10600 10601 10602 10603 10604 10605 10606 10607 10608 10609 10610 10611 10612 10613 10614 10615 10616 10617 10618 10619 10620 10621 10622 10623 10624 10625 10626 10627 10628 10629 10630 10631 10632 10633 10634 10635 10636 10637 10638 10639 10640 10641 10642 10643 10644 10645 10646 10647 10648 10649 10650 10651 10652 10653 10654 10655 10656 10657 10658 10659 10660 10661 10662 10663 10664 10665 10666 10667 10668 10669 10670 10671 10672 10673 10674 10675 10676 10677 10678 10679 10680 10681 10682 10683 10684 10685 10686 10687 10688 10689 10690 10691 10692 10693 10694 10695 10696 10697 10698 10699 10700 10701 10702 10703 10704 10705 10706 10707 10708 10709 10710 10711 10712 10713 10714 10715 10716 10717 10718 10719 10720 10721 10722 10723 10724 10725 10726 10727 10728 10729 10730 10731 10732 10733 10734 10735 10736 10737 10738 10739 10740 10741 10742 10743 10744 10745 10746 10747 10748 10749 10750 10751 10752 10753 10754 10755 10756 10757 10758 10759 10760 10761 10762 10763 10764 10765 10766 10767 10768 10769 10770 10771 10772 10773 10774 10775 10776 10777 10778 10779 10780 10781 10782 10783 10784 10785 10786 10787 10788 10789 10790 10791 10792 10793 10794 10795 10796 10797 10798 10799 10800 10801 10802 10803 10804 10805 10806 10807 10808 10809 10810 10811 10812 10813 10814 10815 10816 10817 10818 10819 10820 10821 10822 10823 10824 10825 10826 10827 10828 10829 10830 10831 10832 10833 10834 10835 10836 10837 10838 10839 10840 10841 10842 10843 10844 10845 10846 10847 10848 10849 10850 10851 10852 10853 10854 10855 10856 10857 10858 10859 10860 10861 10862 10863 10864 10865 10866 10867 10868 10869 10870 10871 10872 10873 10874 10875 10876 10877 10878 10879 10880 10881 10882 10883 10884 10885 10886 10887 10888 10889 10890 10891 10892 10893 10894 10895 10896 10897 10898 10899 10900 10901 10902 10903 10904 10905 10906 10907 10908 10909 10910 10911 10912 10913 10914 10915 10916 10917 10918 10919 10920 10921 10922 10923 10924 10925 10926 10927 10928 10929 10930 10931 10932 10933 10934 10935 10936 10937 10938 10939 10940 10941 10942 10943 10944 10945 10946 10947 10948 10949 10950 10951 10952 10953 10954 10955 10956 10957 10958 10959 10960 10961 10962 10963 10964 10965 10966 10967 10968 10969 10970 10971 10972 10973 10974 10975 10976 10977 10978 10979 10980 10981 10982 10983 10984 10985 10986 10987 10988 10989 10990 10991 10992 10993 10994 10995 10996 10997 10998 10999 11000 11001 11002 11003 11004 11005 11006 11007 11008 11009 11010 11011 11012 11013 11014 11015 11016 11017 11018 11019 11020 11021 11022 11023 11024 11025 11026 11027 11028 11029 11030 11031 11032 11033 11034 11035 11036 11037 11038 11039 11040 11041 11042 11043 11044 11045 11046 11047 11048 11049 11050 11051 11052 11053 11054 11055 11056 11057 11058 11059 11060 11061 11062 11063 11064 11065 11066 11067 11068 11069 11070 11071 11072 11073 11074 11075 11076 11077 11078 11079 11080 11081 11082 11083 11084 11085 11086 11087 11088 11089 11090 11091 11092 11093 11094 11095 11096 11097 11098 11099 11100 11101 11102 11103 11104 11105 11106 11107 11108 11109 11110 11111 11112 11113 11114 11115 11116 11117 11118 11119 11120 11121 11122 11123 11124 11125 11126 11127 11128 11129 11130 11131 11132 11133 11134 11135 11136 11137 11138 11139 11140 11141 11142 11143 11144 11145 11146 11147 11148 11149 11150 11151 11152 11153 11154 11155 11156 11157 11158 11159 11160 11161 11162 11163 11164 11165 11166 11167 11168 11169 11170 11171 11172 11173 11174 11175 11176 11177 11178 11179 11180 11181 11182 11183 11184 11185 11186 11187 11188 11189 11190 11191 11192 11193 11194 11195 11196 11197 11198 11199 11200 11201 11202 11203 11204 11205 11206 11207 11208 11209 11210 11211 11212 11213 11214 11215 11216 11217 11218 11219 11220 11221 11222 11223 11224 11225 11226 11227 11228 11229 11230 11231 11232 11233 11234 11235 11236 11237 11238 11239 11240 11241 11242 11243 11244 11245 11246 11247 11248 11249 11250 11251 11252 11253 11254 11255 11256 11257 11258 11259 11260 11261 11262 11263 11264 11265 11266 11267 11268 11269 11270 11271 11272 11273 11274 11275 11276 11277 11278 11279 11280 11281 11282 11283 11284 11285 11286 11287 11288 11289 11290 11291 11292 11293 11294 11295 11296 11297 11298 11299 11300 11301 11302 11303 11304 11305 11306 11307 11308 11309 11310 11311 11312 11313 11314 11315 11316 11317 11318 11319 11320 11321 11322 11323 11324 11325 11326 11327 11328 11329 11330 11331 11332 11333 11334 11335 11336 11337 11338 11339 11340 11341 11342 11343 11344 11345 11346 11347 11348 11349 11350 11351 11352 11353 11354 11355 11356 11357 11358 11359 11360 11361 11362 11363 11364 11365 11366 11367 11368 11369 11370 11371 11372 11373 11374 11375 11376 11377 11378 11379 11380 11381 11382 11383 11384 11385 11386 11387 11388 11389 11390 11391 11392 11393 11394 11395 11396 11397 11398 11399 11400 11401 11402 11403 11404 11405 11406 11407 11408 11409 11410 11411 11412 11413 11414 11415 11416 11417 11418 11419 11420 11421 11422 11423 11424 11425 11426 11427 11428 11429 11430 11431 11432 11433 11434 11435 11436 11437 11438 11439 11440 11441 11442 11443 11444 11445 11446 11447 11448 11449 11450 11451 11452 11453 11454 11455 11456 11457 11458 11459 11460 11461 11462 11463 11464 11465 11466 11467 11468 11469 11470 11471 11472 11473 11474 11475 11476 11477 11478 11479 11480 11481 11482 11483 11484 11485 11486 11487 11488 11489 11490 11491 11492 11493 11494 11495 11496 11497 11498 11499 11500 11501 11502 11503 11504 11505 11506 11507 11508 11509 11510 11511 11512 11513 11514 11515 11516 11517 11518 11519 11520 11521 11522 11523 11524 11525 11526 11527 11528 11529 11530 11531 11532 11533 11534 11535 11536 11537 11538 11539 11540 11541 11542 11543 11544 11545 11546 11547 11548 11549 11550 11551 11552 11553 11554 11555 11556 11557 11558 11559 11560 11561 11562 11563 11564 11565 11566 11567 11568 11569 11570 11571 11572 11573 11574 11575 11576 11577 11578 11579 11580 11581 11582 11583 11584 11585 11586 11587 11588 11589 11590 11591 11592 11593 11594 11595 11596 11597 11598 11599 11600 11601 11602 11603 11604 11605 11606 11607 11608 11609 11610 11611 11612 11613 11614 11615 11616 11617 11618 11619 11620 11621 11622 11623 11624 11625 11626 11627 11628 11629 11630 11631 11632 11633 11634 11635 11636 11637 11638 11639 11640 11641 11642 11643 11644 11645 11646 11647 11648 11649 11650 11651 11652 11653 11654 11655 11656 11657 11658 11659 11660 11661 11662 11663 11664 11665 11666 11667 11668 11669 11670 11671 11672 11673 11674 11675 11676 11677 11678 11679 11680 11681 11682 11683 11684 11685 11686 11687 11688 11689 11690 11691 11692 11693 11694 11695 11696 11697 11698 11699 11700 11701 11702 11703 11704 11705 11706 11707 11708 11709 11710 11711 11712 11713 11714 11715 11716 11717 11718 11719 11720 11721 11722 11723 11724 11725 11726 11727 11728 11729 11730 11731 11732 11733 11734 11735 11736 11737 11738 11739 11740 11741 11742 11743 11744 11745 11746 11747 11748 11749 11750 11751 11752 11753 11754 11755 11756 11757 11758 11759 11760 11761 11762 11763 11764 11765 11766 11767 11768 11769 11770 11771 11772 11773 11774 11775 11776 11777 11778 11779 11780 11781 11782 11783 11784 11785 11786 11787 11788 11789 11790 11791 11792 11793 11794 11795 11796 11797 11798 11799 11800 11801 11802 11803 11804 11805 11806 11807 11808 11809 11810 11811 11812 11813 11814 11815 11816 11817 11818 11819 11820 11821 11822 11823 11824 11825 11826 11827 11828 11829 11830 11831 11832 11833 11834 11835 11836 11837 11838 11839 11840 11841 11842 11843 11844 11845 11846 11847 11848 11849 11850 11851 11852 11853 11854 11855 11856 11857 11858 11859 11860 11861 11862 11863 11864 11865 11866 11867 11868 11869 11870 11871 11872 11873 11874 11875 11876 11877 11878 11879 11880 11881 11882 11883 11884 11885 11886 11887 11888 11889 11890 11891 11892 11893 11894 11895 11896 11897 11898 11899 11900 11901 11902 11903 11904 11905 11906 11907 11908 11909 11910 11911 11912 11913 11914 11915 11916 11917 11918 11919 11920 11921 11922 11923 11924 11925 11926 11927 11928 11929 11930 11931 11932 11933 11934 11935 11936 11937 11938 11939 11940 11941 11942 11943 11944 11945 11946 11947 11948 11949 11950 11951 11952 11953 11954 11955 11956 11957 11958 11959 11960 11961 11962 11963 11964 11965 11966 11967 11968 11969 11970 11971 11972 11973 11974 11975 11976 11977 11978 11979 11980 11981 11982 11983 11984 11985 11986 11987 11988 11989 11990 11991 11992 11993 11994 11995 11996 11997 11998 11999 12000 12001 12002 12003 12004 12005 12006 12007 12008 12009 12010 12011 12012 12013 12014 12015 12016 12017 12018 12019 12020 12021 12022 12023 12024 12025 12026 12027 12028 12029 12030 12031 12032 12033 12034 12035 12036 12037 12038 12039 12040 12041 12042 12043 12044 12045 12046 12047 12048 12049 12050 12051 12052 12053 12054 12055 12056 12057 12058 12059 12060 12061 12062 12063 12064 12065 12066 12067 12068 12069 12070 12071 12072 12073 12074 12075 12076 12077 12078 12079 12080 12081 12082 12083 12084 12085 12086 12087 12088 12089 12090 12091 12092 12093 12094 12095 12096 12097 12098 12099 12100 12101 12102 12103 12104 12105 12106 12107 12108 12109 12110 12111 12112 12113 12114 12115 12116 12117 12118 12119 12120 12121 12122 12123 12124 12125 12126 12127 12128 12129 12130 12131 12132 12133 12134 12135 12136 12137 12138 12139 12140 12141 12142 12143 12144 12145 12146 12147 12148 12149 12150 12151 12152 12153 12154 12155 12156 12157 12158 12159 12160 12161 12162 12163 12164 12165 12166 12167 12168 12169 12170 12171 12172 12173 12174 12175 12176 12177 12178 12179 12180 12181 12182 12183 12184 12185 12186 12187 12188 12189 12190 12191 12192 12193 12194 12195 12196 12197 12198 12199 12200 12201 12202 12203 12204 12205 12206 12207 12208 12209 12210 12211 12212 12213 12214 12215 12216 12217 12218 12219 12220 12221 12222 12223 12224 12225 12226 12227 12228 12229 12230 12231 12232 12233 12234 12235 12236 12237 12238 12239 12240 12241 12242 12243 12244 12245 12246 12247 12248 12249 12250 12251 12252 12253 12254 12255 12256 12257 12258 12259 12260 12261 12262 12263 12264 12265 12266 12267 12268 12269 12270 12271 12272 12273 12274 12275 12276 12277 12278 12279 12280 12281 12282 12283 12284 12285 12286 12287 12288 12289 12290 12291 12292 12293 12294 12295 12296 12297 12298 12299 12300 12301 12302 12303 12304 12305 12306 12307 12308 12309 12310 12311 12312 12313 12314 12315 12316 12317 12318 12319 12320 12321 12322 12323 12324 12325 12326 12327 12328 12329 12330 12331 12332 12333 12334 12335 12336 12337 12338 12339 12340 12341 12342 12343 12344 12345 12346 12347 12348 12349 12350 12351 12352 12353 12354 12355 12356 12357 12358 12359 12360 12361 12362 12363 12364 12365 12366 12367 12368 12369 12370 12371 12372 12373 12374 12375 12376 12377 12378 12379 12380 12381 12382 12383 12384 12385 12386 12387 12388 12389 12390 12391 12392 12393 12394 12395 12396 12397 12398 12399 12400 12401 12402 12403 12404 12405 12406 12407 12408 12409 12410 12411 12412 12413 12414 12415 12416 12417 12418 12419 12420 12421 12422 12423 12424 12425 12426 12427 12428 12429 12430 12431 12432 12433 12434 12435 12436 12437 12438 12439 12440 12441 12442 12443 12444 12445 12446 12447 12448 12449 12450 12451 12452 12453 12454 12455 12456 12457 12458 12459 12460 12461 12462 12463 12464 12465 12466 12467 12468 12469 12470 12471 12472 12473 12474 12475 12476 12477 12478 12479 12480 12481 12482 12483 12484 12485 12486 12487 12488 12489 12490 12491 12492 12493 12494 12495 12496 12497 12498 12499 12500 12501 12502 12503 12504 12505 12506 12507 12508 12509 12510 12511 12512 12513 12514 12515 12516 12517 12518 12519 12520 12521 12522 12523 12524 12525 12526 12527 12528 12529 12530 12531 12532 12533 12534 12535 12536 12537 12538 12539 12540 12541 12542 12543 12544 12545 12546 12547 12548 12549 12550 12551 12552 12553 12554 12555 12556 12557 12558 12559 12560 12561 12562 12563 12564 12565 12566 12567 12568 12569 12570 12571 12572 12573 12574 12575 12576 12577 12578 12579 12580 12581 12582 12583 12584 12585 12586 12587 12588 12589 12590 12591 12592 12593 12594 12595 12596 12597 12598 12599 12600 12601 12602 12603 12604 12605 12606 12607 12608 12609 12610 12611 12612 12613 12614 12615 12616 12617 12618 12619 12620 12621 12622 12623 12624 12625 12626 12627 12628 12629 12630 12631 12632 12633 12634 12635 12636 12637 12638 12639 12640 12641 12642 12643 12644 12645 12646 12647 12648 12649 12650 12651 12652 12653 12654 12655 12656 12657 12658 12659 12660 12661 12662 12663 12664 12665 12666 12667 12668 12669 12670 12671 12672 12673 12674 12675 12676 12677 12678 12679 12680 12681 12682 12683 12684 12685 12686 12687 12688 12689 12690 12691 12692 12693 12694 12695 12696 12697 12698 12699 12700 12701 12702 12703 12704 12705 12706 12707 12708 12709 12710 12711 12712 12713 12714 12715 12716 12717 12718 12719 12720 12721 12722 12723 12724 12725 12726 12727 12728 12729 12730 12731 12732 12733 12734 12735 12736 12737 12738 12739 12740 12741 12742 12743 12744 12745 12746 12747 12748 12749 12750 12751 12752 12753 12754 12755 12756 12757 12758 12759 12760 12761 12762 12763 12764 12765 12766 12767 12768 12769 12770 12771 12772 12773 12774 12775 12776 12777 12778 12779 12780 12781 12782 12783 12784 12785 12786 12787 12788 12789 12790 12791 12792 12793 12794 12795 12796 12797 12798 12799 12800 12801 12802 12803 12804 12805 12806 12807 12808 12809 12810 12811 12812 12813 12814 12815 12816 12817 12818 12819 12820 12821 12822 12823 12824 12825 12826 12827 12828 12829 12830 12831 12832 12833 12834 12835 12836 12837 12838 12839 12840 12841 12842 12843 12844 12845 12846 12847 12848 12849 12850 12851 12852 12853 12854 12855 12856 12857 12858 12859 12860 12861 12862 12863 12864 12865 12866 12867 12868 12869 12870 12871 12872 12873 12874 12875 12876 12877 12878 12879 12880 12881 12882 12883 12884 12885 12886 12887 12888 12889 12890 12891 12892 12893 12894 12895 12896 12897 12898 12899 12900 12901 12902 12903 12904 12905 12906 12907 12908 12909 12910 12911 12912 12913 12914 12915 12916 12917 12918 12919 12920 12921 12922 12923 12924 12925 12926 12927 12928 12929 12930 12931 12932 12933 12934 12935 12936 12937 12938 12939 12940 12941 12942 12943 12944 12945 12946 12947 12948 12949 12950 12951 12952 12953 12954 12955 12956 12957 12958 12959 12960 12961 12962 12963 12964 12965 12966 12967 12968 12969 12970 12971 12972 12973 12974 12975 12976 12977 12978 12979 12980 12981 12982 12983 12984 12985 12986 12987 12988 12989 12990 12991 12992 12993 12994 12995 12996 12997 12998 12999 13000 13001 13002 13003 13004 13005 13006 13007 13008 13009 13010 13011 13012 13013 13014 13015 13016 13017 13018 13019 13020 13021 13022 13023 13024 13025 13026 13027 13028 13029 13030 13031 13032 13033 13034 13035 13036 13037 13038 13039 13040 13041 13042 13043 13044 13045 13046 13047 13048 13049 13050 13051 13052 13053 13054 13055 13056 13057 13058 13059 13060 13061 13062 13063 13064 13065 13066 13067 13068 13069 13070 13071 13072 13073 13074 13075 13076 13077 13078 13079 13080 13081 13082 13083 13084 13085 13086 13087 13088 13089 13090 13091 13092 13093 13094 13095 13096 13097 13098 13099 13100 13101 13102 13103 13104 13105 13106 13107 13108 13109 13110 13111 13112 13113 13114 13115 13116 13117 13118 13119 13120 13121 13122 13123 13124 13125 13126 13127 13128 13129 13130 13131 13132 13133 13134 13135 13136 13137 13138 13139 13140 13141 13142 13143 13144 13145 13146 13147 13148 13149 13150 13151 13152 13153 13154 13155 13156 13157 13158 13159 13160 13161 13162 13163 13164 13165 13166 13167 13168 13169 13170 13171 13172 13173 13174 13175 13176 13177 13178 13179 13180 13181 13182 13183 13184 13185 13186 13187 13188 13189 13190 13191 13192 13193 13194 13195 13196 13197 13198 13199 13200 13201 13202 13203 13204 13205 13206 13207 13208 13209 13210 13211 13212 13213 13214 13215 13216 13217 13218 13219 13220 13221 13222 13223 13224 13225 13226 13227 13228 13229 13230 13231 13232 13233 13234 13235 13236 13237 13238 13239 13240 13241 13242 13243 13244 13245 13246 13247 13248 13249 13250 13251 13252 13253 13254 13255 13256 13257 13258 13259 13260 13261 13262 13263 13264 13265 13266 13267 13268 13269 13270 13271 13272 13273 13274 13275 13276 13277 13278 13279 13280 13281 13282 13283 13284 13285 13286 13287 13288 13289 13290 13291 13292 13293 13294 13295 13296 13297 13298 13299 13300 13301 13302 13303 13304 13305 13306 13307 13308 13309 13310 13311 13312 13313 13314 13315 13316 13317 13318 13319 13320 13321 13322 13323 13324 13325 13326 13327 13328 13329 13330 13331 13332 13333 13334 13335 13336 13337 13338 13339 13340 13341 13342 13343 13344 13345 13346 13347 13348 13349 13350 13351 13352 13353 13354 13355 13356 13357 13358 13359 13360 13361 13362 13363 13364 13365 13366 13367 13368 13369 13370 13371 13372 13373 13374 13375 13376 13377 13378 13379 13380 13381 13382 13383 13384 13385 13386 13387 13388 13389 13390 13391 13392 13393 13394 13395 13396 13397 13398 13399 13400 13401 13402 13403 13404 13405 13406 13407 13408 13409 13410 13411 13412 13413 13414 13415 13416 13417 13418 13419 13420 13421 13422 13423 13424 13425 13426 13427 13428 13429 13430 13431 13432 13433 13434 13435 13436 13437 13438 13439 13440 13441 13442 13443 13444 13445 13446 13447 13448 13449 13450 13451 13452 13453 13454 13455 13456 13457 13458 13459 13460 13461 13462 13463 13464 13465 13466 13467 13468 13469 13470 13471 13472 13473 13474 13475 13476 13477 13478 13479 13480 13481 13482 13483 13484 13485 13486 13487 13488 13489 13490 13491 13492 13493 13494 13495 13496 13497 13498 13499 13500 13501 13502 13503 13504 13505 13506 13507 13508 13509 13510 13511 13512 13513 13514 13515 13516 13517 13518 13519 13520 13521 13522 13523 13524 13525 13526 13527 13528 13529 13530 13531 13532 13533 13534 13535 13536 13537 13538 13539 13540 13541 13542 13543 13544 13545 13546 13547 13548 13549 13550 13551 13552 13553 13554 13555 13556 13557 13558 13559 13560 13561 13562 13563 13564 13565 13566 13567 13568 13569 13570 13571 13572 13573 13574 13575 13576 13577 13578 13579 13580 13581 13582 13583 13584 13585 13586 13587 13588 13589 13590 13591 13592 13593 13594 13595 13596 13597 13598 13599 13600 13601 13602 13603 13604 13605 13606 13607 13608 13609 13610 13611 13612 13613 13614 13615 13616 13617 13618 13619 13620 13621 13622 13623 13624 13625 13626 13627 13628 13629 13630 13631 13632 13633 13634 13635 13636 13637 13638 13639 13640 13641 13642 13643 13644 13645 13646 13647 13648 13649 13650 13651 13652 13653 13654 13655 13656 13657 13658 13659 13660 13661 13662 13663 13664 13665 13666 13667 13668 13669 13670 13671 13672 13673 13674 13675 13676 13677 13678 13679 13680 13681 13682 13683 13684 13685 13686 13687 13688 13689 13690 13691 13692 13693 13694 13695 13696 13697 13698 13699 13700 13701 13702 13703 13704 13705 13706 13707 13708 13709 13710 13711 13712 13713 13714 13715 13716 13717 13718 13719 13720 13721 13722 13723 13724 13725 13726 13727 13728 13729 13730 13731 13732 13733 13734 13735 13736 13737 13738 13739 13740 13741 13742 13743 13744 13745 13746 13747 13748 13749 13750 13751 13752 13753 13754 13755 13756 13757 13758 13759 13760 13761 13762 13763 13764 13765 13766 13767 13768 13769 13770 13771 13772 13773 13774 13775 13776 13777 13778 13779 13780 13781 13782 13783 13784 13785 13786 13787 13788 13789 13790 13791 13792 13793 13794 13795 13796 13797 13798 13799 13800 13801 13802 13803 13804 13805 13806 13807 13808 13809 13810 13811 13812 13813 13814 13815 13816 13817 13818 13819 13820 13821 13822 13823 13824 13825 13826 13827 13828 13829 13830 13831 13832 13833 13834 13835 13836 13837 13838 13839 13840 13841 13842 13843 13844 13845 13846 13847 13848 13849 13850 13851 13852 13853 13854 13855 13856 13857 13858 13859 13860 13861 13862 13863 13864 13865 13866 13867 13868 13869 13870 13871 13872 13873 13874 13875 13876 13877 13878 13879 13880 13881 13882 13883 13884 13885 13886 13887 13888 13889 13890 13891 13892 13893 13894 13895 13896 13897 13898 13899 13900 13901 13902 13903 13904 13905 13906 13907 13908 13909 13910 13911 13912 13913 13914 13915 13916 13917 13918 13919 13920 13921 13922 13923 13924 13925 13926 13927 13928 13929 13930 13931 13932 13933 13934 13935 13936 13937 13938 13939 13940 13941 13942 13943 13944 13945 13946 13947 13948 13949 13950 13951 13952 13953 13954 13955 13956 13957 13958 13959 13960 13961 13962 13963 13964 13965 13966 13967 13968 13969 13970 13971 13972 13973 13974 13975 13976 13977 13978 13979 13980 13981 13982 13983 13984 13985 13986 13987 13988 13989 13990 13991 13992 13993 13994 13995 13996 13997 13998 13999 14000 14001 14002 14003 14004 14005 14006 14007 14008 14009 14010 14011 14012 14013 14014 14015 14016 14017 14018 14019 14020 14021 14022 14023 14024 14025 14026 14027 14028 14029 14030 14031 14032 14033 14034 14035 14036 14037 14038 14039 14040 14041 14042 14043 14044 14045 14046 14047 14048 14049 14050 14051 14052 14053 14054 14055 14056 14057 14058 14059 14060 14061 14062 14063 14064 14065 14066 14067 14068 14069 14070 14071 14072 14073 14074 14075 14076 14077 14078 14079 14080 14081 14082 14083 14084 14085 14086 14087 14088 14089 14090 14091 14092 14093 14094 14095 14096 14097 14098 14099 14100 14101 14102 14103 14104 14105 14106 14107 14108 14109 14110 14111 14112 14113 14114 14115 14116 14117 14118 14119 14120 14121 14122 14123 14124 14125 14126 14127 14128 14129 14130 14131 14132 14133 14134 14135 14136 14137 14138 14139 14140 14141 14142 14143 14144 14145 14146 14147 14148 14149 14150 14151 14152 14153 14154 14155 14156 14157 14158 14159 14160 14161 14162 14163 14164 14165 14166 14167 14168 14169 14170 14171 14172 14173 14174 14175 14176 14177 14178 14179 14180 14181 14182 14183 14184 14185 14186 14187 14188 14189 14190 14191 14192 14193 14194 14195 14196 14197 14198 14199 14200 14201 14202 14203 14204 14205 14206 14207 14208 14209 14210 14211 14212 14213 14214 14215 14216 14217 14218 14219 14220 14221 14222 14223 14224 14225 14226 14227 14228 14229 14230 14231 14232 14233 14234 14235 14236 14237 14238 14239 14240 14241 14242 14243 14244 14245 14246 14247 14248 14249 14250 14251 14252 14253 14254 14255 14256 14257 14258 14259 14260 14261 14262 14263 14264 14265 14266 14267 14268 14269 14270 14271 14272 14273 14274 14275 14276 14277 14278 14279 14280 14281 14282 14283 14284 14285 14286 14287 14288 14289 14290 14291 14292 14293 14294 14295 14296 14297 14298 14299 14300 14301 14302 14303 14304 14305 14306 14307 14308 14309 14310 14311 14312 14313 14314 14315 14316 14317 14318 14319 14320 14321 14322 14323 14324 14325 14326 14327 14328 14329 14330 14331 14332 14333 14334 14335 14336 14337 14338 14339 14340 14341 14342 14343 14344 14345 14346 14347 14348 14349 14350 14351 14352 14353 14354 14355 14356 14357 14358 14359 14360 14361 14362 14363 14364 14365 14366 14367 14368 14369 14370 14371 14372 14373 14374 14375 14376 14377 14378 14379 14380 14381 14382 14383 14384 14385 14386 14387 14388 14389 14390 14391 14392 14393 14394 14395 14396 14397 14398 14399 14400 14401 14402 14403 14404 14405 14406 14407 14408 14409 14410 14411 14412 14413 14414 14415 14416 14417 14418 14419 14420 14421 14422 14423 14424 14425 14426 14427 14428 14429 14430 14431 14432 14433 14434 14435 14436 14437 14438 14439 14440 14441 14442 14443 14444 14445 14446 14447 14448 14449 14450 14451 14452 14453 14454 14455 14456 14457 14458 14459 14460 14461 14462 14463 14464 14465 14466 14467 14468 14469 14470 14471 14472 14473 14474 14475 14476 14477 14478 14479 14480 14481 14482 14483 14484 14485 14486 14487 14488 14489 14490 14491 14492 14493 14494 14495 14496 14497 14498 14499 14500 14501 14502 14503 14504 14505 14506 14507 14508 14509 14510 14511 14512 14513 14514 14515 14516 14517 14518 14519 14520 14521 14522 14523 14524 14525 14526 14527 14528 14529 14530 14531 14532 14533 14534 14535 14536 14537 14538 14539 14540 14541 14542 14543 14544 14545 14546 14547 14548 14549 14550 14551 14552 14553 14554 14555 14556 14557 14558 14559 14560 14561 14562 14563 14564 14565 14566 14567 14568 14569 14570 14571 14572 14573 14574 14575 14576 14577 14578 14579 14580 14581 14582 14583 14584 14585 14586 14587 14588 14589 14590 14591 14592 14593 14594 14595 14596 14597 14598 14599 14600 14601 14602 14603 14604 14605 14606 14607 14608 14609 14610 14611 14612 14613 14614 14615 14616 14617 14618 14619 14620 14621 14622 14623 14624 14625 14626 14627 14628 14629 14630 14631 14632 14633 14634 14635 14636 14637 14638 14639 14640 14641 14642 14643 14644 14645 14646 14647 14648 14649 14650 14651 14652 14653 14654 14655 14656 14657 14658 14659 14660 14661 14662 14663 14664 14665 14666 14667 14668 14669 14670 14671 14672 14673 14674 14675 14676 14677 14678 14679 14680 14681 14682 14683 14684 14685 14686 14687 14688 14689 14690 14691 14692 14693 14694 14695 14696 14697 14698 14699 14700 14701 14702 14703 14704 14705 14706 14707 14708 14709 14710 14711 14712 14713 14714 14715 14716 14717 14718 14719 14720 14721 14722 14723 14724 14725 14726 14727 14728 14729 14730 14731 14732 14733 14734 14735 14736 14737 14738 14739 14740 14741 14742 14743 14744 14745 14746 14747 14748 14749 14750 14751 14752 14753 14754 14755 14756 14757 14758 14759 14760 14761 14762 14763 14764 14765 14766 14767 14768 14769 14770 14771 14772 14773 14774 14775 14776 14777 14778 14779 14780 14781 14782 14783 14784 14785 14786 14787 14788 14789 14790 14791 14792 14793 14794 14795 14796 14797 14798 14799 14800 14801 14802 14803 14804 14805 14806 14807 14808 14809 14810 14811 14812 14813 14814 14815 14816 14817 14818 14819 14820 14821 14822 14823 14824 14825 14826 14827 14828 14829 14830 14831 14832 14833 14834 14835 14836 14837 14838 14839 14840 14841 14842 14843 14844 14845 14846 14847 14848 14849 14850 14851 14852 14853 14854 14855 14856 14857 14858 14859 14860 14861 14862 14863 14864 14865 14866 14867 14868 14869 14870 14871 14872 14873 14874 14875 14876 14877 14878 14879 14880 14881 14882 14883 14884 14885 14886 14887 14888 14889 14890 14891 14892 14893 14894 14895 14896 14897 14898 14899 14900 14901 14902 14903 14904 14905 14906 14907 14908 14909 14910 14911 14912 14913 14914 14915 14916 14917 14918 14919 14920 14921 14922 14923 14924 14925 14926 14927 14928 14929 14930 14931 14932 14933 14934 14935 14936 14937 14938 14939 14940 14941 14942 14943 14944 14945 14946 14947 14948 14949 14950 14951 14952 14953 14954 14955 14956 14957 14958 14959 14960 14961 14962 14963 14964 14965 14966 14967 14968 14969 14970 14971 14972 14973 14974 14975 14976 14977 14978 14979 14980 14981 14982 14983 14984 14985 14986 14987 14988 14989 14990 14991 14992 14993 14994 14995 14996 14997 14998 14999 15000 15001 15002 15003 15004 15005 15006 15007 15008 15009 15010 15011 15012 15013 15014 15015 15016 15017 15018 15019 15020 15021 15022 15023 15024 15025 15026 15027 15028 15029 15030 15031 15032 15033 15034 15035 15036 15037 15038 15039 15040 15041 15042 15043 15044 15045 15046 15047 15048 15049 15050 15051 15052 15053 15054 15055 15056 15057 15058 15059 15060 15061 15062 15063 15064 15065 15066 15067 15068 15069 15070 15071 15072 15073 15074 15075 15076 15077 15078 15079 15080 15081 15082 15083 15084 15085 15086 15087 15088 15089 15090 15091 15092 15093 15094 15095 15096 15097 15098 15099 15100 15101 15102 15103 15104 15105 15106 15107 15108 15109 15110 15111 15112 15113 15114 15115 15116 15117 15118 15119 15120 15121 15122 15123 15124 15125 15126 15127 15128 15129 15130 15131 15132 15133 15134 15135 15136 15137 15138 15139 15140 15141 15142 15143 15144 15145 15146 15147 15148 15149 15150 15151 15152 15153 15154 15155 15156 15157 15158 15159 15160 15161 15162 15163 15164 15165 15166 15167 15168 15169 15170 15171 15172 15173 15174 15175 15176 15177 15178 15179 15180 15181 15182 15183 15184 15185 15186 15187 15188 15189 15190 15191 15192 15193 15194 15195 15196 15197 15198 15199 15200 15201 15202 15203 15204 15205 15206 15207 15208 15209 15210 15211 15212 15213 15214 15215 15216 15217 15218 15219 15220 15221 15222 15223 15224 15225 15226 15227 15228 15229 15230 15231 15232 15233 15234 15235 15236 15237 15238 15239 15240 15241 15242 15243 15244 15245 15246 15247 15248 15249 15250 15251 15252 15253 15254 15255 15256 15257 15258 15259 15260 15261 15262 15263 15264 15265 15266 15267 15268 15269 15270 15271 15272 15273 15274 15275 15276 15277 15278 15279 15280 15281 15282 15283 15284 15285 15286 15287 15288 15289 15290 15291 15292 15293 15294 15295 15296 15297 15298 15299 15300 15301 15302 15303 15304 15305 15306 15307 15308 15309 15310 15311 15312 15313 15314 15315 15316 15317 15318 15319 15320 15321 15322 15323 15324 15325 15326 15327 15328 15329 15330 15331 15332 15333 15334 15335 15336 15337 15338 15339 15340 15341 15342 15343 15344 15345 15346 15347 15348 15349 15350 15351 15352 15353 15354 15355 15356 15357 15358 15359 15360 15361 15362 15363 15364 15365 15366 15367 15368 15369 15370 15371 15372 15373 15374 15375 15376 15377 15378 15379 15380 15381 15382 15383 15384 15385 15386 15387 15388 15389 15390 15391 15392 15393 15394 15395 15396 15397 15398 15399 15400 15401 15402 15403 15404 15405 15406 15407 15408 15409 15410 15411 15412 15413 15414 15415 15416 15417 15418 15419 15420 15421 15422 15423 15424 15425 15426 15427 15428 15429 15430 15431 15432 15433 15434 15435 15436 15437 15438 15439 15440 15441 15442 15443 15444 15445 15446 15447 15448 15449 15450 15451 15452 15453 15454 15455 15456 15457 15458 15459 15460 15461 15462 15463 15464 15465 15466 15467 15468 15469 15470 15471 15472 15473 15474 15475 15476 15477 15478 15479 15480 15481 15482 15483 15484 15485 15486 15487 15488 15489 15490 15491 15492 15493 15494 15495 15496 15497 15498 15499 15500 15501 15502 15503 15504 15505 15506 15507 15508 15509 15510 15511 15512 15513 15514 15515 15516 15517 15518 15519 15520 15521 15522 15523 15524 15525 15526 15527 15528 15529 15530 15531 15532 15533 15534 15535 15536 15537 15538 15539 15540 15541 15542 15543 15544 15545 15546 15547 15548 15549 15550 15551 15552 15553 15554 15555 15556 15557 15558 15559 15560 15561 15562 15563 15564 15565 15566 15567 15568 15569 15570 15571 15572 15573 15574 15575 15576 15577 15578 15579 15580 15581 15582 15583 15584 15585 15586 15587 15588 15589 15590 15591 15592 15593 15594 15595 15596 15597 15598 15599 15600 15601 15602 15603 15604 15605 15606 15607 15608 15609 15610 15611 15612 15613 15614 15615 15616 15617 15618 15619 15620 15621 15622 15623 15624 15625 15626 15627 15628 15629 15630 15631 15632 15633 15634 15635 15636 15637 15638 15639 15640 15641 15642 15643 15644 15645 15646 15647 15648 15649 15650 15651 15652 15653 15654 15655 15656 15657 15658 15659 15660 15661 15662 15663 15664 15665 15666 15667 15668 15669 15670 15671 15672 15673 15674 15675 15676 15677 15678 15679 15680 15681 15682 15683 15684 15685 15686 15687 15688 15689 15690 15691 15692 15693 15694 15695 15696 15697 15698 15699 15700 15701 15702 15703 15704 15705 15706 15707 15708 15709 15710 15711 15712 15713 15714 15715 15716 15717 15718 15719 15720 15721 15722 15723 15724 15725 15726 15727 15728 15729 15730 15731 15732 15733 15734 15735 15736 15737 15738 15739 15740 15741 15742 15743 15744 15745 15746 15747 15748 15749 15750 15751 15752 15753 15754 15755 15756 15757 15758 15759 15760 15761 15762 15763 15764 15765 15766 15767 15768 15769 15770 15771 15772 15773 15774 15775 15776 15777 15778 15779 15780 15781 15782 15783 15784 15785 15786 15787 15788 15789 15790 15791 15792 15793 15794 15795 15796 15797 15798 15799 15800 15801 15802 15803 15804 15805 15806 15807 15808 15809 15810 15811 15812 15813 15814 15815 15816 15817 15818 15819 15820 15821 15822 15823 15824 15825 15826 15827 15828 15829 15830 15831 15832 15833 15834 15835 15836 15837 15838 15839 15840 15841 15842 15843 15844 15845 15846 15847 15848 15849 15850 15851 15852 15853 15854 15855 15856 15857 15858 15859 15860 15861 15862 15863 15864 15865 15866 15867 15868 15869 15870 15871 15872 15873 15874 15875 15876 15877 15878 15879 15880 15881 15882 15883 15884 15885 15886 15887 15888 15889 15890 15891 15892 15893 15894 15895 15896 15897 15898 15899 15900 15901 15902 15903 15904 15905 15906 15907 15908 15909 15910 15911 15912 15913 15914 15915 15916 15917 15918 15919 15920 15921 15922 15923 15924 15925 15926 15927 15928 15929 15930 15931 15932 15933 15934 15935 15936 15937 15938 15939 15940 15941 15942 15943 15944 15945 15946 15947 15948 15949 15950 15951 15952 15953 15954 15955 15956 15957 15958 15959 15960 15961 15962 15963 15964 15965 15966 15967 15968 15969 15970 15971 15972 15973 15974 15975 15976 15977 15978 15979 15980 15981 15982 15983 15984 15985 15986 15987 15988 15989 15990 15991 15992 15993 15994 15995 15996 15997 15998 15999 16000 16001 16002 16003 16004 16005 16006 16007 16008 16009 16010 16011 16012 16013 16014 16015 16016 16017 16018 16019 16020 16021 16022 16023 16024 16025 16026 16027 16028 16029 16030 16031 16032 16033 16034 16035 16036 16037 16038 16039 16040 16041 16042 16043 16044 16045 16046 16047 16048 16049 16050 16051 16052 16053 16054 16055 16056 16057 16058 16059 16060 16061 16062 16063 16064 16065 16066 16067 16068 16069 16070 16071 16072 16073 16074 16075 16076 16077 16078 16079 16080 16081 16082 16083 16084 16085 16086 16087 16088 16089 16090 16091 16092 16093 16094 16095 16096 16097 16098 16099 16100 16101 16102 16103 16104 16105 16106 16107 16108 16109 16110 16111 16112 16113 16114 16115 16116 16117 16118 16119 16120 16121 16122 16123 16124 16125 16126 16127 16128 16129 16130 16131 16132 16133 16134 16135 16136 16137 16138 16139 16140 16141 16142 16143 16144 16145 16146 16147 16148 16149 16150 16151 16152 16153 16154 16155 16156 16157 16158 16159 16160 16161 16162 16163 16164 16165 16166 16167 16168 16169 16170 16171 16172 16173 16174 16175 16176 16177 16178 16179 16180 16181 16182 16183 16184 16185 16186 16187 16188 16189 16190 16191 16192 16193 16194 16195 16196 16197 16198 16199 16200 16201 16202 16203 16204 16205 16206 16207 16208 16209 16210 16211 16212 16213 16214 16215 16216 16217 16218 16219 16220 16221 16222 16223 16224 16225 16226 16227 16228 16229 16230 16231 16232 16233 16234 16235 16236 16237 16238 16239 16240 16241 16242 16243 16244 16245 16246 16247 16248 16249 16250 16251 16252 16253 16254 16255 16256 16257 16258 16259 16260 16261 16262 16263 16264 16265 16266 16267 16268 16269 16270 16271 16272 16273 16274 16275 16276 16277 16278 16279 16280 16281 16282 16283 16284 16285 16286 16287 16288 16289 16290 16291 16292 16293 16294 16295 16296 16297 16298 16299 16300 16301 16302 16303 16304 16305 16306 16307 16308 16309 16310 16311 16312 16313 16314 16315 16316 16317 16318 16319 16320 16321 16322 16323 16324 16325 16326 16327 16328 16329 16330 16331 16332 16333 16334 16335 16336 16337 16338 16339 16340 16341 16342 16343 16344 16345 16346 16347 16348 16349 16350 16351 16352 16353 16354 16355 16356 16357 16358 16359 16360 16361 16362 16363 16364 16365 16366 16367 16368 16369 16370 16371 16372 16373 16374 16375 16376 16377 16378 16379 16380 16381 16382 16383 16384 16385 16386 16387 16388 16389 16390 16391 16392 16393 16394 16395 16396 16397 16398 16399 16400 16401 16402 16403 16404 16405 16406 16407 16408 16409 16410 16411 16412 16413 16414 16415 16416 16417 16418 16419 16420 16421 16422 16423 16424 16425 16426 16427 16428 16429 16430 16431 16432 16433 16434 16435 16436 16437 16438 16439 16440 16441 16442 16443 16444 16445 16446 16447 16448 16449 16450 16451 16452 16453 16454 16455 16456 16457 16458 16459 16460 16461 16462 16463 16464 16465 16466 16467 16468 16469 16470 16471 16472 16473 16474 16475 16476 16477 16478 16479 16480 16481 16482 16483 16484 16485 16486 16487 16488 16489 16490 16491 16492 16493 16494 16495 16496 16497 16498 16499 16500 16501 16502 16503 16504 16505 16506 16507 16508 16509 16510 16511 16512 16513 16514 16515 16516 16517 16518 16519 16520 16521 16522 16523 16524 16525 16526 16527 16528 16529 16530 16531 16532 16533 16534 16535 16536 16537 16538 16539 16540 16541 16542 16543 16544 16545 16546 16547 16548 16549 16550 16551 16552 16553 16554 16555 16556 16557 16558 16559 16560 16561 16562 16563 16564 16565 16566 16567 16568 16569 16570 16571 16572 16573 16574 16575 16576 16577 16578 16579 16580 16581 16582 16583 16584 16585 16586 16587 16588 16589 16590 16591 16592 16593 16594 16595 16596 16597 16598 16599 16600 16601 16602 16603 16604 16605 16606 16607 16608 16609 16610 16611 16612 16613 16614 16615 16616 16617 16618 16619 16620 16621 16622 16623 16624 16625 16626 16627 16628 16629 16630 16631 16632 16633 16634 16635 16636 16637 16638 16639 16640 16641 16642 16643 16644 16645 16646 16647 16648 16649 16650 16651 16652 16653 16654 16655 16656 16657 16658 16659 16660 16661 16662 16663 16664 16665 16666 16667 16668 16669 16670 16671 16672 16673 16674 16675 16676 16677 16678 16679 16680 16681 16682 16683 16684 16685 16686 16687 16688 16689 16690 16691 16692 16693 16694 16695 16696 16697 16698 16699 16700 16701 16702 16703 16704 16705 16706 16707 16708 16709 16710 16711 16712 16713 16714 16715 16716 16717 16718 16719 16720 16721 16722 16723 16724 16725 16726 16727 16728 16729 16730 16731 16732 16733 16734 16735 16736 16737 16738 16739 16740 16741 16742 16743 16744 16745 16746 16747 16748 16749 16750 16751 16752 16753 16754 16755 16756 16757 16758 16759 16760 16761 16762 16763 16764 16765 16766 16767 16768 16769 16770 16771 16772 16773 16774 16775 16776 16777 16778 16779 16780 16781 16782 16783 16784 16785 16786 16787 16788 16789 16790 16791 16792 16793 16794 16795 16796 16797 16798 16799 16800 16801 16802 16803 16804 16805 16806 16807 16808 16809 16810 16811 16812 16813 16814 16815 16816 16817 16818 16819 16820 16821 16822 16823 16824 16825 16826 16827 16828 16829 16830 16831 16832 16833 16834 16835 16836 16837 16838 16839 16840 16841 16842 16843 16844 16845 16846 16847 16848 16849 16850 16851 16852 16853 16854 16855 16856 16857 16858 16859 16860 16861 16862 16863 16864 16865 16866 16867 16868 16869 16870 16871 16872 16873 16874 16875 16876 16877 16878 16879 16880 16881 16882 16883 16884 16885 16886 16887 16888 16889 16890 16891 16892 16893 16894 16895 16896 16897 16898 16899 16900 16901 16902 16903 16904 16905 16906 16907 16908 16909 16910 16911 16912 16913 16914 16915 16916 16917 16918 16919 16920 16921 16922 16923 16924 16925 16926 16927 16928 16929 16930 16931 16932 16933 16934 16935 16936 16937 16938 16939 16940 16941 16942 16943 16944 16945 16946 16947 16948 16949 16950 16951 16952 16953 16954 16955 16956 16957 16958 16959 16960 16961 16962 16963 16964 16965 16966 16967 16968 16969 16970 16971 16972 16973 16974 16975 16976 16977 16978 16979 16980 16981 16982 16983 16984 16985 16986 16987 16988 16989 16990 16991 16992 16993 16994 16995 16996 16997 16998 16999 17000 17001 17002 17003 17004 17005 17006 17007 17008 17009 17010 17011 17012 17013 17014 17015 17016 17017 17018 17019 17020 17021 17022 17023 17024 17025 17026 17027 17028 17029 17030 17031 17032 17033 17034 17035 17036 17037 17038 17039 17040 17041 17042 17043 17044 17045 17046 17047 17048 17049 17050 17051 17052 17053 17054 17055 17056 17057 17058 17059 17060 17061 17062 17063 17064 17065 17066 17067 17068 17069 17070 17071 17072 17073 17074 17075 17076 17077 17078 17079 17080 17081 17082 17083 17084 17085 17086 17087 17088 17089 17090 17091 17092 17093 17094 17095 17096 17097 17098 17099 17100 17101 17102 17103 17104 17105 17106 17107 17108 17109 17110 17111 17112 17113 17114 17115 17116 17117 17118 17119 17120 17121 17122 17123 17124 17125 17126 17127 17128 17129 17130 17131 17132 17133 17134 17135 17136 17137 17138 17139 17140 17141 17142 17143 17144 17145 17146 17147 17148 17149 17150 17151 17152 17153 17154 17155 17156 17157 17158 17159 17160 17161 17162 17163 17164 17165 17166 17167 17168 17169 17170 17171 17172 17173 17174 17175 17176 17177 17178 17179 17180 17181 17182 17183 17184 17185 17186 17187 17188 17189 17190 17191 17192 17193 17194 17195 17196 17197 17198 17199 17200 17201 17202 17203 17204 17205 17206 17207 17208 17209 17210 17211 17212 17213 17214 17215 17216 17217 17218 17219 17220 17221 17222 17223 17224 17225 17226 17227 17228 17229 17230 17231 17232 17233 17234 17235 17236 17237 17238 17239 17240 17241 17242 17243 17244 17245 17246 17247 17248 17249 17250 17251 17252 17253 17254 17255 17256 17257 17258 17259 17260 17261 17262 17263 17264 17265 17266 17267 17268 17269 17270 17271 17272 17273 17274 17275 17276 17277 17278 17279 17280 17281 17282 17283 17284 17285 17286 17287 17288 17289 17290 17291 17292 17293 17294 17295 17296 17297 17298 17299 17300 17301 17302 17303 17304 17305 17306 17307 17308 17309 17310 17311 17312 17313 17314 17315 17316 17317 17318 17319 17320 17321 17322 17323 17324 17325 17326 17327 17328 17329 17330 17331 17332 17333 17334 17335 17336 17337 17338 17339 17340 17341 17342 17343 17344 17345 17346 17347 17348 17349 17350 17351 17352 17353 17354 17355 17356 17357 17358 17359 17360 17361 17362 17363 17364 17365 17366 17367 17368 17369 17370 17371 17372 17373 17374 17375 17376 17377 17378 17379 17380 17381 17382 17383 17384 17385 17386 17387 17388 17389 17390 17391 17392 17393 17394 17395 17396 17397 17398 17399 17400 17401 17402 17403 17404 17405 17406 17407 17408 17409 17410 17411 17412 17413 17414 17415 17416 17417 17418 17419 17420 17421 17422 17423 17424 17425 17426 17427 17428 17429 17430 17431 17432 17433 17434 17435 17436 17437 17438 17439 17440 17441 17442 17443 17444 17445 17446 17447 17448 17449 17450 17451 17452 17453 17454 17455 17456 17457 17458 17459 17460 17461 17462 17463 17464 17465 17466 17467 17468 17469 17470 17471 17472 17473 17474 17475 17476 17477 17478 17479 17480 17481 17482 17483 17484 17485 17486 17487 17488 17489 17490 17491 17492 17493 17494 17495 17496 17497 17498 17499 17500 17501 17502 17503 17504 17505 17506 17507 17508 17509 17510 17511 17512 17513 17514 17515 17516 17517 17518 17519 17520 17521 17522 17523 17524 17525 17526 17527 17528 17529 17530 17531 17532 17533 17534 17535 17536 17537 17538 17539 17540 17541 17542 17543 17544 17545 17546 17547 17548 17549 17550 17551 17552 17553 17554 17555 17556 17557 17558 17559 17560 17561 17562 17563 17564 17565 17566 17567 17568 17569 17570 17571 17572 17573 17574 17575 17576 17577 17578 17579 17580 17581 17582 17583 17584 17585 17586 17587 17588 17589 17590 17591 17592 17593 17594 17595 17596 17597 17598 17599 17600 17601 17602 17603 17604 17605 17606 17607 17608 17609 17610 17611 17612 17613 17614 17615 17616 17617 17618 17619 17620 17621 17622 17623 17624 17625 17626 17627 17628 17629 17630 17631 17632 17633 17634 17635 17636 17637 17638 17639 17640 17641 17642 17643 17644 17645 17646 17647 17648 17649 17650 17651 17652 17653 17654 17655 17656 17657 17658 17659 17660 17661 17662 17663 17664 17665 17666 17667 17668 17669 17670 17671 17672 17673 17674 17675 17676 17677 17678 17679 17680 17681 17682 17683 17684 17685 17686 17687 17688 17689 17690 17691 17692 17693 17694 17695 17696 17697 17698 17699 17700 17701 17702 17703 17704 17705 17706 17707 17708 17709 17710 17711 17712 17713 17714 17715 17716 17717 17718 17719 17720 17721 17722 17723 17724 17725 17726 17727 17728 17729 17730 17731 17732 17733 17734 17735 17736 17737 17738 17739 17740 17741 17742 17743 17744 17745 17746 17747 17748 17749 17750 17751 17752 17753 17754 17755 17756 17757 17758 17759 17760 17761 17762 17763 17764 17765 17766 17767 17768 17769 17770 17771 17772 17773 17774 17775 17776 17777 17778 17779 17780 17781 17782 17783 17784 17785 17786 17787 17788 17789 17790 17791 17792 17793 17794 17795 17796 17797 17798 17799 17800 17801 17802 17803 17804 17805 17806 17807 17808 17809 17810 17811 17812 17813 17814 17815 17816 17817 17818 17819 17820 17821 17822 17823 17824 17825 17826 17827 17828 17829 17830 17831 17832 17833 17834 17835 17836 17837 17838 17839 17840 17841 17842 17843 17844 17845 17846 17847 17848 17849 17850 17851 17852 17853 17854 17855 17856 17857 17858 17859 17860 17861 17862 17863 17864 17865 17866 17867 17868 17869 17870 17871 17872 17873 17874 17875 17876 17877 17878 17879 17880 17881 17882 17883 17884 17885 17886 17887 17888 17889 17890 17891 17892 17893 17894 17895 17896 17897 17898 17899 17900 17901 17902 17903 17904 17905 17906 17907 17908 17909 17910 17911 17912 17913 17914 17915 17916 17917 17918 17919 17920 17921 17922 17923 17924 17925 17926 17927 17928 17929 17930 17931 17932 17933 17934 17935 17936 17937 17938 17939 17940 17941 17942 17943 17944 17945 17946 17947 17948 17949 17950 17951 17952 17953 17954 17955 17956 17957 17958 17959 17960 17961 17962 17963 17964 17965 17966 17967 17968 17969 17970 17971 17972 17973 17974 17975 17976 17977 17978 17979 17980 17981 17982 17983 17984 17985 17986 17987 17988 17989 17990 17991 17992 17993 17994 17995 17996 17997 17998 17999 18000 18001 18002 18003 18004 18005 18006 18007 18008 18009 18010 18011 18012 18013 18014 18015 18016 18017 18018 18019 18020 18021 18022 18023 18024 18025 18026 18027 18028 18029 18030 18031 18032 18033 18034 18035 18036 18037 18038 18039 18040 18041 18042 18043 18044 18045 18046 18047 18048 18049 18050 18051 18052 18053 18054 18055 18056 18057 18058 18059 18060 18061 18062 18063 18064 18065 18066 18067 18068 18069 18070 18071 18072 18073 18074 18075 18076 18077 18078 18079 18080 18081 18082 18083 18084 18085 18086 18087 18088 18089 18090 18091 18092 18093 18094 18095 18096 18097 18098 18099 18100 18101 18102 18103 18104 18105 18106 18107 18108 18109 18110 18111 18112 18113 18114 18115 18116 18117 18118 18119 18120 18121 18122 18123 18124 18125 18126 18127 18128 18129 18130 18131 18132 18133 18134 18135 18136 18137 18138 18139 18140 18141 18142 18143 18144 18145 18146 18147 18148 18149 18150 18151 18152 18153 18154 18155 18156 18157 18158 18159 18160 18161 18162 18163 18164 18165 18166 18167 18168 18169 18170 18171 18172 18173 18174 18175 18176 18177 18178 18179 18180 18181 18182 18183 18184 18185 18186 18187 18188 18189 18190 18191 18192 18193 18194 18195 18196 18197 18198 18199 18200 18201 18202 18203 18204 18205 18206 18207 18208 18209 18210 18211 18212 18213 18214 18215 18216 18217 18218 18219 18220 18221 18222 18223 18224 18225 18226 18227 18228 18229 18230 18231 18232 18233 18234 18235 18236 18237 18238 18239 18240 18241 18242 18243 18244 18245 18246 18247 18248 18249 18250 18251 18252 18253 18254 18255 18256 18257 18258 18259 18260 18261 18262 18263 18264 18265 18266 18267 18268 18269 18270 18271 18272 18273 18274 18275 18276 18277 18278 18279 18280 18281 18282 18283 18284 18285 18286 18287 18288 18289 18290 18291 18292 18293 18294 18295 18296 18297 18298 18299 18300 18301 18302 18303 18304 18305 18306 18307 18308 18309 18310 18311 18312 18313 18314 18315 18316 18317 18318 18319 18320 18321 18322 18323 18324 18325 18326 18327 18328 18329 18330 18331 18332 18333 18334 18335 18336 18337 18338 18339 18340 18341 18342 18343 18344 18345 18346 18347 18348 18349 18350 18351 18352 18353 18354 18355 18356 18357 18358 18359 18360 18361 18362 18363 18364 18365 18366 18367 18368 18369 18370 18371 18372 18373 18374 18375 18376 18377 18378 18379 18380 18381 18382 18383 18384 18385 18386 18387 18388 18389 18390 18391 18392 18393 18394 18395 18396 18397 18398 18399 18400 18401 18402 18403 18404 18405 18406 18407 18408 18409 18410 18411 18412 18413 18414 18415 18416 18417 18418 18419 18420 18421 18422 18423 18424 18425 18426 18427 18428 18429 18430 18431 18432 18433 18434 18435 18436 18437 18438 18439 18440 18441 18442 18443 18444 18445 18446 18447 18448 18449 18450 18451 18452 18453 18454 18455 18456 18457 18458 18459 18460 18461 18462 18463 18464 18465 18466 18467 18468 18469 18470 18471 18472 18473 18474 18475 18476 18477 18478 18479 18480 18481 18482 18483 18484 18485 18486 18487 18488 18489 18490 18491 18492 18493 18494 18495 18496 18497 18498 18499 18500 18501 18502 18503 18504 18505 18506 18507 18508 18509 18510 18511 18512 18513 18514 18515 18516 18517 18518 18519 18520 18521 18522 18523 18524 18525 18526 18527 18528 18529 18530 18531 18532 18533 18534 18535 18536 18537 18538 18539 18540 18541 18542 18543 18544 18545 18546 18547 18548 18549 18550 18551 18552 18553 18554 18555 18556 18557 18558 18559 18560 18561 18562 18563 18564 18565 18566 18567 18568 18569 18570 18571 18572 18573 18574 18575 18576 18577 18578 18579 18580 18581 18582 18583 18584 18585 18586 18587 18588 18589 18590 18591 18592 18593 18594 18595 18596 18597 18598 18599 18600 18601 18602 18603 18604 18605 18606 18607 18608 18609 18610 18611 18612 18613 18614 18615 18616 18617 18618 18619 18620 18621 18622 18623 18624 18625 18626 18627 18628 18629 18630 18631 18632 18633 18634 18635 18636 18637 18638 18639 18640 18641 18642 18643 18644 18645 18646 18647 18648 18649 18650 18651 18652 18653 18654 18655 18656 18657 18658 18659 18660 18661 18662 18663 18664 18665 18666 18667 18668 18669 18670 18671 18672 18673 18674 18675 18676 18677 18678 18679 18680 18681 18682 18683 18684 18685 18686 18687 18688 18689 18690 18691 18692 18693 18694 18695 18696 18697 18698 18699 18700 18701 18702 18703 18704 18705 18706 18707 18708 18709 18710 18711 18712 18713 18714 18715 18716 18717 18718 18719 18720 18721 18722 18723 18724 18725 18726 18727 18728 18729 18730 18731 18732 18733 18734 18735 18736 18737 18738 18739 18740 18741 18742 18743 18744 18745 18746 18747 18748 18749 18750 18751 18752 18753 18754 18755 18756 18757 18758 18759 18760 18761 18762 18763 18764 18765 18766 18767 18768 18769 18770 18771 18772 18773 18774 18775 18776 18777 18778 18779 18780 18781 18782 18783 18784 18785 18786 18787 18788 18789 18790 18791 18792 18793 18794 18795 18796 18797 18798 18799 18800 18801 18802 18803 18804 18805 18806 18807 18808 18809 18810 18811 18812 18813 18814 18815 18816 18817 18818 18819 18820 18821 18822 18823 18824 18825 18826 18827 18828 18829 18830 18831 18832 18833 18834 18835 18836 18837 18838 18839 18840 18841 18842 18843 18844 18845 18846 18847 18848 18849 18850 18851 18852 18853 18854 18855 18856 18857 18858 18859 18860 18861 18862 18863 18864 18865 18866 18867 18868 18869 18870 18871 18872 18873 18874 18875 18876 18877 18878 18879 18880 18881 18882 18883 18884 18885 18886 18887 18888 18889 18890 18891 18892 18893 18894 18895 18896 18897 18898 18899 18900 18901 18902 18903 18904 18905 18906 18907 18908 18909 18910 18911 18912 18913 18914 18915 18916 18917 18918 18919 18920 18921 18922 18923 18924 18925 18926 18927 18928 18929 18930 18931 18932 18933 18934 18935 18936 18937 18938 18939 18940 18941 18942 18943 18944 18945 18946 18947 18948 18949 18950 18951 18952 18953 18954 18955 18956 18957 18958 18959 18960 18961 18962 18963 18964 18965 18966 18967 18968 18969 18970 18971 18972 18973 18974 18975 18976 18977 18978 18979 18980 18981 18982 18983 18984 18985 18986 18987 18988 18989 18990 18991 18992 18993 18994 18995 18996 18997 18998 18999 19000 19001 19002 19003 19004 19005 19006 19007 19008 19009 19010 19011 19012 19013 19014 19015 19016 19017 19018 19019 19020 19021 19022 19023 19024 19025 19026 19027 19028 19029 19030 19031 19032 19033 19034 19035 19036 19037 19038 19039 19040 19041 19042 19043 19044 19045 19046 19047 19048 19049 19050 19051 19052 19053 19054 19055 19056 19057 19058 19059 19060 19061 19062 19063 19064 19065 19066 19067 19068 19069 19070 19071 19072 19073 19074 19075 19076 19077 19078 19079 19080 19081 19082 19083 19084 19085 19086 19087 19088 19089 19090 19091 19092 19093 19094 19095 19096 19097 19098 19099 19100 19101 19102 19103 19104 19105 19106 19107 19108 19109 19110 19111 19112 19113 19114 19115 19116 19117 19118 19119 19120 19121 19122 19123 19124 19125 19126 19127 19128 19129 19130 19131 19132 19133 19134 19135 19136 19137 19138 19139 19140 19141 19142 19143 19144 19145 19146 19147 19148 19149 19150 19151 19152 19153 19154 19155 19156 19157 19158 19159 19160 19161 19162 19163 19164 19165 19166 19167 19168 19169 19170 19171 19172 19173 19174 19175 19176 19177 19178 19179 19180 19181 19182 19183 19184 19185 19186 19187 19188 19189 19190 19191 19192 19193 19194 19195 19196 19197 19198 19199 19200 19201 19202 19203 19204 19205 19206 19207 19208 19209 19210 19211 19212 19213 19214 19215 19216 19217 19218 19219 19220 19221 19222 19223 19224 19225 19226 19227 19228 19229 19230 19231 19232 19233 19234 19235 19236 19237 19238 19239 19240 19241 19242 19243 19244 19245 19246 19247 19248 19249 19250 19251 19252 19253 19254 19255 19256 19257 19258 19259 19260 19261 19262 19263 19264 19265 19266 19267 19268 19269 19270 19271 19272 19273 19274 19275 19276 19277 19278 19279 19280 19281 19282 19283 19284 19285 19286 19287 19288 19289 19290 19291 19292 19293 19294 19295 19296 19297 19298 19299 19300 19301 19302 19303 19304 19305 19306 19307 19308 19309 19310 19311 19312 19313 19314 19315 19316 19317 19318 19319 19320 19321 19322 19323 19324 19325 19326 19327 19328 19329 19330 19331 19332 19333 19334 19335 19336 19337 19338 19339 19340 19341 19342 19343 19344 19345 19346 19347 19348 19349 19350 19351 19352 19353 19354 19355 19356 19357 19358 19359 19360 19361 19362 19363 19364 19365 19366 19367 19368 19369 19370 19371 19372 19373 19374 19375 19376 19377 19378 19379 19380 19381 19382 19383 19384 19385 19386 19387 19388 19389 19390 19391 19392 19393 19394 19395 19396 19397 19398 19399 19400 19401 19402 19403 19404 19405 19406 19407 19408 19409 19410 19411 19412 19413 19414 19415 19416 19417 19418 19419 19420 19421 19422 19423 19424 19425 19426 19427 19428 19429 19430 19431 19432 19433 19434 19435 19436 19437 19438 19439 19440 19441 19442 19443 19444 19445 19446 19447 19448 19449 19450 19451 19452 19453 19454 19455 19456 19457 19458 19459 19460 19461 19462 19463 19464 19465 19466 19467 19468 19469 19470 19471 19472 19473 19474 19475 19476 19477 19478 19479 19480 19481 19482 19483 19484 19485 19486 19487 19488 19489 19490 19491 19492 19493 19494 19495 19496 19497 19498 19499 19500 19501 19502 19503 19504 19505 19506 19507 19508 19509 19510 19511 19512 19513 19514 19515 19516 19517 19518 19519 19520 19521 19522 19523 19524 19525 19526 19527 19528 19529 19530 19531 19532 19533 19534 19535 19536 19537 19538 19539 19540 19541 19542 19543 19544 19545 19546 19547 19548 19549 19550 19551 19552 19553 19554 19555 19556 19557 19558 19559 19560 19561 19562 19563 19564 19565 19566 19567 19568 19569 19570 19571 19572 19573 19574 19575 19576 19577 19578 19579 19580 19581 19582 19583 19584 19585 19586 19587 19588 19589 19590 19591 19592 19593 19594 19595 19596 19597 19598 19599 19600 19601 19602 19603 19604 19605 19606 19607 19608 19609 19610 19611 19612 19613 19614 19615 19616 19617 19618 19619 19620 19621 19622 19623 19624 19625 19626 19627 19628 19629 19630 19631 19632 19633 19634 19635 19636 19637 19638 19639 19640 19641 19642 19643 19644 19645 19646 19647 19648 19649 19650 19651 19652 19653 19654 19655 19656 19657 19658 19659 19660 19661 19662 19663 19664 19665 19666 19667 19668 19669 19670 19671 19672 19673 19674 19675 19676 19677 19678 19679 19680 19681 19682 19683 19684 19685 19686 19687 19688 19689 19690 19691 19692 19693 19694 19695 19696 19697 19698 19699 19700 19701 19702 19703 19704 19705 19706 19707 19708 19709 19710 19711 19712 19713 19714 19715 19716 19717 19718 19719 19720 19721 19722 19723 19724 19725 19726 19727 19728 19729 19730 19731 19732 19733 19734 19735 19736 19737 19738 19739 19740 19741 19742 19743 19744 19745 19746 19747 19748 19749 19750 19751 19752 19753 19754 19755 19756 19757 19758 19759 19760 19761 19762 19763 19764 19765 19766 19767 19768 19769 19770 19771 19772 19773 19774 19775 19776 19777 19778 19779 19780 19781 19782 19783 19784 19785 19786 19787 19788 19789 19790 19791 19792 19793 19794 19795 19796 19797 19798 19799 19800 19801 19802 19803 19804 19805 19806 19807 19808 19809 19810 19811 19812 19813 19814 19815 19816 19817 19818 19819 19820 19821 19822 19823 19824 19825 19826 19827 19828 19829 19830 19831 19832 19833 19834 19835 19836 19837 19838 19839 19840 19841 19842 19843 19844 19845 19846 19847 19848 19849 19850 19851 19852 19853 19854 19855 19856 19857 19858 19859 19860 19861 19862 19863 19864 19865 19866 19867 19868 19869 19870 19871 19872 19873 19874 19875 19876 19877 19878 19879 19880 19881 19882 19883 19884 19885 19886 19887 19888 19889 19890 19891 19892 19893 19894 19895 19896 19897 19898 19899 19900 19901 19902 19903 19904 19905 19906 19907 19908 19909 19910 19911 19912 19913 19914 19915 19916 19917 19918 19919 19920 19921 19922 19923 19924 19925 19926 19927 19928 19929 19930 19931 19932 19933 19934 19935 19936 19937 19938 19939 19940 19941 19942 19943 19944 19945 19946 19947 19948 19949 19950 19951 19952 19953 19954 19955 19956 19957 19958 19959 19960 19961 19962 19963 19964 19965 19966 19967 19968 19969 19970 19971 19972 19973 19974 19975 19976 19977 19978 19979 19980 19981 19982 19983 19984 19985 19986 19987 19988 19989 19990 19991 19992 19993 19994 19995 19996 19997 19998 19999 20000 20001 20002 20003 20004 20005 20006 20007 20008 20009 20010 20011 20012 20013 20014 20015 20016 20017 20018 20019 20020 20021 20022 20023 20024 20025 20026 20027 20028 20029 20030 20031 20032 20033 20034 20035 20036 20037 20038 20039 20040 20041 20042 20043 20044 20045 20046 20047 20048 20049 20050 20051 20052 20053 20054 20055 20056 20057 20058 20059 20060 20061 20062 20063 20064 20065 20066 20067 20068 20069 20070 20071 20072 20073 20074 20075 20076 20077 20078 20079 20080 20081 20082 20083 20084 20085 20086 20087 20088 20089 20090 20091 20092 20093 20094 20095 20096 20097 20098 20099 20100 20101 20102 20103 20104 20105 20106 20107 20108 20109 20110 20111 20112 20113 20114 20115 20116 20117 20118 20119 20120 20121 20122 20123 20124 20125 20126 20127 20128 20129 20130 20131 20132 20133 20134 20135 20136 20137 20138 20139 20140 20141 20142 20143 20144 20145 20146 20147 20148 20149 20150 20151 20152 20153 20154 20155 20156 20157 20158 20159 20160 20161 20162 20163 20164 20165 20166 20167 20168 20169 20170 20171 20172 20173 20174 20175 20176 20177 20178 20179 20180 20181 20182 20183 20184 20185 20186 20187 20188 20189 20190 20191 20192 20193 20194 20195 20196 20197 20198 20199 20200 20201 20202 20203 20204 20205 20206 20207 20208 20209 20210 20211 20212 20213 20214 20215 20216 20217 20218 20219 20220 20221 20222 20223 20224 20225 20226 20227 20228 20229 20230 20231 20232 20233 20234 20235 20236 20237 20238 20239 20240 20241 20242 20243 20244 20245 20246 20247 20248 20249 20250 20251 20252 20253 20254 20255 20256 20257 20258 20259 20260 20261 20262 20263 20264 20265 20266 20267 20268 20269 20270 20271 20272 20273 20274 20275 20276 20277 20278 20279 20280 20281 20282 20283 20284 20285 20286 20287 20288 20289 20290 20291 20292 20293 20294 20295 20296 20297 20298 20299 20300 20301 20302 20303 20304 20305 20306 20307 20308 20309 20310 20311 20312 20313 20314 20315 20316 20317 20318 20319 20320 20321 20322 20323 20324 20325 20326 20327 20328 20329 20330 20331 20332 20333 20334 20335 20336 20337 20338 20339 20340 20341 20342 20343 20344 20345 20346 20347 20348 20349 20350 20351 20352 20353 20354 20355 20356 20357 20358 20359 20360 20361 20362 20363 20364 20365 20366 20367 20368 20369 20370 20371 20372 20373 20374 20375 20376 20377 20378 20379 20380 20381 20382 20383 20384 20385 20386 20387 20388 20389 20390 20391 20392 20393 20394 20395 20396 20397 20398 20399 20400 20401 20402 20403 20404 20405 20406 20407 20408 20409 20410 20411 20412 20413 20414 20415 20416 20417 20418 20419 20420 20421 20422 20423 20424 20425 20426 20427 20428 20429 20430 20431 20432 20433 20434 20435 20436 20437 20438 20439 20440 20441 20442 20443 20444 20445 20446 20447 20448 20449 20450 20451 20452 20453 20454 20455 20456 20457 20458 20459 20460 20461 20462 20463 20464 20465 20466 20467 20468 20469 20470 20471 20472 20473 20474 20475 20476 20477 20478 20479 20480 20481 20482 20483 20484 20485 20486 20487 20488 20489 20490 20491 20492 20493 20494 20495 20496 20497 20498 20499 20500 20501 20502 20503 20504 20505 20506 20507 20508 20509 20510 20511 20512 20513 20514 20515 20516 20517 20518 20519 20520 20521 20522 20523 20524 20525 20526 20527 20528 20529 20530 20531 20532 20533 20534 20535 20536 20537 20538 20539 20540 20541 20542 20543 20544 20545 20546 20547 20548 20549 20550 20551 20552 20553 20554 20555 20556 20557 20558 20559 20560 20561 20562 20563 20564 20565 20566 20567 20568 20569 20570 20571 20572 20573 20574 20575 20576 20577 20578 20579 20580 20581 20582 20583 20584 20585 20586 20587 20588 20589 20590 20591 20592 20593 20594 20595 20596 20597 20598 20599 20600 20601 20602 20603 20604 20605 20606 20607 20608 20609 20610 20611 20612 20613 20614 20615 20616 20617 20618 20619 20620 20621 20622 20623 20624 20625 20626 20627 20628 20629 20630 20631 20632 20633 20634 20635 20636 20637 20638 20639 20640 20641 20642 20643 20644 20645 20646 20647 20648 20649 20650 20651 20652 20653 20654 20655 20656 20657 20658 20659 20660 20661 20662 20663 20664 20665 20666 20667 20668 20669 20670 20671 20672 20673 20674 20675 20676 20677 20678 20679 20680 20681 20682 20683 20684 20685 20686 20687 20688 20689 20690 20691 20692 20693 20694 20695 20696 20697 20698 20699 20700 20701 20702 20703 20704 20705 20706 20707 20708 20709 20710 20711 20712 20713 20714 20715 20716 20717 20718 20719 20720 20721 20722 20723 20724 20725 20726 20727 20728 20729 20730 20731 20732 20733 20734 20735 20736 20737 20738 20739 20740 20741 20742 20743 20744 20745 20746 20747 20748 20749 20750 20751 20752 20753 20754 20755 20756 20757 20758 20759 20760 20761 20762 20763 20764 20765 20766 20767 20768 20769 20770 20771 20772 20773 20774 20775 20776 20777 20778 20779 20780 20781 20782 20783 20784 20785 20786 20787 20788 20789 20790 20791 20792 20793 20794 20795 20796 20797 20798 20799 20800 20801 20802 20803 20804 20805 20806 20807 20808 20809 20810 20811 20812 20813 20814 20815 20816 20817 20818 20819 20820 20821 20822 20823 20824 20825 20826 20827 20828 20829 20830 20831 20832 20833 20834 20835 20836 20837 20838 20839 20840 20841 20842 20843 20844 20845 20846 20847 20848 20849 20850 20851 20852 20853 20854 20855 20856 20857 20858 20859 20860 20861 20862 20863 20864 20865 20866 20867 20868 20869 20870 20871 20872 20873 20874 20875 20876 20877 20878 20879 20880 20881 20882 20883 20884 20885 20886 20887 20888 20889 20890 20891 20892 20893 20894 20895 20896 20897 20898 20899 20900 20901 20902 20903 20904 20905 20906 20907 20908 20909 20910 20911 20912 20913 20914 20915 20916 20917 20918 20919 20920 20921 20922 20923 20924 20925 20926 20927 20928 20929 20930 20931 20932 20933 20934 20935 20936 20937 20938 20939 20940 20941 20942 20943 20944 20945 20946 20947 20948 20949 20950 20951 20952 20953 20954 20955 20956 20957 20958 20959 20960 20961 20962 20963 20964 20965 20966 20967 20968 20969 20970 20971 20972 20973 20974 20975 20976 20977 20978 20979 20980 20981 20982 20983 20984 20985 20986 20987 20988 20989 20990 20991 20992 20993 20994 20995 20996 20997 20998 20999 21000 21001 21002 21003 21004 21005 21006 21007 21008 21009 21010 21011 21012 21013 21014 21015 21016 21017 21018 21019 21020 21021 21022 21023 21024 21025 21026 21027 21028 21029 21030 21031 21032 21033 21034 21035 21036 21037 21038 21039 21040 21041 21042 21043 21044 21045 21046 21047 21048 21049 21050 21051 21052 21053 21054 21055 21056 21057 21058 21059 21060 21061 21062 21063 21064 21065 21066 21067 21068 21069 21070 21071 21072 21073 21074 21075 21076 21077 21078 21079 21080 21081 21082 21083 21084 21085 21086 21087 21088 21089 21090 21091 21092 21093 21094 21095 21096 21097 21098 21099 21100 21101 21102 21103 21104 21105 21106 21107 21108 21109 21110 21111 21112 21113 21114 21115 21116 21117 21118 21119 21120 21121 21122 21123 21124 21125 21126 21127 21128 21129 21130 21131 21132 21133 21134 21135 21136 21137 21138 21139 21140 21141 21142 21143 21144 21145 21146 21147 21148 21149 21150 21151 21152 21153 21154 21155 21156 21157 21158 21159 21160 21161 21162 21163 21164 21165 21166 21167 21168 21169 21170 21171 21172 21173 21174 21175 21176 21177 21178 21179 21180 21181 21182 21183 21184 21185 21186 21187 21188 21189 21190 21191 21192 21193 21194 21195 21196 21197 21198 21199 21200 21201 21202 21203 21204 21205 21206 21207 21208 21209 21210 21211 21212 21213 21214 21215 21216 21217 21218 21219 21220 21221 21222 21223 21224 21225 21226 21227 21228 21229 21230 21231 21232 21233 21234 21235 21236 21237 21238 21239 21240 21241 21242 21243 21244 21245 21246 21247 21248 21249 21250 21251 21252 21253 21254 21255 21256 21257 21258 21259 21260 21261 21262 21263 21264 21265 21266 21267 21268 21269 21270 21271 21272 21273 21274 21275 21276 21277 21278 21279 21280 21281 21282 21283 21284 21285 21286 21287 21288 21289 21290 21291 21292 21293 21294 21295 21296 21297 21298 21299 21300 21301 21302 21303 21304 21305 21306 21307 21308 21309 21310 21311 21312 21313 21314 21315 21316 21317 21318 21319 21320 21321 21322 21323 21324 21325 21326 21327 21328 21329 21330 21331 21332 21333 21334 21335 21336 21337 21338 21339 21340 21341 21342 21343 21344 21345 21346 21347 21348 21349 21350 21351 21352 21353 21354 21355 21356 21357 21358 21359 21360 21361 21362 21363 21364 21365 21366 21367 21368 21369 21370 21371 21372 21373 21374 21375 21376 21377 21378 21379 21380 21381 21382 21383 21384 21385 21386 21387 21388 21389 21390 21391 21392 21393 21394 21395 21396 21397 21398 21399 21400 21401 21402 21403 21404 21405 21406 21407 21408 21409 21410 21411 21412 21413 21414 21415 21416 21417 21418 21419 21420 21421 21422 21423 21424 21425 21426 21427 21428 21429 21430 21431 21432 21433 21434 21435 21436 21437 21438 21439 21440 21441 21442 21443 21444 21445 21446 21447 21448 21449 21450 21451 21452 21453 21454 21455 21456 21457 21458 21459 21460 21461 21462 21463 21464 21465 21466 21467 21468 21469 21470 21471 21472 21473 21474 21475 21476 21477 21478 21479 21480 21481 21482 21483 21484 21485 21486 21487 21488 21489 21490 21491 21492 21493 21494 21495 21496 21497 21498 21499 21500 21501 21502 21503 21504 21505 21506 21507 21508 21509 21510 21511 21512 21513 21514 21515 21516 21517 21518 21519 21520 21521 21522 21523 21524 21525 21526 21527 21528 21529 21530 21531 21532 21533 21534 21535 21536 21537 21538 21539 21540 21541 21542 21543 21544 21545 21546 21547 21548 21549 21550 21551 21552 21553 21554 21555 21556 21557 21558 21559 21560 21561 21562 21563 21564 21565 21566 21567 21568 21569 21570 21571 21572 21573 21574 21575 21576 21577 21578 21579 21580 21581 21582 21583 21584 21585 21586 21587 21588 21589 21590 21591 21592 21593 21594 21595 21596 21597 21598 21599 21600 21601 21602 21603 21604 21605 21606 21607 21608 21609 21610 21611 21612 21613 21614 21615 21616 21617 21618 21619 21620 21621 21622 21623 21624 21625 21626 21627 21628 21629 21630 21631 21632 21633 21634 21635 21636 21637 21638 21639 21640 21641 21642 21643 21644 21645 21646 21647 21648 21649 21650 21651 21652 21653 21654 21655 21656 21657 21658 21659 21660 21661 21662 21663 21664 21665 21666 21667 21668 21669 21670 21671 21672 21673 21674 21675 21676 21677 21678 21679 21680 21681 21682 21683 21684 21685 21686 21687 21688 21689 21690 21691 21692 21693 21694 21695 21696 21697 21698 21699 21700 21701 21702 21703 21704 21705 21706 21707 21708 21709 21710 21711 21712 21713 21714 21715 21716 21717 21718 21719 21720 21721 21722 21723 21724 21725 21726 21727 21728 21729 21730 21731 21732 21733 21734 21735 21736 21737 21738 21739 21740 21741 21742 21743 21744 21745 21746 21747 21748 21749 21750 21751 21752 21753 21754 21755 21756 21757 21758 21759 21760 21761 21762 21763 21764 21765 21766 21767 21768 21769 21770 21771 21772 21773 21774 21775 21776 21777 21778 21779 21780 21781 21782 21783 21784 21785 21786 21787 21788 21789 21790 21791 21792 21793 21794 21795 21796 21797 21798 21799 21800 21801 21802 21803 21804 21805 21806 21807 21808 21809 21810 21811 21812 21813 21814 21815 21816 21817 21818 21819 21820 21821 21822 21823 21824 21825 21826 21827 21828 21829 21830 21831 21832 21833 21834 21835 21836 21837 21838 21839 21840 21841 21842 21843 21844 21845 21846 21847 21848 21849 21850 21851 21852 21853 21854 21855 21856 21857 21858 21859 21860 21861 21862 21863 21864 21865 21866 21867 21868 21869 21870 21871 21872 21873 21874 21875 21876 21877 21878 21879 21880 21881 21882 21883 21884 21885 21886 21887 21888 21889 21890 21891 21892 21893 21894 21895 21896 21897 21898 21899 21900 21901 21902 21903 21904 21905 21906 21907 21908 21909 21910 21911 21912 21913 21914 21915 21916 21917 21918 21919 21920 21921 21922 21923 21924 21925 21926 21927 21928 21929 21930 21931 21932 21933 21934 21935 21936 21937 21938 21939 21940 21941 21942 21943 21944 21945 21946 21947 21948 21949 21950 21951 21952 21953 21954 21955 21956 21957 21958 21959 21960 21961 21962 21963 21964 21965 21966 21967 21968 21969 21970 21971 21972 21973 21974 21975 21976 21977 21978 21979 21980 21981 21982 21983 21984 21985 21986 21987 21988 21989 21990 21991 21992 21993 21994 21995 21996 21997 21998 21999 22000 22001 22002 22003 22004 22005 22006 22007 22008 22009 22010 22011 22012 22013 22014 22015 22016 22017 22018 22019 22020 22021 22022 22023 22024 22025 22026 22027 22028 22029 22030 22031 22032 22033 22034 22035 22036 22037 22038 22039 22040 22041 22042 22043 22044 22045 22046 22047 22048 22049 22050 22051 22052 22053 22054 22055 22056 22057 22058 22059 22060 22061 22062 22063 22064 22065 22066 22067 22068 22069 22070 22071 22072 22073 22074 22075 22076 22077 22078 22079 22080 22081 22082 22083 22084 22085 22086 22087 22088 22089 22090 22091 22092 22093 22094 22095 22096 22097 22098 22099 22100 22101 22102 22103 22104 22105 22106 22107 22108 22109 22110 22111 22112 22113 22114 22115 22116 22117 22118 22119 22120 22121 22122 22123 22124 22125 22126 22127 22128 22129 22130 22131 22132 22133 22134 22135 22136 22137 22138 22139 22140 22141 22142 22143 22144 22145 22146 22147 22148 22149 22150 22151 22152 22153 22154 22155 22156 22157 22158 22159 22160 22161 22162 22163 22164 22165 22166 22167 22168 22169 22170 22171 22172 22173 22174 22175 22176 22177 22178 22179 22180 22181 22182 22183 22184 22185 22186 22187 22188 22189 22190 22191 22192 22193 22194 22195 22196 22197 22198 22199 22200 22201 22202 22203 22204 22205 22206 22207 22208 22209 22210 22211 22212 22213 22214 22215 22216 22217 22218 22219 22220 22221 22222 22223 22224 22225 22226 22227 22228 22229 22230 22231 22232 22233 22234 22235 22236 22237 22238 22239 22240 22241 22242 22243 22244 22245 22246 22247 22248 22249 22250 22251 22252 22253 22254 22255 22256 22257 22258 22259 22260 22261 22262 22263 22264 22265 22266 22267 22268 22269 22270 22271 22272 22273 22274 22275 22276 22277 22278 22279 22280 22281 22282 22283 22284 22285 22286 22287 22288 22289 22290 22291 22292 22293 22294 22295 22296 22297 22298 22299 22300 22301 22302 22303 22304 22305 22306 22307 22308 22309 22310 22311 22312 22313 22314 22315 22316 22317 22318 22319 22320 22321 22322 22323 22324 22325 22326 22327 22328 22329 22330 22331 22332 22333 22334 22335 22336 22337 22338 22339 22340 22341 22342 22343 22344 22345 22346 22347 22348 22349 22350 22351 22352 22353 22354 22355 22356 22357 22358 22359 22360 22361 22362 22363 22364 22365 22366 22367 22368 22369 22370 22371 22372 22373 22374 22375 22376 22377 22378 22379 22380 22381 22382 22383 22384 22385 22386 22387 22388 22389 22390 22391 22392 22393 22394 22395 22396 22397 22398 22399 22400 22401 22402 22403 22404 22405 22406 22407 22408 22409 22410 22411 22412 22413 22414 22415 22416 22417 22418 22419 22420 22421 22422 22423 22424 22425 22426 22427 22428 22429 22430 22431 22432 22433 22434 22435 22436 22437 22438 22439 22440 22441 22442 22443 22444 22445 22446 22447 22448 22449 22450 22451 22452 22453 22454 22455 22456 22457 22458 22459 22460 22461 22462 22463 22464 22465 22466 22467 22468 22469 22470 22471 22472 22473 22474 22475 22476 22477 22478 22479 22480 22481 22482 22483 22484 22485 22486 22487 22488 22489 22490 22491 22492 22493 22494 22495 22496 22497 22498 22499 22500 22501 22502 22503 22504 22505 22506 22507 22508 22509 22510 22511 22512 22513 22514 22515 22516 22517 22518 22519 22520 22521 22522 22523 22524 22525 22526 22527 22528 22529 22530 22531 22532 22533 22534 22535 22536 22537 22538 22539 22540 22541 22542 22543 22544 22545 22546 22547 22548 22549 22550 22551 22552 22553 22554 22555 22556 22557 22558 22559 22560 22561 22562 22563 22564 22565 22566 22567 22568 22569 22570 22571 22572 22573 22574 22575 22576 22577 22578 22579 22580 22581 22582 22583 22584 22585 22586 22587 22588 22589 22590 22591 22592 22593 22594 22595 22596 22597 22598 22599 22600 22601 22602 22603 22604 22605 22606 22607 22608 22609 22610 22611 22612 22613 22614 22615 22616 22617 22618 22619 22620 22621 22622 22623 22624 22625 22626 22627 22628 22629 22630 22631 22632 22633 22634 22635 22636 22637 22638 22639 22640 22641 22642 22643 22644 22645 22646 22647 22648 22649 22650 22651 22652 22653 22654 22655 22656 22657 22658 22659 22660 22661 22662 22663 22664 22665 22666 22667 22668 22669 22670 22671 22672 22673 22674 22675 22676 22677 22678 22679 22680 22681 22682 22683 22684 22685 22686 22687 22688 22689 22690 22691 22692 22693 22694 22695 22696 22697 22698 22699 22700 22701 22702 22703 22704 22705 22706 22707 22708 22709 22710 22711 22712 22713 22714 22715 22716 22717 22718 22719 22720 22721 22722 22723 22724 22725 22726 22727 22728 22729 22730 22731 22732 22733 22734 22735 22736 22737 22738 22739 22740 22741 22742 22743 22744 22745 22746 22747 22748 22749 22750 22751 22752 22753 22754 22755 22756 22757 22758 22759 22760 22761 22762 22763 22764 22765 22766 22767 22768 22769 22770 22771 22772 22773 22774 22775 22776 22777 22778 22779 22780 22781 22782 22783 22784 22785 22786 22787 22788 22789 22790 22791 22792 22793 22794 22795 22796 22797 22798 22799 22800 22801 22802 22803 22804 22805 22806 22807 22808 22809 22810 22811 22812 22813 22814 22815 22816 22817 22818 22819 22820 22821 22822 22823 22824 22825 22826 22827 22828 22829 22830 22831 22832 22833 22834 22835 22836 22837 22838 22839 22840 22841 22842 22843 22844 22845 22846 22847 22848 22849 22850 22851 22852 22853 22854 22855 22856 22857 22858 22859 22860 22861 22862 22863 22864 22865 22866 22867 22868 22869 22870 22871 22872 22873 22874 22875 22876 22877 22878 22879 22880 22881 22882 22883 22884 22885 22886 22887 22888 22889 22890 22891 22892 22893 22894 22895 22896 22897 22898 22899 22900 22901 22902 22903 22904 22905 22906 22907 22908 22909 22910 22911 22912 22913 22914 22915 22916 22917 22918 22919 22920 22921 22922 22923 22924 22925 22926 22927 22928 22929 22930 22931 22932 22933 22934 22935 22936 22937 22938 22939 22940 22941 22942 22943 22944 22945 22946 22947 22948 22949 22950 22951 22952 22953 22954 22955 22956 22957 22958 22959 22960 22961 22962 22963 22964 22965 22966 22967 22968 22969 22970 22971 22972 22973 22974 22975 22976 22977 22978 22979 22980 22981 22982 22983 22984 22985 22986 22987 22988 22989 22990 22991 22992 22993 22994 22995 22996 22997 22998 22999 23000 23001 23002 23003 23004 23005 23006 23007 23008 23009 23010 23011 23012 23013 23014 23015 23016 23017 23018 23019 23020 23021 23022 23023 23024 23025 23026 23027 23028 23029 23030 23031 23032 23033 23034 23035 23036 23037 23038 23039 23040 23041 23042 23043 23044 23045 23046 23047 23048 23049 23050 23051 23052 23053 23054 23055 23056 23057 23058 23059 23060 23061 23062 23063 23064 23065 23066 23067 23068 23069 23070 23071 23072 23073 23074 23075 23076 23077 23078 23079 23080 23081 23082 23083 23084 23085 23086 23087 23088 23089 23090 23091 23092 23093 23094 23095 23096 23097 23098 23099 23100 23101 23102 23103 23104 23105 23106 23107 23108 23109 23110 23111 23112 23113 23114 23115 23116 23117 23118 23119 23120 23121 23122 23123 23124 23125 23126 23127 23128 23129 23130 23131 23132 23133 23134 23135 23136 23137 23138 23139 23140 23141 23142 23143 23144 23145 23146 23147 23148 23149 23150 23151 23152 23153 23154 23155 23156 23157 23158 23159 23160 23161 23162 23163 23164 23165 23166 23167 23168 23169 23170 23171 23172 23173 23174 23175 23176 23177 23178 23179 23180 23181 23182 23183 23184 23185 23186 23187 23188 23189 23190 23191 23192 23193 23194 23195 23196 23197 23198 23199 23200 23201 23202 23203 23204 23205 23206 23207 23208 23209 23210 23211 23212 23213 23214 23215 23216 23217 23218 23219 23220 23221 23222 23223 23224 23225 23226 23227 23228 23229 23230 23231 23232 23233 23234 23235 23236 23237 23238 23239 23240 23241 23242 23243 23244 23245 23246 23247 23248 23249 23250 23251 23252 23253 23254 23255 23256 23257 23258 23259 23260 23261 23262 23263 23264 23265 23266 23267 23268 23269 23270 23271 23272 23273 23274 23275 23276 23277 23278 23279 23280 23281 23282 23283 23284 23285 23286 23287 23288 23289 23290 23291 23292 23293 23294 23295 23296 23297 23298 23299 23300 23301 23302 23303 23304 23305 23306 23307 23308 23309 23310 23311 23312 23313 23314 23315 23316 23317 23318 23319 23320 23321 23322 23323 23324 23325 23326 23327 23328 23329 23330 23331 23332 23333 23334 23335 23336 23337 23338 23339 23340 23341 23342 23343 23344 23345 23346 23347 23348 23349 23350 23351 23352 23353 23354 23355 23356 23357 23358 23359 23360 23361 23362 23363 23364 23365 23366 23367 23368 23369 23370 23371 23372 23373 23374 23375 23376 23377 23378 23379 23380 23381 23382 23383 23384 23385 23386 23387 23388 23389 23390 23391 23392 23393 23394 23395 23396 23397 23398 23399 23400 23401 23402 23403 23404 23405 23406 23407 23408 23409 23410 23411 23412 23413 23414 23415 23416 23417 23418 23419 23420 23421 23422 23423 23424 23425 23426 23427 23428 23429 23430 23431 23432 23433 23434 23435 23436 23437 23438 23439 23440 23441 23442 23443 23444 23445 23446 23447 23448 23449 23450 23451 23452 23453 23454 23455 23456 23457 23458 23459 23460 23461 23462 23463 23464 23465 23466 23467 23468 23469 23470 23471 23472 23473 23474 23475 23476 23477 23478 23479 23480 23481 23482 23483 23484 23485 23486 23487 23488 23489 23490 23491 23492 23493 23494 23495 23496 23497 23498 23499 23500 23501 23502 23503 23504 23505 23506 23507 23508 23509 23510 23511 23512 23513 23514 23515 23516 23517 23518 23519 23520 23521 23522 23523 23524 23525 23526 23527 23528 23529 23530 23531 23532 23533 23534 23535 23536 23537 23538 23539 23540 23541 23542 23543 23544 23545 23546 23547 23548 23549 23550 23551 23552 23553 23554 23555 23556 23557 23558 23559 23560 23561 23562 23563 23564 23565 23566 23567 23568 23569 23570 23571 23572 23573 23574 23575 23576 23577 23578 23579 23580 23581 23582 23583 23584 23585 23586 23587 23588 23589 23590 23591 23592 23593 23594 23595 23596 23597 23598 23599 23600 23601 23602 23603 23604 23605 23606 23607 23608 23609 23610 23611 23612 23613 23614 23615 23616 23617 23618 23619 23620 23621 23622 23623 23624 23625 23626 23627 23628 23629 23630 23631 23632 23633 23634 23635 23636 23637 23638 23639 23640 23641 23642 23643 23644 23645 23646 23647 23648 23649 23650 23651 23652 23653 23654 23655 23656 23657 23658 23659 23660 23661 23662 23663 23664 23665 23666 23667 23668 23669 23670 23671 23672 23673 23674 23675 23676 23677 23678 23679 23680 23681 23682 23683 23684 23685 23686 23687 23688 23689 23690 23691 23692 23693 23694 23695 23696 23697 23698 23699 23700 23701 23702 23703 23704 23705 23706 23707 23708 23709 23710 23711 23712 23713 23714 23715 23716 23717 23718 23719 23720 23721 23722 23723 23724 23725 23726 23727 23728 23729 23730 23731 23732 23733 23734 23735 23736 23737 23738 23739 23740 23741 23742 23743 23744 23745 23746 23747 23748 23749 23750 23751 23752 23753 23754 23755 23756 23757 23758 23759 23760 23761 23762 23763 23764 23765 23766 23767 23768 23769 23770 23771 23772 23773 23774 23775 23776 23777 23778 23779 23780 23781 23782 23783 23784 23785 23786 23787 23788 23789 23790 23791 23792 23793 23794 23795 23796 23797 23798 23799 23800 23801 23802 23803 23804 23805 23806 23807 23808 23809 23810 23811 23812 23813 23814 23815 23816 23817 23818 23819 23820 23821 23822 23823 23824 23825 23826 23827 23828 23829 23830 23831 23832 23833 23834 23835 23836 23837 23838 23839 23840 23841 23842 23843 23844 23845 23846 23847 23848 23849 23850 23851 23852 23853 23854 23855 23856 23857 23858 23859 23860 23861 23862 23863 23864 23865 23866 23867 23868 23869 23870 23871 23872 23873 23874 23875 23876 23877 23878 23879 23880 23881 23882 23883 23884 23885 23886 23887 23888 23889 23890 23891 23892 23893 23894 23895 23896 23897 23898 23899 23900 23901 23902 23903 23904 23905 23906 23907 23908 23909 23910 23911 23912 23913 23914 23915 23916 23917 23918 23919 23920 23921 23922 23923 23924 23925 23926 23927 23928 23929 23930 23931 23932 23933 23934 23935 23936 23937 23938 23939 23940 23941 23942 23943 23944 23945 23946 23947 23948 23949 23950 23951 23952 23953 23954 23955 23956 23957 23958 23959 23960 23961 23962 23963 23964 23965 23966 23967 23968 23969 23970 23971 23972 23973 23974 23975 23976 23977 23978 23979 23980 23981 23982 23983 23984 23985 23986 23987 23988 23989 23990 23991 23992 23993 23994 23995 23996 23997 23998 23999 24000 24001 24002 24003 24004 24005 24006 24007 24008 24009 24010 24011 24012 24013 24014 24015 24016 24017 24018 24019 24020 24021 24022 24023 24024 24025 24026 24027 24028 24029 24030 24031 24032 24033 24034 24035 24036 24037 24038 24039 24040 24041 24042 24043 24044 24045 24046 24047 24048 24049 24050 24051 24052 24053 24054 24055 24056 24057 24058 24059 24060 24061 24062 24063 24064 24065 24066 24067 24068 24069 24070 24071 24072 24073 24074 24075 24076 24077 24078 24079 24080 24081 24082 24083 24084 24085 24086 24087 24088 24089 24090 24091 24092 24093 24094 24095 24096 24097 24098 24099 24100 24101 24102 24103 24104 24105 24106 24107 24108 24109 24110 24111 24112 24113 24114 24115 24116 24117 24118 24119 24120 24121 24122 24123 24124 24125 24126 24127 24128 24129 24130 24131 24132 24133 24134 24135 24136 24137 24138 24139 24140 24141 24142 24143 24144 24145 24146 24147 24148 24149 24150 24151 24152 24153 24154 24155 24156 24157 24158 24159 24160 24161 24162 24163 24164 24165 24166 24167 24168 24169 24170 24171 24172 24173 24174 24175 24176 24177 24178 24179 24180 24181 24182 24183 24184 24185 24186 24187 24188 24189 24190 24191 24192 24193 24194 24195 24196 24197 24198 24199 24200 24201 24202 24203 24204 24205 24206 24207 24208 24209 24210 24211 24212 24213 24214 24215 24216 24217 24218 24219 24220 24221 24222 24223 24224 24225 24226 24227 24228 24229 24230 24231 24232 24233 24234 24235 24236 24237 24238 24239 24240 24241 24242 24243 24244 24245 24246 24247 24248 24249 24250 24251 24252 24253 24254 24255 24256 24257 24258 24259 24260 24261 24262 24263 24264 24265 24266 24267 24268 24269 24270 24271 24272 24273 24274 24275 24276 24277 24278 24279 24280 24281 24282 24283 24284 24285 24286 24287 24288 24289 24290 24291 24292 24293 24294 24295 24296 24297 24298 24299 24300 24301 24302 24303 24304 24305 24306 24307 24308 24309 24310 24311 24312 24313 24314 24315 24316 24317 24318 24319 24320 24321 24322 24323 24324 24325 24326 24327 24328 24329 24330 24331 24332 24333 24334 24335 24336 24337 24338 24339 24340 24341 24342 24343 24344 24345 24346 24347 24348 24349 24350 24351 24352 24353 24354 24355 24356 24357 24358 24359 24360 24361 24362 24363 24364 24365 24366 24367 24368 24369 24370 24371 24372 24373 24374 24375 24376 24377 24378 24379 24380 24381 24382 24383 24384 24385 24386 24387 24388 24389 24390 24391 24392 24393 24394 24395 24396 24397 24398 24399 24400 24401 24402 24403 24404 24405 24406 24407 24408 24409 24410 24411 24412 24413 24414 24415 24416 24417 24418 24419 24420 24421 24422 24423 24424 24425 24426 24427 24428 24429 24430 24431 24432 24433 24434 24435 24436 24437 24438 24439 24440 24441 24442 24443 24444 24445 24446 24447 24448 24449 24450 24451 24452 24453 24454 24455 24456 24457 24458 24459 24460 24461 24462 24463 24464 24465 24466 24467 24468 24469 24470 24471 24472 24473 24474 24475 24476 24477 24478 24479 24480 24481 24482 24483 24484 24485 24486 24487 24488 24489 24490 24491 24492 24493 24494 24495 24496 24497 24498 24499 24500 24501 24502 24503 24504 24505 24506 24507 24508 24509 24510 24511 24512 24513 24514 24515 24516 24517 24518 24519 24520 24521 24522 24523 24524 24525 24526 24527 24528 24529 24530 24531 24532 24533 24534 24535 24536 24537 24538 24539 24540 24541 24542 24543 24544 24545 24546 24547 24548 24549 24550 24551 24552 24553 24554 24555 24556 24557 24558 24559 24560 24561 24562 24563 24564 24565 24566 24567 24568 24569 24570 24571 24572 24573 24574 24575 24576 24577 24578 24579 24580 24581 24582 24583 24584 24585 24586 24587 24588 24589 24590 24591 24592 24593 24594 24595 24596 24597 24598 24599 24600 24601 24602 24603 24604 24605 24606 24607 24608 24609 24610 24611 24612 24613 24614 24615 24616 24617 24618 24619 24620 24621 24622 24623 24624 24625 24626 24627 24628 24629 24630 24631 24632 24633 24634 24635 24636 24637 24638 24639 24640 24641 24642 24643 24644 24645 24646 24647 24648 24649 24650 24651 24652 24653 24654 24655 24656 24657 24658 24659 24660 24661 24662 24663 24664 24665 24666 24667 24668 24669 24670 24671 24672 24673 24674 24675 24676 24677 24678 24679 24680 24681 24682 24683 24684 24685 24686 24687 24688 24689 24690 24691 24692 24693 24694 24695 24696 24697 24698 24699 24700 24701 24702 24703 24704 24705 24706 24707 24708 24709 24710 24711 24712 24713 24714 24715 24716 24717 24718 24719 24720 24721 24722 24723 24724 24725 24726 24727 24728 24729 24730 24731 24732 24733 24734 24735 24736 24737 24738 24739 24740 24741 24742 24743 24744 24745 24746 24747 24748 24749 24750 24751 24752 24753 24754 24755 24756 24757 24758 24759 24760 24761 24762 24763 24764 24765 24766 24767 24768 24769 24770 24771 24772 24773 24774 24775 24776 24777 24778 24779 24780 24781 24782 24783 24784 24785 24786 24787 24788 24789 24790 24791 24792 24793 24794 24795 24796 24797 24798 24799 24800 24801 24802 24803 24804 24805 24806 24807 24808 24809 24810 24811 24812 24813 24814 24815 24816 24817 24818 24819 24820 24821 24822 24823 24824 24825 24826 24827 24828 24829 24830 24831 24832 24833 24834 24835 24836 24837 24838 24839 24840 24841 24842 24843 24844 24845 24846 24847 24848 24849 24850 24851 24852 24853 24854 24855 24856 24857 24858 24859 24860 24861 24862 24863 24864 24865 24866 24867 24868 24869 24870 24871 24872 24873 24874 24875 24876 24877 24878 24879 24880 24881 24882 24883 24884 24885 24886 24887 24888 24889 24890 24891 24892 24893 24894 24895 24896 24897 24898 24899 24900 24901 24902 24903 24904 24905 24906 24907 24908 24909 24910 24911 24912 24913 24914 24915 24916 24917 24918 24919 24920 24921 24922 24923 24924 24925 24926 24927 24928 24929 24930 24931 24932 24933 24934 24935 24936 24937 24938 24939 24940 24941 24942 24943 24944 24945 24946 24947 24948 24949 24950 24951 24952 24953 24954 24955 24956 24957 24958 24959 24960 24961 24962 24963 24964 24965 24966 24967 24968 24969 24970 24971 24972 24973 24974 24975 24976 24977 24978 24979 24980 24981 24982 24983 24984 24985 24986 24987 24988 24989 24990 24991 24992 24993 24994 24995 24996 24997 24998 24999 25000 25001 25002 25003 25004 25005 25006 25007 25008 25009 25010 25011 25012 25013 25014 25015 25016 25017 25018 25019 25020 25021 25022 25023 25024 25025 25026 25027 25028 25029 25030 25031 25032 25033 25034 25035 25036 25037 25038 25039 25040 25041 25042 25043 25044 25045 25046 25047 25048 25049 25050 25051 25052 25053 25054 25055 25056 25057 25058 25059 25060 25061 25062 25063 25064 25065 25066 25067 25068 25069 25070 25071 25072 25073 25074 25075 25076 25077 25078 25079 25080 25081 25082 25083 25084 25085 25086 25087 25088 25089 25090 25091 25092 25093 25094 25095 25096 25097 25098 25099 25100 25101 25102 25103 25104 25105 25106 25107 25108 25109 25110 25111 25112 25113 25114 25115 25116 25117 25118 25119 25120 25121 25122 25123 25124 25125 25126 25127 25128 25129 25130 25131 25132 25133 25134 25135 25136 25137 25138 25139 25140 25141 25142 25143 25144 25145 25146 25147 25148 25149 25150 25151 25152 25153 25154 25155 25156 25157 25158 25159 25160 25161 25162 25163 25164 25165 25166 25167 25168 25169 25170 25171 25172 25173 25174 25175 25176 25177 25178 25179 25180 25181 25182 25183 25184 25185 25186 25187 25188 25189 25190 25191 25192 25193 25194 25195 25196 25197 25198 25199 25200 25201 25202 25203 25204 25205 25206 25207 25208 25209 25210 25211 25212 25213 25214 25215 25216 25217 25218 25219 25220 25221 25222 25223 25224 25225 25226 25227 25228 25229 25230 25231 25232 25233 25234 25235 25236 25237 25238 25239 25240 25241 25242 25243 25244 25245 25246 25247 25248 25249 25250 25251 25252 25253 25254 25255 25256 25257 25258 25259 25260 25261 25262 25263 25264 25265 25266 25267 25268 25269 25270 25271 25272 25273 25274 25275 25276 25277 25278 25279 25280 25281 25282 25283 25284 25285 25286 25287 25288 25289 25290 25291 25292 25293 25294 25295 25296 25297 25298 25299 25300 25301 25302 25303 25304 25305 25306 25307 25308 25309 25310 25311 25312 25313 25314 25315 25316 25317 25318 25319 25320 25321 25322 25323 25324 25325 25326 25327 25328 25329 25330 25331 25332 25333 25334 25335 25336 25337 25338 25339 25340 25341 25342 25343 25344 25345 25346 25347 25348 25349 25350 25351 25352 25353 25354 25355 25356 25357 25358 25359 25360 25361 25362 25363 25364 25365 25366 25367 25368 25369 25370 25371 25372 25373 25374 25375 25376 25377 25378 25379 25380 25381 25382 25383 25384 25385 25386 25387 25388 25389 25390 25391 25392 25393 25394 25395 25396 25397 25398 25399 25400 25401 25402 25403 25404 25405 25406 25407 25408 25409 25410 25411 25412 25413 25414 25415 25416 25417 25418 25419 25420 25421 25422 25423 25424 25425 25426 25427 25428 25429 25430 25431 25432 25433 25434 25435 25436 25437 25438 25439 25440 25441 25442 25443 25444 25445 25446 25447 25448 25449 25450 25451 25452 25453 25454 25455 25456 25457 25458 25459 25460 25461 25462 25463 25464 25465 25466 25467 25468 25469 25470 25471 25472 25473 25474 25475 25476 25477 25478 25479 25480 25481 25482 25483 25484 25485 25486 25487 25488 25489 25490 25491 25492 25493 25494 25495 25496 25497 25498 25499 25500 25501 25502 25503 25504 25505 25506 25507 25508 25509 25510 25511 25512 25513 25514 25515 25516 25517 25518 25519 25520 25521 25522 25523 25524 25525 25526 25527 25528 25529 25530 25531 25532 25533 25534 25535 25536 25537 25538 25539 25540 25541 25542 25543 25544 25545 25546 25547 25548 25549 25550 25551 25552 25553 25554 25555 25556 25557 25558 25559 25560 25561 25562 25563 25564 25565 25566 25567 25568 25569 25570 25571 25572 25573 25574 25575 25576 25577 25578 25579 25580 25581 25582 25583 25584 25585 25586 25587 25588 25589 25590 25591 25592 25593 25594 25595 25596 25597 25598 25599 25600 25601 25602 25603 25604 25605 25606 25607 25608 25609 25610 25611 25612 25613 25614 25615 25616 25617 25618 25619 25620 25621 25622 25623 25624 25625 25626 25627 25628 25629 25630 25631 25632 25633 25634 25635 25636 25637 25638 25639 25640 25641 25642 25643 25644 25645 25646 25647 25648 25649 25650 25651 25652 25653 25654 25655 25656 25657 25658 25659 25660 25661 25662 25663 25664 25665 25666 25667 25668 25669 25670 25671 25672 25673 25674 25675 25676 25677 25678 25679 25680 25681 25682 25683 25684 25685 25686 25687 25688 25689 25690 25691 25692 25693 25694 25695 25696 25697 25698 25699 25700 25701 25702 25703 25704 25705 25706 25707 25708 25709 25710 25711 25712 25713 25714 25715 25716 25717 25718 25719 25720 25721 25722 25723 25724 25725 25726 25727 25728 25729 25730 25731 25732 25733 25734 25735 25736 25737 25738 25739 25740 25741 25742 25743 25744 25745 25746 25747 25748 25749 25750 25751 25752 25753 25754 25755 25756 25757 25758 25759 25760 25761 25762 25763 25764 25765 25766 25767 25768 25769 25770 25771 25772 25773 25774 25775 25776 25777 25778 25779 25780 25781 25782 25783 25784 25785 25786 25787 25788 25789 25790 25791 25792 25793 25794 25795 25796 25797 25798 25799 25800 25801 25802 25803 25804 25805 25806 25807 25808 25809 25810 25811 25812 25813 25814 25815 25816 25817 25818 25819 25820 25821 25822 25823 25824 25825 25826 25827 25828 25829 25830 25831 25832 25833 25834 25835 25836 25837 25838 25839 25840 25841 25842 25843 25844 25845 25846 25847 25848 25849 25850 25851 25852 25853 25854 25855 25856 25857 25858 25859 25860 25861 25862 25863 25864 25865 25866 25867 25868 25869 25870 25871 25872 25873 25874 25875 25876 25877 25878 25879 25880 25881 25882 25883 25884 25885 25886 25887 25888 25889 25890 25891 25892 25893 25894 25895 25896 25897 25898 25899 25900 25901 25902 25903 25904 25905 25906 25907 25908 25909 25910 25911 25912 25913 25914 25915 25916 25917 25918 25919 25920 25921 25922 25923 25924 25925 25926 25927 25928 25929 25930 25931 25932 25933 25934 25935 25936 25937 25938 25939 25940 25941 25942 25943 25944 25945 25946 25947 25948 25949 25950 25951 25952 25953 25954 25955 25956 25957 25958 25959 25960 25961 25962 25963 25964 25965 25966 25967 25968 25969 25970 25971 25972 25973 25974 25975 25976 25977 25978 25979 25980 25981 25982 25983 25984 25985 25986 25987 25988 25989 25990 25991 25992 25993 25994 25995 25996 25997 25998 25999 26000 26001 26002 26003 26004 26005 26006 26007 26008 26009 26010 26011 26012 26013 26014 26015 26016 26017 26018 26019 26020 26021 26022 26023 26024 26025 26026 26027 26028 26029 26030 26031 26032 26033 26034 26035 26036 26037 26038 26039 26040 26041 26042 26043 26044 26045 26046 26047 26048 26049 26050 26051 26052 26053 26054 26055 26056 26057 26058 26059 26060 26061 26062 26063 26064 26065 26066 26067 26068 26069 26070 26071 26072 26073 26074 26075 26076 26077 26078 26079 26080 26081 26082 26083 26084 26085 26086 26087 26088 26089 26090 26091 26092 26093 26094 26095 26096 26097 26098 26099 26100 26101 26102 26103 26104 26105 26106 26107 26108 26109 26110 26111 26112 26113 26114 26115 26116 26117 26118 26119 26120 26121 26122 26123 26124 26125 26126 26127 26128 26129 26130 26131 26132 26133 26134 26135 26136 26137 26138 26139 26140 26141 26142 26143 26144 26145 26146 26147 26148 26149 26150 26151 26152 26153 26154 26155 26156 26157 26158 26159 26160 26161 26162 26163 26164 26165 26166 26167 26168 26169 26170 26171 26172 26173 26174 26175 26176 26177 26178 26179 26180 26181 26182 26183 26184 26185 26186 26187 26188 26189 26190 26191 26192 26193 26194 26195 26196 26197 26198 26199 26200 26201 26202 26203 26204 26205 26206 26207 26208 26209 26210 26211 26212 26213 26214 26215 26216 26217 26218 26219 26220 26221 26222 26223 26224 26225 26226 26227 26228 26229 26230 26231 26232 26233 26234 26235 26236 26237 26238 26239 26240 26241 26242 26243 26244 26245 26246 26247 26248 26249 26250 26251 26252 26253 26254 26255 26256 26257 26258 26259 26260 26261 26262 26263 26264 26265 26266 26267 26268 26269 26270 26271 26272 26273 26274 26275 26276 26277 26278 26279 26280 26281 26282 26283 26284 26285 26286 26287 26288 26289 26290 26291 26292 26293 26294 26295 26296 26297 26298 26299 26300 26301 26302 26303 26304 26305 26306 26307 26308 26309 26310 26311 26312 26313 26314 26315 26316 26317 26318 26319 26320 26321 26322 26323 26324 26325 26326 26327 26328 26329 26330 26331 26332 26333 26334 26335 26336 26337 26338 26339 26340 26341 26342 26343 26344 26345 26346 26347 26348 26349 26350 26351 26352 26353 26354 26355 26356 26357 26358 26359 26360 26361 26362 26363 26364 26365 26366 26367 26368 26369 26370 26371 26372 26373 26374 26375 26376 26377 26378 26379 26380 26381 26382 26383 26384 26385 26386 26387 26388 26389 26390 26391 26392 26393 26394 26395 26396 26397 26398 26399 26400 26401 26402 26403 26404 26405 26406 26407 26408 26409 26410 26411 26412 26413 26414 26415 26416 26417 26418 26419 26420 26421 26422 26423 26424 26425 26426 26427 26428 26429 26430 26431 26432 26433 26434 26435 26436 26437 26438 26439 26440 26441 26442 26443 26444 26445 26446 26447 26448 26449 26450 26451 26452 26453 26454 26455 26456 26457 26458 26459 26460 26461 26462 26463 26464 26465 26466 26467 26468 26469 26470 26471 26472 26473 26474 26475 26476 26477 26478 26479 26480 26481 26482 26483 26484 26485 26486 26487 26488 26489 26490 26491 26492 26493 26494 26495 26496 26497 26498 26499 26500 26501 26502 26503 26504 26505 26506 26507 26508 26509 26510 26511 26512 26513 26514 26515 26516 26517 26518 26519 26520 26521 26522 26523 26524 26525 26526 26527 26528 26529 26530 26531 26532 26533 26534 26535 26536 26537 26538 26539 26540 26541 26542 26543 26544 26545 26546 26547 26548 26549 26550 26551 26552 26553 26554 26555 26556 26557 26558 26559 26560 26561 26562 26563 26564 26565 26566 26567 26568 26569 26570 26571 26572 26573 26574 26575 26576 26577 26578 26579 26580 26581 26582 26583 26584 26585 26586 26587 26588 26589 26590 26591 26592 26593 26594 26595 26596 26597 26598 26599 26600 26601 26602 26603 26604 26605 26606 26607 26608 26609 26610 26611 26612 26613 26614 26615 26616 26617 26618 26619 26620 26621 26622 26623 26624 26625 26626 26627 26628 26629 26630 26631 26632 26633 26634 26635 26636 26637 26638 26639 26640 26641 26642 26643 26644 26645 26646 26647 26648 26649 26650 26651 26652 26653 26654 26655 26656 26657 26658 26659 26660 26661 26662 26663 26664 26665 26666 26667 26668 26669 26670 26671 26672 26673 26674 26675 26676 26677 26678 26679 26680 26681 26682 26683 26684 26685 26686 26687 26688 26689 26690 26691 26692 26693 26694 26695 26696 26697 26698 26699 26700 26701 26702 26703 26704 26705 26706 26707 26708 26709 26710 26711 26712 26713 26714 26715 26716 26717 26718 26719 26720 26721 26722 26723 26724 26725 26726 26727 26728 26729 26730 26731 26732 26733 26734 26735 26736 26737 26738 26739 26740 26741 26742 26743 26744 26745 26746 26747 26748 26749 26750 26751 26752 26753 26754 26755 26756 26757 26758 26759 26760 26761 26762 26763 26764 26765 26766 26767 26768 26769 26770 26771 26772 26773 26774 26775 26776 26777 26778 26779 26780 26781 26782 26783 26784 26785 26786 26787 26788 26789 26790 26791 26792 26793 26794 26795 26796 26797 26798 26799 26800 26801 26802 26803 26804 26805 26806 26807 26808 26809 26810 26811 26812 26813 26814 26815 26816 26817 26818 26819 26820 26821 26822 26823 26824 26825 26826 26827 26828 26829 26830 26831 26832 26833 26834 26835 26836 26837 26838 26839 26840 26841 26842 26843 26844 26845 26846 26847 26848 26849 26850 26851 26852 26853 26854 26855 26856 26857 26858 26859 26860 26861 26862 26863 26864 26865 26866 26867 26868 26869 26870 26871 26872 26873 26874 26875 26876 26877 26878 26879 26880 26881 26882 26883 26884 26885 26886 26887 26888 26889 26890 26891 26892 26893 26894 26895 26896 26897 26898 26899 26900 26901 26902 26903 26904 26905 26906 26907 26908 26909 26910 26911 26912 26913 26914 26915 26916 26917 26918 26919 26920 26921 26922 26923 26924 26925 26926 26927 26928 26929 26930 26931 26932 26933 26934 26935 26936 26937 26938 26939 26940 26941 26942 26943 26944 26945 26946 26947 26948 26949 26950 26951 26952 26953 26954 26955 26956 26957 26958 26959 26960 26961 26962 26963 26964 26965 26966 26967 26968 26969 26970 26971 26972 26973 26974 26975 26976 26977 26978 26979 26980 26981 26982 26983 26984 26985 26986 26987 26988 26989 26990 26991 26992 26993 26994 26995 26996 26997 26998 26999 27000 27001 27002 27003 27004 27005 27006 27007 27008 27009 27010 27011 27012 27013 27014 27015 27016 27017 27018 27019 27020 27021 27022 27023 27024 27025 27026 27027 27028 27029 27030 27031 27032 27033 27034 27035 27036 27037 27038 27039 27040 27041 27042 27043 27044 27045 27046 27047 27048 27049 27050 27051 27052 27053 27054 27055 27056 27057 27058 27059 27060 27061 27062 27063 27064 27065 27066 27067 27068 27069 27070 27071 27072 27073 27074 27075 27076 27077 27078 27079 27080 27081 27082 27083 27084 27085 27086 27087 27088 27089 27090 27091 27092 27093 27094 27095 27096 27097 27098 27099 27100 27101 27102 27103 27104 27105 27106 27107 27108 27109 27110 27111 27112 27113 27114 27115 27116 27117 27118 27119 27120 27121 27122 27123 27124 27125 27126 27127 27128 27129 27130 27131 27132 27133 27134 27135 27136 27137 27138 27139 27140 27141 27142 27143 27144 27145 27146 27147 27148 27149 27150 27151 27152 27153 27154 27155 27156 27157 27158 27159 27160 27161 27162 27163 27164 27165 27166 27167 27168 27169 27170 27171 27172 27173 27174 27175 27176 27177 27178 27179 27180 27181 27182 27183 27184 27185 27186 27187 27188 27189 27190 27191 27192 27193 27194 27195 27196 27197 27198 27199 27200 27201 27202 27203 27204 27205 27206 27207 27208 27209 27210 27211 27212 27213 27214 27215 27216 27217 27218 27219 27220 27221 27222 27223 27224 27225 27226 27227 27228 27229 27230 27231 27232 27233 27234 27235 27236 27237 27238 27239 27240 27241 27242 27243 27244 27245 27246 27247 27248 27249 27250 27251 27252 27253 27254 27255 27256 27257 27258 27259 27260 27261 27262 27263 27264 27265 27266 27267 27268 27269 27270 27271 27272 27273 27274 27275 27276 27277 27278 27279 27280 27281 27282 27283 27284 27285 27286 27287 27288 27289 27290 27291 27292 27293 27294 27295 27296 27297 27298 27299 27300 27301 27302 27303 27304 27305 27306 27307 27308 27309 27310 27311 27312 27313 27314 27315 27316 27317 27318 27319 27320 27321 27322 27323 27324 27325 27326 27327 27328 27329 27330 27331 27332 27333 27334 27335 27336 27337 27338 27339 27340 27341 27342 27343 27344 27345 27346 27347 27348 27349 27350 27351 27352 27353 27354 27355 27356 27357 27358 27359 27360 27361 27362 27363 27364 27365 27366 27367 27368 27369 27370 27371 27372 27373 27374 27375 27376 27377 27378 27379 27380 27381 27382 27383 27384 27385 27386 27387 27388 27389 27390 27391 27392 27393 27394 27395 27396 27397 27398 27399 27400 27401 27402 27403 27404 27405 27406 27407 27408 27409 27410 27411 27412 27413 27414 27415 27416 27417 27418 27419 27420 27421 27422 27423 27424 27425 27426 27427 27428 27429 27430 27431 27432 27433 27434 27435 27436 27437 27438 27439 27440 27441 27442 27443 27444 27445 27446 27447 27448 27449 27450 27451 27452 27453 27454 27455 27456 27457 27458 27459 27460 27461 27462 27463 27464 27465 27466 27467 27468 27469 27470 27471 27472 27473 27474 27475 27476 27477 27478 27479 27480 27481 27482 27483 27484 27485 27486 27487 27488 27489 27490 27491 27492 27493 27494 27495 27496 27497 27498 27499 27500 27501 27502 27503 27504 27505 27506 27507 27508 27509 27510 27511 27512 27513 27514 27515 27516 27517 27518 27519 27520 27521 27522 27523 27524 27525 27526 27527 27528 27529 27530 27531 27532 27533 27534 27535 27536 27537 27538 27539 27540 27541 27542 27543 27544 27545 27546 27547 27548 27549 27550 27551 27552 27553 27554 27555 27556 27557 27558 27559 27560 27561 27562 27563 27564 27565 27566 27567 27568 27569 27570 27571 27572 27573 27574 27575 27576 27577 27578 27579 27580 27581 27582 27583 27584 27585 27586 27587 27588 27589 27590 27591 27592 27593 27594 27595 27596 27597 27598 27599 27600 27601 27602 27603 27604 27605 27606 27607 27608 27609 27610 27611 27612 27613 27614 27615 27616 27617 27618 27619 27620 27621 27622 27623 27624 27625 27626 27627 27628 27629 27630 27631 27632 27633 27634 27635 27636 27637 27638 27639 27640 27641 27642 27643 27644 27645 27646 27647 27648 27649 27650 27651 27652 27653 27654 27655 27656 27657 27658 27659 27660 27661 27662 27663 27664 27665 27666 27667 27668 27669 27670 27671 27672 27673 27674 27675 27676 27677 27678 27679 27680 27681 27682 27683 27684 27685 27686 27687 27688 27689 27690 27691 27692 27693 27694 27695 27696 27697 27698 27699 27700 27701 27702 27703 27704 27705 27706 27707 27708 27709 27710 27711 27712 27713 27714 27715 27716 27717 27718 27719 27720 27721 27722 27723 27724 27725 27726 27727 27728 27729 27730 27731 27732 27733 27734 27735 27736 27737 27738 27739 27740 27741 27742 27743 27744 27745 27746 27747 27748 27749 27750 27751 27752 27753 27754 27755 27756 27757 27758 27759 27760 27761 27762 27763 27764 27765 27766 27767 27768 27769 27770 27771 27772 27773 27774 27775 27776 27777 27778 27779 27780 27781 27782 27783 27784 27785 27786 27787 27788 27789 27790 27791 27792 27793 27794 27795 27796 27797 27798 27799 27800 27801 27802 27803 27804 27805 27806 27807 27808 27809 27810 27811 27812 27813 27814 27815 27816 27817 27818 27819 27820 27821 27822 27823 27824 27825 27826 27827 27828 27829 27830 27831 27832 27833 27834 27835 27836 27837 27838 27839 27840 27841 27842 27843 27844 27845 27846 27847 27848 27849 27850 27851 27852 27853 27854 27855 27856 27857 27858 27859 27860 27861 27862 27863 27864 27865 27866 27867 27868 27869 27870 27871 27872 27873 27874 27875 27876 27877 27878 27879 27880 27881 27882 27883 27884 27885 27886 27887 27888 27889 27890 27891 27892 27893 27894 27895 27896 27897 27898 27899 27900 27901 27902 27903 27904 27905 27906 27907 27908 27909 27910 27911 27912 27913 27914 27915 27916 27917 27918 27919 27920 27921 27922 27923 27924 27925 27926 27927 27928 27929 27930 27931 27932 27933 27934 27935 27936 27937 27938 27939 27940 27941 27942 27943 27944 27945 27946 27947 27948 27949 27950 27951 27952 27953 27954 27955 27956 27957 27958 27959 27960 27961 27962 27963 27964 27965 27966 27967 27968 27969 27970 27971 27972 27973 27974 27975 27976 27977 27978 27979 27980 27981 27982 27983 27984 27985 27986 27987 27988 27989 27990 27991 27992 27993 27994 27995 27996 27997 27998 27999 28000 28001 28002 28003 28004 28005 28006 28007 28008 28009 28010 28011 28012 28013 28014 28015 28016 28017 28018 28019 28020 28021 28022 28023 28024 28025 28026 28027 28028 28029 28030 28031 28032 28033 28034 28035 28036 28037 28038 28039 28040 28041 28042 28043 28044 28045 28046 28047 28048 28049 28050 28051 28052 28053 28054 28055 28056 28057 28058 28059 28060 28061 28062 28063 28064 28065 28066 28067 28068 28069 28070 28071 28072 28073 28074 28075 28076 28077 28078 28079 28080 28081 28082 28083 28084 28085 28086 28087 28088 28089 28090 28091 28092 28093 28094 28095 28096 28097 28098 28099 28100 28101 28102 28103 28104 28105 28106 28107 28108 28109 28110 28111 28112 28113 28114 28115 28116 28117 28118 28119 28120 28121 28122 28123 28124 28125 28126 28127 28128 28129 28130 28131 28132 28133 28134 28135 28136 28137 28138 28139 28140 28141 28142 28143 28144 28145 28146 28147 28148 28149 28150 28151 28152 28153 28154 28155 28156 28157 28158 28159 28160 28161 28162 28163 28164 28165 28166 28167 28168 28169 28170 28171 28172 28173 28174 28175 28176 28177 28178 28179 28180 28181 28182 28183 28184 28185 28186 28187 28188 28189 28190 28191 28192 28193 28194 28195 28196 28197 28198 28199 28200 28201 28202 28203 28204 28205 28206 28207 28208 28209 28210 28211 28212 28213 28214 28215 28216 28217 28218 28219 28220 28221 28222 28223 28224 28225 28226 28227 28228 28229 28230 28231 28232 28233 28234 28235 28236 28237 28238 28239 28240 28241 28242 28243 28244 28245 28246 28247 28248 28249 28250 28251 28252 28253 28254 28255 28256 28257 28258 28259 28260 28261 28262 28263 28264 28265 28266 28267 28268 28269 28270 28271 28272 28273 28274 28275 28276 28277 28278 28279 28280 28281 28282 28283 28284 28285 28286 28287 28288 28289 28290 28291 28292 28293 28294 28295 28296 28297 28298 28299 28300 28301 28302 28303 28304 28305 28306 28307 28308 28309 28310 28311 28312 28313 28314 28315 28316 28317 28318 28319 28320 28321 28322 28323 28324 28325 28326 28327 28328 28329 28330 28331 28332 28333 28334 28335 28336 28337 28338 28339 28340 28341 28342 28343 28344 28345 28346 28347 28348 28349 28350 28351 28352 28353 28354 28355 28356 28357 28358 28359 28360 28361 28362 28363 28364 28365 28366 28367 28368 28369 28370 28371 28372 28373 28374 28375 28376 28377 28378 28379 28380 28381 28382 28383 28384 28385 28386 28387 28388 28389 28390 28391 28392 28393 28394 28395 28396 28397 28398 28399 28400 28401 28402 28403 28404 28405 28406 28407 28408 28409 28410 28411 28412 28413 28414 28415 28416 28417 28418 28419 28420 28421 28422 28423 28424 28425 28426 28427 28428 28429 28430 28431 28432 28433 28434 28435 28436 28437 28438 28439 28440 28441 28442 28443 28444 28445 28446 28447 28448 28449 28450 28451 28452 28453 28454 28455 28456 28457 28458 28459 28460 28461 28462 28463 28464 28465 28466 28467 28468 28469 28470 28471 28472 28473 28474 28475 28476 28477 28478 28479 28480 28481 28482 28483 28484 28485 28486 28487 28488 28489 28490 28491 28492 28493 28494 28495 28496 28497 28498 28499 28500 28501 28502 28503 28504 28505 28506 28507 28508 28509 28510 28511 28512 28513 28514 28515 28516 28517 28518 28519 28520 28521 28522 28523 28524 28525 28526 28527 28528 28529 28530 28531 28532 28533 28534 28535 28536 28537 28538 28539 28540 28541 28542 28543 28544 28545 28546 28547 28548 28549 28550 28551 28552 28553 28554 28555 28556 28557 28558 28559 28560 28561 28562 28563 28564 28565 28566 28567 28568 28569 28570 28571 28572 28573 28574 28575 28576 28577 28578 28579 28580 28581 28582 28583 28584 28585 28586 28587 28588 28589 28590 28591 28592 28593 28594 28595 28596 28597 28598 28599 28600 28601 28602 28603 28604 28605 28606 28607 28608 28609 28610 28611 28612 28613 28614 28615 28616 28617 28618 28619 28620 28621 28622 28623 28624 28625 28626 28627 28628 28629 28630 28631 28632 28633 28634 28635 28636 28637 28638 28639 28640 28641 28642 28643 28644 28645 28646 28647 28648 28649 28650 28651 28652 28653 28654 28655 28656 28657 28658 28659 28660 28661 28662 28663 28664 28665 28666 28667 28668 28669 28670 28671 28672 28673 28674 28675 28676 28677 28678 28679 28680 28681 28682 28683 28684 28685 28686 28687 28688 28689 28690 28691 28692 28693 28694 28695 28696 28697 28698 28699 28700 28701 28702 28703 28704 28705 28706 28707 28708 28709 28710 28711 28712 28713 28714 28715 28716 28717 28718 28719 28720 28721 28722 28723 28724 28725 28726 28727 28728 28729 28730 28731 28732 28733 28734 28735 28736 28737 28738 28739 28740 28741 28742 28743 28744 28745 28746 28747 28748 28749 28750 28751 28752 28753 28754 28755 28756 28757 28758 28759 28760 28761 28762 28763 28764 28765 28766 28767 28768 28769 28770 28771 28772 28773 28774 28775 28776 28777 28778 28779 28780 28781 28782 28783 28784 28785 28786 28787 28788 28789 28790 28791 28792 28793 28794 28795 28796 28797 28798 28799 28800 28801 28802 28803 28804 28805 28806 28807 28808 28809 28810 28811 28812 28813 28814 28815 28816 28817 28818 28819 28820 28821 28822 28823 28824 28825 28826 28827 28828 28829 28830 28831 28832 28833 28834 28835 28836 28837 28838 28839 28840 28841 28842 28843 28844 28845 28846 28847 28848 28849 28850 28851 28852 28853 28854 28855 28856 28857 28858 28859 28860 28861 28862 28863 28864 28865 28866 28867 28868 28869 28870 28871 28872 28873 28874 28875 28876 28877 28878 28879 28880 28881 28882 28883 28884 28885 28886 28887 28888 28889 28890 28891 28892 28893 28894 28895 28896 28897 28898 28899 28900 28901 28902 28903 28904 28905 28906 28907 28908 28909 28910 28911 28912 28913 28914 28915 28916 28917 28918 28919 28920 28921 28922 28923 28924 28925 28926 28927 28928 28929 28930 28931 28932 28933 28934 28935 28936 28937 28938 28939 28940 28941 28942 28943 28944 28945 28946 28947 28948 28949 28950 28951 28952 28953 28954 28955 28956 28957 28958 28959 28960 28961 28962 28963 28964 28965 28966 28967 28968 28969 28970 28971 28972 28973 28974 28975 28976 28977 28978 28979 28980 28981 28982 28983 28984 28985 28986 28987 28988 28989 28990 28991 28992 28993 28994 28995 28996 28997 28998 28999 29000 29001 29002 29003 29004 29005 29006 29007 29008 29009 29010 29011 29012 29013 29014 29015 29016 29017 29018 29019 29020 29021 29022 29023 29024 29025 29026 29027 29028 29029 29030 29031 29032 29033 29034 29035 29036 29037 29038 29039 29040 29041 29042 29043 29044 29045 29046 29047 29048 29049 29050 29051 29052 29053 29054 29055 29056 29057 29058 29059 29060 29061 29062 29063 29064 29065 29066 29067 29068 29069 29070 29071 29072 29073 29074 29075 29076 29077 29078 29079 29080 29081 29082 29083 29084 29085 29086 29087 29088 29089 29090 29091 29092 29093 29094 29095 29096 29097 29098 29099 29100 29101 29102 29103 29104 29105 29106 29107 29108 29109 29110 29111 29112 29113 29114 29115 29116 29117 29118 29119 29120 29121 29122 29123 29124 29125 29126 29127 29128 29129 29130 29131 29132 29133 29134 29135 29136 29137 29138 29139 29140 29141 29142 29143 29144 29145 29146 29147 29148 29149 29150 29151 29152 29153 29154 29155 29156 29157 29158 29159 29160 29161 29162 29163 29164 29165 29166 29167 29168 29169 29170 29171 29172 29173 29174 29175 29176 29177 29178 29179 29180 29181 29182 29183 29184 29185 29186 29187 29188 29189 29190 29191 29192 29193 29194 29195 29196 29197 29198 29199 29200 29201 29202 29203 29204 29205 29206 29207 29208 29209 29210 29211 29212 29213 29214 29215 29216 29217 29218 29219 29220 29221 29222 29223 29224 29225 29226 29227 29228 29229 29230 29231 29232 29233 29234 29235 29236 29237 29238 29239 29240 29241 29242 29243 29244 29245 29246 29247 29248 29249 29250 29251 29252 29253 29254 29255 29256 29257 29258 29259 29260 29261 29262 29263 29264 29265 29266 29267 29268 29269 29270 29271 29272 29273 29274 29275 29276 29277 29278 29279 29280 29281 29282 29283 29284 29285 29286 29287 29288 29289 29290 29291 29292 29293 29294 29295 29296 29297 29298 29299 29300 29301 29302 29303 29304 29305 29306 29307 29308 29309 29310 29311 29312 29313 29314 29315 29316 29317 29318 29319 29320 29321 29322 29323 29324 29325 29326 29327 29328 29329 29330 29331 29332 29333 29334 29335 29336 29337 29338 29339 29340 29341 29342 29343 29344 29345 29346 29347 29348 29349 29350 29351 29352 29353 29354 29355 29356 29357 29358 29359 29360 29361 29362 29363 29364 29365 29366 29367 29368 29369 29370 29371 29372 29373 29374 29375 29376 29377 29378 29379 29380 29381 29382 29383 29384 29385 29386 29387 29388 29389 29390 29391 29392 29393 29394 29395 29396 29397 29398 29399 29400 29401 29402 29403 29404 29405 29406 29407 29408 29409 29410 29411 29412 29413 29414 29415 29416 29417 29418 29419 29420 29421 29422 29423 29424 29425 29426 29427 29428 29429 29430 29431 29432 29433 29434 29435 29436 29437 29438 29439 29440 29441 29442 29443 29444 29445 29446 29447 29448 29449 29450 29451 29452 29453 29454 29455 29456 29457 29458 29459 29460 29461 29462 29463 29464 29465 29466 29467 29468 29469 29470 29471 29472 29473 29474 29475 29476 29477 29478 29479 29480 29481 29482 29483 29484 29485 29486 29487 29488 29489 29490 29491 29492 29493 29494 29495 29496 29497 29498 29499 29500 29501 29502 29503 29504 29505 29506 29507 29508 29509 29510 29511 29512 29513 29514 29515 29516 29517 29518 29519 29520 29521 29522 29523 29524 29525 29526 29527 29528 29529 29530 29531 29532 29533 29534 29535 29536 29537 29538 29539 29540 29541 29542 29543 29544 29545 29546 29547 29548 29549 29550 29551 29552 29553 29554 29555 29556 29557 29558 29559 29560 29561 29562 29563 29564 29565 29566 29567 29568 29569 29570 29571 29572 29573 29574 29575 29576 29577 29578 29579 29580 29581 29582 29583 29584 29585 29586 29587 29588 29589 29590 29591 29592 29593 29594 29595 29596 29597 29598 29599 29600 29601 29602 29603 29604 29605 29606 29607 29608 29609 29610 29611 29612 29613 29614 29615 29616 29617 29618 29619 29620 29621 29622 29623 29624 29625 29626 29627 29628 29629 29630 29631 29632 29633 29634 29635 29636 29637 29638 29639 29640 29641 29642 29643 29644 29645 29646 29647 29648 29649 29650 29651 29652 29653 29654 29655 29656 29657 29658 29659 29660 29661 29662 29663 29664 29665 29666 29667 29668 29669 29670 29671 29672 29673 29674 29675 29676 29677 29678 29679 29680 29681 29682 29683 29684 29685 29686 29687 29688 29689 29690 29691 29692 29693 29694 29695 29696 29697 29698 29699 29700 29701 29702 29703 29704 29705 29706 29707 29708 29709 29710 29711 29712 29713 29714 29715 29716 29717 29718 29719 29720 29721 29722 29723 29724 29725 29726 29727 29728 29729 29730 29731 29732 29733 29734 29735 29736 29737 29738 29739 29740 29741 29742 29743 29744 29745 29746 29747 29748 29749 29750 29751 29752 29753 29754 29755 29756 29757 29758 29759 29760 29761 29762 29763 29764 29765 29766 29767 29768 29769 29770 29771 29772 29773 29774 29775 29776 29777 29778 29779 29780 29781 29782 29783 29784 29785 29786 29787 29788 29789 29790 29791 29792 29793 29794 29795 29796 29797 29798 29799 29800 29801 29802 29803 29804 29805 29806 29807 29808 29809 29810 29811 29812 29813 29814 29815 29816 29817 29818 29819 29820 29821 29822 29823 29824 29825 29826 29827 29828 29829 29830 29831 29832 29833 29834 29835 29836 29837 29838 29839 29840 29841 29842 29843 29844 29845 29846 29847 29848 29849 29850 29851 29852 29853 29854 29855 29856 29857 29858 29859 29860 29861 29862 29863 29864 29865 29866 29867 29868 29869 29870 29871 29872 29873 29874 29875 29876 29877 29878 29879 29880 29881 29882 29883 29884 29885 29886 29887 29888 29889 29890 29891 29892 29893 29894 29895 29896 29897 29898 29899 29900 29901 29902 29903 29904 29905 29906 29907 29908 29909 29910 29911 29912 29913 29914 29915 29916 29917 29918 29919 29920 29921 29922 29923 29924 29925 29926 29927 29928 29929 29930 29931 29932 29933 29934 29935 29936 29937 29938 29939 29940 29941 29942 29943 29944 29945 29946 29947 29948 29949 29950 29951 29952 29953 29954 29955 29956 29957 29958 29959 29960 29961 29962 29963 29964 29965 29966 29967 29968 29969 29970 29971 29972 29973 29974 29975 29976 29977 29978 29979 29980 29981 29982 29983 29984 29985 29986 29987 29988 29989 29990 29991 29992 29993 29994 29995 29996 29997 29998 29999 30000 30001 30002 30003 30004 30005 30006 30007 30008 30009 30010 30011 30012 30013 30014 30015 30016 30017 30018 30019 30020 30021 30022 30023 30024 30025 30026 30027 30028 30029 30030 30031 30032 30033 30034 30035 30036 30037 30038 30039 30040 30041 30042 30043 30044 30045 30046 30047 30048 30049 30050 30051 30052 30053 30054 30055 30056 30057 30058 30059 30060 30061 30062 30063 30064 30065 30066 30067 30068 30069 30070 30071 30072 30073 30074 30075 30076 30077 30078 30079 30080 30081 30082 30083 30084 30085 30086 30087 30088 30089 30090 30091 30092 30093 30094 30095 30096 30097 30098 30099 30100 30101 30102 30103 30104 30105 30106 30107 30108 30109 30110 30111 30112 30113 30114 30115 30116 30117 30118 30119 30120 30121 30122 30123 30124 30125 30126 30127 30128 30129 30130 30131 30132 30133 30134 30135 30136 30137 30138 30139 30140 30141 30142 30143 30144 30145 30146 30147 30148 30149 30150 30151 30152 30153 30154 30155 30156 30157 30158 30159 30160 30161 30162 30163 30164 30165 30166 30167 30168 30169 30170 30171 30172 30173 30174 30175 30176 30177 30178 30179 30180 30181 30182 30183 30184 30185 30186 30187 30188 30189 30190 30191 30192 30193 30194 30195 30196 30197 30198 30199 30200 30201 30202 30203 30204 30205 30206 30207 30208 30209 30210 30211 30212 30213 30214 30215 30216 30217 30218 30219 30220 30221 30222 30223 30224 30225 30226 30227 30228 30229 30230 30231 30232 30233 30234 30235 30236 30237 30238 30239 30240 30241 30242 30243 30244 30245 30246 30247 30248 30249 30250 30251 30252 30253 30254 30255 30256 30257 30258 30259 30260 30261 30262 30263 30264 30265 30266 30267 30268 30269 30270 30271 30272 30273 30274 30275 30276 30277 30278 30279 30280 30281 30282 30283 30284 30285 30286 30287 30288 30289 30290 30291 30292 30293 30294 30295 30296 30297 30298 30299 30300 30301 30302 30303 30304 30305 30306 30307 30308 30309 30310 30311 30312 30313 30314 30315 30316 30317 30318 30319 30320 30321 30322 30323 30324 30325 30326 30327 30328 30329 30330 30331 30332 30333 30334 30335 30336 30337 30338 30339 30340 30341 30342 30343 30344 30345 30346 30347 30348 30349 30350 30351 30352 30353 30354 30355 30356 30357 30358 30359 30360 30361 30362 30363 30364 30365 30366 30367 30368 30369 30370 30371 30372 30373 30374 30375 30376 30377 30378 30379 30380 30381 30382 30383 30384 30385 30386 30387 30388 30389 30390 30391 30392 30393 30394 30395 30396 30397 30398 30399 30400 30401 30402 30403 30404 30405 30406 30407 30408 30409 30410 30411 30412 30413 30414 30415 30416 30417 30418 30419 30420 30421 30422 30423 30424 30425 30426 30427 30428 30429 30430 30431 30432 30433 30434 30435 30436 30437 30438 30439 30440 30441 30442 30443 30444 30445 30446 30447 30448 30449 30450 30451 30452 30453 30454 30455 30456 30457 30458 30459 30460 30461 30462 30463 30464 30465 30466 30467 30468 30469 30470 30471 30472 30473 30474 30475 30476 30477 30478 30479 30480 30481 30482 30483 30484 30485 30486 30487 30488 30489 30490 30491 30492 30493 30494 30495 30496 30497 30498 30499 30500 30501 30502 30503 30504 30505 30506 30507 30508 30509 30510 30511 30512 30513 30514 30515 30516 30517 30518 30519 30520 30521 30522 30523 30524 30525 30526 30527 30528 30529 30530 30531 30532 30533 30534 30535 30536 30537 30538 30539 30540 30541 30542 30543 30544 30545 30546 30547 30548 30549 30550 30551 30552 30553 30554 30555 30556 30557 30558 30559 30560 30561 30562 30563 30564 30565 30566 30567 30568 30569 30570 30571 30572 30573 30574 30575 30576 30577 
</DataArray>
<DataArray type="UInt32" Name="offsets" format="ascii">
3 6 9 12 15 18 20 23 26 29 31 34 37 40 42 45 48 51 54 57 60 62 64 67 70 73 76 78 80 83 85 87 90 92 95 98 101 103 106 109 111 114 117 120 123 126 129 132 134 137 140 143 146 149 152 155 158 160 163 166 168 171 173 176 178 181 183 186 189 192 195 198 201 204 207 210 213 216 219 222 225 228 231 233 236 239 242 245 248 251 254 257 259 262 265 267 269 272 275 278 281 284 287 290 293 296 299 302 305 307 310 313 316 319 322 324 327 330 332 335 338 341 344 347 350 353 356 359 362 365 368 371 374 377 380 383 386 389 391 394 397 400 403 406 408 411 414 417 420 423 426 429 432 435 438 441 444 447 450 453 456 459 462 465 468 471 474 477 480 482 485 487 490 493 496 498 501 504 507 509 512 515 518 520 522 525 528 530 533 536 539 542 544 547 550 553 556 559 561 564 567 570 573 575 578 580 583 586 588 591 594 597 599 602 605 607 610 613 616 619 622 625 628 631 634 637 639 642 645 647 650 653 656 659 662 665 668 670 673 676 679 682 685 688 691 694 697 700 703 706 709 712 715 718 721 724 727 730 733 735 738 740 743 746 749 752 755 757 760 763 766 769 772 775 778 781 783 786 789 792 794 797 800 802 805 808 811 814 816 819 822 824 827 830 833 836 839 841 844 846 849 852 855 858 861 864 867 870 873 876 879 882 885 888 891 894 897 900 902 905 908 911 914 917 919 921 924 927 930 933 936 939 942 945 948 951 953 956 959 962 965 968 971 974 977 980 982 985 988 990 992 995 998 1001 1003 1006 1009 1011 1014 1017 1020 1023 1026 1029 1032 1035 1038 1041 1044 1047 1050 1053 1056 1058 1061 1064 1067 1070 1073 1076 1079 1082 1084 1087 1090 1092 1095 1098 1101 1104 1106 1109 1112 1115 1118 1121 1124 1127 1130 1133 1136 1139 1142 1145 1148 1150 1152 1155 1158 1160 1162 1165 1167 1170 1172 1175 1177 1180 1183 1185 1188 1191 1194 1197 1200 1203 1206 1209 1212 1214 1216 1219 1222 1224 1227 1230 1233 1236 1239 1241 1244 1247 1249 1252 1255 1258 1261 1263 1266 1269 1272 1274 1277 1280 1283 1285 1288 1290 1293 1296 1298 1301 1304 1307 1310 1313 1316 1319 1322 1325 1328 1331 1333 1336 1339 1342 1345 1348 1351 1353 1356 1359 1362 1364 1367 1370 1373 1376 1379 1382 1385 1387 1390 1393 1396 1399 1402 1404 1407 1409 1412 1415 1418 1421 1424 1426 1428 1431 1434 1437 1439 1441 1444 1446 1449 1452 1455 1458 1461 1464 1467 1469 1472 1475 1478 1481 1484 1487 1490 1493 1496 1499 1502 1505 1508 1511 1513 1516 1519 1521 1524 1526 1529 1532 1535 1538 1541 1544 1547 1550 1553 1556 1559 1562 1565 1568 1570 1573 1576 1579 1582 1585 1588 1591 1594 1597 1600 1603 1606 1609 1612 1615 1618 1620 1623 1626 1629 1632 1635 1638 1641 1644 1647 1650 1653 1655 1657 1660 1663 1666 1669 1672 1675 1678 1681 1684 1687 1690 1693 1696 1699 1702 1705 1707 1710 1713 1716 1719 1722 1725 1728 1730 1733 1736 1739 1742 1745 1748 1751 1754 1756 1759 1762 1765 1767 1770 1773 1776 1779 1782 1785 1788 1791 1794 1797 1800 1803 1806 1809 1812 1815 1818 1821 1824 1827 1830 1833 1836 1839 1842 1845 1848 1851 1853 1856 1858 1861 1864 1867 1870 1873 1876 1879 1882 1885 1888 1891 1894 1897 1899 1902 1905 1908 1910 1913 1916 1919 1922 1925 1928 1931 1934 1937 1940 1943 1946 1949 1951 1953 1956 1959 1962 1965 1968 1971 1974 1976 1979 1982 1985 1988 1991 1994 1997 2000 2003 2006 2009 2011 2014 2017 2020 2023 2026 2029 2032 2034 2037 2040 2043 2046 2049 2052 2055 2058 2061 2064 2067 2070 2073 2076 2079 2082 2085 2087 2090 2093 2096 2099 2102 2105 2108 2111 2114 2117 2119 2122 2125 2128 2131 2134 2136 2139 2142 2145 2147 2150 2153 2156 2159 2161 2164 2167 2170 2173 2176 2179 2182 2184 2187 2189 2192 2195 2197 2200 2202 2205 2208 2211 2214 2217 2220 2223 2226 2229 2232 2235 2238 2241 2244 2247 2250 2253 2256 2259 2262 2265 2268 2271 2274 2277 2280 2283 2286 2289 2292 2295 2298 2301 2304 2307 2309 2312 2314 2316 2319 2322 2325 2328 2331 2334 2337 2340 2343 2346 2349 2351 2354 2357 2360 2363 2366 2369 2372 2374 2377 2379 2382 2384 2387 2390 2393 2396 2399 2402 2404 2407 2409 2411 2414 2417 2420 2423 2426 2429 2432 2435 2438 2441 2444 2447 2450 2453 2456 2459 2462 2464 2467 2470 2473 2476 2479 2482 2485 2488 2491 2494 2497 2500 2503 2506 2508 2511 2514 2517 2520 2523 2526 2529 2532 2535 2538 2541 2544 2547 2549 2552 2555 2558 2561 2564 2567 2570 2573 2576 2578 2581 2584 2587 2590 2593 2595 2597 2600 2603 2606 2609 2611 2613 2616 2619 2622 2625 2628 2631 2634 2637 2640 2643 2646 2648 2651 2654 2657 2660 2662 2665 2668 2671 2674 2677 2680 2682 2685 2688 2690 2693 2695 2698 2701 2704 2706 2709 2712 2715 2718 2721 2724 2727 2729 2732 2735 2738 2741 2743 2745 2748 2751 2753 2756 2759 2762 2764 2766 2768 2770 2773 2776 2778 2781 2784 2787 2790 2793 2796 2799 2802 2804 2806 2809 2812 2815 2818 2821 2824 2826 2829 2831 2834 2837 2840 2842 2845 2848 2851 2854 2857 2860 2863 2866 2869 2872 2875 2878 2881 2884 2887 2890 2893 2896 2899 2902 2905 2908 2911 2914 2917 2920 2923 2926 2928 2931 2934 2937 2940 2943 2946 2949 2952 2955 2958 2961 2964 2967 2970 2973 2976 2979 2982 2985 2988 2991 2993 2996 2999 3002 3005 3008 3011 3014 3017 3020 3022 3025 3028 3031 3034 3037 3040 3042 3045 3048 3051 3054 3057 3059 3062 3065 3068 3071 3074 3076 3079 3082 3085 3088 3091 3094 3097 3100 3103 3106 3108 3111 3114 3117 3120 3122 3124 3127 3130 3132 3135 3138 3141 3144 3146 3149 3152 3154 3157 3160 3163 3166 3169 3171 3173 3176 3179 3182 3185 3188 3191 3193 3196 3199 3202 3205 3208 3211 3214 3216 3218 3221 3224 3227 3229 3232 3235 3238 3240 3243 3246 3248 3251 3253 3256 3259 3262 3264 3267 3270 3272 3274 3277 3280 3283 3286 3289 3292 3294 3297 3299 3302 3304 3307 3310 3313 3315 3317 3320 3322 3325 3328 3331 3334 3337 3340 3343 3346 3349 3352 3355 3358 3361 3364 3367 3370 3372 3375 3378 3381 3384 3387 3390 3393 3395 3398 3401 3404 3407 3410 3412 3415 3418 3421 3423 3426 3429 3432 3435 3437 3440 3442 3445 3447 3450 3453 3456 3459 3461 3464 3467 3469 3472 3475 3478 3481 3484 3487 3490 3493 3496 3499 3502 3504 3507 3510 3513 3516 3518 3521 3524 3527 3530 3532 3535 3538 3541 3544 3547 3550 3552 3555 3558 3561 3563 3566 3568 3570 3573 3576 3579 3582 3585 3588 3591 3594 3597 3600 3603 3606 3609 3612 3615 3618 3621 3624 3627 3630 3633 3636 3639 3642 3645 3648 3651 3654 3656 3659 3662 3664 3666 3669 3671 3674 3677 3680 3683 3685 3688 3691 3693 3696 3699 3702 3705 3708 3711 3714 3717 3720 3723 3726 3729 3732 3735 3738 3741 3744 3747 3750 3753 3756 3759 3762 3765 3768 3771 3774 3777 3779 3782 3785 3788 3791 3794 3797 3800 3803 3805 3808 3811 3814 3817 3820 3823 3826 3828 3831 3833 3836 3839 3842 3844 3847 3850 3853 3856 3859 3862 3865 3867 3870 3872 3875 3878 3881 3884 3887 3889 3892 3895 3898 3901 3904 3907 3910 3913 3916 3919 3922 3925 3928 3931 3934 3937 3940 3943 3946 3949 3952 3955 3958 3961 3964 3967 3970 3973 3976 3979 3982 3985 3988 3991 3994 3997 4000 4003 4006 4008 4010 4013 4016 4018 4021 4024 4027 4029 4032 4035 4038 4040 4042 4045 4048 4050 4053 4056 4059 4062 4065 4068 4071 4074 4077 4080 4083 4086 4089 4092 4095 4098 4101 4104 4107 4110 4113 4115 4118 4120 4123 4126 4129 4132 4135 4138 4141 4144 4147 4150 4153 4156 4159 4162 4165 4168 4171 4174 4177 4180 4183 4186 4189 4192 4195 4198 4201 4204 4207 4210 4213 4216 4219 4222 4225 4228 4231 4234 4237 4240 4243 4246 4249 4252 4255 4257 4260 4262 4265 4267 4270 4273 4275 4278 4281 4284 4287 4290 4293 4296 4299 4302 4305 4308 4311 4314 4317 4320 4323 4326 4329 4332 4335 4338 4341 4344 4347 4350 4353 4356 4358 4361 4364 4367 4370 4373 4376 4379 4382 4385 4388 4391 4394 4397 4400 4403 4406 4409 4412 4415 4418 4421 4424 4427 4430 4433 4436 4439 4442 4445 4448 4451 4454 4457 4460 4463 4466 4469 4472 4475 4478 4481 4484 4487 4490 4493 4496 4499 4502 4505 4507 4510 4513 4516 4519 4521 4524 4527 4530 4533 4536 4539 4542 4545 4547 4550 4553 4556 4559 4562 4564 4566 4568 4571 4574 4577 4580 4582 4584 4587 4590 4592 4595 4598 4601 4604 4607 4610 4613 4616 4619 4622 4625 4628 4631 4634 4636 4638 4641 4643 4646 4649 4652 4655 4658 4661 4664 4667 4670 4673 4676 4679 4682 4685 4688 4691 4694 4697 4699 4702 4705 4708 4711 4714 4717 4719 4722 4725 4728 4731 4734 4737 4740 4743 4746 4749 4752 4755 4758 4761 4764 4767 4770 4773 4775 4778 4781 4784 4787 4790 4793 4796 4799 4802 4804 4807 4810 4812 4815 4818 4821 4824 4827 4830 4833 4836 4839 4842 4845 4848 4851 4854 4857 4860 4862 4865 4867 4870 4873 4876 4879 4881 4884 4886 4889 4892 4894 4896 4899 4902 4904 4907 4910 4913 4915 4918 4921 4924 4927 4930 4933 4935 4938 4941 4944 4946 4949 4952 4955 4958 4960 4963 4966 4969 4972 4975 4978 4981 4983 4986 4989 4992 4995 4998 5000 5003 5006 5008 5011 5014 5017 5020 5023 5026 5029 5031 5034 5037 5040 5042 5044 5047 5050 5053 5055 5058 5061 5064 5067 5070 5072 5074 5076 5079 5082 5085 5088 5091 5094 5097 5100 5103 5105 5107 5110 5112 5115 5118 5121 5124 5127 5129 5132 5135 5137 5140 5142 5145 5148 5151 5153 5156 5159 5161 5164 5167 5170 5173 5176 5179 5182 5184 5187 5190 5192 5194 5197 5200 5202 5205 5207 5210 5213 5215 5218 5221 5223 5226 5228 5231 5234 5237 5239 5242 5245 5247 5250 5252 5255 5258 5260 5263 5265 5268 5271 5274 5277 5279 5281 5284 5287 5290 5293 5296 5299 5302 5305 5308 5310 5313 5316 5319 5322 5325 5328 5331 5334 5337 5340 5343 5346 5349 5352 5355 5358 5361 5364 5366 5368 5371 5374 5377 5379 5382 5385 5388 5391 5393 5396 5399 5401 5404 5407 5410 5412 5415 5418 5420 5423 5426 5429 5432 5434 5437 5440 5443 5446 5449 5451 5454 5457 5460 5462 5464 5467 5470 5472 5475 5478 5481 5484 5487 5489 5491 5494 5497 5500 5503 5505 5508 5511 5514 5517 5519 5522 5525 5528 5531 5534 5537 5540 5543 5546 5549 5552 5555 5558 5561 5564 5567 5570 5573 5576 5579 5582 5585 5588 5591 5594 5597 5600 5603 5605 5608 5611 5614 5617 5620 5623 5626 5629 5632 5635 5638 5640 5643 5646 5649 5652 5654 5657 5660 5663 5665 5668 5671 5673 5676 5679 5682 5685 5688 5690 5693 5696 5699 5702 5705 5708 5711 5714 5717 5720 5723 5726 5729 5732 5735 5738 5741 5744 5747 5750 5752 5755 5758 5761 5764 5767 5769 5772 5775 5778 5781 5784 5787 5790 5792 5795 5798 5801 5804 5807 5810 5813 5816 5819 5822 5825 5828 5831 5833 5836 5839 5842 5845 5848 5850 5852 5855 5858 5861 5864 5866 5869 5871 5874 5877 5880 5882 5884 5887 5890 5892 5895 5898 5901 5903 5906 5909 5912 5915 5917 5920 5923 5925 5927 5930 5933 5936 5939 5942 5945 5947 5950 5953 5955 5958 5961 5964 5967 5969 5972 5975 5978 5981 5984 5987 5990 5993 5996 5999 6002 6005 6008 6011 6014 6017 6020 6023 6026 6028 6031 6033 6036 6039 6042 6044 6047 6049 6052 6054 6057 6060 6062 6065 6068 6070 6072 6074 6077 6080 6083 6085 6088 6091 6094 6097 6100 6103 6105 6108 6111 6114 6117 6120 6123 6126 6128 6131 6133 6136 6139 6142 6145 6148 6151 6154 6156 6159 6162 6165 6168 6171 6174 6177 6180 6183 6186 6189 6191 6194 6197 6199 6202 6205 6208 6211 6214 6217 6220 6223 6226 6229 6232 6235 6238 6241 6244 6247 6249 6252 6255 6258 6261 6264 6267 6270 6273 6276 6279 6282 6285 6288 6291 6294 6297 6300 6303 6306 6309 6312 6314 6317 6320 6323 6325 6328 6331 6334 6337 6340 6343 6346 6349 6352 6355 6357 6360 6363 6366 6369 6372 6375 6378 6381 6384 6387 6389 6392 6395 6398 6401 6404 6407 6409 6412 6415 6418 6420 6423 6426 6429 6432 6435 6438 6441 6444 6447 6450 6453 6456 6459 6462 6465 6468 6471 6474 6477 6480 6483 6485 6488 6491 6494 6497 6500 6502 6505 6508 6510 6513 6516 6519 6522 6525 6528 6530 6533 6536 6539 6542 6544 6547 6550 6553 6556 6559 6562 6565 6568 6571 6574 6577 6580 6583 6586 6589 6592 6595 6598 6600 6603 6606 6609 6612 6615 6617 6620 6623 6626 6628 6631 6633 6636 6639 6642 6645 6648 6651 6654 6656 6659 6662 6665 6667 6669 6672 6675 6678 6681 6684 6686 6689 6692 6695 6697 6700 6703 6706 6709 6712 6715 6718 6721 6724 6727 6730 6733 6736 6739 6742 6744 6747 6750 6753 6756 6759 6762 6764 6767 6770 6773 6776 6779 6782 6785 6788 6791 6794 6797 6799 6802 6805 6808 6811 6814 6817 6820 6823 6826 6828 6831 6834 6837 6840 6842 6844 6847 6850 6853 6856 6859 6862 6865 6868 6870 6872 6875 6877 6880 6883 6886 6889 6892 6894 6897 6900 6903 6906 6909 6912 6914 6917 6919 6922 6925 6928 6931 6934 6937 6940 6943 6946 6949 6951 6954 6957 6960 6963 6966 6969 6971 6974 6977 6980 6983 6986 6989 6992 6995 6997 7000 7003 7006 7009 7012 7014 7017 7020 7022 7025 7028 7031 7034 7037 7040 7042 7045 7048 7051 7054 7057 7060 7063 7066 7068 7071 7074 7077 7080 7082 7085 7088 7091 7094 7097 7100 7103 7106 7109 7112 7114 7117 7120 7123 7126 7129 7132 7135 7138 7141 7143 7146 7149 7152 7155 7157 7160 7163 7166 7169 7172 7175 7178 7181 7183 7186 7188 7191 7194 7197 7199 7202 7205 7208 7211 7214 7217 7220 7223 7225 7228 7231 7234 7236 7239 7242 7245 7247 7250 7253 7255 7258 7261 7264 7267 7270 7273 7276 7279 7282 7285 7288 7291 7294 7297 7300 7303 7306 7309 7312 7315 7318 7321 7324 7327 7330 7333 7336 7339 7342 7345 7348 7351 7354 7357 7360 7363 7366 7369 7372 7375 7378 7381 7384 7387 7390 7393 7396 7399 7402 7405 7408 7411 7414 7416 7419 7422 7425 7427 7430 7433 7436 7439 7442 7445 7447 7450 7452 7455 7458 7461 7464 7466 7468 7471 7474 7477 7480 7483 7486 7489 7492 7495 7498 7501 7504 7507 7510 7513 7516 7519 7522 7525 7528 7531 7534 7536 7539 7542 7544 7547 7550 7553 7555 7558 7561 7564 7567 7570 7573 7576 7579 7582 7585 7588 7591 7594 7597 7599 7602 7604 7607 7609 7612 7615 7618 7621 7624 7627 7630 7633 7636 7639 7642 7645 7648 7651 7654 7657 7660 7662 7665 7668 7671 7674 7677 7680 7683 7686 7689 7692 7695 7698 7701 7704 7707 7710 7713 7716 7719 7722 7725 7728 7731 7734 7737 7740 7743 7746 7749 7752 7755 7758 7761 7763 7766 7769 7772 7775 7778 7781 7783 7786 7789 7791 7794 7796 7799 7802 7804 7807 7810 7813 7815 7818 7821 7824 7827 7830 7833 7836 7839 7842 7845 7848 7851 7854 7857 7860 7863 7866 7869 7872 7875 7878 7881 7884 7887 7890 7892 7895 7898 7901 7904 7906 7909 7912 7914 7917 7920 7923 7926 7929 7932 7935 7938 7941 7944 7947 7950 7953 7956 7959 7962 7965 7968 7971 7974 7977 7980 7983 7986 7989 7992 7995 7998 8001 8004 8006 8009 8012 8015 8017 8020 8023 8026 8029 8031 8034 8037 8040 8043 8046 8048 8051 8054 8057 8060 8062 8065 8068 8071 8074 8077 8080 8083 8086 8089 8092 8095 8098 8101 8104 8106 8108 8111 8113 8116 8118 8121 8124 8127 8130 8133 8136 8139 8142 8145 8148 8151 8154 8157 8160 8163 8166 8169 8172 8175 8178 8181 8184 8187 8190 8193 8195 8197 8200 8203 8205 8208 8211 8213 8216 8219 8222 8225 8228 8231 8234 8237 8240 8243 8246 8248 8251 8254 8256 8259 8262 8265 8268 8271 8274 8277 8280 8283 8286 8289 8292 8295 8298 8300 8302 8305 8307 8309 8312 8315 8318 8321 8323 8326 8329 8332 8334 8336 8339 8342 8345 8348 8351 8354 8357 8359 8362 8365 8368 8371 8374 8377 8380 8383 8386 8389 8392 8395 8398 8401 8404 8407 8409 8412 8415 8418 8421 8423 8426 8429 8432 8435 8438 8441 8444 8446 8449 8452 8455 8458 8461 8464 8467 8469 8472 8475 8477 8480 8483 8486 8489 8492 8495 8498 8501 8504 8507 8510 8513 8516 8519 8522 8524 8527 8530 8533 8536 8539 8542 8545 8548 8550 8553 8556 8559 8562 8565 8568 8571 8573 8576 8579 8582 8585 8588 8590 8593 8596 8599 8602 8604 8607 8610 8613 8616 8619 8622 8625 8628 8631 8634 8637 8640 8642 8645 8648 8651 8654 8657 8660 8663 8666 8669 8672 8675 8678 8681 8684 8686 8689 8692 8695 8698 8701 8704 8707 8710 8713 8716 8719 8722 8725 8727 8729 8732 8735 8737 8740 8743 8746 8749 8751 8754 8757 8760 8762 8765 8768 8770 8773 8776 8779 8782 8784 8787 8790 8793 8796 8799 8802 8805 8808 8811 8814 8817 8820 8823 8826 8829 8832 8835 8838 8841 8844 8847 8850 8853 8856 8859 8862 8865 8868 8871 8874 8877 8880 8883 8886 8888 8891 8894 8897 8899 8902 8904 8907 8910 8913 8916 8919 8922 8925 8928 8931 8934 8937 8940 8943 8946 8948 8951 8954 8957 8960 8963 8966 8969 8972 8974 8977 8980 8983 8985 8988 8991 8994 8997 9000 9003 9006 9008 9011 9013 9016 9019 9022 9025 9028 9031 9034 9037 9040 9043 9046 9049 9052 9055 9057 9060 9063 9065 9068 9071 9074 9077 9080 9083 9086 9088 9091 9094 9097 9100 9103 9106 9109 9112 9115 9118 9121 9124 9127 9130 9133 9136 9139 9142 9145 9148 9151 9154 9157 9160 9163 9166 9169 9171 9174 9177 9179 9182 9185 9188 9190 9193 9196 9198 9201 9204 9207 9210 9213 9216 9219 9222 9225 9228 9231 9234 9237 9240 9243 9246 9249 9252 9255 9257 9260 9263 9266 9269 9272 9275 9278 9281 9284 9287 9290 9293 9296 9298 9301 9304 9307 9310 9313 9316 9319 9322 9325 9328 9331 9334 9337 9340 9343 9346 9349 9352 9355 9357 9360 9363 9366 9369 9372 9375 9378 9381 9384 9387 9390 9393 9396 9399 9402 9405 9407 9410 9413 9415 9418 9421 9424 9426 9429 9432 9434 9437 9440 9443 9446 9449 9452 9455 9458 9461 9464 9467 9470 9473 9476 9478 9481 9484 9486 9489 9492 9495 9498 9501 9504 9507 9510 9513 9516 9519 9522 9525 9528 9531 9534 9537 9540 9543 9546 9549 9552 9555 9558 9561 9564 9567 9570 9573 9576 9579 9582 9585 9588 9591 9594 9596 9599 9602 9605 9608 9610 9613 9616 9619 9622 9625 9628 9631 9634 9637 9640 9643 9646 9649 9652 9655 9657 9660 9662 9664 9667 9670 9672 9675 9677 9680 9683 9686 9689 9692 9695 9698 9701 9703 9706 9709 9711 9714 9717 9720 9723 9725 9727 9730 9732 9735 9738 9741 9744 9747 9750 9753 9756 9759 9762 9765 9768 9771 9774 9777 9780 9783 9786 9789 9792 9795 9797 9800 9803 9806 9809 9812 9815 9818 9821 9824 9827 9830 9833 9836 9839 9842 9845 9848 9851 9854 9857 9860 9863 9866 9869 9872 9874 9877 9880 9883 9886 9889 9891 9894 9897 9900 9903 9906 9909 9912 9915 9918 9920 9923 9926 9929 9932 9935 9938 9941 9944 9947 9950 9953 9956 9959 9962 9965 9968 9971 9973 9975 9978 9981 9983 9986 9989 9992 9994 9997 10000 10003 10006 10009 10012 10015 10018 10021 10024 10026 10029 10032 10034 10037 10039 10042 10045 10048 10051 10053 10056 10059 10062 10064 10067 10070 10073 10076 10079 10082 10084 10087 10090 10093 10096 10099 10102 10104 10107 10110 10113 10116 10119 10122 10125 10128 10131 10134 10137 10140 10143 10146 10148 10151 10154 10156 10159 10162 10165 10167 10169 10172 10175 10178 10181 10184 10187 10190 10193 10196 10199 10201 10204 10207 10210 10212 10215 10218 10221 10224 10226 10229 10232 10235 10238 10241 10244 10247 10250 10252 10255 10258 10261 10264 10267 10269 10271 10274 10277 10280 10282 10285 10287 10289 10292 10295 10298 10301 10304 10306 10309 10312 10315 10318 10321 10324 10326 10329 10332 10335 10338 10341 10344 10347 10349 10352 10355 10357 10360 10363 10365 10368 10371 10374 10377 10380 10383 10386 10389 10392 10395 10398 10401 10404 10407 10409 10412 10415 10418 10420 10423 10426 10428 10431 10434 10437 10440 10442 10445 10448 10451 10454 10457 10460 10463 10466 10468 10471 10474 10477 10480 10482 10485 10488 10491 10494 10497 10500 10503 10506 10508 10511 10514 10517 10520 10523 10526 10529 10532 10535 10537 10540 10543 10546 10548 10551 10554 10556 10559 10562 10564 10567 10570 10573 10576 10579 10582 10585 10588 10591 10593 10596 10599 10602 10605 10608 10611 10614 10617 10620 10623 10626 10629 10632 10635 10638 10641 10643 10646 10649 10652 10655 10658 10661 10664 10667 10670 10673 10676 10679 10682 10685 10688 10691 10694 10697 10700 10703 10706 10709 10712 10715 10718 10721 10723 10726 10728 10731 10734 10737 10740 10743 10746 10749 10752 10755 10758 10760 10763 10766 10768 10771 10774 10777 10780 10783 10786 10789 10792 10795 10798 10801 10804 10807 10810 10813 10816 10819 10822 10825 10828 10831 10833 10836 10839 10842 10845 10848 10851 10854 10857 10860 10862 10865 10867 10870 10873 10876 10879 10882 10885 10888 10890 10893 10895 10898 10901 10904 10907 10910 10913 10916 10919 10922 10925 10928 10930 10933 10936 10939 10942 10944 10947 10949 10952 10955 10958 10961 10964 10967 10969 10972 10975 10977 10980 10983 10985 10988 10991 10994 10996 10998 11000 11003 11006 11009 11012 11015 11018 11021 11024 11027 11030 11033 11036 11039 11041 11044 11047 11050 11053 11056 11059 11062 11064 11067 11069 11072 11074 11077 11080 11082 11084 11087 11090 11093 11096 11099 11102 11104 11107 11110 11113 11116 11118 11121 11123 11126 11128 11131 11133 11136 11139 11142 11145 11147 11150 11153 11156 11159 11162 11164 11167 11170 11173 11176 11179 11182 11185 11188 11191 11194 11197 11200 11203 11206 11208 11211 11214 11217 11220 11223 11225 11228 11231 11234 11236 11239 11242 11245 11248 11251 11254 11257 11260 11263 11266 11269 11272 11275 11278 11281 11284 11287 11289 11292 11295 11298 11301 11303 11306 11309 11312 11315 11318 11321 11323 11326 11329 11332 11335 11338 11341 11344 11347 11350 11353 11355 11358 11361 11363 11366 11368 11371 11374 11377 11380 11383 11386 11389 11392 11395 11398 11401 11403 11406 11409 11412 11415 11418 11421 11423 11426 11428 11430 11433 11435 11438 11441 11444 11447 11450 11453 11456 11458 11461 11464 11467 11470 11473 11476 11479 11482 11485 11488 11491 11494 11497 11500 11503 11506 11508 11511 11514 11517 11520 11523 11526 11529 11532 11535 11538 11540 11543 11546 11549 11552 11555 11558 11561 11564 11567 11570 11572 11575 11578 11581 11584 11586 11589 11592 11595 11598 11601 11603 11606 11609 11612 11615 11617 11620 11623 11626 11629 11632 11635 11638 11641 11644 11647 11650 11653 11656 11659 11662 11665 11668 11671 11673 11676 11679 11682 11685 11688 11691 11694 11697 11699 11702 11704 11706 11709 11712 11715 11718 11721 11723 11726 11729 11732 11735 11738 11741 11744 11747 11750 11753 11756 11759 11762 11765 11767 11770 11773 11775 11778 11780 11782 11785 11788 11791 11794 11797 11800 11802 11805 11808 11811 11814 11816 11819 11821 11824 11827 11829 11832 11835 11838 11841 11844 11847 11849 11851 11854 11857 11860 11863 11866 11869 11872 11875 11878 11881 11884 11887 11890 11893 11896 11898 11901 11904 11907 11910 11913 11916 11919 11921 11924 11926 11929 11932 11935 11937 11940 11942 11945 11948 11951 11954 11957 11960 11963 11966 11968 11971 11974 11977 11980 11983 11985 11988 11990 11993 11996 11999 12002 12004 12007 12010 12013 12016 12019 12021 12024 12027 12030 12033 12036 12039 12042 12045 12048 12051 12054 12057 12060 12063 12066 12069 12072 12075 12078 12081 12084 12087 12090 12093 12095 12098 12101 12104 12106 12109 12111 12114 12117 12120 12122 12125 12128 12131 12134 12137 12140 12143 12146 12149 12152 12155 12158 12161 12164 12167 12170 12173 12175 12177 12179 12181 12184 12187 12190 12193 12196 12199 12201 12204 12207 12210 12212 12215 12218 12221 12224 12227 12230 12233 12236 12239 12242 12244 12246 12248 12251 12254 12256 12258 12261 12264 12267 12270 12273 12276 12279 12282 12285 12287 12290 12293 12296 12299 12302 12305 12308 12311 12313 12315 12318 12321 12324 12326 12329 12332 12335 12338 12341 12344 12347 12350 12353 12356 12359 12361 12364 12366 12369 12372 12375 12378 12381 12383 12385 12388 12391 12393 12395 12398 12401 12404 12407 12410 12413 12416 12419 12422 12425 12428 12431 12434 12437 12440 12443 12446 12449 12452 12455 12458 12461 12464 12467 12470 12473 12476 12479 12482 12485 12488 12491 12494 12497 12500 12503 12506 12509 12512 12515 12518 12521 12523 12525 12528 12531 12534 12537 12540 12543 12546 12549 12552 12555 12558 12561 12564 12567 12570 12573 12576 12579 12582 12585 12587 12590 12593 12596 12599 12602 12605 12608 12611 12614 12617 12620 12623 12626 12629 12632 12635 12637 12640 12642 12645 12648 12651 12654 12657 12660 12663 12666 12668 12671 12674 12677 12680 12683 12686 12689 12692 12695 12698 12701 12703 12706 12709 12711 12714 12717 12719 12722 12725 12728 12731 12733 12736 12739 12742 12745 12747 12750 12753 12755 12758 12760 12763 12766 12769 12772 12775 12777 12780 12783 12786 12789 12792 12795 12798 12800 12803 12806 12809 12812 12815 12818 12821 12824 12827 12830 12833 12836 12839 12842 12845 12848 12851 12854 12857 12860 12863 12866 12869 12872 12874 12877 12880 12883 12885 12888 12891 12893 12896 12899 12902 12904 12907 12910 12913 12916 12918 12921 12923 12926 12929 12932 12935 12938 12941 12944 12947 12949 12952 12955 12958 12961 12964 12967 12970 12973 12976 12979 12981 12984 12987 12989 12992 12995 12997 13000 13003 13005 13007 13010 13013 13016 13019 13022 13025 13028 13030 13032 13035 13038 13041 13043 13046 13049 13051 13053 13056 13059 13062 13064 13066 13069 13071 13074 13077 13079 13082 13085 13088 13091 13093 13096 13098 13100 13103 13106 13109 13111 13114 13116 13118 13121 13123 13125 13127 13129 13132 13134 13137 13139 13142 13144 13147 13150 13153 13155 13158 13161 13163 13166 13168 13170 13173 13176 13179 13182 13184 13187 13189 13191 13194 13197 13200 13202 13204 13207 13210 13212 13214 13217 13220 13223 13226 13228 13231 13234 13237 13240 13242 13245 13248 13251 13254 13256 13259 13261 13264 13266 13269 13271 13274 13276 13279 13281 13284 13287 13290 13293 13296 13298 13301 13304 13306 13308 13310 13313 13316 13318 13320 13323 13325 13328 13331 13333 13336 13339 13342 13345 13348 13351 13353 13356 13359 13361 13364 13366 13369 13372 13375 13378 13380 13383 13385 13388 13390 13393 13396 13399 13401 13404 13407 13409 13412 13414 13417 13419 13422 13425 13428 13431 13434 13436 13439 13442 13445 13448 13451 13454 13457 13460 13463 13466 13468 13471 13474 13477 13480 13482 13485 13488 13490 13493 13496 13499 13502 13505 13507 13510 13513 13515 13518 13521 13524 13526 13529 13531 13534 13537 13540 13542 13545 13548 13551 13554 13556 13559 13562 13565 13568 13570 13572 13575 13578 13581 13584 13587 13590 13592 13595 13598 13600 13603 13606 13609 13612 13615 13618 13621 13624 13627 13630 13633 13636 13639 13642 13645 13648 13651 13654 13657 13660 13663 13666 13669 13672 13675 13678 13681 13684 13687 13690 13693 13696 13699 13702 13705 13708 13711 13714 13717 13720 13723 13726 13729 13732 13735 13738 13741 13744 13747 13750 13753 13756 13759 13762 13765 13768 13771 13774 13776 13779 13782 13785 13788 13791 13794 13797 13800 13803 13806 13809 13812 13814 13817 13820 13822 13825 13828 13831 13833 13836 13839 13842 13845 13848 13851 13854 13857 13860 13863 13866 13869 13872 13875 13878 13880 13883 13886 13889 13892 13895 13898 13901 13904 13907 13910 13913 13916 13919 13922 13925 13928 13930 13933 13936 13939 13942 13945 13948 13951 13954 13957 13960 13963 13966 13969 13971 13974 13977 13979 13982 13985 13987 13990 13992 13995 13998 14001 14004 14007 14010 14013 14015 14018 14021 14024 14027 14030 14033 14036 14039 14042 14045 14048 14051 14053 14056 14059 14062 14064 14067 14070 14073 14076 14079 14082 14085 14088 14091 14093 14096 14099 14102 14105 14108 14111 14113 14116 14119 14122 14125 14128 14131 14133 14136 14139 14142 14144 14147 14150 14153 14156 14159 14162 14165 14167 14170 14173 14176 14179 14182 14185 14188 14191 14194 14197 14199 14202 14205 14208 14211 14214 14217 14220 14223 14226 14229 14232 14235 14238 14241 14244 14247 14249 14252 14254 14257 14260 14263 14266 14269 14272 14275 14278 14281 14284 14286 14289 14291 14294 14297 14300 14303 14306 14309 14312 14315 14318 14321 14324 14326 14329 14332 14335 14338 14341 14344 14347 14350 14353 14356 14359 14361 14364 14367 14370 14373 14376 14379 14382 14384 14387 14390 14393 14396 14399 14402 14405 14407 14410 14413 14416 14419 14422 14425 14428 14431 14434 14437 14440 14442 14445 14448 14451 14454 14457 14460 14463 14466 14468 14471 14473 14476 14479 14482 14485 14488 14491 14494 14497 14500 14503 14505 14508 14511 14514 14516 14519 14522 14525 14528 14531 14534 14537 14540 14543 14545 14548 14551 14554 14557 14560 14563 14566 14569 14572 14575 14578 14581 14584 14587 14590 14593 14595 14598 14601 14604 14607 14610 14613 14616 14619 14622 14625 14628 14631 14634 14637 14640 14643 14646 14649 14651 14654 14657 14659 14662 14665 14667 14670 14673 14676 14679 14682 14684 14687 14690 14693 14696 14699 14702 14705 14708 14711 14714 14717 14720 14723 14726 14729 14732 14735 14738 14741 14744 14747 14750 14753 14756 14759 14762 14765 14768 14771 14774 14777 14780 14783 14786 14789 14792 14795 14798 14801 14804 14807 14810 14813 14816 14819 14822 14825 14828 14831 14834 14837 14840 14843 14846 14849 14852 14855 14858 14861 14863 14866 14869 14871 14874 14877 14880 14883 14886 14889 14892 14895 14898 14901 14904 14907 14910 14913 14916 14919 14922 14925 14928 14931 14934 14937 14940 14943 14945 14947 14950 14953 14956 14959 14962 14965 14968 14971 14974 14977 14980 14983 14986 14989 14992 14995 14997 14999 15002 15005 15008 15011 15014 15017 15020 15022 15025 15027 15030 15033 15035 15037 15040 15043 15046 15049 15052 15055 15058 15061 15064 15067 15070 15072 15075 15077 15080 15083 15086 15088 15091 15094 15097 15099 15102 15104 15107 15110 15113 15116 15119 15121 15123 15126 15129 15132 15135 15138 15141 15144 15147 15150 15153 15156 15159 15162 15165 15168 15171 15174 15177 15180 15183 15186 15189 15192 15195 15198 15201 15204 15207 15210 15213 15216 15219 15222 15225 15228 15231 15234 15237 15240 15243 15246 15249 15252 15255 15258 15261 15264 15267 15270 15273 15276 15279 15282 15285 15288 15291 15294 15297 15300 15303 15306 15309 15312 15315 15318 15321 15324 15327 15330 15333 15336 15339 15342 15345 15348 15351 15354 15357 15360 15363 15366 15369 15372 15375 15378 15381 15384 15387 15390 15393 15396 15399 15402 15405 15408 15411 15414 15417 15420 15423 15426 15429 15432 15435 15437 15439 15442 15444 15447 15449 15452 15455 15457 15460 15463 15466 15469 15471 15474 15477 15480 15483 15486 15489 15492 15494 15496 15498 15501 15504 15507 15510 15513 15515 15517 15520 15523 15526 15529 15532 15535 15538 15541 15544 15547 15550 15553 15556 15559 15562 15565 15568 15571 15574 15577 15580 15583 15586 15589 15592 15595 15598 15601 15604 15607 15610 15613 15616 15619 15621 15624 15627 15629 15632 15635 15638 15641 15644 15647 15650 15653 15656 15659 15662 15664 15667 15670 15673 15676 15679 15682 15685 15687 15690 15693 15696 15699 15702 15705 15708 15711 15714 15717 15720 15723 15726 15729 15732 15735 15737 15740 15743 15745 15748 15751 15754 15757 15760 15763 15766 15769 15772 15775 15778 15781 15784 15787 15790 15793 15796 15799 15802 15805 15808 15811 15814 15816 15819 15822 15824 15827 15830 15832 15835 15838 15841 15844 15847 15850 15853 15855 15858 15861 15864 15867 15870 15873 15875 15878 15881 15883 15886 15889 15892 15895 15897 15900 15902 15905 15908 15910 15913 15916 15919 15922 15924 15927 15929 15932 15935 15937 15940 15943 15946 15949 15952 15955 15958 15961 15964 15967 15970 15973 15975 15978 15981 15984 15986 15989 15992 15994 15997 16000 16003 16006 16008 16011 16014 16017 16020 16023 16026 16029 16032 16035 16038 16040 16043 16046 16049 16052 16055 16058 16061 16064 16067 16070 16072 16075 16078 16081 16084 16087 16090 16093 16096 16099 16102 16105 16108 16110 16113 16116 16118 16121 16124 16127 16130 16133 16136 16139 16142 16145 16148 16150 16153 16156 16159 16162 16165 16167 16170 16172 16174 16177 16180 16182 16185 16188 16191 16194 16197 16200 16203 16206 16209 16211 16213 16216 16219 16222 16225 16228 16231 16233 16236 16239 16242 16245 16248 16251 16254 16257 16260 16263 16266 16269 16272 16275 16278 16281 16284 16287 16290 16293 16296 16299 16302 16305 16308 16310 16313 16316 16319 16322 16325 16328 16331 16334 16337 16340 16343 16346 16349 16352 16355 16358 16361 16364 16367 16370 16373 16376 16379 16382 16385 16388 16391 16394 16397 16400 16403 16406 16409 16412 16415 16418 16421 16424 16427 16430 16432 16435 16438 16441 16444 16447 16450 16453 16456 16459 16462 16464 16467 16470 16473 16475 16478 16480 16483 16486 16489 16491 16494 16497 16500 16502 16505 16507 16510 16512 16515 16517 16519 16522 16525 16527 16530 16533 16536 16538 16541 16544 16547 16550 16553 16555 16558 16561 16564 16567 16569 16572 16575 16578 16580 16583 16586 16589 16592 16594 16597 16599 16602 16605 16608 16611 16614 16617 16620 16623 16626 16629 16632 16635 16638 16641 16643 16646 16649 16652 16655 16657 16660 16663 16665 16668 16671 16673 16675 16678 16681 16683 16686 16688 16691 16694 16697 16699 16701 16703 16705 16708 16711 16713 16716 16719 16722 16725 16727 16730 16732 16735 16738 16740 16742 16744 16747 16749 16752 16755 16757 16759 16761 16764 16767 16770 16773 16776 16779 16782 16785 16788 16790 16792 16795 16798 16801 16804 16806 16808 16811 16814 16817 16819 16822 16824 16827 16830 16833 16836 16839 16842 16845 16848 16851 16854 16857 16859 16862 16865 16868 16871 16874 16877 16880 16883 16886 16889 16892 16895 16898 16901 16904 16907 16910 16913 16916 16919 16922 16925 16928 16930 16933 16936 16939 16942 16945 16948 16951 16954 16957 16960 16963 16966 16969 16972 16975 16978 16980 16983 16986 16988 16991 16994 16997 17000 17003 17006 17009 17012 17015 17017 17020 17023 17026 17028 17030 17033 17036 17038 17041 17044 17047 17050 17053 17055 17058 17060 17063 17066 17069 17071 17074 17077 17080 17083 17086 17089 17092 17094 17097 17100 17102 17105 17108 17111 17114 17116 17119 17122 17125 17127 17129 17132 17135 17137 17140 17143 17146 17148 17151 17154 17157 17160 17163 17166 17169 17171 17174 17177 17179 17182 17184 17186 17188 17191 17193 17196 17198 17200 17203 17206 17209 17212 17215 17218 17220 17223 17226 17228 17231 17234 17237 17240 17243 17246 17249 17252 17255 17258 17261 17264 17267 17270 17273 17276 17279 17282 17285 17288 17291 17294 17297 17300 17303 17306 17309 17312 17315 17318 17321 17324 17327 17330 17333 17335 17337 17340 17343 17346 17349 17352 17355 17358 17361 17363 17365 17367 17369 17372 17375 17377 17380 17383 17386 17389 17392 17395 17398 17401 17403 17406 17409 17411 17414 17417 17420 17422 17425 17428 17431 17434 17436 17439 17442 17445 17448 17451 17454 17457 17460 17463 17466 17469 17472 17475 17478 17480 17483 17486 17489 17492 17495 17497 17500 17503 17506 17509 17512 17515 17518 17521 17523 17526 17529 17532 17534 17536 17539 17542 17544 17546 17549 17552 17555 17558 17561 17563 17566 17569 17572 17575 17578 17581 17583 17586 17588 17591 17594 17597 17600 17603 17606 17609 17612 17614 17616 17619 17621 17623 17625 17628 17630 17633 17636 17639 17642 17645 17648 17650 17653 17656 17659 17662 17665 17668 17671 17673 17676 17679 17682 17685 17688 17691 17694 17697 17700 17703 17706 17709 17712 17715 17718 17721 17724 17727 17730 17733 17736 17739 17742 17745 17748 17751 17754 17757 17760 17763 17766 17769 17772 17775 17778 17781 17784 17787 17790 17793 17796 17799 17802 17805 17808 17811 17814 17817 17820 17823 17826 17829 17832 17835 17838 17841 17844 17846 17849 17852 17855 17858 17861 17864 17867 17869 17872 17875 17877 17880 17883 17886 17888 17891 17893 17896 17899 17901 17904 17907 17910 17913 17916 17919 17922 17924 17927 17930 17933 17935 17938 17941 17944 17947 17950 17953 17956 17958 17961 17963 17966 17969 17972 17975 17978 17981 17984 17987 17990 17993 17996 17999 18002 18005 18008 18011 18014 18017 18020 18023 18026 18029 18032 18035 18038 18040 18042 18045 18047 18050 18053 18056 18059 18062 18065 18068 18070 18073 18075 18078 18080 18082 18084 18087 18090 18092 18095 18098 18100 18103 18106 18109 18111 18114 18117 18120 18123 18126 18129 18132 18134 18136 18139 18142 18144 18147 18150 18153 18155 18158 18161 18164 18167 18169 18172 18174 18177 18180 18183 18186 18189 18192 18194 18197 18199 18202 18205 18208 18211 18214 18216 18219 18222 18224 18227 18230 18233 18236 18239 18242 18245 18248 18251 18254 18257 18260 18263 18266 18269 18272 18274 18277 18280 18282 18284 18287 18289 18292 18295 18298 18301 18304 18307 18310 18313 18315 18318 18321 18324 18327 18330 18333 18336 18339 18342 18345 18348 18351 18354 18357 18360 18363 18365 18368 18371 18374 18376 18379 18382 18384 18387 18390 18393 18396 18399 18402 18404 18407 18410 18413 18416 18419 18422 18425 18428 18431 18434 18437 18440 18443 18446 18449 18452 18455 18458 18461 18463 18465 18468 18471 18474 18477 18480 18483 18486 18488 18491 18494 18497 18499 18502 18505 18507 18510 18512 18515 18518 18520 18523 18525 18527 18530 18532 18535 18537 18540 18542 18545 18548 18551 18554 18557 18560 18563 18566 18569 18572 18575 18578 18581 18584 18587 18589 18591 18594 18597 18600 18603 18606 18609 18612 18614 18617 18620 18623 18626 18629 18632 18635 18638 18641 18644 18647 18650 18653 18656 18659 18661 18664 18666 18669 18672 18675 18678 18681 18684 18686 18689 18692 18695 18697 18700 18703 18706 18708 18711 18714 18717 18720 18723 18726 18729 18732 18735 18738 18741 18744 18747 18750 18753 18756 18759 18762 18765 18768 18771 18773 18776 18779 18782 18785 18787 18790 18793 18796 18799 18802 18804 18807 18810 18813 18815 18818 18821 18824 18827 18830 18833 18836 18839 18842 18845 18848 18851 18853 18856 18859 18862 18865 18867 18870 18873 18876 18879 18882 18885 18888 18891 18893 18896 18899 18902 18905 18908 18911 18914 18916 18919 18922 18925 18928 18930 18933 18936 18939 18942 18945 18948 18951 18954 18956 18959 18962 18965 18968 18971 18974 18977 18980 18983 18985 18988 18991 18994 18997 19000 19003 19006 19009 19012 19015 19018 19021 19024 19027 19030 19033 19036 19039 19042 19045 19048 19051 19054 19057 19060 19063 19066 19069 19071 19074 19077 19080 19083 19086 19089 19092 19094 19097 19100 19103 19106 19109 19112 19115 19118 19121 19124 19127 19130 19133 19136 19139 19142 19145 19148 19151 19154 19157 19160 19163 19166 19169 19172 19175 19178 19181 19183 19186 19189 19192 19195 19198 19201 19204 19207 19210 19213 19216 19219 19222 19225 19228 19231 19234 19237 19240 19243 19246 19249 19252 19255 19258 19261 19264 19267 19270 19273 19276 19279 19281 19284 19287 19289 19292 19295 19298 19301 19303 19306 19309 19311 19314 19317 19320 19323 19325 19328 19331 19334 19336 19339 19342 19345 19347 19350 19353 19356 19359 19362 19365 19368 19371 19374 19377 19379 19382 19385 19387 19390 19393 19396 19399 19402 19405 19407 19410 19413 19416 19419 19422 19424 19427 19430 19433 19436 19438 19441 19444 19447 19450 19453 19456 19459 19462 19465 19468 19470 19473 19476 19479 19482 19485 19488 19491 19494 19497 19499 19502 19505 19508 19511 19514 19517 19520 19523 19526 19529 19532 19535 19538 19540 19543 19546 19549 19552 19555 19558 19561 19563 19566 19569 19572 19575 19578 19580 19583 19586 19589 19592 19595 19598 19601 19604 19607 19610 19613 19616 19619 19622 19624 19627 19630 19633 19636 19639 19642 19645 19648 19650 19653 19656 19659 19662 19665 19668 19671 19674 19677 19680 19683 19686 19689 19692 19695 19698 19701 19704 19707 19710 19713 19716 19719 19722 19725 19728 19731 19734 19737 19740 19743 19746 19749 19751 19754 19757 19760 19763 19765 19767 19770 19773 19775 19778 19781 19783 19786 19789 19791 19794 19797 19800 19803 19806 19809 19812 19815 19818 19821 19824 19827 19830 19833 19836 19839 19842 19845 19848 19850 19853 19856 19859 19862 19864 19867 19870 19873 19876 19879 19882 19885 19888 19891 19894 19897 19900 19903 19906 19909 19912 19915 19918 19921 19924 19927 19930 19933 19936 19939 19942 19945 19948 19951 19954 19957 19960 19963 19966 19969 19972 19975 19978 19981 19984 19987 19990 19993 19996 19999 20002 20005 20008 20011 20014 20017 20020 20023 20026 20029 20032 20035 20038 20041 20044 20047 20050 20053 20056 20059 20062 20065 20068 20071 20074 20077 20079 20082 20085 20088 20091 20093 20096 20098 20101 20104 20106 20109 20112 20115 20118 20120 20123 20126 20128 20131 20134 20137 20140 20143 20146 20149 20152 20155 20158 20161 20164 20167 20170 20173 20176 20179 20182 20185 20188 20191 20194 20197 20200 20203 20206 20209 20212 20215 20218 20221 20224 20227 20230 20233 20236 20239 20242 20245 20248 20251 20254 20257 20260 20263 20266 20269 20272 20275 20278 20281 20284 20287 20290 20293 20296 20299 20302 20305 20308 20310 20313 20316 20319 20322 20325 20328 20331 20334 20337 20339 20342 20345 20348 20351 20354 20357 20360 20362 20365 20368 20371 20374 20377 20380 20383 20386 20389 20392 20395 20398 20401 20404 20407 20410 20413 20416 20419 20421 20423 20426 20429 20431 20434 20436 20439 20442 20445 20448 20451 20454 20457 20460 20463 20466 20469 20472 20475 20478 20481 20484 20487 20490 20493 20496 20499 20502 20505 20508 20511 20514 20517 20520 20523 20526 20529 20532 20535 20538 20541 20544 20547 20550 20553 20556 20559 20562 20565 20568 20571 20574 20577 20580 20583 20586 20589 20592 20595 20598 20601 20603 20605 20608 20611 20614 20617 20620 20623 20626 20629 20632 20635 20638 20641 20644 20647 20650 20653 20656 20659 20662 20665 20667 20670 20673 20676 20679 20682 20685 20688 20691 20694 20697 20699 20702 20705 20708 20710 20713 20716 20719 20722 20725 20728 20730 20733 20736 20739 20742 20745 20748 20751 20754 20757 20760 20763 20766 20769 20771 20774 20777 20780 20783 20786 20789 20791 20793 20796 20798 20801 20804 20806 20809 20812 20815 20817 20820 20823 20826 20828 20831 20834 20837 20840 20843 20845 20848 20850 20853 20856 20859 20862 20864 20867 20870 20873 20876 20878 20881 20883 20886 20889 20891 20893 20896 20899 20902 20905 20908 20910 20913 20916 20919 20922 20925 20927 20929 20931 20934 20936 20939 20941 20944 20947 20950 20953 20956 20958 20961 20964 20967 20970 20973 20976 20979 20982 20984 20986 20989 20992 20994 20997 21000 21003 21006 21008 21011 21014 21016 21019 21022 21024 21027 21030 21033 21036 21039 21042 21045 21048 21051 21053 21056 21059 21062 21065 21068 21071 21074 21077 21079 21082 21085 21088 21091 21094 21097 21100 21103 21106 21108 21110 21113 21116 21119 21122 21125 21128 21131 21134 21137 21140 21143 21146 21149 21152 21155 21158 21161 21164 21167 21170 21173 21176 21179 21182 21185 21188 21191 21194 21197 21200 21203 21206 21209 21212 21215 21217 21220 21223 21226 21229 21231 21234 21237 21240 21243 21246 21249 21252 21255 21258 21261 21264 21267 21270 21273 21276 21279 21281 21283 21286 21289 21292 21295 21298 21301 21304 21307 21310 21312 21315 21318 21321 21324 21326 21329 21332 21334 21337 21340 21343 21346 21349 21352 21355 21358 21361 21364 21367 21370 21373 21375 21378 21381 21384 21387 21390 21393 21396 21399 21402 21405 21408 21411 21414 21417 21420 21423 21426 21429 21432 21435 21438 21441 21444 21447 21450 21452 21455 21458 21461 21464 21467 21469 21472 21475 21478 21480 21483 21486 21489 21491 21493 21496 21499 21502 21505 21508 21511 21514 21517 21520 21523 21526 21529 21532 21535 21537 21540 21543 21546 21548 21551 21554 21557 21560 21562 21564 21567 21570 21573 21576 21579 21582 21585 21588 21591 21594 21597 21600 21603 21606 21609 21612 21615 21618 21621 21624 21627 21630 21633 21635 21638 21641 21644 21647 21650 21653 21656 21659 21662 21664 21667 21670 21673 21676 21678 21681 21683 21686 21689 21692 21695 21697 21700 21703 21706 21709 21712 21715 21718 21721 21724 21727 21730 21733 21736 21739 21742 21744 21747 21750 21752 21755 21758 21761 21764 21767 21770 21773 21776 21779 21782 21784 21786 21789 21792 21795 21798 21800 21803 21806 21809 21811 21814 21817 21820 21823 21825 21827 21830 21832 21835 21837 21840 21842 21845 21848 21850 21853 21856 21858 21861 21864 21866 21869 21872 21875 21877 21880 21883 21885 21888 21890 21893 21895 21898 21901 21903 21906 21909 21912 21915 21918 21921 21924 21927 21930 21933 21936 21939 21942 21944 21947 21950 21953 21956 21959 21962 21965 21968 21971 21974 21977 21980 21983 21986 21989 21992 21994 21996 21999 22002 22005 22008 22011 22013 22016 22019 22022 22025 22027 22030 22033 22035 22038 22041 22044 22047 22049 22052 22055 22058 22061 22064 22067 22070 22073 22076 22079 22082 22085 22088 22091 22094 22097 22100 22103 22106 22109 22112 22115 22118 22121 22124 22127 22130 22133 22136 22139 22142 22145 22148 22151 22154 22157 22160 22163 22165 22168 22171 22174 22177 22180 22183 22186 22189 22192 22195 22198 22201 22204 22206 22209 22211 22214 22217 22220 22223 22225 22228 22231 22234 22237 22240 22243 22246 22249 22252 22255 22258 22261 22264 22267 22270 22273 22276 22279 22281 22284 22286 22289 22292 22294 22297 22300 22303 22305 22308 22311 22314 22317 22320 22323 22326 22329 22332 22335 22338 22341 22344 22347 22350 22353 22356 22359 22362 22365 22368 22371 22374 22377 22380 22383 22386 22388 22391 22394 22396 22399 22402 22405 22408 22411 22414 22417 22420 22423 22426 22429 22432 22435 22438 22441 22444 22447 22450 22453 22456 22459 22462 22465 22468 22471 22474 22477 22480 22483 22486 22489 22492 22495 22498 22501 22503 22506 22508 22511 22514 22517 22520 22523 22526 22529 22532 22535 22538 22541 22544 22547 22550 22553 22556 22559 22561 22563 22566 22569 22572 22575 22578 22580 22583 22586 22589 22592 22594 22597 22600 22603 22606 22608 22611 22614 22617 22620 22623 22626 22629 22632 22635 22638 22641 22644 22647 22650 22653 22656 22659 22662 22664 22667 22670 22673 22676 22679 22682 22684 22687 22690 22692 22695 22698 22701 22704 22707 22710 22713 22716 22719 22722 22725 22728 22730 22733 22736 22738 22741 22744 22747 22750 22753 22756 22759 22762 22764 22767 22770 22773 22776 22779 22782 22784 22787 22790 22792 22795 22798 22801 22804 22807 22810 22813 22816 22819 22822 22825 22828 22831 22834 22837 22840 22843 22846 22849 22852 22855 22858 22861 22864 22867 22870 22873 22876 22879 22882 22885 22888 22891 22894 22897 22900 22902 22905 22908 22911 22913 22916 22919 22921 22924 22927 22930 22933 22936 22939 22941 22944 22947 22950 22953 22956 22958 22961 22964 22967 22970 22973 22976 22978 22981 22984 22987 22990 22992 22995 22997 23000 23003 23005 23008 23011 23014 23016 23019 23022 23025 23028 23031 23034 23037 23040 23043 23046 23049 23052 23055 23057 23060 23063 23066 23069 23072 23075 23078 23081 23084 23087 23090 23093 23096 23099 23102 23105 23108 23111 23114 23117 23120 23123 23126 23129 23131 23134 23136 23139 23141 23144 23146 23149 23152 23155 23158 23160 23163 23166 23169 23172 23174 23177 23180 23183 23186 23189 23192 23195 23198 23201 23204 23207 23210 23213 23216 23218 23221 23224 23227 23229 23232 23235 23238 23240 23243 23246 23248 23251 23254 23257 23259 23262 23265 23268 23271 23273 23276 23279 23282 23285 23287 23290 23293 23296 23299 23302 23305 23308 23311 23314 23317 23319 23322 23325 23328 23331 23334 23336 23339 23341 23344 23347 23350 23353 23356 23358 23360 23363 23366 23368 23371 23373 23376 23379 23381 23384 23387 23390 23393 23396 23399 23402 23405 23408 23411 23414 23417 23420 23422 23425 23428 23431 23434 23437 23439 23442 23445 23448 23451 23454 23457 23460 23463 23466 23469 23471 23474 23476 23479 23482 23484 23487 23490 23492 23495 23497 23500 23502 23505 23508 23511 23514 23517 23519 23521 23524 23527 23530 23533 23536 23539 23542 23545 23548 23551 23554 23556 23559 23562 23565 23568 23571 23573 23576 23579 23582 23584 23587 23589 23592 23595 23598 23601 23604 23607 23610 23613 23616 23619 23622 23625 23628 23631 23634 23636 23639 23642 23645 23648 23650 23653 23656 23659 23662 23665 23668 23671 23674 23677 23680 23683 23686 23689 23692 23695 23698 23701 23704 23707 23710 23713 23716 23719 23721 23724 23727 23729 23732 23735 23738 23741 23744 23747 23750 23752 23755 23758 23760 23763 23765 23768 23771 23774 23777 23780 23783 23786 23789 23792 23794 23797 23800 23802 23805 23808 23811 23813 23816 23819 23822 23825 23828 23831 23834 23836 23839 23842 23845 23848 23850 23852 23855 23858 23861 23864 23867 23870 23873 23876 23879 23881 23884 23887 23890 23893 23896 23899 23902 23905 23908 23911 23914 23917 23920 23923 23926 23929 23931 23934 23936 23939 23942 23945 23947 23950 23953 23956 23959 23962 23965 23968 23971 23974 23977 23980 23983 23986 23988 23991 23994 23997 24000 24003 24005 24008 24011 24014 24016 24018 24021 24024 24027 24029 24032 24035 24037 24040 24043 24046 24049 24051 24053 24056 24059 24062 24064 24067 24070 24072 24075 24078 24081 24084 24086 24089 24091 24094 24097 24100 24102 24105 24108 24111 24114 24117 24120 24123 24126 24129 24132 24135 24138 24141 24144 24147 24150 24153 24156 24159 24162 24165 24167 24170 24173 24176 24179 24182 24185 24188 24191 24194 24196 24199 24202 24205 24207 24210 24212 24215 24218 24221 24224 24227 24230 24233 24236 24239 24242 24245 24247 24250 24253 24256 24259 24262 24264 24267 24270 24273 24276 24279 24281 24284 24287 24290 24293 24296 24299 24302 24305 24308 24311 24314 24317 24320 24323 24326 24329 24331 24334 24337 24340 24343 24346 24349 24352 24355 24358 24360 24363 24366 24369 24372 24375 24378 24381 24384 24387 24390 24393 24396 24399 24402 24405 24407 24410 24413 24416 24419 24422 24425 24428 24431 24434 24437 24440 24443 24446 24449 24452 24455 24458 24461 24464 24467 24470 24473 24476 24479 24482 24485 24488 24491 24494 24496 24499 24502 24505 24508 24510 24513 24515 24517 24520 24523 24526 24529 24532 24535 24537 24540 24542 24545 24548 24551 24553 24556 24559 24561 24564 24567 24570 24573 24576 24579 24581 24584 24587 24590 24593 24596 24599 24602 24604 24607 24610 24613 24616 24618 24621 24624 24627 24630 24633 24636 24638 24641 24644 24647 24650 24653 24656 24659 24662 24665 24668 24671 24674 24676 24679 24681 24684 24687 24690 24693 24696 24699 24702 24704 24706 24709 24712 24715 24718 24721 24724 24727 24730 24732 24735 24738 24741 24743 24746 24749 24751 24754 24757 24760 24763 24766 24769 24772 24775 24778 24781 24784 24787 24790 24793 24796 24799 24802 24805 24808 24811 24814 24817 24820 24823 24826 24828 24831 24834 24836 24839 24842 24845 24848 24851 24853 24856 24859 24861 24864 24866 24869 24872 24875 24877 24880 24883 24886 24889 24891 24894 24897 24899 24901 24904 24907 24910 24913 24916 24918 24921 24924 24926 24929 24932 24935 24938 24941 24943 24946 24949 24952 24955 24958 24961 24964 24967 24970 24972 24975 24978 24981 24984 24986 24989 24992 24995 24998 25001 25004 25006 25009 25011 25014 25017 25020 25022 25025 25027 25030 25033 25035 25038 25040 25043 25046 25049 25051 25054 25057 25060 25063 25066 25069 25072 25075 25078 25081 25084 25087 25090 25092 25095 25098 25101 25104 25106 25109 25112 25115 25118 25121 25124 25126 25129 25132 25135 25138 25141 25144 25147 25149 25152 25155 25158 25161 25164 25167 25169 25172 25175 25178 25181 25184 25187 25190 25192 25195 25198 25200 25203 25206 25209 25212 25215 25218 25221 25224 25227 25229 25231 25234 25237 25240 25243 25246 25249 25252 25255 25258 25261 25264 25267 25269 25272 25275 25278 25281 25284 25287 25290 25292 25295 25298 25301 25303 25306 25308 25311 25314 25316 25319 25322 25325 25328 25331 25333 25336 25339 25342 25344 25347 25350 25353 25356 25358 25361 25364 25367 25369 25372 25375 25378 25381 25384 25387 25390 25392 25395 25398 25400 25403 25406 25409 25411 25414 25417 25420 25422 25425 25428 25431 25434 25436 25439 25442 25445 25447 25450 25453 25456 25459 25462 25465 25468 25471 25474 25476 25479 25482 25485 25488 25491 25494 25497 25500 25503 25505 25508 25511 25514 25517 25519 25522 25525 25527 25530 25533 25536 25539 25542 25545 25548 25551 25554 25557 25560 25563 25566 25569 25572 25575 25578 25581 25584 25587 25590 25593 25596 25599 25602 25605 25607 25610 25613 25616 25619 25622 25625 25628 25631 25634 25637 25640 25642 25645 25648 25651 25653 25656 25659 25662 25665 25668 25671 25673 25676 25679 25682 25685 25688 25691 25694 25697 25700 25703 25706 25709 25712 25715 25718 25721 25724 25727 25730 25733 25736 25739 25742 25745 25748 25751 25753 25756 25758 25761 25764 25766 25768 25771 25774 25777 25780 25783 25786 25789 25792 25795 25798 25801 25804 25807 25810 25813 25816 25819 25821 25824 25827 25830 25833 25836 25839 25842 25845 25848 25851 25854 25857 25860 25863 25866 25869 25872 25875 25878 25881 25884 25887 25890 25893 25896 25899 25902 25905 25908 25911 25914 25917 25920 25923 25926 25929 25932 25935 25938 25941 25944 25947 25950 25953 25956 25959 25962 25965 25968 25971 25974 25977 25980 25983 25986 25989 25992 25995 25998 26001 26004 26006 26009 26012 26014 26017 26020 26023 26026 26028 26031 26034 26037 26040 26043 26046 26049 26052 26055 26058 26060 26063 26065 26068 26071 26074 26076 26079 26082 26085 26087 26090 26092 26095 26098 26101 26103 26106 26108 26111 26113 26116 26119 26122 26124 26127 26130 26133 26136 26138 26141 26143 26146 26149 26152 26155 26158 26160 26163 26165 26167 26170 26173 26176 26179 26182 26185 26187 26190 26193 26196 26198 26201 26204 26207 26210 26213 26216 26219 26222 26225 26228 26231 26234 26237 26240 26243 26246 26249 26252 26255 26257 26260 26263 26266 26268 26270 26273 26276 26279 26282 26285 26287 26290 26293 26296 26299 26302 26305 26308 26311 26314 26317 26320 26323 26326 26329 26331 26334 26337 26339 26342 26344 26347 26350 26353 26355 26358 26360 26363 26366 26368 26371 26374 26377 26380 26383 26386 26389 26392 26395 26398 26401 26403 26406 26409 26412 26415 26418 26421 26424 26427 26430 26433 26435 26437 26440 26443 26446 26449 26452 26455 26458 26460 26463 26466 26469 26472 26475 26478 26481 26484 26487 26490 26493 26496 26499 26502 26504 26507 26510 26513 26516 26519 26522 26525 26528 26531 26534 26536 26539 26542 26545 26547 26550 26552 26554 26557 26560 26563 26566 26569 26572 26575 26578 26580 26583 26586 26589 26592 26595 26598 26601 26604 26607 26609 26612 26614 26617 26619 26622 26625 26628 26631 26634 26637 26640 26643 26645 26648 26650 26653 26656 26659 26662 26665 26668 26670 26673 26676 26678 26681 26683 26686 26689 26692 26695 26698 26701 26704 26707 26710 26713 26716 26719 26722 26725 26727 26730 26733 26736 26739 26742 26745 26748 26751 26754 26757 26759 26762 26765 26768 26771 26774 26777 26779 26782 26785 26788 26791 26794 26797 26800 26803 26806 26809 26812 26815 26818 26821 26824 26827 26830 26833 26836 26839 26842 26845 26848 26851 26854 26856 26859 26862 26865 26868 26871 26873 26876 26879 26882 26885 26888 26891 26894 26897 26900 26903 26906 26908 26911 26914 26917 26920 26922 26925 26928 26931 26934 26937 26939 26942 26945 26948 26951 26954 26956 26959 26962 26964 26967 26970 26973 26976 26979 26982 26985 26988 26991 26994 26997 27000 27003 27006 27009 27012 27015 27018 27021 27024 27027 27030 27033 27036 27039 27042 27044 27047 27050 27052 27055 27058 27061 27064 27067 27070 27073 27076 27079 27082 27085 27088 27091 27094 27097 27099 27102 27105 27108 27111 27114 27117 27120 27123 27126 27128 27131 27134 27137 27140 27143 27146 27149 27151 27154 27157 27160 27163 27166 27168 27171 27174 27177 27180 27183 27186 27188 27191 27194 27197 27200 27202 27205 27208 27211 27214 27217 27220 27223 27225 27228 27231 27233 27236 27239 27241 27244 27247 27250 27253 27255 27258 27261 27264 27267 27270 27273 27276 27279 27281 27284 27287 27289 27292 27295 27298 27301 27304 27307 27310 27313 27316 27318 27321 27324 27327 27330 27333 27335 27338 27341 27344 27347 27349 27352 27355 27358 27360 27363 27366 27369 27372 27375 27378 27381 27384 27387 27390 27393 27395 27397 27400 27403 27406 27409 27412 27415 27418 27421 27424 27427 27430 27432 27435 27438 27441 27444 27447 27449 27452 27454 27456 27459 27461 27463 27466 27469 27471 27474 27477 27480 27483 27486 27489 27491 27494 27496 27498 27501 27504 27507 27510 27513 27515 27518 27521 27524 27527 27530 27533 27536 27539 27541 27544 27547 27550 27553 27555 27558 27561 27564 27567 27570 27572 27575 27578 27580 27583 27586 27589 27592 27595 27598 27601 27603 27606 27608 27611 27614 27617 27620 27623 27626 27629 27631 27633 27636 27639 27642 27645 27648 27651 27654 27656 27659 27662 27665 27668 27671 27674 27676 27679 27682 27685 27688 27691 27694 27697 27700 27703 27706 27709 27712 27715 27718 27720 27723 27726 27728 27731 27734 27737 27740 27742 27745 27748 27751 27754 27756 27759 27762 27765 27768 27771 27774 27776 27779 27782 27785 27788 27791 27794 27797 27799 27802 27805 27808 27810 27813 27816 27819 27822 27824 27827 27830 27832 27835 27838 27841 27844 27847 27850 27853 27855 27858 27861 27864 27867 27869 27872 27874 27877 27880 27883 27886 27889 27892 27895 27898 27901 27904 27907 27910 27913 27916 27918 27921 27924 27927 27930 27933 27936 27939 27941 27944 27947 27949 27952 27955 27957 27960 27963 27966 27969 27972 27975 27978 27981 27984 27986 27989 27992 27995 27997 28000 28003 28006 28009 28012 28015 28018 28021 28024 28026 28029 28032 28035 28038 28041 28044 28047 28050 28053 28056 28059 28061 28064 28067 28070 28072 28075 28078 28081 28084 28087 28090 28093 28096 28099 28102 28105 28107 28110 28113 28116 28119 28122 28125 28128 28131 28134 28137 28139 28142 28145 28148 28151 28154 28156 28159 28162 28165 28168 28171 28174 28177 28180 28182 28185 28188 28190 28193 28196 28198 28201 28204 28207 28210 28212 28214 28217 28220 28223 28226 28228 28231 28234 28237 28240 28242 28245 28248 28250 28253 28256 28259 28262 28264 28267 28270 28272 28275 28278 28281 28284 28287 28289 28292 28295 28298 28301 28304 28307 28310 28313 28315 28318 28320 28323 28326 28329 28332 28335 28338 28341 28344 28347 28349 28351 28354 28357 28360 28363 28366 28369 28371 28374 28377 28379 28382 28385 28387 28390 28392 28395 28398 28401 28403 28406 28409 28411 28414 28417 28420 28423 28426 28429 28432 28435 28437 28439 28442 28445 28447 28449 28452 28455 28458 28461 28463 28466 28469 28472 28474 28477 28479 28482 28484 28486 28488 28491 28493 28496 28499 28502 28504 28507 28510 28513 28516 28519 28522 28525 28528 28531 28533 28536 28539 28541 28544 28547 28550 28553 28556 28559 28561 28564 28567 28570 28573 28576 28579 28581 28583 28585 28588 28591 28594 28597 28600 28603 28606 28609 28612 28615 28618 28620 28623 28626 28629 28632 28634 28637 28640 28643 28646 28649 28652 28655 28658 28660 28663 28666 28668 28671 28674 28677 28679 28682 28685 28688 28691 28694 28697 28700 28703 28706 28708 28711 28714 28717 28720 28723 28726 28729 28732 28734 28737 28740 28743 28745 28748 28751 28753 28756 28759 28762 28764 28767 28769 28772 28775 28777 28780 28782 28785 28788 28790 28793 28796 28799 28802 28805 28808 28810 28813 28816 28818 28821 28824 28827 28830 28833 28836 28839 28842 28845 28848 28851 28854 28857 28860 28863 28866 28869 28872 28875 28878 28881 28884 28887 28890 28893 28896 28899 28902 28905 28908 28911 28914 28917 28920 28923 28926 28929 28932 28935 28938 28941 28944 28947 28950 28953 28956 28959 28962 28965 28968 28971 28974 28977 28980 28983 28986 28989 28992 28995 28998 29001 29004 29007 29010 29013 29016 29019 29022 29025 29028 29031 29034 29037 29040 29043 29046 29049 29052 29055 29058 29061 29064 29067 29070 29073 29076 29079 29082 29085 29088 29091 29094 29097 29100 29103 29106 29108 29111 29114 29117 29120 29122 29125 29128 29131 29134 29137 29140 29143 29146 29149 29152 29155 29158 29160 29162 29165 29168 29171 29174 29177 29180 29183 29186 29189 29192 29195 29198 29201 29204 29207 29209 29212 29215 29218 29220 29223 29226 29229 29232 29235 29238 29241 29244 29247 29250 29252 29255 29257 29260 29263 29266 29269 29272 29275 29278 29281 29284 29287 29290 29293 29296 29299 29302 29305 29308 29311 29314 29317 29320 29323 29326 29329 29331 29334 29337 29340 29343 29345 29348 29351 29354 29357 29360 29363 29366 29369 29371 29374 29377 29380 29383 29386 29389 29392 29395 29398 29401 29404 29407 29410 29413 29416 29419 29422 29425 29428 29431 29434 29437 29440 29443 29446 29449 29452 29455 29458 29461 29464 29467 29470 29473 29476 29479 29482 29485 29488 29491 29494 29497 29500 29503 29506 29509 29512 29515 29518 29520 29523 29526 29529 29532 29535 29538 29541 29544 29547 29550 29553 29556 29559 29562 29565 29568 29571 29574 29577 29580 29583 29586 29589 29592 29595 29598 29601 29604 29607 29610 29613 29616 29618 29621 29624 29627 29630 29633 29636 29638 29641 29644 29647 29650 29653 29656 29658 29661 29664 29666 29669 29671 29674 29676 29679 29682 29685 29688 29690 29693 29696 29699 29702 29705 29707 29710 29713 29716 29718 29720 29723 29726 29729 29731 29734 29737 29740 29743 29745 29747 29750 29753 29756 29759 29762 29765 29768 29771 29774 29777 29780 29783 29786 29789 29791 29794 29797 29799 29802 29805 29807 29809 29812 29815 29818 29821 29824 29827 29830 29833 29836 29839 29841 29844 29846 29849 29852 29855 29858 29861 29864 29867 29870 29873 29876 29879 29881 29884 29887 29890 29893 29896 29899 29902 29904 29907 29910 29913 29916 29919 29922 29925 29928 29931 29934 29937 29940 29943 29946 29949 29952 29955 29958 29960 29962 29965 29968 29971 29974 29977 29980 29983 29986 29989 29992 29995 29998 30001 30004 30007 30010 30013 30015 30018 30021 30024 30027 30030 30033 30036 30039 30042 30044 30047 30050 30053 30056 30059 30062 30065 30068 30071 30074 30077 30080 30082 30085 30088 30091 30094 30096 30099 30101 30104 30107 30110 30113 30116 30119 30122 30125 30128 30130 30133 30136 30139 30142 30144 30147 30150 30153 30156 30158 30161 30163 30166 30169 30172 30175 30178 30181 30184 30187 30190 30193 30196 30199 30201 30204 30207 30210 30213 30216 30219 30222 30225 30228 30231 30234 30237 30240 30243 30246 30248 30251 30253 30256 30259 30261 30264 30267 30270 30272 30275 30277 30280 30283 30285 30288 30291 30293 30296 30298 30301 30304 30307 30310 30313 30316 30319 30321 30323 30326 30329 30332 30335 30337 30339 30342 30345 30347 30349 30352 30354 30357 30360 30362 30364 30367 30370 30372 30375 30378 30380 30383 30386 30389 30392 30395 30398 30401 30404 30406 30409 30412 30414 30417 30419 30422 30425 30428 30430 30433 30436 30439 30442 30445 30448 30451 30454 30456 30459 30462 30465 30468 30471 30474 30477 30480 30483 30486 30489 30492 30495 30498 30501 30504 30507 30510 30513 30516 30519 30522 30524 30527 30530 30533 30536 30539 30542 30545 30548 30551 30554 30557 30560 30563 30566 30569 30572 30575 30578 
</DataArray>
<DataArray type="UInt32" Name="types" format="ascii">
5 5 5 5 5 5 3 5 5 5 3 5 5 5 3 5 5 5 5 5 5 3 3 5 5 5 5 3 3 5 3 3 5 3 5 5 5 3 5 5 3 5 5 5 5 5 5 5 3 5 5 5 5 5 5 5 5 3 5 5 3 5 3 5 3 5 3 5 5 5 5 5 5 5 5 5 5 5 5 5 5 5 5 3 5 5 5 5 5 5 5 5 3 5 5 3 3 5 5 5 5 5 5 5 5 5 5 5 5 3 5 5 5 5 5 3 5 5 3 5 5 5 5 5 5 5 5 5 5 5 5 5 5 5 5 5 5 5 3 5 5 5 5 5 3 5 5 5 5 5 5 5 5 5 5 5 5 5 5 5 5 5 5 5 5 5 5 5 5 3 5 3 5 5 5 3 5 5 5 3 5 5 5 3 3 5 5 3 5 5 5 5 3 5 5 5 5 5 3 5 5 5 5 3 5 3 5 5 3 5 5 5 3 5 5 3 5 5 5 5 5 5 5 5 5 5 3 5 5 3 5 5 5 5 5 5 5 3 5 5 5 5 5 5 5 5 5 5 5 5 5 5 5 5 5 5 5 5 5 3 5 3 5 5 5 5 5 3 5 5 5 5 5 5 5 5 3 5 5 5 3 5 5 3 5 5 5 5 3 5 5 3 5 5 5 5 5 3 5 3 5 5 5 5 5 5 5 5 5 5 5 5 5 5 5 5 5 5 3 5 5 5 5 5 3 3 5 5 5 5 5 5 5 5 5 5 3 5 5 5 5 5 5 5 5 5 3 5 5 3 3 5 5 5 3 5 5 3 5 5 5 5 5 5 5 5 5 5 5 5 5 5 5 3 5 5 5 5 5 5 5 5 3 5 5 3 5 5 5 5 3 5 5 5 5 5 5 5 5 5 5 5 5 5 5 3 3 5 5 3 3 5 3 5 3 5 3 5 5 3 5 5 5 5 5 5 5 5 5 3 3 5 5 3 5 5 5 5 5 3 5 5 3 5 5 5 5 3 5 5 5 3 5 5 5 3 5 3 5 5 3 5 5 5 5 5 5 5 5 5 5 5 3 5 5 5 5 5 5 3 5 5 5 3 5 5 5 5 5 5 5 3 5 5 5 5 5 3 5 3 5 5 5 5 5 3 3 5 5 5 3 3 5 3 5 5 5 5 5 5 5 3 5 5 5 5 5 5 5 5 5 5 5 5 5 5 3 5 5 3 5 3 5 5 5 5 5 5 5 5 5 5 5 5 5 5 3 5 5 5 5 5 5 5 5 5 5 5 5 5 5 5 5 3 5 5 5 5 5 5 5 5 5 5 5 3 3 5 5 5 5 5 5 5 5 5 5 5 5 5 5 5 5 3 5 5 5 5 5 5 5 3 5 5 5 5 5 5 5 5 3 5 5 5 3 5 5 5 5 5 5 5 5 5 5 5 5 5 5 5 5 5 5 5 5 5 5 5 5 5 5 5 5 3 5 3 5 5 5 5 5 5 5 5 5 5 5 5 5 3 5 5 5 3 5 5 5 5 5 5 5 5 5 5 5 5 5 3 3 5 5 5 5 5 5 5 3 5 5 5 5 5 5 5 5 5 5 5 3 5 5 5 5 5 5 5 3 5 5 5 5 5 5 5 5 5 5 5 5 5 5 5 5 5 3 5 5 5 5 5 5 5 5 5 5 3 5 5 5 5 5 3 5 5 5 3 5 5 5 5 3 5 5 5 5 5 5 5 3 5 3 5 5 3 5 3 5 5 5 5 5 5 5 5 5 5 5 5 5 5 5 5 5 5 5 5 5 5 5 5 5 5 5 5 5 5 5 5 5 5 5 3 5 3 3 5 5 5 5 5 5 5 5 5 5 5 3 5 5 5 5 5 5 5 3 5 3 5 3 5 5 5 5 5 5 3 5 3 3 5 5 5 5 5 5 5 5 5 5 5 5 5 5 5 5 5 3 5 5 5 5 5 5 5 5 5 5 5 5 5 5 3 5 5 5 5 5 5 5 5 5 5 5 5 5 3 5 5 5 5 5 5 5 5 5 3 5 5 5 5 5 3 3 5 5 5 5 3 3 5 5 5 5 5 5 5 5 5 5 5 3 5 5 5 5 3 5 5 5 5 5 5 3 5 5 3 5 3 5 5 5 3 5 5 5 5 5 5 5 3 5 5 5 5 3 3 5 5 3 5 5 5 3 3 3 3 5 5 3 5 5 5 5 5 5 5 5 3 3 5 5 5 5 5 5 3 5 3 5 5 5 3 5 5 5 5 5 5 5 5 5 5 5 5 5 5 5 5 5 5 5 5 5 5 5 5 5 5 5 5 3 5 5 5 5 5 5 5 5 5 5 5 5 5 5 5 5 5 5 5 5 5 3 5 5 5 5 5 5 5 5 5 3 5 5 5 5 5 5 3 5 5 5 5 5 3 5 5 5 5 5 3 5 5 5 5 5 5 5 5 5 5 3 5 5 5 5 3 3 5 5 3 5 5 5 5 3 5 5 3 5 5 5 5 5 3 3 5 5 5 5 5 5 3 5 5 5 5 5 5 5 3 3 5 5 5 3 5 5 5 3 5 5 3 5 3 5 5 5 3 5 5 3 3 5 5 5 5 5 5 3 5 3 5 3 5 5 5 3 3 5 3 5 5 5 5 5 5 5 5 5 5 5 5 5 5 5 5 3 5 5 5 5 5 5 5 3 5 5 5 5 5 3 5 5 5 3 5 5 5 5 3 5 3 5 3 5 5 5 5 3 5 5 3 5 5 5 5 5 5 5 5 5 5 5 3 5 5 5 5 3 5 5 5 5 3 5 5 5 5 5 5 3 5 5 5 3 5 3 3 5 5 5 5 5 5 5 5 5 5 5 5 5 5 5 5 5 5 5 5 5 5 5 5 5 5 5 5 3 5 5 3 3 5 3 5 5 5 5 3 5 5 3 5 5 5 5 5 5 5 5 5 5 5 5 5 5 5 5 5 5 5 5 5 5 5 5 5 5 5 5 3 5 5 5 5 5 5 5 5 3 5 5 5 5 5 5 5 3 5 3 5 5 5 3 5 5 5 5 5 5 5 3 5 3 5 5 5 5 5 3 5 5 5 5 5 5 5 5 5 5 5 5 5 5 5 5 5 5 5 5 5 5 5 5 5 5 5 5 5 5 5 5 5 5 5 5 5 5 5 3 3 5 5 3 5 5 5 3 5 5 5 3 3 5 5 3 5 5 5 5 5 5 5 5 5 5 5 5 5 5 5 5 5 5 5 5 5 3 5 3 5 5 5 5 5 5 5 5 5 5 5 5 5 5 5 5 5 5 5 5 5 5 5 5 5 5 5 5 5 5 5 5 5 5 5 5 5 5 5 5 5 5 5 5 5 3 5 3 5 3 5 5 3 5 5 5 5 5 5 5 5 5 5 5 5 5 5 5 5 5 5 5 5 5 5 5 5 5 5 5 3 5 5 5 5 5 5 5 5 5 5 5 5 5 5 5 5 5 5 5 5 5 5 5 5 5 5 5 5 5 5 5 5 5 5 5 5 5 5 5 5 5 5 5 5 5 5 5 5 5 3 5 5 5 5 3 5 5 5 5 5 5 5 5 3 5 5 5 5 5 3 3 3 5 5 5 5 3 3 5 5 3 5 5 5 5 5 5 5 5 5 5 5 5 5 5 3 3 5 3 5 5 5 5 5 5 5 5 5 5 5 5 5 5 5 5 5 5 3 5 5 5 5 5 5 3 5 5 5 5 5 5 5 5 5 5 5 5 5 5 5 5 5 5 3 5 5 5 5 5 5 5 5 5 3 5 5 3 5 5 5 5 5 5 5 5 5 5 5 5 5 5 5 5 3 5 3 5 5 5 5 3 5 3 5 5 3 3 5 5 3 5 5 5 3 5 5 5 5 5 5 3 5 5 5 3 5 5 5 5 3 5 5 5 5 5 5 5 3 5 5 5 5 5 3 5 5 3 5 5 5 5 5 5 5 3 5 5 5 3 3 5 5 5 3 5 5 5 5 5 3 3 3 5 5 5 5 5 5 5 5 5 3 3 5 3 5 5 5 5 5 3 5 5 3 5 3 5 5 5 3 5 5 3 5 5 5 5 5 5 5 3 5 5 3 3 5 5 3 5 3 5 5 3 5 5 3 5 3 5 5 5 3 5 5 3 5 3 5 5 3 5 3 5 5 5 5 3 3 5 5 5 5 5 5 5 5 5 3 5 5 5 5 5 5 5 5 5 5 5 5 5 5 5 5 5 5 3 3 5 5 5 3 5 5 5 5 3 5 5 3 5 5 5 3 5 5 3 5 5 5 5 3 5 5 5 5 5 3 5 5 5 3 3 5 5 3 5 5 5 5 5 3 3 5 5 5 5 3 5 5 5 5 3 5 5 5 5 5 5 5 5 5 5 5 5 5 5 5 5 5 5 5 5 5 5 5 5 5 5 5 5 3 5 5 5 5 5 5 5 5 5 5 5 3 5 5 5 5 3 5 5 5 3 5 5 3 5 5 5 5 5 3 5 5 5 5 5 5 5 5 5 5 5 5 5 5 5 5 5 5 5 5 3 5 5 5 5 5 3 5 5 5 5 5 5 5 3 5 5 5 5 5 5 5 5 5 5 5 5 5 3 5 5 5 5 5 3 3 5 5 5 5 3 5 3 5 5 5 3 3 5 5 3 5 5 5 3 5 5 5 5 3 5 5 3 3 5 5 5 5 5 5 3 5 5 3 5 5 5 5 3 5 5 5 5 5 5 5 5 5 5 5 5 5 5 5 5 5 5 5 3 5 3 5 5 5 3 5 3 5 3 5 5 3 5 5 3 3 3 5 5 5 3 5 5 5 5 5 5 3 5 5 5 5 5 5 5 3 5 3 5 5 5 5 5 5 5 3 5 5 5 5 5 5 5 5 5 5 5 3 5 5 3 5 5 5 5 5 5 5 5 5 5 5 5 5 5 5 5 3 5 5 5 5 5 5 5 5 5 5 5 5 5 5 5 5 5 5 5 5 5 3 5 5 5 3 5 5 5 5 5 5 5 5 5 5 3 5 5 5 5 5 5 5 5 5 5 3 5 5 5 5 5 5 3 5 5 5 3 5 5 5 5 5 5 5 5 5 5 5 5 5 5 5 5 5 5 5 5 5 3 5 5 5 5 5 3 5 5 3 5 5 5 5 5 5 3 5 5 5 5 3 5 5 5 5 5 5 5 5 5 5 5 5 5 5 5 5 5 5 3 5 5 5 5 5 3 5 5 5 3 5 3 5 5 5 5 5 5 5 3 5 5 5 3 3 5 5 5 5 5 3 5 5 5 3 5 5 5 5 5 5 5 5 5 5 5 5 5 5 5 3 5 5 5 5 5 5 3 5 5 5 5 5 5 5 5 5 5 5 3 5 5 5 5 5 5 5 5 5 3 5 5 5 5 3 3 5 5 5 5 5 5 5 5 3 3 5 3 5 5 5 5 5 3 5 5 5 5 5 5 3 5 3 5 5 5 5 5 5 5 5 5 5 3 5 5 5 5 5 5 3 5 5 5 5 5 5 5 5 3 5 5 5 5 5 3 5 5 3 5 5 5 5 5 5 3 5 5 5 5 5 5 5 5 3 5 5 5 5 3 5 5 5 5 5 5 5 5 5 5 3 5 5 5 5 5 5 5 5 5 3 5 5 5 5 3 5 5 5 5 5 5 5 5 3 5 3 5 5 5 3 5 5 5 5 5 5 5 5 3 5 5 5 3 5 5 5 3 5 5 3 5 5 5 5 5 5 5 5 5 5 5 5 5 5 5 5 5 5 5 5 5 5 5 5 5 5 5 5 5 5 5 5 5 5 5 5 5 5 5 5 5 5 5 5 5 5 5 5 5 5 5 5 5 3 5 5 5 3 5 5 5 5 5 5 3 5 3 5 5 5 5 3 3 5 5 5 5 5 5 5 5 5 5 5 5 5 5 5 5 5 5 5 5 5 5 3 5 5 3 5 5 5 3 5 5 5 5 5 5 5 5 5 5 5 5 5 5 3 5 3 5 3 5 5 5 5 5 5 5 5 5 5 5 5 5 5 5 5 5 3 5 5 5 5 5 5 5 5 5 5 5 5 5 5 5 5 5 5 5 5 5 5 5 5 5 5 5 5 5 5 5 5 5 3 5 5 5 5 5 5 3 5 5 3 5 3 5 5 3 5 5 5 3 5 5 5 5 5 5 5 5 5 5 5 5 5 5 5 5 5 5 5 5 5 5 5 5 5 3 5 5 5 5 3 5 5 3 5 5 5 5 5 5 5 5 5 5 5 5 5 5 5 5 5 5 5 5 5 5 5 5 5 5 5 5 5 5 3 5 5 5 3 5 5 5 5 3 5 5 5 5 5 3 5 5 5 5 3 5 5 5 5 5 5 5 5 5 5 5 5 5 5 3 3 5 3 5 3 5 5 5 5 5 5 5 5 5 5 5 5 5 5 5 5 5 5 5 5 5 5 5 5 5 3 3 5 5 3 5 5 3 5 5 5 5 5 5 5 5 5 5 5 3 5 5 3 5 5 5 5 5 5 5 5 5 5 5 5 5 5 3 3 5 3 3 5 5 5 5 3 5 5 5 3 3 5 5 5 5 5 5 5 3 5 5 5 5 5 5 5 5 5 5 5 5 5 5 5 5 3 5 5 5 5 3 5 5 5 5 5 5 5 3 5 5 5 5 5 5 5 3 5 5 3 5 5 5 5 5 5 5 5 5 5 5 5 5 5 5 3 5 5 5 5 5 5 5 5 3 5 5 5 5 5 5 5 3 5 5 5 5 5 3 5 5 5 5 3 5 5 5 5 5 5 5 5 5 5 5 5 3 5 5 5 5 5 5 5 5 5 5 5 5 5 5 3 5 5 5 5 5 5 5 5 5 5 5 5 5 3 3 5 5 3 5 5 5 5 3 5 5 5 3 5 5 3 5 5 5 5 3 5 5 5 5 5 5 5 5 5 5 5 5 5 5 5 5 5 5 5 5 5 5 5 5 5 5 5 5 5 5 5 5 5 5 3 5 5 5 3 5 3 5 5 5 5 5 5 5 5 5 5 5 5 5 5 3 5 5 5 5 5 5 5 5 3 5 5 5 3 5 5 5 5 5 5 5 3 5 3 5 5 5 5 5 5 5 5 5 5 5 5 5 5 3 5 5 3 5 5 5 5 5 5 5 3 5 5 5 5 5 5 5 5 5 5 5 5 5 5 5 5 5 5 5 5 5 5 5 5 5 5 5 3 5 5 3 5 5 5 3 5 5 3 5 5 5 5 5 5 5 5 5 5 5 5 5 5 5 5 5 5 5 3 5 5 5 5 5 5 5 5 5 5 5 5 5 3 5 5 5 5 5 5 5 5 5 5 5 5 5 5 5 5 5 5 5 3 5 5 5 5 5 5 5 5 5 5 5 5 5 5 5 5 3 5 5 3 5 5 5 3 5 5 3 5 5 5 5 5 5 5 5 5 5 5 5 5 5 3 5 5 3 5 5 5 5 5 5 5 5 5 5 5 5 5 5 5 5 5 5 5 5 5 5 5 5 5 5 5 5 5 5 5 5 5 5 5 5 3 5 5 5 5 3 5 5 5 5 5 5 5 5 5 5 5 5 5 5 5 3 5 3 3 5 5 3 5 3 5 5 5 5 5 5 5 5 3 5 5 3 5 5 5 5 3 3 5 3 5 5 5 5 5 5 5 5 5 5 5 5 5 5 5 5 5 5 5 5 5 3 5 5 5 5 5 5 5 5 5 5 5 5 5 5 5 5 5 5 5 5 5 5 5 5 5 3 5 5 5 5 5 3 5 5 5 5 5 5 5 5 5 3 5 5 5 5 5 5 5 5 5 5 5 5 5 5 5 5 5 3 3 5 5 3 5 5 5 3 5 5 5 5 5 5 5 5 5 5 3 5 5 3 5 3 5 5 5 5 3 5 5 5 3 5 5 5 5 5 5 3 5 5 5 5 5 5 3 5 5 5 5 5 5 5 5 5 5 5 5 5 5 3 5 5 3 5 5 5 3 3 5 5 5 5 5 5 5 5 5 5 3 5 5 5 3 5 5 5 5 3 5 5 5 5 5 5 5 5 3 5 5 5 5 5 3 3 5 5 5 3 5 3 3 5 5 5 5 5 3 5 5 5 5 5 5 3 5 5 5 5 5 5 5 3 5 5 3 5 5 3 5 5 5 5 5 5 5 5 5 5 5 5 5 5 3 5 5 5 3 5 5 3 5 5 5 5 3 5 5 5 5 5 5 5 5 3 5 5 5 5 3 5 5 5 5 5 5 5 5 3 5 5 5 5 5 5 5 5 5 3 5 5 5 3 5 5 3 5 5 3 5 5 5 5 5 5 5 5 5 3 5 5 5 5 5 5 5 5 5 5 5 5 5 5 5 5 3 5 5 5 5 5 5 5 5 5 5 5 5 5 5 5 5 5 5 5 5 5 5 5 5 5 5 3 5 3 5 5 5 5 5 5 5 5 5 5 3 5 5 3 5 5 5 5 5 5 5 5 5 5 5 5 5 5 5 5 5 5 5 5 5 3 5 5 5 5 5 5 5 5 5 3 5 3 5 5 5 5 5 5 5 3 5 3 5 5 5 5 5 5 5 5 5 5 5 3 5 5 5 5 3 5 3 5 5 5 5 5 5 3 5 5 3 5 5 3 5 5 5 3 3 3 5 5 5 5 5 5 5 5 5 5 5 5 5 3 5 5 5 5 5 5 5 3 5 3 5 3 5 5 3 3 5 5 5 5 5 5 3 5 5 5 5 3 5 3 5 3 5 3 5 5 5 5 3 5 5 5 5 5 3 5 5 5 5 5 5 5 5 5 5 5 5 5 5 3 5 5 5 5 5 3 5 5 5 3 5 5 5 5 5 5 5 5 5 5 5 5 5 5 5 5 5 3 5 5 5 5 3 5 5 5 5 5 5 3 5 5 5 5 5 5 5 5 5 5 3 5 5 3 5 3 5 5 5 5 5 5 5 5 5 5 5 3 5 5 5 5 5 5 3 5 3 3 5 3 5 5 5 5 5 5 5 3 5 5 5 5 5 5 5 5 5 5 5 5 5 5 5 5 3 5 5 5 5 5 5 5 5 5 5 3 5 5 5 5 5 5 5 5 5 5 3 5 5 5 5 3 5 5 5 5 5 3 5 5 5 5 3 5 5 5 5 5 5 5 5 5 5 5 5 5 5 5 5 5 5 3 5 5 5 5 5 5 5 5 3 5 3 3 5 5 5 5 5 3 5 5 5 5 5 5 5 5 5 5 5 5 5 5 3 5 5 3 5 3 3 5 5 5 5 5 5 3 5 5 5 5 3 5 3 5 5 3 5 5 5 5 5 5 3 3 5 5 5 5 5 5 5 5 5 5 5 5 5 5 5 3 5 5 5 5 5 5 5 3 5 3 5 5 5 3 5 3 5 5 5 5 5 5 5 5 3 5 5 5 5 5 3 5 3 5 5 5 5 3 5 5 5 5 5 3 5 5 5 5 5 5 5 5 5 5 5 5 5 5 5 5 5 5 5 5 5 5 5 5 3 5 5 5 3 5 3 5 5 5 3 5 5 5 5 5 5 5 5 5 5 5 5 5 5 5 5 5 3 3 3 3 5 5 5 5 5 5 3 5 5 5 3 5 5 5 5 5 5 5 5 5 5 3 3 3 5 5 3 3 5 5 5 5 5 5 5 5 5 3 5 5 5 5 5 5 5 5 3 3 5 5 5 3 5 5 5 5 5 5 5 5 5 5 5 3 5 3 5 5 5 5 5 3 3 5 5 3 3 5 5 5 5 5 5 5 5 5 5 5 5 5 5 5 5 5 5 5 5 5 5 5 5 5 5 5 5 5 5 5 5 5 5 5 5 5 5 5 5 5 5 3 3 5 5 5 5 5 5 5 5 5 5 5 5 5 5 5 5 5 5 5 5 3 5 5 5 5 5 5 5 5 5 5 5 5 5 5 5 5 3 5 3 5 5 5 5 5 5 5 5 3 5 5 5 5 5 5 5 5 5 5 5 3 5 5 3 5 5 3 5 5 5 5 3 5 5 5 5 3 5 5 3 5 3 5 5 5 5 5 3 5 5 5 5 5 5 5 3 5 5 5 5 5 5 5 5 5 5 5 5 5 5 5 5 5 5 5 5 5 5 5 5 3 5 5 5 3 5 5 3 5 5 5 3 5 5 5 5 3 5 3 5 5 5 5 5 5 5 5 3 5 5 5 5 5 5 5 5 5 5 3 5 5 3 5 5 3 5 5 3 3 5 5 5 5 5 5 5 3 3 5 5 5 3 5 5 3 3 5 5 5 3 3 5 3 5 5 3 5 5 5 5 3 5 3 3 5 5 5 3 5 3 3 5 3 3 3 3 5 3 5 3 5 3 5 5 5 3 5 5 3 5 3 3 5 5 5 5 3 5 3 3 5 5 5 3 3 5 5 3 3 5 5 5 5 3 5 5 5 5 3 5 5 5 5 3 5 3 5 3 5 3 5 3 5 3 5 5 5 5 5 3 5 5 3 3 3 5 5 3 3 5 3 5 5 3 5 5 5 5 5 5 3 5 5 3 5 3 5 5 5 5 3 5 3 5 3 5 5 5 3 5 5 3 5 3 5 3 5 5 5 5 5 3 5 5 5 5 5 5 5 5 5 5 3 5 5 5 5 3 5 5 3 5 5 5 5 5 3 5 5 3 5 5 5 3 5 3 5 5 5 3 5 5 5 5 3 5 5 5 5 3 3 5 5 5 5 5 5 3 5 5 3 5 5 5 5 5 5 5 5 5 5 5 5 5 5 5 5 5 5 5 5 5 5 5 5 5 5 5 5 5 5 5 5 5 5 5 5 5 5 5 5 5 5 5 5 5 5 5 5 5 5 5 5 5 5 5 5 5 5 3 5 5 5 5 5 5 5 5 5 5 5 5 3 5 5 3 5 5 5 3 5 5 5 5 5 5 5 5 5 5 5 5 5 5 5 3 5 5 5 5 5 5 5 5 5 5 5 5 5 5 5 5 3 5 5 5 5 5 5 5 5 5 5 5 5 5 3 5 5 3 5 5 3 5 3 5 5 5 5 5 5 5 3 5 5 5 5 5 5 5 5 5 5 5 5 3 5 5 5 3 5 5 5 5 5 5 5 5 5 3 5 5 5 5 5 5 3 5 5 5 5 5 5 3 5 5 5 3 5 5 5 5 5 5 5 3 5 5 5 5 5 5 5 5 5 5 3 5 5 5 5 5 5 5 5 5 5 5 5 5 5 5 5 3 5 3 5 5 5 5 5 5 5 5 5 5 3 5 3 5 5 5 5 5 5 5 5 5 5 5 3 5 5 5 5 5 5 5 5 5 5 5 3 5 5 5 5 5 5 5 3 5 5 5 5 5 5 5 3 5 5 5 5 5 5 5 5 5 5 5 3 5 5 5 5 5 5 5 5 3 5 3 5 5 5 5 5 5 5 5 5 5 3 5 5 5 3 5 5 5 5 5 5 5 5 5 3 5 5 5 5 5 5 5 5 5 5 5 5 5 5 5 5 3 5 5 5 5 5 5 5 5 5 5 5 5 5 5 5 5 5 5 3 5 5 3 5 5 3 5 5 5 5 5 3 5 5 5 5 5 5 5 5 5 5 5 5 5 5 5 5 5 5 5 5 5 5 5 5 5 5 5 5 5 5 5 5 5 5 5 5 5 5 5 5 5 5 5 5 5 5 5 5 5 5 5 5 5 5 5 5 5 5 5 3 5 5 3 5 5 5 5 5 5 5 5 5 5 5 5 5 5 5 5 5 5 5 5 5 5 5 5 3 3 5 5 5 5 5 5 5 5 5 5 5 5 5 5 5 5 3 3 5 5 5 5 5 5 5 3 5 3 5 5 3 3 5 5 5 5 5 5 5 5 5 5 5 3 5 3 5 5 5 3 5 5 5 3 5 3 5 5 5 5 5 3 3 5 5 5 5 5 5 5 5 5 5 5 5 5 5 5 5 5 5 5 5 5 5 5 5 5 5 5 5 5 5 5 5 5 5 5 5 5 5 5 5 5 5 5 5 5 5 5 5 5 5 5 5 5 5 5 5 5 5 5 5 5 5 5 5 5 5 5 5 5 5 5 5 5 5 5 5 5 5 5 5 5 5 5 5 5 5 5 5 5 5 5 5 5 5 5 5 5 5 5 5 5 5 5 5 3 3 5 3 5 3 5 5 3 5 5 5 5 3 5 5 5 5 5 5 5 3 3 3 5 5 5 5 5 3 3 5 5 5 5 5 5 5 5 5 5 5 5 5 5 5 5 5 5 5 5 5 5 5 5 5 5 5 5 5 5 5 5 5 5 3 5 5 3 5 5 5 5 5 5 5 5 5 5 5 3 5 5 5 5 5 5 5 3 5 5 5 5 5 5 5 5 5 5 5 5 5 5 5 5 3 5 5 3 5 5 5 5 5 5 5 5 5 5 5 5 5 5 5 5 5 5 5 5 5 5 5 3 5 5 3 5 5 3 5 5 5 5 5 5 5 3 5 5 5 5 5 5 3 5 5 3 5 5 5 5 3 5 3 5 5 3 5 5 5 5 3 5 3 5 5 3 5 5 5 5 5 5 5 5 5 5 5 5 3 5 5 5 3 5 5 3 5 5 5 5 3 5 5 5 5 5 5 5 5 5 5 3 5 5 5 5 5 5 5 5 5 5 3 5 5 5 5 5 5 5 5 5 5 5 5 3 5 5 3 5 5 5 5 5 5 5 5 5 5 3 5 5 5 5 5 3 5 3 3 5 5 3 5 5 5 5 5 5 5 5 5 3 3 5 5 5 5 5 5 3 5 5 5 5 5 5 5 5 5 5 5 5 5 5 5 5 5 5 5 5 5 5 5 5 5 3 5 5 5 5 5 5 5 5 5 5 5 5 5 5 5 5 5 5 5 5 5 5 5 5 5 5 5 5 5 5 5 5 5 5 5 5 5 5 5 5 3 5 5 5 5 5 5 5 5 5 5 3 5 5 5 3 5 3 5 5 5 3 5 5 5 3 5 3 5 3 5 3 3 5 5 3 5 5 5 3 5 5 5 5 5 3 5 5 5 5 3 5 5 5 3 5 5 5 5 3 5 3 5 5 5 5 5 5 5 5 5 5 5 5 5 5 3 5 5 5 5 3 5 5 3 5 5 3 3 5 5 3 5 3 5 5 5 3 3 3 3 5 5 3 5 5 5 5 3 5 3 5 5 3 3 3 5 3 5 5 3 3 3 5 5 5 5 5 5 5 5 5 3 3 5 5 5 5 3 3 5 5 5 3 5 3 5 5 5 5 5 5 5 5 5 5 5 3 5 5 5 5 5 5 5 5 5 5 5 5 5 5 5 5 5 5 5 5 5 5 5 3 5 5 5 5 5 5 5 5 5 5 5 5 5 5 5 5 3 5 5 3 5 5 5 5 5 5 5 5 5 3 5 5 5 3 3 5 5 3 5 5 5 5 5 3 5 3 5 5 5 3 5 5 5 5 5 5 5 3 5 5 3 5 5 5 5 3 5 5 5 3 3 5 5 3 5 5 5 3 5 5 5 5 5 5 5 3 5 5 3 5 3 3 3 5 3 5 3 3 5 5 5 5 5 5 3 5 5 3 5 5 5 5 5 5 5 5 5 5 5 5 5 5 5 5 5 5 5 5 5 5 5 5 5 5 5 5 5 5 5 5 5 5 5 3 3 5 5 5 5 5 5 5 5 3 3 3 3 5 5 3 5 5 5 5 5 5 5 5 3 5 5 3 5 5 5 3 5 5 5 5 3 5 5 5 5 5 5 5 5 5 5 5 5 5 5 3 5 5 5 5 5 3 5 5 5 5 5 5 5 5 3 5 5 5 3 3 5 5 3 3 5 5 5 5 5 3 5 5 5 5 5 5 3 5 3 5 5 5 5 5 5 5 5 3 3 5 3 3 3 5 3 5 5 5 5 5 5 3 5 5 5 5 5 5 5 3 5 5 5 5 5 5 5 5 5 5 5 5 5 5 5 5 5 5 5 5 5 5 5 5 5 5 5 5 5 5 5 5 5 5 5 5 5 5 5 5 5 5 5 5 5 5 5 5 5 5 5 5 5 5 5 5 5 3 5 5 5 5 5 5 5 3 5 5 3 5 5 5 3 5 3 5 5 3 5 5 5 5 5 5 5 3 5 5 5 3 5 5 5 5 5 5 5 3 5 3 5 5 5 5 5 5 5 5 5 5 5 5 5 5 5 5 5 5 5 5 5 5 5 5 5 3 3 5 3 5 5 5 5 5 5 5 3 5 3 5 3 3 3 5 5 3 5 5 3 5 5 5 3 5 5 5 5 5 5 5 3 3 5 5 3 5 5 5 3 5 5 5 5 3 5 3 5 5 5 5 5 5 3 5 3 5 5 5 5 5 3 5 5 3 5 5 5 5 5 5 5 5 5 5 5 5 5 5 5 5 3 5 5 3 3 5 3 5 5 5 5 5 5 5 5 3 5 5 5 5 5 5 5 5 5 5 5 5 5 5 5 5 3 5 5 5 3 5 5 3 5 5 5 5 5 5 3 5 5 5 5 5 5 5 5 5 5 5 5 5 5 5 5 5 5 5 3 3 5 5 5 5 5 5 5 3 5 5 5 3 5 5 3 5 3 5 5 3 5 3 3 5 3 5 3 5 3 5 5 5 5 5 5 5 5 5 5 5 5 5 5 5 3 3 5 5 5 5 5 5 5 3 5 5 5 5 5 5 5 5 5 5 5 5 5 5 5 3 5 3 5 5 5 5 5 5 3 5 5 5 3 5 5 5 3 5 5 5 5 5 5 5 5 5 5 5 5 5 5 5 5 5 5 5 5 5 3 5 5 5 5 3 5 5 5 5 5 3 5 5 5 3 5 5 5 5 5 5 5 5 5 5 5 5 3 5 5 5 5 3 5 5 5 5 5 5 5 5 3 5 5 5 5 5 5 5 3 5 5 5 5 3 5 5 5 5 5 5 5 5 3 5 5 5 5 5 5 5 5 5 3 5 5 5 5 5 5 5 5 5 5 5 5 5 5 5 5 5 5 5 5 5 5 5 5 5 5 5 5 3 5 5 5 5 5 5 5 3 5 5 5 5 5 5 5 5 5 5 5 5 5 5 5 5 5 5 5 5 5 5 5 5 5 5 5 5 5 3 5 5 5 5 5 5 5 5 5 5 5 5 5 5 5 5 5 5 5 5 5 5 5 5 5 5 5 5 5 5 5 5 3 5 5 3 5 5 5 5 3 5 5 3 5 5 5 5 3 5 5 5 3 5 5 5 3 5 5 5 5 5 5 5 5 5 5 3 5 5 3 5 5 5 5 5 5 3 5 5 5 5 5 3 5 5 5 5 3 5 5 5 5 5 5 5 5 5 5 3 5 5 5 5 5 5 5 5 5 3 5 5 5 5 5 5 5 5 5 5 5 5 5 3 5 5 5 5 5 5 5 3 5 5 5 5 5 3 5 5 5 5 5 5 5 5 5 5 5 5 5 5 3 5 5 5 5 5 5 5 5 3 5 5 5 5 5 5 5 5 5 5 5 5 5 5 5 5 5 5 5 5 5 5 5 5 5 5 5 5 5 5 5 5 5 3 5 5 5 5 3 3 5 5 3 5 5 3 5 5 3 5 5 5 5 5 5 5 5 5 5 5 5 5 5 5 5 5 5 5 3 5 5 5 5 3 5 5 5 5 5 5 5 5 5 5 5 5 5 5 5 5 5 5 5 5 5 5 5 5 5 5 5 5 5 5 5 5 5 5 5 5 5 5 5 5 5 5 5 5 5 5 5 5 5 5 5 5 5 5 5 5 5 5 5 5 5 5 5 5 5 5 5 5 5 5 5 3 5 5 5 5 3 5 3 5 5 3 5 5 5 5 3 5 5 3 5 5 5 5 5 5 5 5 5 5 5 5 5 5 5 5 5 5 5 5 5 5 5 5 5 5 5 5 5 5 5 5 5 5 5 5 5 5 5 5 5 5 5 5 5 5 5 5 5 5 5 5 5 5 5 5 5 5 5 5 3 5 5 5 5 5 5 5 5 5 3 5 5 5 5 5 5 5 3 5 5 5 5 5 5 5 5 5 5 5 5 5 5 5 5 5 5 5 3 3 5 5 3 5 3 5 5 5 5 5 5 5 5 5 5 5 5 5 5 5 5 5 5 5 5 5 5 5 5 5 5 5 5 5 5 5 5 5 5 5 5 5 5 5 5 5 5 5 5 5 5 5 5 5 5 5 5 5 5 5 3 3 5 5 5 5 5 5 5 5 5 5 5 5 5 5 5 5 5 5 5 5 3 5 5 5 5 5 5 5 5 5 5 3 5 5 5 3 5 5 5 5 5 5 3 5 5 5 5 5 5 5 5 5 5 5 5 5 3 5 5 5 5 5 5 3 3 5 3 5 5 3 5 5 5 3 5 5 5 3 5 5 5 5 5 3 5 3 5 5 5 5 3 5 5 5 5 3 5 3 5 5 3 3 5 5 5 5 5 3 5 5 5 5 5 3 3 3 5 3 5 3 5 5 5 5 5 3 5 5 5 5 5 5 5 5 3 3 5 5 3 5 5 5 5 3 5 5 3 5 5 3 5 5 5 5 5 5 5 5 5 3 5 5 5 5 5 5 5 5 3 5 5 5 5 5 5 5 5 5 3 3 5 5 5 5 5 5 5 5 5 5 5 5 5 5 5 5 5 5 5 5 5 5 5 5 5 5 5 5 5 5 5 5 5 5 5 3 5 5 5 5 3 5 5 5 5 5 5 5 5 5 5 5 5 5 5 5 5 3 3 5 5 5 5 5 5 5 5 5 3 5 5 5 5 3 5 5 3 5 5 5 5 5 5 5 5 5 5 5 5 5 3 5 5 5 5 5 5 5 5 5 5 5 5 5 5 5 5 5 5 5 5 5 5 5 5 5 3 5 5 5 5 5 3 5 5 5 3 5 5 5 3 3 5 5 5 5 5 5 5 5 5 5 5 5 5 5 3 5 5 5 3 5 5 5 5 3 3 5 5 5 5 5 5 5 5 5 5 5 5 5 5 5 5 5 5 5 5 5 5 5 3 5 5 5 5 5 5 5 5 5 3 5 5 5 5 3 5 3 5 5 5 5 3 5 5 5 5 5 5 5 5 5 5 5 5 5 5 5 3 5 5 3 5 5 5 5 5 5 5 5 5 5 3 3 5 5 5 5 3 5 5 5 3 5 5 5 5 3 3 5 3 5 3 5 3 5 5 3 5 5 3 5 5 3 5 5 5 3 5 5 3 5 3 5 3 5 5 3 5 5 5 5 5 5 5 5 5 5 5 5 5 3 5 5 5 5 5 5 5 5 5 5 5 5 5 5 5 5 3 3 5 5 5 5 5 3 5 5 5 5 3 5 5 3 5 5 5 5 3 5 5 5 5 5 5 5 5 5 5 5 5 5 5 5 5 5 5 5 5 5 5 5 5 5 5 5 5 5 5 5 5 5 5 5 5 5 5 3 5 5 5 5 5 5 5 5 5 5 5 5 5 3 5 3 5 5 5 5 3 5 5 5 5 5 5 5 5 5 5 5 5 5 5 5 5 5 5 3 5 3 5 5 3 5 5 5 3 5 5 5 5 5 5 5 5 5 5 5 5 5 5 5 5 5 5 5 5 5 5 5 5 5 5 5 3 5 5 3 5 5 5 5 5 5 5 5 5 5 5 5 5 5 5 5 5 5 5 5 5 5 5 5 5 5 5 5 5 5 5 5 5 5 5 3 5 3 5 5 5 5 5 5 5 5 5 5 5 5 5 5 5 5 5 3 3 5 5 5 5 5 3 5 5 5 5 3 5 5 5 5 3 5 5 5 5 5 5 5 5 5 5 5 5 5 5 5 5 5 5 3 5 5 5 5 5 5 3 5 5 3 5 5 5 5 5 5 5 5 5 5 5 5 3 5 5 3 5 5 5 5 5 5 5 5 3 5 5 5 5 5 5 3 5 5 3 5 5 5 5 5 5 5 5 5 5 5 5 5 5 5 5 5 5 5 5 5 5 5 5 5 5 5 5 5 5 5 5 5 5 5 5 3 5 5 5 3 5 5 3 5 5 5 5 5 5 3 5 5 5 5 5 3 5 5 5 5 5 5 3 5 5 5 5 3 5 3 5 5 3 5 5 5 3 5 5 5 5 5 5 5 5 5 5 5 5 5 3 5 5 5 5 5 5 5 5 5 5 5 5 5 5 5 5 5 5 5 5 5 5 5 5 3 5 3 5 3 5 3 5 5 5 5 3 5 5 5 5 3 5 5 5 5 5 5 5 5 5 5 5 5 5 5 3 5 5 5 3 5 5 5 3 5 5 3 5 5 5 3 5 5 5 5 3 5 5 5 5 3 5 5 5 5 5 5 5 5 5 5 3 5 5 5 5 5 3 5 3 5 5 5 5 5 3 3 5 5 3 5 3 5 5 3 5 5 5 5 5 5 5 5 5 5 5 5 5 3 5 5 5 5 5 3 5 5 5 5 5 5 5 5 5 5 3 5 3 5 5 3 5 5 3 5 3 5 3 5 5 5 5 5 3 3 5 5 5 5 5 5 5 5 5 5 5 3 5 5 5 5 5 3 5 5 5 3 5 3 5 5 5 5 5 5 5 5 5 5 5 5 5 5 5 3 5 5 5 5 3 5 5 5 5 5 5 5 5 5 5 5 5 5 5 5 5 5 5 5 5 5 5 5 3 5 5 3 5 5 5 5 5 5 5 3 5 5 3 5 3 5 5 5 5 5 5 5 5 5 3 5 5 3 5 5 5 3 5 5 5 5 5 5 5 3 5 5 5 5 3 3 5 5 5 5 5 5 5 5 5 3 5 5 5 5 5 5 5 5 5 5 5 5 5 5 5 5 3 5 3 5 5 5 3 5 5 5 5 5 5 5 5 5 5 5 5 5 3 5 5 5 5 5 3 5 5 5 3 3 5 5 5 3 5 5 3 5 5 5 5 3 3 5 5 5 3 5 5 3 5 5 5 5 3 5 3 5 5 5 3 5 5 5 5 5 5 5 5 5 5 5 5 5 5 5 5 5 5 5 5 5 3 5 5 5 5 5 5 5 5 5 3 5 5 5 3 5 3 5 5 5 5 5 5 5 5 5 5 5 3 5 5 5 5 5 3 5 5 5 5 5 3 5 5 5 5 5 5 5 5 5 5 5 5 5 5 5 5 3 5 5 5 5 5 5 5 5 5 3 5 5 5 5 5 5 5 5 5 5 5 5 5 5 5 3 5 5 5 5 5 5 5 5 5 5 5 5 5 5 5 5 5 5 5 5 5 5 5 5 5 5 5 5 5 3 5 5 5 5 3 5 3 3 5 5 5 5 5 5 3 5 3 5 5 5 3 5 5 3 5 5 5 5 5 5 3 5 5 5 5 5 5 5 3 5 5 5 5 3 5 5 5 5 5 5 3 5 5 5 5 5 5 5 5 5 5 5 5 3 5 3 5 5 5 5 5 5 5 3 3 5 5 5 5 5 5 5 5 3 5 5 5 3 5 5 3 5 5 5 5 5 5 5 5 5 5 5 5 5 5 5 5 5 5 5 5 5 5 5 5 5 3 5 5 3 5 5 5 5 5 3 5 5 3 5 3 5 5 5 3 5 5 5 5 3 5 5 3 3 5 5 5 5 5 3 5 5 3 5 5 5 5 5 3 5 5 5 5 5 5 5 5 5 3 5 5 5 5 3 5 5 5 5 5 5 3 5 3 5 5 5 3 5 3 5 5 3 5 3 5 5 5 3 5 5 5 5 5 5 5 5 5 5 5 5 5 3 5 5 5 5 3 5 5 5 5 5 5 3 5 5 5 5 5 5 5 3 5 5 5 5 5 5 3 5 5 5 5 5 5 5 3 5 5 3 5 5 5 5 5 5 5 5 5 3 3 5 5 5 5 5 5 5 5 5 5 5 5 3 5 5 5 5 5 5 5 3 5 5 5 3 5 3 5 5 3 5 5 5 5 5 3 5 5 5 3 5 5 5 5 3 5 5 5 3 5 5 5 5 5 5 5 3 5 5 3 5 5 5 3 5 5 5 3 5 5 5 5 3 5 5 5 3 5 5 5 5 5 5 5 5 5 3 5 5 5 5 5 5 5 5 5 3 5 5 5 5 3 5 5 3 5 5 5 5 5 5 5 5 5 5 5 5 5 5 5 5 5 5 5 5 5 5 5 5 5 5 3 5 5 5 5 5 5 5 5 5 5 5 3 5 5 5 3 5 5 5 5 5 5 3 5 5 5 5 5 5 5 5 5 5 5 5 5 5 5 5 5 5 5 5 5 5 5 5 5 5 3 5 3 5 5 3 3 5 5 5 5 5 5 5 5 5 5 5 5 5 5 5 5 5 3 5 5 5 5 5 5 5 5 5 5 5 5 5 5 5 5 5 5 5 5 5 5 5 5 5 5 5 5 5 5 5 5 5 5 5 5 5 5 5 5 5 5 5 5 5 5 5 5 5 5 5 5 5 5 5 5 5 5 5 5 5 3 5 5 3 5 5 5 5 3 5 5 5 5 5 5 5 5 5 5 3 5 3 5 5 5 3 5 5 5 3 5 3 5 5 5 3 5 3 5 3 5 5 5 3 5 5 5 5 3 5 3 5 5 5 5 5 3 5 3 3 5 5 5 5 5 5 3 5 5 5 3 5 5 5 5 5 5 5 5 5 5 5 5 5 5 5 5 5 5 5 3 5 5 5 3 3 5 5 5 5 5 3 5 5 5 5 5 5 5 5 5 5 5 5 5 5 3 5 5 3 5 3 5 5 5 3 5 3 5 5 3 5 5 5 5 5 5 5 5 5 5 5 3 5 5 5 5 5 5 5 5 5 5 3 3 5 5 5 5 5 5 5 3 5 5 5 5 5 5 5 5 5 5 5 5 5 5 3 5 5 5 5 5 5 5 5 5 5 3 5 5 5 3 5 3 3 5 5 5 5 5 5 5 5 3 5 5 5 5 5 5 5 5 5 3 5 3 5 3 5 5 5 5 5 5 5 5 3 5 3 5 5 5 5 5 5 3 5 5 3 5 3 5 5 5 5 5 5 5 5 5 5 5 5 5 5 3 5 5 5 5 5 5 5 5 5 5 3 5 5 5 5 5 5 3 5 5 5 5 5 5 5 5 5 5 5 5 5 5 5 5 5 5 5 5 5 5 5 5 5 3 5 5 5 5 5 3 5 5 5 5 5 5 5 5 5 5 5 3 5 5 5 5 3 5 5 5 5 5 3 5 5 5 5 5 3 5 5 3 5 5 5 5 5 5 5 5 5 5 5 5 5 5 5 5 5 5 5 5 5 5 5 5 5 5 3 5 5 3 5 5 5 5 5 5 5 5 5 5 5 5 5 5 5 3 5 5 5 5 5 5 5 5 5 3 5 5 5 5 5 5 5 3 5 5 5 5 5 3 5 5 5 5 5 5 3 5 5 5 5 3 5 5 5 5 5 5 5 3 5 5 3 5 5 3 5 5 5 5 3 5 5 5 5 5 5 5 5 3 5 5 3 5 5 5 5 5 5 5 5 5 3 5 5 5 5 5 3 5 5 5 5 3 5 5 5 3 5 5 5 5 5 5 5 5 5 5 5 3 3 5 5 5 5 5 5 5 5 5 5 5 3 5 5 5 5 5 3 5 3 3 5 3 3 5 5 3 5 5 5 5 5 5 3 5 3 3 5 5 5 5 5 3 5 5 5 5 5 5 5 5 3 5 5 5 5 3 5 5 5 5 5 3 5 5 3 5 5 5 5 5 5 5 3 5 3 5 5 5 5 5 5 5 3 3 5 5 5 5 5 5 5 3 5 5 5 5 5 5 3 5 5 5 5 5 5 5 5 5 5 5 5 5 5 3 5 5 3 5 5 5 5 3 5 5 5 5 3 5 5 5 5 5 5 3 5 5 5 5 5 5 5 3 5 5 5 3 5 5 5 5 3 5 5 3 5 5 5 5 5 5 5 3 5 5 5 5 3 5 3 5 5 5 5 5 5 5 5 5 5 5 5 5 5 3 5 5 5 5 5 5 5 3 5 5 3 5 5 3 5 5 5 5 5 5 5 5 5 3 5 5 5 3 5 5 5 5 5 5 5 5 5 3 5 5 5 5 5 5 5 5 5 5 5 3 5 5 5 3 5 5 5 5 5 5 5 5 5 5 5 3 5 5 5 5 5 5 5 5 5 5 3 5 5 5 5 5 3 5 5 5 5 5 5 5 5 3 5 5 3 5 5 3 5 5 5 5 3 3 5 5 5 5 3 5 5 5 5 3 5 5 3 5 5 5 5 3 5 5 3 5 5 5 5 5 3 5 5 5 5 5 5 5 5 3 5 3 5 5 5 5 5 5 5 5 5 3 3 5 5 5 5 5 5 3 5 5 3 5 5 3 5 3 5 5 5 3 5 5 3 5 5 5 5 5 5 5 5 3 3 5 5 3 3 5 5 5 5 3 5 5 5 3 5 3 5 3 3 3 5 3 5 5 5 3 5 5 5 5 5 5 5 5 5 3 5 5 3 5 5 5 5 5 5 3 5 5 5 5 5 5 3 3 3 5 5 5 5 5 5 5 5 5 5 5 3 5 5 5 5 3 5 5 5 5 5 5 5 5 3 5 5 3 5 5 5 3 5 5 5 5 5 5 5 5 5 3 5 5 5 5 5 5 5 5 3 5 5 5 3 5 5 3 5 5 5 3 5 3 5 5 3 5 3 5 5 3 5 5 5 5 5 5 3 5 5 3 5 5 5 5 5 5 5 5 5 5 5 5 5 5 5 5 5 5 5 5 5 5 5 5 5 5 5 5 5 5 5 5 5 5 5 5 5 5 5 5 5 5 5 5 5 5 5 5 5 5 5 5 5 5 5 5 5 5 5 5 5 5 5 5 5 5 5 5 5 5 5 5 5 5 5 5 5 5 5 5 5 5 5 5 5 5 5 5 5 5 5 5 5 5 5 5 3 5 5 5 5 3 5 5 5 5 5 5 5 5 5 5 5 5 3 3 5 5 5 5 5 5 5 5 5 5 5 5 5 5 5 3 5 5 5 3 5 5 5 5 5 5 5 5 5 5 3 5 3 5 5 5 5 5 5 5 5 5 5 5 5 5 5 5 5 5 5 5 5 5 5 5 5 3 5 5 5 5 3 5 5 5 5 5 5 5 5 3 5 5 5 5 5 5 5 5 5 5 5 5 5 5 5 5 5 5 5 5 5 5 5 5 5 5 5 5 5 5 5 5 5 5 5 5 5 5 5 5 5 5 5 5 5 5 5 5 5 3 5 5 5 5 5 5 5 5 5 5 5 5 5 5 5 5 5 5 5 5 5 5 5 5 5 5 5 5 5 5 5 5 3 5 5 5 5 5 5 3 5 5 5 5 5 5 3 5 5 3 5 3 5 3 5 5 5 5 3 5 5 5 5 5 3 5 5 5 3 3 5 5 5 3 5 5 5 5 3 3 5 5 5 5 5 5 5 5 5 5 5 5 5 5 3 5 5 3 5 5 3 3 5 5 5 5 5 5 5 5 5 5 3 5 3 5 5 5 5 5 5 5 5 5 5 5 3 5 5 5 5 5 5 5 3 5 5 5 5 5 5 5 5 5 5 5 5 5 5 5 5 5 5 3 3 5 5 5 5 5 5 5 5 5 5 5 5 5 5 5 5 5 3 5 5 5 5 5 5 5 5 5 3 5 5 5 5 5 5 5 5 5 5 5 5 3 5 5 5 5 3 5 3 5 5 5 5 5 5 5 5 5 3 5 5 5 5 3 5 5 5 5 3 5 3 5 5 5 5 5 5 5 5 5 5 5 5 3 5 5 5 5 5 5 5 5 5 5 5 5 5 5 5 3 5 3 5 5 3 5 5 5 3 5 3 5 5 3 5 5 3 5 3 5 5 5 5 5 5 5 3 3 5 5 5 5 3 3 5 5 3 3 5 3 5 5 3 3 5 5 3 5 5 3 5 5 5 5 5 5 5 5 3 5 5 3 5 3 5 5 5 3 5 5 5 5 5 5 5 5 3 5 5 5 5 5 5 5 5 5 5 5 5 5 5 5 5 5 5 5 5 5 5 3 5 5 5 5 5 5 5 5 5 5 5 5 5 5 5 5 5 5 
</DataArray>
</Cells>
<PointData Scalars="" Vectors="displacement," Tensors="">
<DataArray type="Float64" Name="displacement" NumberOfComponents="3" format="ascii">
0.014998953291215105 0.014998954977753177 0 0.014689097943548978 0.014552552242294518 0 0.013431604635165312 0.014999053155547476 0 0.014998953291215105 0.014998954977753177 0 0.014689097943548978 0.014552552242294518 0 0.014998849511484811 0.013114040974245829 0 0.014689097943548978 0.014552552242294518 0 0.014688426883344454 0.014133454306009454 0 0.014998849511484811 0.013114040974245829 0 0.014689097943548978 0.014552552242294518 0 0.014688426883344454 0.014133454306009454 0 0.014338040135878777 0.014407759121143329 0 0.014688426883344454 0.014133454306009454 0 0.014591252163713759 0.014178349707822543 0 0.014338040135878777 0.014407759121143329 0 0.014688426883344454 0.014133454306009454 0 0.014591252163713759 0.014178349707822543 0 0.014998849511484811 0.013114040974245829 0 0.014981014371530469 0.013666061111498862 0 0.014999789669183892 0.013110902656757848 0 0.015255700841376578 0.013434823950552168 0 0.015288323414358254 0.013411023114500481 0 0.015346829440283451 0.013293770910253216 0 0.014591252163713759 0.014178349707822543 0 0.014378226922517518 0.014255143051409021 0 0.014338040135878777 0.014407759121143329 0 0.015454026320545617 0.013228868090599602 0 0.015255700841376578 0.013434823950552168 0 0.015346829440283451 0.013293770910253216 0 0.014981014371530469 0.013666061111498862 0 0.01487277801181632 0.013851554748778278 0 0.014338040135878777 0.014407759121143329 0 0.01397489088347943 0.014885641083436199 0 0.014460504881101045 0.014486603797005709 0 0.014378226922517518 0.014255143051409021 0 0.014338040135878777 0.014407759121143329 0 0.014460504881101045 0.014486603797005709 0 0.01397489088347943 0.014885641083436199 0 0.014765286440657851 0.014902108153281409 0 0.014460504881101045 0.014486603797005709 0 0.013881128255968765 0.014922157345974995 0 0.014005766123241246 0.01504688558665314 0 0.014689097943548978 0.014552552242294518 0 0.01397489088347943 0.014885641083436199 0 0.013431604635165312 0.014999053155547476 0 0.014689097943548978 0.014552552242294518 0 0.014338040135878777 0.014407759121143329 0 0.01397489088347943 0.014885641083436199 0 0.01397489088347943 0.014885641083436199 0 0.013431604635165312 0.014999053155547476 0 0.01304580152865775 0.015221956195290303 0 0.013431604635165312 0.014999053155547476 0 0.012681829369826952 0.015070923768112938 0 0.01304580152865775 0.015221956195290303 0 0.013431604635165312 0.014999053155547476 0 0.012681829369826952 0.015070923768112938 0 0.011370863949711003 0.015000259497816186 0 0.012681829369826952 0.015070923768112938 0 0.01264408998093587 0.015221604771428959 0 0.01304580152865775 0.015221956195290303 0 0.01234664697887403 0.015334876899409829 0 0.013563372643747625 0.015029473628719496 0 0.013563372643747625 0.015029473628719496 0 0.014005766123241246 0.01504688558665314 0 0.015530239430772572 0.014930539438367828 0 0.014765286440657851 0.014902108153281409 0 0.015321534496911602 0.014002585450499712 0 0.012681829369826952 0.015070923768112938 0 0.012233887766418079 0.015548530119629157 0 0.011370863949711003 0.015000259497816186 0 0.011371302865225089 0.014999953041925473 0 0.01153028350153322 0.015437423158591888 0 0.011026619054213387 0.015353217024483305 0 0.012233887766418079 0.015548530119629157 0 0.011370863949711003 0.015000259497816186 0 0.011556979614777698 0.01545744635251645 0 0.011815150480423578 0.015231208084829697 0 0.010990803781314912 0.015342642429675766 0 0.011371498496480144 0.015000202284776576 0 0.011815150480423578 0.015231208084829697 0 0.013402314463376587 0.014901657639113159 0 0.013013934124752578 0.014844342073130028 0 0.01314595170035566 0.015167553129232564 0 0.013563372643747625 0.015029473628719496 0 0.011815150480423578 0.015231208084829697 0 0.013563372643747625 0.015029473628719496 0 0.01419840085086993 0.014691707208109105 0 0.01145605084882466 0.01540701381395046 0 0.011316061620973671 0.015736824032672979 0 0.011654699454800131 0.01588913899660041 0 0.011815150480423578 0.015231208084829697 0 0.01419840085086993 0.014691707208109105 0 0.01145605084882466 0.01540701381395046 0 0.011316061620973671 0.015736824032672979 0 0.011026619054213387 0.015353217024483305 0 0.015527968235048468 0.01326274082693484 0 0.015509516103070217 0.013510423049565515 0 0.015272556211553736 0.013462937965930019 0 0.011316061620973671 0.015736824032672979 0 0.011654699454800131 0.01588913899660041 0 0.011267508717714463 0.016277098872789646 0 0.01419840085086993 0.014691707208109105 0 0.013216289086193447 0.014920677549183473 0 0.015530239430772572 0.014930539438367828 0 0.016007294277004636 0.014322085019302416 0 0.015321534496911602 0.014002585450499712 0 0.016007294277004636 0.014322085019302416 0 0.01563432059893111 0.013608460644793664 0 0.015321534496911602 0.014002585450499712 0 0.01419840085086993 0.014691707208109105 0 0.015953231548142061 0.013380788530021977 0 0.015527968235048468 0.01326274082693484 0 0.01563432059893111 0.013608460644793664 0 0.015509516103070217 0.013510423049565515 0 0.01563432059893111 0.013608460644793664 0 0.01563645050650694 0.013614052744080306 0 0.015509516103070217 0.013510423049565515 0 0.015387075983818799 0.013623086734873941 0 0.015272556211553736 0.013462937965930019 0 0.014952157502935387 0.013752352558566572 0 0.015509516103070217 0.013510423049565515 0 0.015387075983818799 0.013623086734873941 0 0.015272556211553736 0.013462937965930019 0 0.01563645050650694 0.013614052744080306 0 0.015387075983818799 0.013623086734873941 0 0.015479931493853039 0.013863748375914689 0 0.01563645050650694 0.013614052744080306 0 0.015509516103070217 0.013510423049565515 0 0.015387075983818799 0.013623086734873941 0 0.014765286440657851 0.014902108153281409 0 0.014460504881101045 0.014486603797005709 0 0.015321534496911602 0.014002585450499712 0 0.01487277801181632 0.013851554748778278 0 0.015336563806695869 0.014002288388846254 0 0.014378226922517518 0.014255143051409021 0 0.014460504881101045 0.014486603797005709 0 0.015321534496911602 0.014002585450499712 0 0.01563432059893111 0.013608460644793664 0 0.015321534496911602 0.014002585450499712 0 0.015325114011822199 0.013569801354717624 0 0.015255700841376578 0.013434823950552168 0 0.015321534496911602 0.014002585450499712 0 0.015325114011822199 0.013569801354717624 0 0.015255700841376578 0.013434823950552168 0 0.015325114011822199 0.013569801354717624 0 0.015288323414358254 0.013411023114500481 0 0.015288323414358254 0.013411023114500481 0 0.015423021792326647 0.01336755446165027 0 0.015288869503503394 0.013312170633828415 0 0.015325114011822199 0.013569801354717624 0 0.015288323414358254 0.013411023114500481 0 0.015423021792326647 0.01336755446165027 0 0.01563432059893111 0.013608460644793664 0 0.015325114011822199 0.013569801354717624 0 0.015423021792326647 0.01336755446165027 0 0.016483689127124848 0.011273044180653396 0 0.016685962961384269 0.011125819622314632 0 0.016459635472289617 0.011005108487495269 0 0.016020698534676695 0.012287120151695502 0 0.015740731607135905 0.01226752305694454 0 0.016483689127124848 0.011273044180653396 0 0.016459635472289617 0.011005108487495269 0 0.016200915183977146 0.011195353251323982 0 0.015387075983818799 0.013623086734873941 0 0.015479931493853039 0.013863748375914689 0 0.014952157502935387 0.013752352558566572 0 0.015904385636229472 0.012730157387184297 0 0.012613938778816761 0.014869875698142129 0 0.01563645050650694 0.013614052744080306 0 0.015423021792326647 0.01336755446165027 0 0.015732744342049104 0.013477309161828774 0 0.016020698534676695 0.012287120151695502 0 0.015904385636229472 0.012730157387184297 0 0.01563432059893111 0.013608460644793664 0 0.01563645050650694 0.013614052744080306 0 0.015423021792326647 0.01336755446165027 0 0.015459453835459566 0.013750111674743295 0 0.015904385636229472 0.012730157387184297 0 0.016483689127124848 0.011273044180653396 0 0.016771439266782533 0.011363389338574965 0 0.016685962961384269 0.011125819622314632 0 0.015904385636229472 0.012730157387184297 0 0.015493623786393726 0.012493144214898238 0 0.016771439266782533 0.011363389338574965 0 0.016685962961384269 0.011125819622314632 0 0.016955798952779461 0.011102330821543868 0 0.016685962961384269 0.011125819622314632 0 0.016877406388274389 0.010904228768940642 0 0.016955798952779461 0.011102330821543868 0 0.016685962961384269 0.011125819622314632 0 0.016877406388274389 0.010904228768940642 0 0.016677095169027458 0.010919526583090075 0 0.016685962961384269 0.011125819622314632 0 0.016677095169027458 0.010919526583090075 0 0.016459635472289617 0.011005108487495269 0 0.016677095169027458 0.010919526583090075 0 0.01656539749760472 0.010761991223224415 0 0.016750420895952529 0.010524803255994735 0 0.016877406388274389 0.010904228768940642 0 0.016955077469298609 0.010690269972756626 0 0.016750420895952529 0.010524803255994735 0 0.016877406388274389 0.010904228768940642 0 0.016677095169027458 0.010919526583090075 0 0.016750420895952529 0.010524803255994735 0 0.016459635472289617 0.011005108487495269 0 0.016224944386913714 0.010941235265627833 0 0.016200915183977146 0.011195353251323982 0 0.016459635472289617 0.011005108487495269 0 0.016400295929828831 0.010769914328645715 0 0.016224944386913714 0.010941235265627833 0 0.016677095169027458 0.010919526583090075 0 0.016459635472289617 0.011005108487495269 0 0.01656539749760472 0.010761991223224415 0 0.016459635472289617 0.011005108487495269 0 0.01656539749760472 0.010761991223224415 0 0.016400295929828831 0.010769914328645715 0 0.01656539749760472 0.010761991223224415 0 0.016400295929828831 0.010769914328645715 0 0.01654217729640849 0.010582818170568978 0 0.016400295929828831 0.010769914328645715 0 0.016224944386913714 0.010941235265627833 0 0.016224536750951056 0.010699235325347372 0 0.016224944386913714 0.010941235265627833 0 0.016024517840172749 0.010811004279347553 0 0.016224536750951056 0.010699235325347372 0 0.016089414709185051 0.011018006024905568 0 0.016224944386913714 0.010941235265627833 0 0.016024517840172749 0.010811004279347553 0 0.016089414709185051 0.011018006024905568 0 0.016224944386913714 0.010941235265627833 0 0.016200915183977146 0.011195353251323982 0 0.016081242580993586 0.010984708009499201 0 0.015642109458656062 0.012150989215803338 0 0.016051840936298661 0.011405133217233758 0 0.015669157217141169 0.011741429194559809 0 0.015841740237597345 0.012178257780472913 0 0.016089414709185051 0.011018006024905568 0 0.016024517840172749 0.010811004279347553 0 0.01590685116080184 0.011126032139164166 0 0.016051840936298661 0.011405133217233758 0 0.015689431004295814 0.011429378917646203 0 0.015669157217141169 0.011741429194559809 0 0.015689431004295814 0.011429378917646203 0 0.015358762243725862 0.011623090324954656 0 0.015404345082132018 0.010988042555112289 0 0.015689431004295814 0.011429378917646203 0 0.015358762243725862 0.011623090324954656 0 0.015669157217141169 0.011741429194559809 0 0.014999958852821217 0.011250161452186149 0 0.015358762243725862 0.011623090324954656 0 0.014999955237496195 0.012041806687337255 0 0.014999958852821217 0.011250161452186149 0 0.015358762243725862 0.011623090324954656 0 0.015404345082132018 0.010988042555112289 0 0.015358762243725862 0.011623090324954656 0 0.014999955237496195 0.012041806687337255 0 0.015413411759870035 0.012078999428587431 0 0.01500004015939323 0.012042072474809592 0 0.015399696661751538 0.012184592976108107 0 0.015413411759870035 0.012078999428587431 0 0.015669157217141169 0.011741429194559809 0 0.015841740237597345 0.012178257780472913 0 0.015358762243725862 0.011623090324954656 0 0.015413411759870035 0.012078999428587431 0 0.015669157217141169 0.011741429194559809 0 0.015399696661751538 0.012184592976108107 0 0.015642109458656062 0.012150989215803338 0 0.015439585352824725 0.013288613343548802 0 0.015642109458656062 0.012150989215803338 0 0.015276828426656628 0.012712171157096256 0 0.015492151399599868 0.013055135738534741 0 0.015754908030304413 0.012448409731908002 0 0.015346090659520074 0.012290365548965378 0 0.015276828426656628 0.012712171157096256 0 0.015754908030304413 0.012448409731908002 0 0.015346090659520074 0.012290365548965378 0 0.015276828426656628 0.012712171157096256 0 0.014999829001597622 0.012576612148395491 0 0.014999995645635927 0.012042181703913803 0 0.015346090659520074 0.012290365548965378 0 0.014999829001597622 0.012576612148395491 0 0.015276828426656628 0.012712171157096256 0 0.014999829001597622 0.012576612148395491 0 0.015000105279737134 0.013110550894314878 0 0.015276828426656628 0.012712171157096256 0 0.015000105279737134 0.013110550894314878 0 0.015492151399599868 0.013055135738534741 0 0.015454026320545617 0.013228868090599602 0 0.015000105279737134 0.013110550894314878 0 0.015492151399599868 0.013055135738534741 0 0.015492151399599868 0.013055135738534741 0 0.015371138166523524 0.013250048222348232 0 0.015346829440283451 0.013293770910253216 0 0.015454026320545617 0.013228868090599602 0 0.015492151399599868 0.013055135738534741 0 0.015346829440283451 0.013293770910253216 0 0.015288323414358254 0.013411023114500481 0 0.015346829440283451 0.013293770910253216 0 0.015288869503503394 0.013312170633828415 0 0.015371138166523524 0.013250048222348232 0 0.015346829440283451 0.013293770910253216 0 0.015288869503503394 0.013312170633828415 0 0.015371138166523524 0.013250048222348232 0 0.015288869503503394 0.013312170633828415 0 0.015433597853780437 0.013324098016592345 0 0.015740731607135905 0.01226752305694454 0 0.015642109458656062 0.012150989215803338 0 0.016089414709185051 0.011018006024905568 0 0.016200915183977146 0.011195353251323982 0 0.01590685116080184 0.011126032139164166 0 0.015492151399599868 0.013055135738534741 0 0.015371138166523524 0.013250048222348232 0 0.015433597853780437 0.013324098016592345 0 0.0073751678340857043 0.015698137021528669 0 0.0072995011198696029 0.015959770303080999 0 0.0071754584020903827 0.015721777846502381 0 0.0075487123173896362 0.015914346753934407 0 0.0073751678340857043 0.015698137021528669 0 0.0072995011198696029 0.015959770303080999 0 0.0084675244722333832 0.016358385515596565 0 0.0084729729241712227 0.016044496636483902 0 0.0079768986358830507 0.016041703211869523 0 0.0078692656446497297 0.016092813200428494 0 0.0076934255541457374 0.015874552255472081 0 0.0084729729241712227 0.016044496636483902 0 0.0081254884697689825 0.015555098219253707 0 0.0087154549685689049 0.015735086543993332 0 0.0084729729241712227 0.016044496636483902 0 0.0079768986358830507 0.016041703211869523 0 0.0081254884697689825 0.015555098219253707 0 0.0076934255541457374 0.015874552255472081 0 0.0073026087986851262 0.015501874386976242 0 0.0079768986358830507 0.016041703211869523 0 0.0081254884697689825 0.015555098219253707 0 0.0074396989659465049 0.015597225175087321 0 0.0077259103687224483 0.015338595613194327 0 0.0081254884697689825 0.015555098219253707 0 0.0074396989659465049 0.015597225175087321 0 0.0077259103687224483 0.015338595613194327 0 0.0075019783177867868 0.014999921250524999 0 0.0082758862613062679 0.014999975046761021 0 0.0077259103687224483 0.015338595613194327 0 0.0075019783177867868 0.014999921250524999 0 0.0073961693192182067 0.015248418563930397 0 0.0077259103687224483 0.015338595613194327 0 0.0082758862613062679 0.014999975046761021 0 0.0081254884697689825 0.015555098219253707 0 0.0082758862613062679 0.014999975046761021 0 0.0081254884697689825 0.015555098219253707 0 0.008659828961781595 0.015338955344329577 0 0.0081254884697689825 0.015555098219253707 0 0.0087154549685689049 0.015735086543993332 0 0.008659828961781595 0.015338955344329577 0 0.0087154549685689049 0.015735086543993332 0 0.008659828961781595 0.015338955344329577 0 0.0091197753862505716 0.01548707465006381 0 0.0082758862613062679 0.014999975046761021 0 0.008659828961781595 0.015338955344329577 0 0.0090496823644336168 0.014999963160409914 0 0.008659828961781595 0.015338955344329577 0 0.0090496823644336168 0.014999963160409914 0 0.0091197753862505716 0.01548707465006381 0 0.0090496823644336168 0.014999963160409914 0 0.0091197753862505716 0.01548707465006381 0 0.0098235445167009407 0.014999945917417802 0 0.0087154549685689049 0.015735086543993332 0 0.0091197753862505716 0.01548707465006381 0 0.0090586420211308145 0.016001314439233749 0 0.0091197753862505716 0.01548707465006381 0 0.0090586420211308145 0.016001314439233749 0 0.0096229405561423231 0.015633039073914754 0 0.0084729729241712227 0.016044496636483902 0 0.0087154549685689049 0.015735086543993332 0 0.0090586420211308145 0.016001314439233749 0 0.0084729729241712227 0.016044496636483902 0 0.0090586420211308145 0.016001314439233749 0 0.0089018939545525005 0.01630073804433119 0 0.0084675244722333832 0.016358385515596565 0 0.0084729729241712227 0.016044496636483902 0 0.0089018939545525005 0.01630073804433119 0 0.0090586420211308145 0.016001314439233749 0 0.0089018939545525005 0.01630073804433119 0 0.0091748668071596103 0.016276378957044927 0 0.0091748668071596103 0.016276378957044927 0 0.0094093360663789066 0.016126385247037564 0 0.0091671706534533336 0.016360907003118614 0 0.0090586420211308145 0.016001314439233749 0 0.0091748668071596103 0.016276378957044927 0 0.0094093360663789066 0.016126385247037564 0 0.0095878621121512943 0.016152681491341914 0 0.0095231717618875934 0.016669686169604604 0 0.0097775650123261872 0.016277992573616354 0 0.01016895280524208 0.016519077676864453 0 0.010136600727825193 0.016041459563962007 0 0.01016895280524208 0.016519077676864453 0 0.010136600727825193 0.016041459563962007 0 0.010451502233524149 0.016291806721662118 0 0.0097775650123261872 0.016277992573616354 0 0.01016895280524208 0.016519077676864453 0 0.0098650934348730648 0.016842415044387122 0 0.0090586420211308145 0.016001314439233749 0 0.0094093360663789066 0.016126385247037564 0 0.0096229405561423231 0.015633039073914754 0 0.0097775650123261872 0.016277992573616354 0 0.010136600727825193 0.016041459563962007 0 0.0096229405561423231 0.015633039073914754 0 0.0095878621121512943 0.016152681491341914 0 0.0096143734285203553 0.015661554772424927 0 0.0091197753862505716 0.01548707465006381 0 0.0096229405561423231 0.015633039073914754 0 0.0098235445167009407 0.014999945917417802 0 0.0096229405561423231 0.015633039073914754 0 0.0098235445167009407 0.014999945917417802 0 0.010231637566998577 0.015508327761545182 0 0.0098235445167009407 0.014999945917417802 0 0.010231637566998577 0.015508327761545182 0 0.010597504143422606 0.01499997636666512 0 0.010136600727825193 0.016041459563962007 0 0.010231637566998577 0.015508327761545182 0 0.010534195606343355 0.015923221321402371 0 0.010136600727825193 0.016041459563962007 0 0.0096229405561423231 0.015633039073914754 0 0.010231637566998577 0.015508327761545182 0 0.010231637566998577 0.015508327761545182 0 0.010672292367546344 0.015531957814538958 0 0.010534195606343355 0.015923221321402371 0 0.010672292367546344 0.015531957814538958 0 0.010956734556088078 0.015858183357489508 0 0.010534195606343355 0.015923221321402371 0 0.010672292367546344 0.015531957814538958 0 0.010597504143422606 0.01499997636666512 0 0.011026619054213387 0.015353217024483305 0 0.010231637566998577 0.015508327761545182 0 0.010672292367546344 0.015531957814538958 0 0.010597504143422606 0.01499997636666512 0 0.011371302865225089 0.014999953041925473 0 0.010597504143422606 0.01499997636666512 0 0.011026619054213387 0.015353217024483305 0 0.011316061620973671 0.015736824032672979 0 0.011026619054213387 0.015353217024483305 0 0.010956734556088078 0.015858183357489508 0 0.010672292367546344 0.015531957814538958 0 0.011026619054213387 0.015353217024483305 0 0.010956734556088078 0.015858183357489508 0 0.011267508717714463 0.016277098872789646 0 0.010956734556088078 0.015858183357489508 0 0.010831290607176448 0.016259205952190769 0 0.011316061620973671 0.015736824032672979 0 0.011267508717714463 0.016277098872789646 0 0.010956734556088078 0.015858183357489508 0 0.010956734556088078 0.015858183357489508 0 0.010534195606343355 0.015923221321402371 0 0.010831290607176448 0.016259205952190769 0 0.010136600727825193 0.016041459563962007 0 0.010534195606343355 0.015923221321402371 0 0.010451502233524149 0.016291806721662118 0 0.010534195606343355 0.015923221321402371 0 0.010451502233524149 0.016291806721662118 0 0.010831290607176448 0.016259205952190769 0 0.010639078838817869 0.016417494020824239 0 0.010451502233524149 0.016291806721662118 0 0.010831290607176448 0.016259205952190769 0 0.010639078838817869 0.016417494020824239 0 0.010451502233524149 0.016291806721662118 0 0.010449542918381009 0.016510227301668432 0 0.01016895280524208 0.016519077676864453 0 0.010449542918381009 0.016510227301668432 0 0.010370589847388064 0.016707125644320323 0 0.010449542918381009 0.016510227301668432 0 0.010663636333310833 0.01660163419007004 0 0.010370589847388064 0.016707125644320323 0 0.01016895280524208 0.016519077676864453 0 0.010451502233524149 0.016291806721662118 0 0.010449542918381009 0.016510227301668432 0 0.010639078838817869 0.016417494020824239 0 0.010449542918381009 0.016510227301668432 0 0.010663636333310833 0.01660163419007004 0 0.010639078838817869 0.016417494020824239 0 0.010663636333310833 0.01660163419007004 0 0.010869770268889117 0.016655063947622204 0 0.011193389871494633 0.015407099003951458 0 0.012613938778816761 0.014869875698142129 0 0.010639078838817869 0.016417494020824239 0 0.010831290607176448 0.016259205952190769 0 0.010869770268889117 0.016655063947622204 0 0.013216289086193447 0.014920677549183473 0 0.012613938778816761 0.014869875698142129 0 0.011267508717714463 0.016277098872789646 0 0.010831290607176448 0.016259205952190769 0 0.010869770268889117 0.016655063947622204 0 0.014681650000127403 0.012878598237471766 0 0.01332878305190866 0.012542457351127127 0 0.01379879751559809 0.014100956238933617 0 0.010663636333310833 0.01660163419007004 0 0.010844227512477572 0.016641952478250548 0 0.010394504916748813 0.017044180359667774 0 0.012613938778816761 0.014869875698142129 0 0.011439735009533969 0.015263893035635774 0 0.010663636333310833 0.01660163419007004 0 0.010370589847388064 0.016707125644320323 0 0.010394504916748813 0.017044180359667774 0 0.012381724486685199 0.013508325266333832 0 0.01379879751559809 0.014100956238933617 0 0.012857208356803167 0.014452847778881636 0 0.01332878305190866 0.012542457351127127 0 0.012381724486685199 0.013508325266333832 0 0.01379879751559809 0.014100956238933617 0 0.015493623786393726 0.012493144214898238 0 0.01422046263732412 0.012913240347826328 0 0.01379879751559809 0.014100956238933617 0 0.012917934588617274 0.015322572423407073 0 0.012857208356803167 0.014452847778881636 0 0.016877406388274389 0.010904228768940642 0 0.016955798952779461 0.011102330821543868 0 0.017134350816520313 0.010838842546411865 0 0.016877406388274389 0.010904228768940642 0 0.016955077469298609 0.010690269972756626 0 0.017134350816520313 0.010838842546411865 0 0.017126924456447219 0.010591343937570961 0 0.01422046263732412 0.012913240347826328 0 0.01422046263732412 0.012913240347826328 0 0.012841575610998175 0.013024752197843079 0 0.0090081607482148732 0.015337826252881624 0 0.0090817255295756929 0.015415956233160706 0 0.0091323361050740168 0.015322507048063335 0 0.0090081607482148732 0.015337826252881624 0 0.0091323361050740168 0.015322507048063335 0 0.0090627202324393887 0.015177740862912889 0 0.01422046263732412 0.012913240347826328 0 0.010491535543813203 0.014945029521085781 0 0.012381724486685199 0.013508325266333832 0 0.012857208356803167 0.014452847778881636 0 0.012171732220524116 0.014905554821305541 0 0.012917934588617274 0.015322572423407073 0 0.012857208356803167 0.014452847778881636 0 0.012171732220524116 0.014905554821305541 0 0.012381724486685199 0.013508325266333832 0 0.011424518953867107 0.014481880694247015 0 0.012171732220524116 0.014905554821305541 0 0.009151961619837768 0.015467839724979468 0 0.0091496626215271069 0.015423763888481747 0 0.0090817255295756929 0.015415956233160706 0 0.0098420132063739302 0.01562396975020911 0 0.010491535543813203 0.014945029521085781 0 0.0091496626215271069 0.015423763888481747 0 0.0090817255295756929 0.015415956233160706 0 0.0091323361050740168 0.015322507048063335 0 0.0091323361050740168 0.015322507048063335 0 0.009199686684542626 0.015470144704693935 0 0.0092188051648007113 0.015230036508647507 0 0.009199686684542626 0.015470144704693935 0 0.009441286038664131 0.01541619636561172 0 0.0092188051648007113 0.015230036508647507 0 0.0091496626215271069 0.015423763888481747 0 0.0091323361050740168 0.015322507048063335 0 0.009199686684542626 0.015470144704693935 0 0.009199686684542626 0.015470144704693935 0 0.0091386774179280546 0.015806871405039825 0 0.0093278926414748775 0.015644590810540985 0 0.0098420132063739302 0.01562396975020911 0 0.009045461255363282 0.01563560068837936 0 0.0088180553075963147 0.015804859956152755 0 0.009199686684542626 0.015470144704693935 0 0.0089535095014559689 0.015758550046791286 0 0.009199686684542626 0.015470144704693935 0 0.0089535095014559689 0.015758550046791286 0 0.0091386774179280546 0.015806871405039825 0 0.009151961619837768 0.015467839724979468 0 0.0091496626215271069 0.015423763888481747 0 0.009199686684542626 0.015470144704693935 0 0.0088180553075963147 0.015804859956152755 0 0.0089535095014559689 0.015758550046791286 0 0.0089595538036032173 0.01589298811520113 0 0.0093620725644279878 0.016013922065703203 0 0.0094499643295534244 0.016236112621498142 0 0.0089535095014559689 0.015758550046791286 0 0.0089517067074598791 0.015874629926780445 0 0.0091386774179280546 0.015806871405039825 0 0.0098420132063739302 0.01562396975020911 0 0.0094499643295534244 0.016236112621498142 0 0.0091386774179280546 0.015806871405039825 0 0.0091585015364335828 0.016024177800268942 0 0.0093219990237843591 0.015894762358243896 0 0.0089517067074598791 0.015874629926780445 0 0.0091386774179280546 0.015806871405039825 0 0.0091585015364335828 0.016024177800268942 0 0.0094499643295534244 0.016236112621498142 0 0.0095231717618875934 0.016669686169604604 0 0.0091585015364335828 0.016024177800268942 0 0.0091671706534533336 0.016360907003118614 0 0.0092314231054299485 0.0161486131566797 0 0.0090275672527019846 0.015948688487077652 0 0.0091585015364335828 0.016024177800268942 0 0.0091671706534533336 0.016360907003118614 0 0.0099043589835371981 0.017356755848031966 0 0.010063638923407867 0.017100773600112029 0 0.0098650934348730648 0.016842415044387122 0 0.0094499643295534244 0.016236112621498142 0 0.0090719129762361923 0.015987348273330336 0 0.0099976825689553767 0.017411625179671899 0 0.0099043589835371981 0.017356755848031966 0 0.010063638923407867 0.017100773600112029 0 0.010394504916748813 0.017044180359667774 0 0.0099976825689553767 0.017411625179671899 0 0.010063638923407867 0.017100773600112029 0 0.011439735009533969 0.015263893035635774 0 0.0098420132063739302 0.01562396975020911 0 0.010394504916748813 0.017044180359667774 0 0.010063638923407867 0.017100773600112029 0 0.010177370280053832 0.016847580700069989 0 0.010063638923407867 0.017100773600112029 0 0.010177370280053832 0.016847580700069989 0 0.0098650934348730648 0.016842415044387122 0 0.010370589847388064 0.016707125644320323 0 0.010394504916748813 0.017044180359667774 0 0.010177370280053832 0.016847580700069989 0 0.01016895280524208 0.016519077676864453 0 0.010370589847388064 0.016707125644320323 0 0.010177370280053832 0.016847580700069989 0 0.01016895280524208 0.016519077676864453 0 0.010177370280053832 0.016847580700069989 0 0.0098650934348730648 0.016842415044387122 0 0.0091748668071596103 0.016276378957044927 0 0.0091671706534533336 0.016360907003118614 0 0.0092158018447401104 0.016350984185421982 0 0.0091671706534533336 0.016360907003118614 0 0.0092158018447401104 0.016350984185421982 0 0.0092314231054299485 0.0161486131566797 0 0.0089018939545525005 0.01630073804433119 0 0.0092158018447401104 0.016350984185421982 0 0.0088309634060798562 0.016583427314201579 0 0.0089018939545525005 0.01630073804433119 0 0.0091748668071596103 0.016276378957044927 0 0.0092158018447401104 0.016350984185421982 0 0.0084675244722333832 0.016358385515596565 0 0.0089018939545525005 0.01630073804433119 0 0.0088309634060798562 0.016583427314201579 0 0.0078692656446497297 0.016092813200428494 0 0.009219309808347332 0.016271567179009655 0 0.0096383676959130131 0.016086646110988648 0 0.0096677887982597743 0.01604487661103431 0 0.0096389380236875238 0.015982513094098229 0 0.0096565581701225593 0.016102792411021152 0 0.0096383676959130131 0.016086646110988648 0 0.0096677887982597743 0.01604487661103431 0 0.009219309808347332 0.016271567179009655 0 0.0092748392729075559 0.016276550560779701 0 0.0096565581701225593 0.016102792411021152 0 0.0096677887982597743 0.01604487661103431 0 0.00973373611692889 0.015995108015747668 0 0.00973373611692889 0.015995108015747668 0 0.0096961616403799383 0.015871207445726246 0 0.0098237167985636125 0.015823412501303868 0 0.0096677887982597743 0.01604487661103431 0 0.00973373611692889 0.015995108015747668 0 0.0096389380236875238 0.015982513094098229 0 0.00973373611692889 0.015995108015747668 0 0.0096961616403799383 0.015871207445726246 0 0.0096389380236875238 0.015982513094098229 0 0.0096383676959130131 0.016086646110988648 0 0.0096389380236875238 0.015982513094098229 0 0.0094926260330380745 0.016034777313769902 0 0.0096961616403799383 0.015871207445726246 0 0.0096389380236875238 0.015982513094098229 0 0.0095902890803045669 0.015857333426689303 0 0.0096389380236875238 0.015982513094098229 0 0.0094926260330380745 0.016034777313769902 0 0.0095902890803045669 0.015857333426689303 0 0.0092088982464751824 0.016369689964331403 0 0.009219309808347332 0.016271567179009655 0 0.0092158018447401104 0.016350984185421982 0 0.0096383676959130131 0.016086646110988648 0 0.0094926260330380745 0.016034777313769902 0 0.0092158018447401104 0.016350984185421982 0 0.009683425733570894 0.016144793822952596 0 0.0096383676959130131 0.016086646110988648 0 0.0094609582760464585 0.015914030045782582 0 0.0094926260330380745 0.016034777313769902 0 0.0095902890803045669 0.015857333426689303 0 0.0094609582760464585 0.015914030045782582 0 0.0094926260330380745 0.016034777313769902 0 0.0093551215425891551 0.01606009897428429 0 0.0092158018447401104 0.016350984185421982 0 0.0094926260330380745 0.016034777313769902 0 0.0093551215425891551 0.01606009897428429 0 0.0092158018447401104 0.016350984185421982 0 0.0092314231054299485 0.0161486131566797 0 0.0093551215425891551 0.01606009897428429 0 0.0091585015364335828 0.016024177800268942 0 0.0092314231054299485 0.0161486131566797 0 0.0093219990237843591 0.015894762358243896 0 0.0092314231054299485 0.0161486131566797 0 0.0093551215425891551 0.01606009897428429 0 0.0093219990237843591 0.015894762358243896 0 0.0094609582760464585 0.015914030045782582 0 0.0093551215425891551 0.01606009897428429 0 0.0093219990237843591 0.015894762358243896 0 0.0091386774179280546 0.015806871405039825 0 0.0093219990237843591 0.015894762358243896 0 0.0093278926414748775 0.015644590810540985 0 0.0093219990237843591 0.015894762358243896 0 0.0094857814480288245 0.015705909974085868 0 0.0093278926414748775 0.015644590810540985 0 0.0094609582760464585 0.015914030045782582 0 0.0093219990237843591 0.015894762358243896 0 0.0094857814480288245 0.015705909974085868 0 0.0094609582760464585 0.015914030045782582 0 0.0094857814480288245 0.015705909974085868 0 0.0095902890803045669 0.015857333426689303 0 0.0094857814480288245 0.015705909974085868 0 0.0093278926414748775 0.015644590810540985 0 0.009441286038664131 0.01541619636561172 0 0.009199686684542626 0.015470144704693935 0 0.0093278926414748775 0.015644590810540985 0 0.009441286038664131 0.01541619636561172 0 0.009441286038664131 0.01541619636561172 0 0.0096776051036110491 0.0156485971377173 0 0.0097636656102592922 0.015263052250622895 0 0.0094857814480288245 0.015705909974085868 0 0.009441286038664131 0.01541619636561172 0 0.0096776051036110491 0.0156485971377173 0 0.0094857814480288245 0.015705909974085868 0 0.0096776051036110491 0.0156485971377173 0 0.0095902890803045669 0.015857333426689303 0 0.0096961616403799383 0.015871207445726246 0 0.0096776051036110491 0.0156485971377173 0 0.0095902890803045669 0.015857333426689303 0 0.0096961616403799383 0.015871207445726246 0 0.0096776051036110491 0.0156485971377173 0 0.0098237167985636125 0.015823412501303868 0 0.0098237167985636125 0.015823412501303868 0 0.0099229883744810319 0.015624683161834945 0 0.010041563473611509 0.015958224657415233 0 0.006234982899329708 0.013782401977692704 0 0.0063692413978903894 0.014789669790096634 0 0.0096776051036110491 0.0156485971377173 0 0.0098237167985636125 0.015823412501303868 0 0.0099229883744810319 0.015624683161834945 0 0.006234982899329708 0.013782401977692704 0 0.0071203724487461876 0.011986309655470234 0 0.0096776051036110491 0.0156485971377173 0 0.0099229883744810319 0.015624683161834945 0 0.0097636656102592922 0.015263052250622895 0 0.0026394834038650007 0.011810893611293687 0 0.0027166284140324017 0.011906400298935391 0 0.0027590037224157699 0.011918399144549414 0 0.0026394834038650007 0.011810893611293687 0 0.0025995180718335845 0.011913287197540114 0 0.0025250354822454533 0.011870857736148696 0 0.0026394834038650007 0.011810893611293687 0 0.0025995180718335845 0.011913287197540114 0 0.0027166284140324017 0.011906400298935391 0 0.0025995180718335845 0.011913287197540114 0 0.0027166284140324017 0.011906400298935391 0 0.0026812452163931561 0.011933229783903506 0 0.0051738325625911991 0.011327320998016701 0 0.0071203724487461876 0.011986309655470234 0 0.0025250354822454533 0.011870857736148696 0 0.00244967180389725 0.011932691060550242 0 0.002401891724237399 0.011885969784417926 0 0.0025995180718335845 0.011913287197540114 0 0.0025250354822454533 0.011870857736148696 0 0.00244967180389725 0.011932691060550242 0 0.0025250354822454533 0.011870857736148696 0 0.002505207576431483 0.011810895068855248 0 0.002401891724237399 0.011885969784417926 0 0.002505207576431483 0.011810895068855248 0 0.002371170161693345 0.011834054762157584 0 0.002401891724237399 0.011885969784417926 0 0.0026394834038650007 0.011810893611293687 0 0.002505207576431483 0.011810895068855248 0 0.0025718916555927248 0.011689590340704442 0 0.002505207576431483 0.011810895068855248 0 0.0025718916555927248 0.011689590340704442 0 0.0023677546653564454 0.011730383942345202 0 0.0026394834038650007 0.011810893611293687 0 0.0025250354822454533 0.011870857736148696 0 0.002505207576431483 0.011810895068855248 0 0.0064090929172679507 0.015819573392949871 0 0.0062616702633456764 0.015621919814081651 0 0.0060881752873394729 0.015902594637467515 0 0.0063692413978903894 0.014789669790096634 0 0.003902529298584988 0.013796985283757376 0 0.0096565581701225593 0.016102792411021152 0 0.00973373611692889 0.015995108015747668 0 0.010041563473611509 0.015958224657415233 0 0.00973373611692889 0.015995108015747668 0 0.0098237167985636125 0.015823412501303868 0 0.010041563473611509 0.015958224657415233 0 0.0077355962709476245 0.016140819488518046 0 0.0074111171027342057 0.01620177497420637 0 0.007512325904298461 0.016063385107460925 0 0.009219309808347332 0.016271567179009655 0 0.0063692413978903894 0.014789669790096634 0 0.0075487123173896362 0.015914346753934407 0 0.007512325904298461 0.016063385107460925 0 0.0072995011198696029 0.015959770303080999 0 0.0075487123173896362 0.015914346753934407 0 0.0077355962709476245 0.016140819488518046 0 0.007512325904298461 0.016063385107460925 0 0.0063692413978903894 0.014789669790096634 0 0.0069175934068271749 0.016027424337876125 0 0.0074111171027342057 0.01620177497420637 0 0.007512325904298461 0.016063385107460925 0 0.0072995011198696029 0.015959770303080999 0 0.0064090929172679507 0.015819573392949871 0 0.0062991040945147968 0.015577673480568528 0 0.0062616702633456764 0.015621919814081651 0 0.0026039799730917831 0.010890028615819185 0 0.0026927086616452098 0.010843351358135798 0 0.0026308392104944221 0.010991626622906477 0 0.0026039799730917831 0.010890028615819185 0 0.0026927086616452098 0.010843351358135798 0 0.002552958735777796 0.010822397020384027 0 0.0032047548212224435 0.011302362150274893 0 0.0033081191990493725 0.009706125116693531 0 0.0026039799730917831 0.010890028615819185 0 0.002552958735777796 0.010822397020384027 0 0.0025204339106102884 0.010902113309674262 0 0.0026039799730917831 0.010890028615819185 0 0.0026308392104944221 0.010991626622906477 0 0.0025204339106102884 0.010902113309674262 0 0.0033081191990493725 0.009706125116693531 0 0.001616260133070877 0.01091702262094321 0 0.00086383158973071458 0.010711396322101857 0 0.0003501185834279145 0.010583635871462958 0 0.00089130777875438578 0.011137869796310861 0 0.0046032272606926373 0.0097689964248669613 0 0.004665062187557645 0.0099253503477990217 0 0.004745302608938992 0.0097209395668392089 0 0.0046032272606926373 0.0097689964248669613 0 0.004665062187557645 0.0099253503477990217 0 0.0044104009079603485 0.0098814660569073367 0 0.0026233623011376562 0.012400359603778999 0 0.0025374608427970609 0.012288764433951034 0 0.0026992643376455316 0.012222348908316909 0 0.0027547001737505713 0.01232376826178567 0 0.0028172419894182802 0.012168108803189838 0 0.0028980518540352197 0.012286368045739234 0 0.0032047548212224435 0.011302362150274893 0 0.0026856846101712228 0.012376621304110753 0 0.0028172419894182802 0.012168108803189838 0 0.0029040094609492193 0.012170105815027137 0 0.0028980518540352197 0.012286368045739234 0 0.0032047548212224435 0.011302362150274893 0 0.0024608046012860028 0.011587305754258044 0 0.0026233623011376562 0.012400359603778999 0 0.0025374608427970609 0.012288764433951034 0 0.0024171358306813123 0.012376199218490825 0 0.0025374608427970609 0.012288764433951034 0 0.0025021887974434223 0.012155961035214161 0 0.002348366976165547 0.012218856931324983 0 0.0025374608427970609 0.012288764433951034 0 0.0024171358306813123 0.012376199218490825 0 0.002348366976165547 0.012218856931324983 0 0.0025021887974434223 0.012155961035214161 0 0.0023413635443987869 0.012090064578649241 0 0.002348366976165547 0.012218856931324983 0 0.0025021887974434223 0.012155961035214161 0 0.002450264892046554 0.012059711601265271 0 0.0026015263924928679 0.012074524294470965 0 0.0025021887974434223 0.012155961035214161 0 0.002450264892046554 0.012059711601265271 0 0.0023413635443987869 0.012090064578649241 0 0.002450264892046554 0.012059711601265271 0 0.0023590997611613448 0.011998834732302194 0 0.0023413635443987869 0.012090064578649241 0 0.002450264892046554 0.012059711601265271 0 0.0025201433055351483 0.0119926399271157 0 0.0023590997611613448 0.011998834732302194 0 0.002450264892046554 0.012059711601265271 0 0.0025201433055351483 0.0119926399271157 0 0.0026015263924928679 0.012074524294470965 0 0.0025995180718335845 0.011913287197540114 0 0.0025201433055351483 0.0119926399271157 0 0.00244967180389725 0.011932691060550242 0 0.0025201433055351483 0.0119926399271157 0 0.00244967180389725 0.011932691060550242 0 0.0023590997611613448 0.011998834732302194 0 0.0026812452163931561 0.011933229783903506 0 0.0026634632575791776 0.011982959661128586 0 0.0027736846151369034 0.011913426249466326 0 0.0027166284140324017 0.011906400298935391 0 0.0026812452163931561 0.011933229783903506 0 0.0027736846151369034 0.011913426249466326 0 0.0025995180718335845 0.011913287197540114 0 0.0026812452163931561 0.011933229783903506 0 0.0026634632575791776 0.011982959661128586 0 0.0025995180718335845 0.011913287197540114 0 0.0025201433055351483 0.0119926399271157 0 0.0026634632575791776 0.011982959661128586 0 0.0025201433055351483 0.0119926399271157 0 0.0026634632575791776 0.011982959661128586 0 0.0026015263924928679 0.012074524294470965 0 0.0026634632575791776 0.011982959661128586 0 0.0026015263924928679 0.012074524294470965 0 0.0028106167105029062 0.012038702495261819 0 0.0026634632575791776 0.011982959661128586 0 0.0028106167105029062 0.012038702495261819 0 0.0027736846151369034 0.011913426249466326 0 0.0026856846101712228 0.012376621304110753 0 0.0028327346878437836 0.011990559880777879 0 0.0026015263924928679 0.012074524294470965 0 0.0026992643376455316 0.012222348908316909 0 0.0028106167105029062 0.012038702495261819 0 0.0028172419894182802 0.012168108803189838 0 0.0029040094609492193 0.012170105815027137 0 0.0028106167105029062 0.012038702495261819 0 0.0025021887974434223 0.012155961035214161 0 0.0026015263924928679 0.012074524294470965 0 0.0026992643376455316 0.012222348908316909 0 0.0025374608427970609 0.012288764433951034 0 0.0025021887974434223 0.012155961035214161 0 0.0026992643376455316 0.012222348908316909 0 0.0029040094609492193 0.012170105815027137 0 0.0029934636451025573 0.012123291196926882 0 0.0028106167105029062 0.012038702495261819 0 0.0071203724487461876 0.011986309655470234 0 0.0099865028144107797 0.012516413239743318 0 0.005998407516364837 0.0107054284404163 0 0.0071203724487461876 0.011986309655470234 0 0.0029934636451025573 0.012123291196926882 0 0.0028106167105029062 0.012038702495261819 0 0.0027736846151369034 0.011913426249466326 0 0.009441286038664131 0.01541619636561172 0 0.0097636656102592922 0.015263052250622895 0 0.0094122832718866109 0.015088072139208191 0 0.009624457542314958 0.0099718555099062075 0 0.0091622827285462328 0.0090630748734200402 0 0.010117055954674086 0.0095112772511321882 0 0.009441286038664131 0.01541619636561172 0 0.0094122832718866109 0.015088072139208191 0 0.0092188051648007113 0.015230036508647507 0 0.010117055954674086 0.0095112772511321882 0 0.010080718980884421 0.0099389835374091903 0 0.010507360321576243 0.010072383967235339 0 0.009624457542314958 0.0099718555099062075 0 0.010117055954674086 0.0095112772511321882 0 0.010080718980884421 0.0099389835374091903 0 0.009624457542314958 0.0099718555099062075 0 0.010080718980884421 0.0099389835374091903 0 0.010206465755541329 0.010329712132081722 0 0.010080718980884421 0.0099389835374091903 0 0.010206465755541329 0.010329712132081722 0 0.010507360321576243 0.010072383967235339 0 0.009624457542314958 0.0099718555099062075 0 0.010206465755541329 0.010329712132081722 0 0.010074226644883881 0.010974260266819984 0 0.010206465755541329 0.010329712132081722 0 0.010359363648204303 0.010704772528082567 0 0.010074226644883881 0.010974260266819984 0 0.005998407516364837 0.0107054284404163 0 0.0073108416060028306 0.011622793675252246 0 0.010206465755541329 0.010329712132081722 0 0.010359363648204303 0.010704772528082567 0 0.010592883451132058 0.010427218907905924 0 0.0029934636451025573 0.012123291196926882 0 0.002999761785081107 0.012254576029857907 0 0.0031947461558794648 0.012382856985034069 0 0.0027547001737505713 0.01232376826178567 0 0.0028980518540352197 0.012286368045739234 0 0.0030433148145021091 0.012373992896275795 0 0.0029040094609492193 0.012170105815027137 0 0.0029934636451025573 0.012123291196926882 0 0.002999761785081107 0.012254576029857907 0 0.0029040094609492193 0.012170105815027137 0 0.002999761785081107 0.012254576029857907 0 0.0028980518540352197 0.012286368045739234 0 0.0028980518540352197 0.012286368045739234 0 0.0029923995198807797 0.012311119518687861 0 0.0030433148145021091 0.012373992896275795 0 0.002999761785081107 0.012254576029857907 0 0.0028980518540352197 0.012286368045739234 0 0.0029923995198807797 0.012311119518687861 0 0.002999761785081107 0.012254576029857907 0 0.0030539923624607469 0.012346190989146152 0 0.0031947461558794648 0.012382856985034069 0 0.002999761785081107 0.012254576029857907 0 0.0029923995198807797 0.012311119518687861 0 0.0030539923624607469 0.012346190989146152 0 0.0046237966630218079 0.010721862983945389 0 0.0061782235946318273 0.0080991345736265621 0 0.0071455822390839438 0.0095374190129873943 0 0.007249864319993941 0.009551674093330742 0 0.0071035029324255762 0.00973645240220734 0 0.0046032272606926373 0.0097689964248669613 0 0.0044104009079603485 0.0098814660569073367 0 0.0044716020611034512 0.0096294189417150886 0 0.0032047548212224435 0.011302362150274893 0 0.0046237966630218079 0.010721862983945389 0 0.0046237966630218079 0.010721862983945389 0 0.0044752539920365148 0.011086432145825095 0 0.0029923995198807797 0.012311119518687861 0 0.0030433148145021091 0.012373992896275795 0 0.0030539923624607469 0.012346190989146152 0 0.010201832810601386 0.010996880632601071 0 0.01006187730566885 0.010975616331860744 0 0.01053213178893558 0.012004718079735925 0 0.010359363648204303 0.010704772528082567 0 0.010201832810601386 0.010996880632601071 0 0.010557007759111548 0.010951042174205164 0 0.0081690194657322683 0.011654411686673425 0 0.0073108416060028306 0.011622793675252246 0 0.010359363648204303 0.010704772528082567 0 0.010201832810601386 0.010996880632601071 0 0.010074226644883881 0.010974260266819984 0 0.0030503031316796211 0.0123741629143407 0 0.0030539923624607469 0.012346190989146152 0 0.0031947461558794648 0.012382856985034069 0 0.0046237966630218079 0.010721862983945389 0 0.0073108416060028306 0.011622793675252246 0 0.010201832810601386 0.010996880632601071 0 0.01068746422263123 0.011282141462970611 0 0.01053213178893558 0.012004718079735925 0 0.010841622332472977 0.011019822132085026 0 0.011202315570632389 0.010645707613368629 0 0.010701331583093061 0.010760095731607041 0 0.010841622332472977 0.011019822132085026 0 0.011127844364644379 0.011181840736780527 0 0.011202315570632389 0.010645707613368629 0 0.010841622332472977 0.011019822132085026 0 0.010557007759111548 0.010951042174205164 0 0.010701331583093061 0.010760095731607041 0 0.010201832810601386 0.010996880632601071 0 0.010557007759111548 0.010951042174205164 0 0.01068746422263123 0.011282141462970611 0 0.010359363648204303 0.010704772528082567 0 0.010557007759111548 0.010951042174205164 0 0.010701331583093061 0.010760095731607041 0 0.010841622332472977 0.011019822132085026 0 0.010557007759111548 0.010951042174205164 0 0.01068746422263123 0.011282141462970611 0 0.010841622332472977 0.011019822132085026 0 0.01068746422263123 0.011282141462970611 0 0.011127844364644379 0.011181840736780527 0 0.01068746422263123 0.011282141462970611 0 0.011127844364644379 0.011181840736780527 0 0.01103631771597182 0.011599137820697738 0 0.011127844364644379 0.011181840736780527 0 0.011494867307586474 0.011484840326215018 0 0.01103631771597182 0.011599137820697738 0 0.011127844364644379 0.011181840736780527 0 0.011649491081198097 0.011053036970365858 0 0.011494867307586474 0.011484840326215018 0 0.011649491081198097 0.011053036970365858 0 0.012026150478682201 0.01148005549789187 0 0.011494867307586474 0.011484840326215018 0 0.011127844364644379 0.011181840736780527 0 0.011649491081198097 0.011053036970365858 0 0.011202315570632389 0.010645707613368629 0 0.011202315570632389 0.010645707613368629 0 0.011175905777053243 0.0099072052258946143 0 0.012355441136996761 0.010476079397471558 0 0.011649491081198097 0.011053036970365858 0 0.011202315570632389 0.010645707613368629 0 0.012355441136996761 0.010476079397471558 0 0.011618299408881181 0.011405473776537093 0 0.01488531903731102 0.010328194988594623 0 0.011202315570632389 0.010645707613368629 0 0.010919992969728291 0.010260849614818655 0 0.011175905777053243 0.0099072052258946143 0 0.010919992969728291 0.010260849614818655 0 0.010851836100180512 0.010522559505426217 0 0.010592883451132058 0.010427218907905924 0 0.011202315570632389 0.010645707613368629 0 0.010919992969728291 0.010260849614818655 0 0.010851836100180512 0.010522559505426217 0 0.011202315570632389 0.010645707613368629 0 0.010851836100180512 0.010522559505426217 0 0.010701331583093061 0.010760095731607041 0 0.010851836100180512 0.010522559505426217 0 0.010701331583093061 0.010760095731607041 0 0.010592883451132058 0.010427218907905924 0 0.010359363648204303 0.010704772528082567 0 0.010701331583093061 0.010760095731607041 0 0.010592883451132058 0.010427218907905924 0 0.010206465755541329 0.010329712132081722 0 0.010592883451132058 0.010427218907905924 0 0.010507360321576243 0.010072383967235339 0 0.010919992969728291 0.010260849614818655 0 0.010592883451132058 0.010427218907905924 0 0.010507360321576243 0.010072383967235339 0 0.0099865028144107797 0.012516413239743318 0 0.011618299408881181 0.011405473776537093 0 0.010117055954674086 0.0095112772511321882 0 0.010507360321576243 0.010072383967235339 0 0.011119607708922253 0.0099849137081779518 0 0.010919992969728291 0.010260849614818655 0 0.010507360321576243 0.010072383967235339 0 0.011119607708922253 0.0099849137081779518 0 0.011475869122434203 0.010469810941687014 0 0.011618299408881181 0.011405473776537093 0 0.0094122832718866109 0.015088072139208191 0 0.0092188051648007113 0.015230036508647507 0 0.009174447320420609 0.014950610728850544 0 0.0091323361050740168 0.015322507048063335 0 0.0092188051648007113 0.015230036508647507 0 0.0090627202324393887 0.015177740862912889 0 0.0092188051648007113 0.015230036508647507 0 0.0090627202324393887 0.015177740862912889 0 0.009174447320420609 0.014950610728850544 0 0.016727750862471882 0.010437022549062666 0 0.016768737958095581 0.010423552677222291 0 0.01679411046619193 0.01036982787274906 0 0.012841575610998175 0.013024752197843079 0 0.011618299408881181 0.011405473776537093 0 0.016760845864963052 0.010453823204188677 0 0.016727750862471882 0.010437022549062666 0 0.016768737958095581 0.010423552677222291 0 0.016760845864963052 0.010453823204188677 0 0.016768737958095581 0.010423552677222291 0 0.016777335630889425 0.01043307877515889 0 0.016768737958095581 0.010423552677222291 0 0.016777335630889425 0.01043307877515889 0 0.01679411046619193 0.01036982787274906 0 0.016755886981483774 0.010501149329182911 0 0.016760845864963052 0.010453823204188677 0 0.016777335630889425 0.01043307877515889 0 0.016764514162308439 0.010486420836504168 0 0.016755886981483774 0.010501149329182911 0 0.016777335630889425 0.01043307877515889 0 0.016764514162308439 0.010486420836504168 0 0.016777335630889425 0.01043307877515889 0 0.016774980161130177 0.010423780204319846 0 0.016777335630889425 0.01043307877515889 0 0.0167879521189605 0.010372752401808009 0 0.016774980161130177 0.010423780204319846 0 0.016777335630889425 0.01043307877515889 0 0.0167879521189605 0.010372752401808009 0 0.01679411046619193 0.01036982787274906 0 0.0167879521189605 0.010372752401808009 0 0.01679411046619193 0.01036982787274906 0 0.016778670120703901 0.010288975649895936 0 0.01679411046619193 0.01036982787274906 0 0.016778670120703901 0.010288975649895936 0 0.016786767970256859 0.010194099267052399 0 0.011649491081198097 0.011053036970365858 0 0.012355441136996761 0.010476079397471558 0 0.012026150478682201 0.01148005549789187 0 0.012355441136996761 0.010476079397471558 0 0.012758294607370609 0.011274245647581092 0 0.012026150478682201 0.01148005549789187 0 0.012758294607370609 0.011274245647581092 0 0.013085523882750834 0.012069910748227013 0 0.013574955282731295 0.011090129133112631 0 0.012355441136996761 0.010476079397471558 0 0.012758294607370609 0.011274245647581092 0 0.013574955282731295 0.011090129133112631 0 0.01488531903731102 0.010328194988594623 0 0.015734589061454099 0.010430948098128731 0 0.013952368489872111 0.010871211813454447 0 0.015734589061454099 0.010430948098128731 0 0.012984176250188058 0.011979371195109957 0 0.012026150478682201 0.01148005549789187 0 0.012874747312924531 0.012198295351442016 0 0.012758294607370609 0.011274245647581092 0 0.013085523882750834 0.012069910748227013 0 0.012026150478682201 0.01148005549789187 0 0.013952368489872111 0.010871211813454447 0 0.013612212467725444 0.0088430849899097195 0 0.013952368489872111 0.010871211813454447 0 0.015828289480286851 0.0095440048608111932 0 0.012026150478682201 0.01148005549789187 0 0.012874747312924531 0.012198295351442016 0 0.011716371027548 0.012121228379051781 0 0.013952368489872111 0.010871211813454447 0 0.011858302347918627 0.011720546491302433 0 0.012197391921855063 0.0073830065562978213 0 0.012033601166705736 0.007657451989609639 0 0.011881580046265623 0.0075365946307508081 0 0.013612212467725444 0.0088430849899097195 0 0.011889209165420411 0.0099656812926335377 0 0.012197391921855063 0.0073830065562978213 0 0.011881580046265623 0.0075365946307508081 0 0.011881460094306538 0.007345760498148282 0 0.013612212467725444 0.0088430849899097195 0 0.014345991621819574 0.0074572476404531135 0 0.015822690748590069 0.0081691479081219022 0 0.015886479844430344 0.0078337644776424898 0 0.016028264359348593 0.0076136244211444295 0 0.015822690748590069 0.0081691479081219022 0 0.015660727228121809 0.0079617925230523919 0 0.01545790322180559 0.0081837854502182211 0 0.013612212467725444 0.0088430849899097195 0 0.015828289480286851 0.0095440048608111932 0 0.014047265068769216 0.0090573279775963272 0 0.013740536720390743 0.0096724775968312759 0 0.015426333333606053 0.0098250595413161886 0 0.015822690748590069 0.0081691479081219022 0 0.015660727228121809 0.0079617925230523919 0 0.015886479844430344 0.0078337644776424898 0 0.015660727228121809 0.0079617925230523919 0 0.015886479844430344 0.0078337644776424898 0 0.015482999433167241 0.0076440015224613 0 0.015886479844430344 0.0078337644776424898 0 0.015839500801839435 0.0073960828788728001 0 0.015482999433167241 0.0076440015224613 0 0.015886479844430344 0.0078337644776424898 0 0.015839500801839435 0.0073960828788728001 0 0.016291086355523267 0.0072264275765592089 0 0.015839500801839435 0.0073960828788728001 0 0.015611839703983632 0.007189962078723103 0 0.015482999433167241 0.0076440015224613 0 0.015839500801839435 0.0073960828788728001 0 0.015611839703983632 0.007189962078723103 0 0.015977368067599328 0.0070601094930085187 0 0.015839500801839435 0.0073960828788728001 0 0.015977368067599328 0.0070601094930085187 0 0.016291086355523267 0.0072264275765592089 0 0.015611839703983632 0.007189962078723103 0 0.015977368067599328 0.0070601094930085187 0 0.015709605156753709 0.006825625397081596 0 0.016381748156482741 0.0071962142685242873 0 0.014297297793639622 0.006992684940732667 0 0.014345991621819574 0.0074572476404531135 0 0.012438611202115925 0.0070573774316605303 0 0.016016860273772172 0.007451344023759225 0 0.016028264359348593 0.0076136244211444295 0 0.016121527336537697 0.0071564634390367315 0 0.015977368067599328 0.0070601094930085187 0 0.016291086355523267 0.0072264275765592089 0 0.016271489007136625 0.006845576143755608 0 0.015848755761536614 0.0078618713054044598 0 0.016381748156482741 0.0071962142685242873 0 0.015886479844430344 0.0078337644776424898 0 0.016016860273772172 0.007451344023759225 0 0.016028264359348593 0.0076136244211444295 0 0.011881580046265623 0.0075365946307508081 0 0.011787938931008001 0.0077269658574524759 0 0.011670729768474568 0.00752919088298759 0 0.012033601166705736 0.007657451989609639 0 0.011881580046265623 0.0075365946307508081 0 0.011787938931008001 0.0077269658574524759 0 0.0086753840702530442 0.0063943786316211998 0 0.0086767723717364065 0.0068155555297637572 0 0.00839393218361369 0.0068680341529292893 0 0.0086753840702530442 0.0063943786316211998 0 0.0088944483529841724 0.0068644405489213548 0 0.0086767723717364065 0.0068155555297637572 0 0.010108730255131664 0.0070753940042850008 0 0.012438611202115925 0.0070573774316605303 0 0.012033601166705736 0.007657451989609639 0 0.011787938931008001 0.0077269658574524759 0 0.01188827476965745 0.0079150088411271639 0 0.0086753840702530442 0.0063943786316211998 0 0.0081943286577632023 0.0064684035707902399 0 0.00839393218361369 0.0068680341529292893 0 0.010108730255131664 0.0070753940042850008 0 0.0099722809512935284 0.0063578713294738069 0 0.0081943286577632023 0.0064684035707902399 0 0.0084388272926528493 0.0058962789020205299 0 0.0078540115741154316 0.0061506479650676625 0 0.0086753840702530442 0.0063943786316211998 0 0.0081943286577632023 0.0064684035707902399 0 0.0084388272926528493 0.0058962789020205299 0 0.0084388272926528493 0.0058962789020205299 0 0.0081978986361514825 0.0054069653393509871 0 0.0080167761752314715 0.0058008861043112618 0 0.011670729768474568 0.00752919088298759 0 0.011881460094306538 0.007345760498148282 0 0.011550513375674653 0.0073168118184357206 0 0.0099722809512935284 0.0063578713294738069 0 0.0096127258596594625 0.0085808343588243581 0 0.011881580046265623 0.0075365946307508081 0 0.011670729768474568 0.00752919088298759 0 0.011881460094306538 0.007345760498148282 0 0.012026150478682201 0.01148005549789187 0 0.011716371027548 0.012121228379051781 0 0.011494867307586474 0.011484840326215018 0 0.011716371027548 0.012121228379051781 0 0.011494867307586474 0.011484840326215018 0 0.01103631771597182 0.011599137820697738 0 0.011889209165420411 0.0099656812926335377 0 0.0096127258596594625 0.0085808343588243581 0 0.011716371027548 0.012121228379051781 0 0.01103631771597182 0.011599137820697738 0 0.01053213178893558 0.012004718079735925 0 0.01068746422263123 0.011282141462970611 0 0.01103631771597182 0.011599137820697738 0 0.01053213178893558 0.012004718079735925 0 0.007249864319993941 0.009551674093330742 0 0.0073709380478033902 0.0097601035866789147 0 0.0071035029324255762 0.00973645240220734 0 0.0096127258596594625 0.0085808343588243581 0 0.0061782235946318273 0.0080991345736265621 0 0.0081978986361514825 0.0054069653393509871 0 0.0074850130072472709 0.0053457120356767219 0 0.0078184141883995643 0.0055977920601028401 0 0.0073108416060028306 0.011622793675252246 0 0.0096127258596594625 0.0085808343588243581 0 0.0074850130072472709 0.0053457120356767219 0 0.0075614165964827135 0.0056549318086163685 0 0.0078184141883995643 0.0055977920601028401 0 0.0074850130072472709 0.0053457120356767219 0 0.0075614165964827135 0.0056549318086163685 0 0.007393628499260725 0.0057199146657436794 0 0.0061782235946318273 0.0080991345736265621 0 0.0067624510042826524 0.0060059206186130485 0 0.0075614165964827135 0.0056549318086163685 0 0.007393628499260725 0.0057199146657436794 0 0.0076928711361943861 0.0058690656656641763 0 0.0075614165964827135 0.0056549318086163685 0 0.0076928711361943861 0.0058690656656641763 0 0.0078184141883995643 0.0055977920601028401 0 0.0076928711361943861 0.0058690656656641763 0 0.0078184141883995643 0.0055977920601028401 0 0.0080167761752314715 0.0058008861043112618 0 0.0081978986361514825 0.0054069653393509871 0 0.0078184141883995643 0.0055977920601028401 0 0.0080167761752314715 0.0058008861043112618 0 0.0084388272926528493 0.0058962789020205299 0 0.0080167761752314715 0.0058008861043112618 0 0.0078540115741154316 0.0061506479650676625 0 0.0076928711361943861 0.0058690656656641763 0 0.0080167761752314715 0.0058008861043112618 0 0.0078540115741154316 0.0061506479650676625 0 0.0081943286577632023 0.0064684035707902399 0 0.0077179209115671677 0.0065282075707092388 0 0.0080702162108521446 0.0069207062189973415 0 0.0081943286577632023 0.0064684035707902399 0 0.0078540115741154316 0.0061506479650676625 0 0.0077179209115671677 0.0065282075707092388 0 0.0077179209115671677 0.0065282075707092388 0 0.0074475205640802287 0.0067301670328764555 0 0.0072259210716637146 0.0062106416804003405 0 0.0074475205640802287 0.0067301670328764555 0 0.0072259210716637146 0.0062106416804003405 0 0.0069627197550156377 0.0068604007245493728 0 0.0078540115741154316 0.0061506479650676625 0 0.0077179209115671677 0.0065282075707092388 0 0.0072259210716637146 0.0062106416804003405 0 0.0067624510042826524 0.0060059206186130485 0 0.0070967188682491376 0.0062779278556799279 0 0.0076928711361943861 0.0058690656656641763 0 0.0078540115741154316 0.0061506479650676625 0 0.0072259210716637146 0.0062106416804003405 0 0.007393628499260725 0.0057199146657436794 0 0.0076928711361943861 0.0058690656656641763 0 0.0072259210716637146 0.0062106416804003405 0 0.0069187673298947159 0.0063821983743414818 0 0.0067514192912202309 0.0061254304579957388 0 0.0065137774929738919 0.0062241247539069197 0 0.0069649803555932536 0.0059588472977910034 0 0.0069187673298947159 0.0063821983743414818 0 0.0067514192912202309 0.0061254304579957388 0 0.0069187673298947159 0.0063821983743414818 0 0.0066280155441750775 0.0065277245482122598 0 0.0065137774929738919 0.0062241247539069197 0 0.0067514192912202309 0.0061254304579957388 0 0.0065137774929738919 0.0062241247539069197 0 0.0066052414454473747 0.0059465903000669737 0 0.0070967188682491376 0.0062779278556799279 0 0.006960815290560805 0.0068413726212193469 0 0.0069187673298947159 0.0063821983743414818 0 0.0066280155441750775 0.0065277245482122598 0 0.0069627197550156377 0.0068604007245493728 0 0.0066280155441750775 0.0065277245482122598 0 0.0064730916256275396 0.006763572497893596 0 0.0069627197550156377 0.0068604007245493728 0 0.0061721066686237737 0.0066640619858537656 0 0.0063505208197003468 0.0064454753923849509 0 0.0060810644371765655 0.0062558221461297076 0 0.0062284489014220448 0.0065016218259855048 0 0.0032211433521807027 0.0073973701611103121 0 0.0061721066686237737 0.0066640619858537656 0 0.0064730916256275396 0.006763572497893596 0 0.0063606559789396609 0.0071218791288661576 0 0.0061721066686237737 0.0066640619858537656 0 0.0064730916256275396 0.006763572497893596 0 0.0063505208197003468 0.0064454753923849509 0 0.0066280155441750775 0.0065277245482122598 0 0.0064730916256275396 0.006763572497893596 0 0.0063505208197003468 0.0064454753923849509 0 0.0065137774929738919 0.0062241247539069197 0 0.0062353886927920396 0.0059245977601603949 0 0.0060810644371765655 0.0062558221461297076 0 0.0063505208197003468 0.0064454753923849509 0 0.0065137774929738919 0.0062241247539069197 0 0.0060810644371765655 0.0062558221461297076 0 0.0066280155441750775 0.0065277245482122598 0 0.0063505208197003468 0.0064454753923849509 0 0.0065137774929738919 0.0062241247539069197 0 0.0062353886927920396 0.0059245977601603949 0 0.0064493925367723002 0.0057939880237597692 0 0.0066052414454473747 0.0059465903000669737 0 0.0035042747627308047 0.0076628359292626857 0 0.0032211433521807027 0.0073973701611103121 0 0.0065137774929738919 0.0062241247539069197 0 0.0062353886927920396 0.0059245977601603949 0 0.0066052414454473747 0.0059465903000669737 0 0.0062353886927920396 0.0059245977601603949 0 0.0064493925367723002 0.0057939880237597692 0 0.0063686631451013954 0.0056068558389991323 0 0.0064493925367723002 0.0057939880237597692 0 0.0066052414454473747 0.0059465903000669737 0 0.006554683199219969 0.0056166943773035237 0 0.0069649803555932536 0.0059588472977910034 0 0.0067514192912202309 0.0061254304579957388 0 0.0066052414454473747 0.0059465903000669737 0 0.0069649803555932536 0.0059588472977910034 0 0.0066052414454473747 0.0059465903000669737 0 0.006554683199219969 0.0056166943773035237 0 0.0067624510042826524 0.0060059206186130485 0 0.0051175192344192202 0.0081655900077721513 0 0.0046032272606926373 0.0097689964248669613 0 0.0044716020611034512 0.0096294189417150886 0 0.00468295833692317 0.0096538511533425034 0 0.0061782235946318273 0.0080991345736265621 0 0.0051175192344192202 0.0081655900077721513 0 0.0059634273047218462 0.0074083513218271592 0 0.0059734654187730404 0.0073684187401693371 0 0.0060031867803139131 0.0074168507525108236 0 0.0046032272606926373 0.0097689964248669613 0 0.00468295833692317 0.0096538511533425034 0 0.004745302608938992 0.0097209395668392089 0 0.0042613624268829026 0.0087647008708624883 0 0.0038417359903291344 0.0083705609483941401 0 0.0037055120577862777 0.0087159150970545409 0 0.00071204373400467896 0.0095516391297707798 0 0.00061911330500181733 0.010355416377759273 0 0.00096485591520506346 0.010066843542388756 0 0.00071204373400467896 0.0095516391297707798 0 0.00042780141341558769 0.010334123253643435 0 0.00061911330500181733 0.010355416377759273 0 0.0051175192344192202 0.0081655900077721513 0 0.0033081191990493725 0.009706125116693531 0 0.0033081191990493725 0.009706125116693531 0 0.0035147474972207398 0.0085174373299752183 0 0.0003501185834279145 0.010583635871462958 0 0.0004449924246624131 0.01033912402408534 0 0.00061911330500181733 0.010355416377759273 0 0.00086383158973071458 0.010711396322101857 0 0.0003501185834279145 0.010583635871462958 0 0.00061911330500181733 0.010355416377759273 0 0.00086383158973071458 0.010711396322101857 0 0.00061911330500181733 0.010355416377759273 0 0.00091214436256494458 0.010398312464263239 0 0.0035147474972207398 0.0085174373299752183 0 0.0022485817925051261 0.008705229848385624 0 0.0035042747627308047 0.0076628359292626857 0 0.0035147474972207398 0.0085174373299752183 0 0.00061911330500181733 0.010355416377759273 0 0.00096485591520506346 0.010066843542388756 0 0.00091214436256494458 0.010398312464263239 0 0.0051175192344192202 0.0081655900077721513 0 0.0035147474972207398 0.0085174373299752183 0 0.0064493925367723002 0.0057939880237597692 0 0.006554683199219969 0.0056166943773035237 0 0.0063686631451013954 0.0056068558389991323 0 0.01595833220470512 0.010089661977647442 0 0.015691627195948347 0.010088023526795097 0 0.015914984693410426 0.010322985838461848 0 0.016140089774145404 0.010282473526621675 0 0.016211479905241143 0.0099771717938741261 0 0.016387059557128648 0.010241551319131114 0 0.01595833220470512 0.010089661977647442 0 0.016140089774145404 0.010282473526621675 0 0.016211479905241143 0.0099771717938741261 0 0.01595833220470512 0.010089661977647442 0 0.015914984693410426 0.010322985838461848 0 0.016140089774145404 0.010282473526621675 0 0.01595833220470512 0.010089661977647442 0 0.016211479905241143 0.0099771717938741261 0 0.015911393075950585 0.0098257240802271401 0 0.016211479905241143 0.0099771717938741261 0 0.015911393075950585 0.0098257240802271401 0 0.016105580414369786 0.0096176122844219523 0 0.015769873591087377 0.010006087415518804 0 0.01572504059783008 0.0095071821496089289 0 0.015691627195948347 0.010088023526795097 0 0.015911393075950585 0.0098257240802271401 0 0.015700298965281807 0.0094643443139885222 0 0.015872908850327553 0.0099280910854799009 0 0.015766800642373156 0.0097207084702139509 0 0.015700298965281807 0.0094643443139885222 0 0.01595833220470512 0.010089661977647442 0 0.015691627195948347 0.010088023526795097 0 0.015911393075950585 0.0098257240802271401 0 0.015872908850327553 0.0099280910854799009 0 0.015766800642373156 0.0097207084702139509 0 0.015438775082290145 0.0098955746886748627 0 0.015766800642373156 0.0097207084702139509 0 0.015438775082290145 0.0098955746886748627 0 0.015403001364150386 0.009404395118320176 0 0.014999971252921138 0.0096664118492123668 0 0.015438775082290145 0.0098955746886748627 0 0.015403001364150386 0.009404395118320176 0 0.014999971252921138 0.0096664118492123668 0 0.015438775082290145 0.0098955746886748627 0 0.014999955994670619 0.010458225352297752 0 0.015438775082290145 0.0098955746886748627 0 0.015519395786838152 0.010403022191564915 0 0.014999955994670619 0.010458225352297752 0 0.015872908850327553 0.0099280910854799009 0 0.015438775082290145 0.0098955746886748627 0 0.015519395786838152 0.010403022191564915 0 0.015872908850327553 0.0099280910854799009 0 0.015835522314694706 0.010706353597499682 0 0.015519395786838152 0.010403022191564915 0 0.015835522314694706 0.010706353597499682 0 0.015519395786838152 0.010403022191564915 0 0.015404345082132018 0.010988042555112289 0 0.015519395786838152 0.010403022191564915 0 0.014999955994670619 0.010458225352297752 0 0.015404345082132018 0.010988042555112289 0 0.014999958852821217 0.011250161452186149 0 0.014999955994670619 0.010458225352297752 0 0.015404345082132018 0.010988042555112289 0 0.015689431004295814 0.011429378917646203 0 0.015835522314694706 0.010706353597499682 0 0.015404345082132018 0.010988042555112289 0 0.015690560717256323 0.011372523560123209 0 0.015749057975097226 0.010681421446509317 0 0.016051840936298661 0.011405133217233758 0 0.015689431004295814 0.011429378917646203 0 0.015663676116907378 0.010638531992378972 0 0.016051840936298661 0.011405133217233758 0 0.015663676116907378 0.010638531992378972 0 0.016135857951093575 0.010551675184339691 0 0.016081242580993586 0.010984708009499201 0 0.016117729855058726 0.010645412272810956 0 0.015914984693410426 0.010322985838461848 0 0.015663676116907378 0.010638531992378972 0 0.016135857951093575 0.010551675184339691 0 0.015769873591087377 0.010006087415518804 0 0.015749057975097226 0.010681421446509317 0 0.015691627195948347 0.010088023526795097 0 0.015914984693410426 0.010322985838461848 0 0.015663676116907378 0.010638531992378972 0 0.016140089774145404 0.010282473526621675 0 0.016135857951093575 0.010551675184339691 0 0.016300108255434737 0.010486683158231459 0 0.015914984693410426 0.010322985838461848 0 0.016140089774145404 0.010282473526621675 0 0.016135857951093575 0.010551675184339691 0 0.016135857951093575 0.010551675184339691 0 0.016224536750951056 0.010699235325347372 0 0.016300108255434737 0.010486683158231459 0 0.016024517840172749 0.010811004279347553 0 0.016135857951093575 0.010551675184339691 0 0.016224536750951056 0.010699235325347372 0 0.016400295929828831 0.010769914328645715 0 0.016224536750951056 0.010699235325347372 0 0.016391982273760805 0.010588737353830166 0 0.016224536750951056 0.010699235325347372 0 0.016391982273760805 0.010588737353830166 0 0.016300108255434737 0.010486683158231459 0 0.016400295929828831 0.010769914328645715 0 0.016391982273760805 0.010588737353830166 0 0.01654217729640849 0.010582818170568978 0 0.016391982273760805 0.010588737353830166 0 0.01654217729640849 0.010582818170568978 0 0.016491665077121197 0.010427288147317679 0 0.01654217729640849 0.010582818170568978 0 0.016491665077121197 0.010427288147317679 0 0.016659042067111631 0.010409244128846263 0 0.016491665077121197 0.010427288147317679 0 0.016659042067111631 0.010409244128846263 0 0.016643369255896906 0.010232190184542659 0 0.016491665077121197 0.010427288147317679 0 0.016300108255434737 0.010486683158231459 0 0.016387059557128648 0.010241551319131114 0 0.016140089774145404 0.010282473526621675 0 0.016300108255434737 0.010486683158231459 0 0.016387059557128648 0.010241551319131114 0 0.016391982273760805 0.010588737353830166 0 0.016491665077121197 0.010427288147317679 0 0.016300108255434737 0.010486683158231459 0 0.017126924456447219 0.010591343937570961 0 0.016675373664012127 0.010492856266854393 0 0.016764514162308439 0.010486420836504168 0 0.016750420895952529 0.010524803255994735 0 0.016774980161130177 0.010423780204319846 0 0.01654217729640849 0.010582818170568978 0 0.016750420895952529 0.010524803255994735 0 0.016659042067111631 0.010409244128846263 0 0.01656539749760472 0.010761991223224415 0 0.01654217729640849 0.010582818170568978 0 0.016750420895952529 0.010524803255994735 0 0.016659042067111631 0.010409244128846263 0 0.016774980161130177 0.010423780204319846 0 0.016718458438093612 0.010303480824789775 0 0.016750420895952529 0.010524803255994735 0 0.016659042067111631 0.010409244128846263 0 0.016774980161130177 0.010423780204319846 0 0.0167879521189605 0.010372752401808009 0 0.016774980161130177 0.010423780204319846 0 0.016778670120703901 0.010288975649895936 0 0.016774980161130177 0.010423780204319846 0 0.016778670120703901 0.010288975649895936 0 0.016718458438093612 0.010303480824789775 0 0.016778670120703901 0.010288975649895936 0 0.016742327495019797 0.010187305754770365 0 0.016760499323252728 0.010195387291347757 0 0.016778670120703901 0.010288975649895936 0 0.016718458438093612 0.010303480824789775 0 0.016742327495019797 0.010187305754770365 0 0.016718458438093612 0.010303480824789775 0 0.016742327495019797 0.010187305754770365 0 0.016643369255896906 0.010232190184542659 0 0.016742327495019797 0.010187305754770365 0 0.016643369255896906 0.010232190184542659 0 0.01673217830038537 0.01003374801827191 0 0.016659042067111631 0.010409244128846263 0 0.016718458438093612 0.010303480824789775 0 0.016643369255896906 0.010232190184542659 0 0.016742327495019797 0.010187305754770365 0 0.016728452970050382 0.010098065082750296 0 0.01673217830038537 0.01003374801827191 0 0.016742327495019797 0.010187305754770365 0 0.016760499323252728 0.010195387291347757 0 0.016728452970050382 0.010098065082750296 0 0.016728452970050382 0.010098065082750296 0 0.016710880519495777 0.010089330571844019 0 0.016715341607287177 0.010090997405562272 0 0.016760499323252728 0.010195387291347757 0 0.016728452970050382 0.010098065082750296 0 0.016786767970256859 0.010194099267052399 0 0.016781597724198332 0.010335795122239241 0 0.015734589061454099 0.010430948098128731 0 0.016778670120703901 0.010288975649895936 0 0.016760499323252728 0.010195387291347757 0 0.016786767970256859 0.010194099267052399 0 0.016211479905241143 0.0099771717938741261 0 0.016387059557128648 0.010241551319131114 0 0.016524149039399732 0.010063510664586453 0 0.016491665077121197 0.010427288147317679 0 0.016387059557128648 0.010241551319131114 0 0.016643369255896906 0.010232190184542659 0 0.016387059557128648 0.010241551319131114 0 0.016643369255896906 0.010232190184542659 0 0.016524149039399732 0.010063510664586453 0 0.016643369255896906 0.010232190184542659 0 0.01673217830038537 0.01003374801827191 0 0.016524149039399732 0.010063510664586453 0 0.01673217830038537 0.01003374801827191 0 0.016512663385124908 0.0097613429234895063 0 0.016524149039399732 0.010063510664586453 0 0.016211479905241143 0.0099771717938741261 0 0.016512663385124908 0.0097613429234895063 0 0.016105580414369786 0.0096176122844219523 0 0.016211479905241143 0.0099771717938741261 0 0.016512663385124908 0.0097613429234895063 0 0.016524149039399732 0.010063510664586453 0 0.016512663385124908 0.0097613429234895063 0 0.016372981582570622 0.0093489004433528946 0 0.01695312118689735 0.0093580224269400967 0 0.016512663385124908 0.0097613429234895063 0 0.016372981582570622 0.0093489004433528946 0 0.016105580414369786 0.0096176122844219523 0 0.01673217830038537 0.01003374801827191 0 0.016512663385124908 0.0097613429234895063 0 0.01695312118689735 0.0093580224269400967 0 0.01675009556521689 0.0099295951446680478 0 0.016871230175939465 0.0098669506842310288 0 0.016871230175939465 0.0098669506842310288 0 0.016273116818745915 0.0086191330883548141 0 0.016714109909311669 0.010071968544250428 0 0.016712750569734019 0.010058684787719001 0 0.0166951397707196 0.010034028318267304 0 0.01695312118689735 0.0093580224269400967 0 0.016634581746049242 0.0089500469054430622 0 0.017032659695816365 0.0086823624897531884 0 0.016372981582570622 0.0093489004433528946 0 0.01695312118689735 0.0093580224269400967 0 0.016634581746049242 0.0089500469054430622 0 0.016634581746049242 0.0089500469054430622 0 0.016347282766006284 0.0087275626368432044 0 0.016234589449624668 0.0090474590907425722 0 0.016372981582570622 0.0093489004433528946 0 0.016634581746049242 0.0089500469054430622 0 0.016234589449624668 0.0090474590907425722 0 0.016698184131813544 0.010092934090536052 0 0.016710880519495777 0.010089330571844019 0 0.016715341607287177 0.010090997405562272 0 0.016698184131813544 0.010092934090536052 0 0.01671124993862275 0.010085708439158915 0 0.016715341607287177 0.010090997405562272 0 0.016698184131813544 0.010092934090536052 0 0.01671124993862275 0.010085708439158915 0 0.01671130493460659 0.010082657268723661 0 0.016728452970050382 0.010098065082750296 0 0.016715341607287177 0.010090997405562272 0 0.016714944329711913 0.010080217291476054 0 0.01671124993862275 0.010085708439158915 0 0.016715341607287177 0.010090997405562272 0 0.016713655714880704 0.010079121363546287 0 0.016715341607287177 0.010090997405562272 0 0.016714944329711913 0.010080217291476054 0 0.016713655714880704 0.010079121363546287 0 0.016728452970050382 0.010098065082750296 0 0.01673217830038537 0.01003374801827191 0 0.016714944329711913 0.010080217291476054 0 0.01673217830038537 0.01003374801827191 0 0.016714109909311669 0.010071968544250428 0 0.016714944329711913 0.010080217291476054 0 0.016714944329711913 0.010080217291476054 0 0.016712750569734019 0.010058684787719001 0 0.016713655714880704 0.010079121363546287 0 0.016714109909311669 0.010071968544250428 0 0.016714944329711913 0.010080217291476054 0 0.016712750569734019 0.010058684787719001 0 0.015007032701684188 0.0079572399101793673 0 0.015403699174137886 0.0079373122255265213 0 0.01545790322180559 0.0081837854502182211 0 0.015791736047654905 0.0089701973964077357 0 0.015828289480286851 0.0095440048608111932 0 0.016712750569734019 0.010058684787719001 0 0.016713655714880704 0.010079121363546287 0 0.01671130493460659 0.010082657268723661 0 0.015007032701684188 0.0079572399101793673 0 0.015403699174137886 0.0079373122255265213 0 0.015482999433167241 0.0076440015224613 0 0.015660727228121809 0.0079617925230523919 0 0.015403699174137886 0.0079373122255265213 0 0.015482999433167241 0.0076440015224613 0 0.015660727228121809 0.0079617925230523919 0 0.015403699174137886 0.0079373122255265213 0 0.01545790322180559 0.0081837854502182211 0 0.01671124993862275 0.010085708439158915 0 0.016713655714880704 0.010079121363546287 0 0.01671130493460659 0.010082657268723661 0 0.015007032701684188 0.0079572399101793673 0 0.015482999433167241 0.0076440015224613 0 0.015001183617315818 0.0074405953248405498 0 0.015482999433167241 0.0076440015224613 0 0.015001183617315818 0.0074405953248405498 0 0.01530899293318156 0.0072984824846359028 0 0.015791736047654905 0.0089701973964077357 0 0.016273116818745915 0.0086191330883548141 0 0.015007032701684188 0.0079572399101793673 0 0.015001183617315818 0.0074405953248405498 0 0.014538923244541717 0.0077058968766728769 0 0.015001183617315818 0.0074405953248405498 0 0.015138019436090493 0.0069143903407688102 0 0.014497546260671889 0.0070550805634881173 0 0.015001183617315818 0.0074405953248405498 0 0.015138019436090493 0.0069143903407688102 0 0.01530899293318156 0.0072984824846359028 0 0.015611839703983632 0.007189962078723103 0 0.015138019436090493 0.0069143903407688102 0 0.01530899293318156 0.0072984824846359028 0 0.015611839703983632 0.007189962078723103 0 0.015138019436090493 0.0069143903407688102 0 0.015709605156753709 0.006825625397081596 0 0.015611839703983632 0.007189962078723103 0 0.015482999433167241 0.0076440015224613 0 0.01530899293318156 0.0072984824846359028 0 0.016716026624085337 0.0084349792045306134 0 0.016347282766006284 0.0087275626368432044 0 0.016201349611250197 0.0083471682941878254 0 0.016634581746049242 0.0089500469054430622 0 0.016716026624085337 0.0084349792045306134 0 0.016347282766006284 0.0087275626368432044 0 0.016273116818745915 0.0086191330883548141 0 0.015797560134299164 0.0074018010738366403 0 0.016634581746049242 0.0089500469054430622 0 0.016716026624085337 0.0084349792045306134 0 0.017032659695816365 0.0086823624897531884 0 0.016716026624085337 0.0084349792045306134 0 0.017164558747235992 0.0086874192419212869 0 0.017151939579608252 0.0079331932797393132 0 0.015001183617315818 0.0074405953248405498 0 0.014538923244541717 0.0077058968766728769 0 0.014497546260671889 0.0070550805634881173 0 0.016929124531370302 0.0086111386038741008 0 0.016273116818745915 0.0086191330883548141 0 0.016716026624085337 0.0084349792045306134 0 0.01655937574901364 0.0080867416567825777 0 0.016201349611250197 0.0083471682941878254 0 0.017151939579608252 0.0079331932797393132 0 0.01655937574901364 0.0080867416567825777 0 0.016594716404901552 0.007667149242876722 0 0.016716026624085337 0.0084349792045306134 0 0.017151939579608252 0.0079331932797393132 0 0.01655937574901364 0.0080867416567825777 0 0.01655937574901364 0.0080867416567825777 0 0.016271568572204766 0.0079360225949624691 0 0.016594716404901552 0.007667149242876722 0 0.016271568572204766 0.0079360225949624691 0 0.015876040678302263 0.0079249792330824669 0 0.01617310808414733 0.0075994519575231278 0 0.016271568572204766 0.0079360225949624691 0 0.015876040678302263 0.0079249792330824669 0 0.016201349611250197 0.0083471682941878254 0 0.015876040678302263 0.0079249792330824669 0 0.015793490914668272 0.0083893955499365486 0 0.016201349611250197 0.0083471682941878254 0 0.01655937574901364 0.0080867416567825777 0 0.016271568572204766 0.0079360225949624691 0 0.016201349611250197 0.0083471682941878254 0 0.015556362880260986 0.0077983144729308496 0 0.015876040678302263 0.0079249792330824669 0 0.015394844833633211 0.0081304604405309528 0 0.015876040678302263 0.0079249792330824669 0 0.015793490914668272 0.0083893955499365486 0 0.015394844833633211 0.0081304604405309528 0 0.015505669866855884 0.0086986019023832899 0 0.015793490914668272 0.0083893955499365486 0 0.015394844833633211 0.0081304604405309528 0 0.015505669866855884 0.0086986019023832899 0 0.015793490914668272 0.0083893955499365486 0 0.015977271116296852 0.0088188481986664347 0 0.015793490914668272 0.0083893955499365486 0 0.016201349611250197 0.0083471682941878254 0 0.015977271116296852 0.0088188481986664347 0 0.016347282766006284 0.0087275626368432044 0 0.016201349611250197 0.0083471682941878254 0 0.015977271116296852 0.0088188481986664347 0 0.016372981582570622 0.0093489004433528946 0 0.016234589449624668 0.0090474590907425722 0 0.015994989358895602 0.0092678626377520664 0 0.016347282766006284 0.0087275626368432044 0 0.016234589449624668 0.0090474590907425722 0 0.015977271116296852 0.0088188481986664347 0 0.016234589449624668 0.0090474590907425722 0 0.015977271116296852 0.0088188481986664347 0 0.015994989358895602 0.0092678626377520664 0 0.015505669866855884 0.0086986019023832899 0 0.015697160824772426 0.0091069619030520067 0 0.015291188623624483 0.0092194368266676034 0 0.015505669866855884 0.0086986019023832899 0 0.015977271116296852 0.0088188481986664347 0 0.015697160824772426 0.0091069619030520067 0 0.015977271116296852 0.0088188481986664347 0 0.015697160824772426 0.0091069619030520067 0 0.015994989358895602 0.0092678626377520664 0 0.015697160824772426 0.0091069619030520067 0 0.015700298965281807 0.0094643443139885222 0 0.015994989358895602 0.0092678626377520664 0 0.015911393075950585 0.0098257240802271401 0 0.015700298965281807 0.0094643443139885222 0 0.016105580414369786 0.0096176122844219523 0 0.015697160824772426 0.0091069619030520067 0 0.015700298965281807 0.0094643443139885222 0 0.015291188623624483 0.0092194368266676034 0 0.016372981582570622 0.0093489004433528946 0 0.016105580414369786 0.0096176122844219523 0 0.015994989358895602 0.0092678626377520664 0 0.015700298965281807 0.0094643443139885222 0 0.016105580414369786 0.0096176122844219523 0 0.015994989358895602 0.0092678626377520664 0 0.015403001364150386 0.009404395118320176 0 0.015673013466577391 0.0088794131935234378 0 0.014999956763055145 0.0088745357264830432 0 0.014999971252921138 0.0096664118492123668 0 0.015403001364150386 0.009404395118320176 0 0.014999956763055145 0.0088745357264830432 0 0.015766800642373156 0.0097207084702139509 0 0.015700298965281807 0.0094643443139885222 0 0.015291188623624483 0.0092194368266676034 0 0.015734613007493431 0.0096664400875744166 0 0.015486437415051624 0.0090377942506322129 0 0.015766800642373156 0.0097207084702139509 0 0.015403001364150386 0.009404395118320176 0 0.015673013466577391 0.0088794131935234378 0 0.015486437415051624 0.0090377942506322129 0 0.01517235965627277 0.0082407484721206334 0 0.015673013466577391 0.0088794131935234378 0 0.015328232334179941 0.0085451143651753651 0 0.015467933708090275 0.0080709753178875021 0 0.015673013466577391 0.0088794131935234378 0 0.015328232334179941 0.0085451143651753651 0 0.014999956763055145 0.0088745357264830432 0 0.015328232334179941 0.0085451143651753651 0 0.014999956763055145 0.0088745357264830432 0 0.014999995690837004 0.0080825871482285948 0 0.015328232334179941 0.0085451143651753651 0 0.014999995690837004 0.0080825871482285948 0 0.015467933708090275 0.0080709753178875021 0 0.015505669866855884 0.0086986019023832899 0 0.015291188623624483 0.0092194368266676034 0 0.014918527804954005 0.0084050616710009303 0 0.015505669866855884 0.0086986019023832899 0 0.014918527804954005 0.0084050616710009303 0 0.015394844833633211 0.0081304604405309528 0 0.014918527804954005 0.0084050616710009303 0 0.015394844833633211 0.0081304604405309528 0 0.014962004998848873 0.0078864166781113139 0 0.015394844833633211 0.0081304604405309528 0 0.014962004998848873 0.0078864166781113139 0 0.015235467439156712 0.007786114035425314 0 0.015556362880260986 0.0077983144729308496 0 0.015394844833633211 0.0081304604405309528 0 0.015235467439156712 0.007786114035425314 0 0.014999995690837004 0.0080825871482285948 0 0.015467933708090275 0.0080709753178875021 0 0.015174379335478654 0.0076334589005178973 0 0.014999995690837004 0.0080825871482285948 0 0.015174379335478654 0.0076334589005178973 0 0.014999997546399741 0.0072906930441978789 0 0.015467933708090275 0.0080709753178875021 0 0.015174379335478654 0.0076334589005178973 0 0.015236522320518364 0.0072869078763395621 0 0.014918527804954005 0.0084050616710009303 0 0.014962004998848873 0.0078864166781113139 0 0.014587799684207921 0.0075074652897877871 0 0.01517235965627277 0.0082407484721206334 0 0.015073401370789915 0.0073370401123213349 0 0.015174379335478654 0.0076334589005178973 0 0.014999997546399741 0.0072906930441978789 0 0.015167952735493392 0.0074356468062042767 0 0.015174379335478654 0.0076334589005178973 0 0.015167952735493392 0.0074356468062042767 0 0.015236522320518364 0.0072869078763395621 0 0.014999997546399741 0.0072906930441978789 0 0.015167952735493392 0.0074356468062042767 0 0.015236636262888585 0.0072868187169024467 0 0.015103355342315881 0.0073474172077059056 0 0.015073401370789915 0.0073370401123213349 0 0.014587799684207921 0.0075074652897877871 0 0.014947045122525251 0.0075534583748840447 0 0.015055816623938494 0.0071947748322734621 0 0.014962004998848873 0.0078864166781113139 0 0.014587799684207921 0.0075074652897877871 0 0.014947045122525251 0.0075534583748840447 0 0.014962004998848873 0.0078864166781113139 0 0.015235467439156712 0.007786114035425314 0 0.014947045122525251 0.0075534583748840447 0 0.014947045122525251 0.0075534583748840447 0 0.015301557910345254 0.0075566438907982711 0 0.015159962125668719 0.0073804847248667375 0 0.015556362880260986 0.0077983144729308496 0 0.015235467439156712 0.007786114035425314 0 0.015301557910345254 0.0075566438907982711 0 0.015235467439156712 0.007786114035425314 0 0.014947045122525251 0.0075534583748840447 0 0.015301557910345254 0.0075566438907982711 0 0.015301557910345254 0.0075566438907982711 0 0.015159962125668719 0.0073804847248667375 0 0.015335058831995129 0.0072154170156392087 0 0.015159962125668719 0.0073804847248667375 0 0.015335058831995129 0.0072154170156392087 0 0.015055816623938494 0.0071947748322734621 0 0.014947045122525251 0.0075534583748840447 0 0.015159962125668719 0.0073804847248667375 0 0.015055816623938494 0.0071947748322734621 0 0.015055816623938494 0.0071947748322734621 0 0.015391299088912491 0.0068379379711835326 0 0.014947470416749794 0.0066468724924970196 0 0.014587799684207921 0.0075074652897877871 0 0.015055816623938494 0.0071947748322734621 0 0.014947470416749794 0.0066468724924970196 0 0.015335058831995129 0.0072154170156392087 0 0.015055816623938494 0.0071947748322734621 0 0.015391299088912491 0.0068379379711835326 0 0.014999997546399741 0.0072906930441978789 0 0.015236636262888585 0.0072868187169024467 0 0.014999999584687625 0.0064988003397570592 0 0.015073401370789915 0.0073370401123213349 0 0.015000112599712444 0.0064988468035973935 0 0.015073401370789915 0.0073370401123213349 0 0.015205457578962146 0.0066302261835555305 0 0.015216670875570205 0.0072126849229437366 0 0.015504325640862508 0.0065884280508164 0 0.014999947778925583 0.0064986800644454886 0 0.01617310808414733 0.0075994519575231278 0 0.015806394907915022 0.0073125665808142547 0 0.016489295513107415 0.0072015805638159782 0 0.015876040678302263 0.0079249792330824669 0 0.01617310808414733 0.0075994519575231278 0 0.015806394907915022 0.0073125665808142547 0 0.016271568572204766 0.0079360225949624691 0 0.01617310808414733 0.0075994519575231278 0 0.016594716404901552 0.007667149242876722 0 0.015556362880260986 0.0077983144729308496 0 0.015876040678302263 0.0079249792330824669 0 0.015806394907915022 0.0073125665808142547 0 0.015556362880260986 0.0077983144729308496 0 0.015301557910345254 0.0075566438907982711 0 0.015806394907915022 0.0073125665808142547 0 0.015301557910345254 0.0075566438907982711 0 0.015335058831995129 0.0072154170156392087 0 0.015806394907915022 0.0073125665808142547 0 0.015358700214604643 0.0068203724463390177 0 0.016429820509609915 0.0066176517712565599 0 0.015391299088912491 0.0068379379711835326 0 0.015806394907915022 0.0073125665808142547 0 0.016242858254515262 0.0067423462651373077 0 0.015335058831995129 0.0072154170156392087 0 0.015391299088912491 0.0068379379711835326 0 0.015806394907915022 0.0073125665808142547 0 0.015806394907915022 0.0073125665808142547 0 0.016242858254515262 0.0067423462651373077 0 0.016489295513107415 0.0072015805638159782 0 0.016359598313517291 0.0064163719709343864 0 0.015722338913422989 0.0062126238007953992 0 0.016346634416600534 0.0055035126888178113 0 0.015391299088912491 0.0068379379711835326 0 0.016359598313517291 0.0064163719709343864 0 0.015722338913422989 0.0062126238007953992 0 0.015722338913422989 0.0062126238007953992 0 0.016346634416600534 0.0055035126888178113 0 0.015420363815204282 0.0057674546330775582 0 0.016346634416600534 0.0055035126888178113 0 0.015420363815204282 0.0057674546330775582 0 0.01589261174611482 0.0051088759040752501 0 0.01532080815571569 0.0060878448041743818 0 0.014999947778925583 0.0064986800644454886 0 0.014999940531299872 0.0057354846844375629 0 0.015504325640862508 0.0065884280508164 0 0.01532080815571569 0.0060878448041743818 0 0.014999947778925583 0.0064986800644454886 0 0.015391299088912491 0.0068379379711835326 0 0.014947470416749794 0.0066468724924970196 0 0.015722338913422989 0.0062126238007953992 0 0.015504325640862508 0.0065884280508164 0 0.01532080815571569 0.0060878448041743818 0 0.015765456721047115 0.0058671698148119967 0 0.015205457578962146 0.0066302261835555305 0 0.015590795470722887 0.0058185709684703971 0 0.014947470416749794 0.0066468724924970196 0 0.015722338913422989 0.0062126238007953992 0 0.015420363815204282 0.0057674546330775582 0 0.01532080815571569 0.0060878448041743818 0 0.015765456721047115 0.0058671698148119967 0 0.015432731699973338 0.0053846079228280124 0 0.01532080815571569 0.0060878448041743818 0 0.014999940531299872 0.0057354846844375629 0 0.015432731699973338 0.0053846079228280124 0 0.014999940531299872 0.0057354846844375629 0 0.014999945198576113 0.0049722345470202337 0 0.015432731699973338 0.0053846079228280124 0 0.014999945198576113 0.0049722345470202337 0 0.015432731699973338 0.0053846079228280124 0 0.015573467269673198 0.0046393138771052512 0 0.015432731699973338 0.0053846079228280124 0 0.01589261174611482 0.0051088759040752501 0 0.015573467269673198 0.0046393138771052512 0 0.015765456721047115 0.0058671698148119967 0 0.015432731699973338 0.0053846079228280124 0 0.01589261174611482 0.0051088759040752501 0 0.015590795470722887 0.0058185709684703971 0 0.015868412432082875 0.0051736128415528467 0 0.016346634416600534 0.0055035126888178113 0 0.01589261174611482 0.0051088759040752501 0 0.016459810993869218 0.0047292615851597247 0 0.01589261174611482 0.0051088759040752501 0 0.016075688537287663 0.0046424872582805131 0 0.016459810993869218 0.0047292615851597247 0 0.01589261174611482 0.0051088759040752501 0 0.016075688537287663 0.0046424872582805131 0 0.015573467269673198 0.0046393138771052512 0 0.016075688537287663 0.0046424872582805131 0 0.015930596025024522 0.0042795436279232752 0 0.015573467269673198 0.0046393138771052512 0 0.016075688537287663 0.0046424872582805131 0 0.015930596025024522 0.0042795436279232752 0 0.016394611396557842 0.0042857189699536833 0 0.016075688537287663 0.0046424872582805131 0 0.016394611396557842 0.0042857189699536833 0 0.016459810993869218 0.0047292615851597247 0 0.015930596025024522 0.0042795436279232752 0 0.016157155903327367 0.0040053211609268856 0 0.016394611396557842 0.0042857189699536833 0 0.016157155903327367 0.0040053211609268856 0 0.016394611396557842 0.0042857189699536833 0 0.016367926941484319 0.0038735278438577457 0 0.015930596025024522 0.0042795436279232752 0 0.016157155903327367 0.0040053211609268856 0 0.015894226595302631 0.0038950880648157622 0 0.015930596025024522 0.0042795436279232752 0 0.015894226595302631 0.0038950880648157622 0 0.015502629812072292 0.0039417648238742938 0 0.015502629812072292 0.0039417648238742938 0 0.014999958323701996 0.0042091272970059858 0 0.014999957931152719 0.0034458762925312077 0 0.014999945198576113 0.0049722345470202337 0 0.014999958323701996 0.0042091272970059858 0 0.015573467269673198 0.0046393138771052512 0 0.015502629812072292 0.0039417648238742938 0 0.014999958323701996 0.0042091272970059858 0 0.015573467269673198 0.0046393138771052512 0 0.015930596025024522 0.0042795436279232752 0 0.015502629812072292 0.0039417648238742938 0 0.015573467269673198 0.0046393138771052512 0 0.017002703379646988 0.0042683488681494923 0 0.016803308488395854 0.0042002566962843187 0 0.016803795642866264 0.0044768263126386725 0 0.016803308488395854 0.0042002566962843187 0 0.01665491027985265 0.0043004002250512097 0 0.016803795642866264 0.0044768263126386725 0 0.017002703379646988 0.0042683488681494923 0 0.016803795642866264 0.0044768263126386725 0 0.016960156610751315 0.0045916045123414436 0 0.016889569758682031 0.0041255903527281975 0 0.016754436361614965 0.0038643128736668654 0 0.017002703379646988 0.0042683488681494923 0 0.016803308488395854 0.0042002566962843187 0 0.016758445631753511 0.0038411385259113241 0 0.016803308488395854 0.0042002566962843187 0 0.016595775516529861 0.0039593536278032812 0 0.01665491027985265 0.0043004002250512097 0 0.016803308488395854 0.0042002566962843187 0 0.016595775516529861 0.0039593536278032812 0 0.016758445631753511 0.0038411385259113241 0 0.016595775516529861 0.0039593536278032812 0 0.016394611396557842 0.0042857189699536833 0 0.016367926941484319 0.0038735278438577457 0 0.016595775516529861 0.0039593536278032812 0 0.016394611396557842 0.0042857189699536833 0 0.01665491027985265 0.0043004002250512097 0 0.016394611396557842 0.0042857189699536833 0 0.016459810993869218 0.0047292615851597247 0 0.016608558216790425 0.0045332757613335732 0 0.016394611396557842 0.0042857189699536833 0 0.01665491027985265 0.0043004002250512097 0 0.016608558216790425 0.0045332757613335732 0 0.01665491027985265 0.0043004002250512097 0 0.016608558216790425 0.0045332757613335732 0 0.016803795642866264 0.0044768263126386725 0 0.016679389971198586 0.0046476226017606427 0 0.016608558216790425 0.0045332757613335732 0 0.016803795642866264 0.0044768263126386725 0 0.016679389971198586 0.0046476226017606427 0 0.016459810993869218 0.0047292615851597247 0 0.016608558216790425 0.0045332757613335732 0 0.016843968722664318 0.0048382227260670889 0 0.016481065250681926 0.0047300675874118719 0 0.016346634416600534 0.0055035126888178113 0 0.016459810993869218 0.0047292615851597247 0 0.016742847079278714 0.005179879169984569 0 0.017065934491281388 0.0050303462940048402 0 0.016459810993869218 0.0047292615851597247 0 0.016742847079278714 0.005179879169984569 0 0.017065934491281388 0.0050303462940048402 0 0.017093982140189944 0.0052598495017948397 0 0.017120005105952907 0.0051586711263189753 0 0.017065934491281388 0.0050303462940048402 0 0.016742847079278714 0.005179879169984569 0 0.017093982140189944 0.0052598495017948397 0 0.017093982140189944 0.0052598495017948397 0 0.017120005105952907 0.0051586711263189753 0 0.017092454633198605 0.0051791640476513525 0 0.016843968722664318 0.0048382227260670889 0 0.016986590276391746 0.0049115415464017261 0 0.016679389971198586 0.0046476226017606427 0 0.01685564406089075 0.0046800412101035537 0 0.016803795642866264 0.0044768263126386725 0 0.01685564406089075 0.0046800412101035537 0 0.016803795642866264 0.0044768263126386725 0 0.016960156610751315 0.0045916045123414436 0 0.01685564406089075 0.0046800412101035537 0 0.016960156610751315 0.0045916045123414436 0 0.016956101721111869 0.0047345260952214481 0 0.016986590276391746 0.0049115415464017261 0 0.017010345953882015 0.0049121798571698993 0 0.017120005105952907 0.0051586711263189753 0 0.017066468686969403 0.0051126728226991809 0 0.017039897148289747 0.0050795937789635346 0 0.017120005105952907 0.0051586711263189753 0 0.017092454633198605 0.0051791640476513525 0 0.017066468686969403 0.0051126728226991809 0 0.015279138331270386 0.0054969933369078284 0 0.014449141327656427 0.0057202730538596083 0 0.015034589844296429 0.0062179370974669839 0 0.017092454633198605 0.0051791640476513525 0 0.017066468686969403 0.0051126728226991809 0 0.017116589071415153 0.0051486184023824093 0 0.016019408298870778 0.0052328368687531608 0 0.016495881344245993 0.0060122923131164805 0 0.015279138331270386 0.0054969933369078284 0 0.015629238881095946 0.0060108307965906311 0 0.015872488982581569 0.0056692372580527846 0 0.015279138331270386 0.0054969933369078284 0 0.015034589844296429 0.0062179370974669839 0 0.015629238881095946 0.0060108307965906311 0 0.016742847079278714 0.005179879169984569 0 0.017093982140189944 0.0052598495017948397 0 0.016787508760613884 0.005720146465472079 0 0.016346634416600534 0.0055035126888178113 0 0.016742847079278714 0.005179879169984569 0 0.016787508760613884 0.005720146465472079 0 0.016359598313517291 0.0064163719709343864 0 0.016346634416600534 0.0055035126888178113 0 0.016787508760613884 0.005720146465472079 0 0.017093982140189944 0.0052598495017948397 0 0.017092454633198605 0.0051791640476513525 0 0.017116589071415153 0.0051486184023824093 0 0.017093982140189944 0.0052598495017948397 0 0.016787508760613884 0.005720146465472079 0 0.017203236769547624 0.0061390662747999409 0 0.017242293305660818 0.0051367525450480879 0 0.016495881344245993 0.0060122923131164805 0 0.016359598313517291 0.0064163719709343864 0 0.016787508760613884 0.005720146465472079 0 0.017203236769547624 0.0061390662747999409 0 0.016429820509609915 0.0066176517712565599 0 0.016495881344245993 0.0060122923131164805 0 0.016242858254515262 0.0067423462651373077 0 0.017105320324976702 0.0065380189501579944 0 0.016489295513107415 0.0072015805638159782 0 0.014449141327656427 0.0057202730538596083 0 0.014465449392682491 0.0063849918063692461 0 0.015034589844296429 0.0062179370974669839 0 0.016495881344245993 0.0060122923131164805 0 0.015754241664950801 0.0068407983195511576 0 0.017105320324976702 0.0065380189501579944 0 0.016489295513107415 0.0072015805638159782 0 0.017132628071873476 0.0072209016431079073 0 0.015797560134299164 0.0074018010738366403 0 0.015754241664950801 0.0068407983195511576 0 0.014497546260671889 0.0070550805634881173 0 0.014465449392682491 0.0063849918063692461 0 0.014783345780237473 0.0066440674438673995 0 0.017151939579608252 0.0079331932797393132 0 0.017132628071873476 0.0072209016431079073 0 0.016594716404901552 0.007667149242876722 0 0.016489295513107415 0.0072015805638159782 0 0.017132628071873476 0.0072209016431079073 0 0.016594716404901552 0.007667149242876722 0 0.01617310808414733 0.0075994519575231278 0 0.016489295513107415 0.0072015805638159782 0 0.016594716404901552 0.007667149242876722 0 0.015034589844296429 0.0062179370974669839 0 0.015555991323409016 0.0064600879596738046 0 0.015629238881095946 0.0060108307965906311 0 0.015138019436090493 0.0069143903407688102 0 0.015034589844296429 0.0062179370974669839 0 0.014783345780237473 0.0066440674438673995 0 0.015138019436090493 0.0069143903407688102 0 0.014497546260671889 0.0070550805634881173 0 0.014783345780237473 0.0066440674438673995 0 0.014465449392682491 0.0063849918063692461 0 0.015034589844296429 0.0062179370974669839 0 0.014783345780237473 0.0066440674438673995 0 0.015138019436090493 0.0069143903407688102 0 0.015555991323409016 0.0064600879596738046 0 0.015709605156753709 0.006825625397081596 0 0.015138019436090493 0.0069143903407688102 0 0.015034589844296429 0.0062179370974669839 0 0.015555991323409016 0.0064600879596738046 0 0.015977368067599328 0.0070601094930085187 0 0.015709605156753709 0.006825625397081596 0 0.016088583985434255 0.0067538317307914561 0 0.015709605156753709 0.006825625397081596 0 0.016088583985434255 0.0067538317307914561 0 0.015904106884501976 0.0065687963399777179 0 0.015904106884501976 0.0065687963399777179 0 0.015963466148983307 0.0062748436575417845 0 0.016126455236729481 0.0065121029372264844 0 0.016088583985434255 0.0067538317307914561 0 0.015904106884501976 0.0065687963399777179 0 0.016126455236729481 0.0065121029372264844 0 0.015555991323409016 0.0064600879596738046 0 0.015904106884501976 0.0065687963399777179 0 0.015963466148983307 0.0062748436575417845 0 0.015555991323409016 0.0064600879596738046 0 0.015709605156753709 0.006825625397081596 0 0.015904106884501976 0.0065687963399777179 0 0.015555991323409016 0.0064600879596738046 0 0.015963466148983307 0.0062748436575417845 0 0.015629238881095946 0.0060108307965906311 0 0.015963466148983307 0.0062748436575417845 0 0.016079551569140857 0.0059826740298643032 0 0.01626058438458762 0.0063014080852686711 0 0.015963466148983307 0.0062748436575417845 0 0.016079551569140857 0.0059826740298643032 0 0.015629238881095946 0.0060108307965906311 0 0.016079551569140857 0.0059826740298643032 0 0.016563811035521153 0.0060408812455938288 0 0.01626058438458762 0.0063014080852686711 0 0.015963466148983307 0.0062748436575417845 0 0.01626058438458762 0.0063014080852686711 0 0.016126455236729481 0.0065121029372264844 0 0.016563811035521153 0.0060408812455938288 0 0.016430313739375438 0.0063882397896941456 0 0.01659957961017337 0.0065022533417712185 0 0.016563811035521153 0.0060408812455938288 0 0.01626058438458762 0.0063014080852686711 0 0.016430313739375438 0.0063882397896941456 0 0.016291086355523267 0.0072264275765592089 0 0.016271489007136625 0.006845576143755608 0 0.016643027530302227 0.0066067516491805098 0 0.01626058438458762 0.0063014080852686711 0 0.016430313739375438 0.0063882397896941456 0 0.016356569188245733 0.0065806087077747953 0 0.016016860273772172 0.007451344023759225 0 0.016121527336537697 0.0071564634390367315 0 0.01609580322036868 0.007110773567947524 0 0.016356569188245733 0.0065806087077747953 0 0.01659957961017337 0.0065022533417712185 0 0.016643027530302227 0.0066067516491805098 0 0.016430313739375438 0.0063882397896941456 0 0.016356569188245733 0.0065806087077747953 0 0.01659957961017337 0.0065022533417712185 0 0.01626058438458762 0.0063014080852686711 0 0.016356569188245733 0.0065806087077747953 0 0.016126455236729481 0.0065121029372264844 0 0.016088583985434255 0.0067538317307914561 0 0.016356569188245733 0.0065806087077747953 0 0.016126455236729481 0.0065121029372264844 0 0.016088583985434255 0.0067538317307914561 0 0.016356569188245733 0.0065806087077747953 0 0.016271489007136625 0.006845576143755608 0 0.015977368067599328 0.0070601094930085187 0 0.016088583985434255 0.0067538317307914561 0 0.016271489007136625 0.006845576143755608 0 0.016356569188245733 0.0065806087077747953 0 0.016271489007136625 0.006845576143755608 0 0.016643027530302227 0.0066067516491805098 0 0.0088944483529841724 0.0068644405489213548 0 0.0086767723717364065 0.0068155555297637572 0 0.0088443186462697689 0.0069541255730613842 0 0.0086767723717364065 0.0068155555297637572 0 0.0085914218163073881 0.0070463901389663554 0 0.0088443186462697689 0.0069541255730613842 0 0.014642971367005974 0.0070717575254981464 0 0.014297297793639622 0.006992684940732667 0 0.0088999778512648502 0.006866193945839736 0 0.0089275811214646894 0.0069383282725793546 0 0.0088443186462697689 0.0069541255730613842 0 0.012438611202115925 0.0070573774316605303 0 0.014297297793639622 0.006992684940732667 0 0.012438611202115925 0.0070573774316605303 0 0.011696251128820513 0.0074493021541713628 0 0.0081943286577632023 0.0064684035707902399 0 0.00839393218361369 0.0068680341529292893 0 0.0080702162108521446 0.0069207062189973415 0 0.0086767723717364065 0.0068155555297637572 0 0.0085914218163073881 0.0070463901389663554 0 0.00839393218361369 0.0068680341529292893 0 0.0085914218163073881 0.0070463901389663554 0 0.00839393218361369 0.0068680341529292893 0 0.0084235387762912495 0.0071944104767972519 0 0.00839393218361369 0.0068680341529292893 0 0.0084235387762912495 0.0071944104767972519 0 0.0082060680444397942 0.0071446871457903896 0 0.00839393218361369 0.0068680341529292893 0 0.0080702162108521446 0.0069207062189973415 0 0.0082060680444397942 0.0071446871457903896 0 0.0084235387762912495 0.0071944104767972519 0 0.0082060680444397942 0.0071446871457903896 0 0.0082815134479961253 0.0073961037236475735 0 0.0085914218163073881 0.0070463901389663554 0 0.0084235387762912495 0.0071944104767972519 0 0.0085987135935186552 0.0073386284597183249 0 0.0084235387762912495 0.0071944104767972519 0 0.0085987135935186552 0.0073386284597183249 0 0.0083370564280981704 0.0073650502538494872 0 0.0084235387762912495 0.0071944104767972519 0 0.0083370564280981704 0.0073650502538494872 0 0.0082815134479961253 0.0073961037236475735 0 0.016563811035521153 0.0060408812455938288 0 0.01659957961017337 0.0065022533417712185 0 0.017025470984011665 0.0059497133465091223 0 0.0085914218163073881 0.0070463901389663554 0 0.0088443186462697689 0.0069541255730613842 0 0.0085987135935186552 0.0073386284597183249 0 0.014297297793639622 0.006992684940732667 0 0.012642578468307722 0.0066969998199159228 0 0.0089275811214646894 0.0069383282725793546 0 0.0088443186462697689 0.0069541255730613842 0 0.0085987135935186552 0.0073386284597183249 0 0.01659957961017337 0.0065022533417712185 0 0.016646327778164681 0.0066167148319185888 0 0.017025470984011665 0.0059497133465091223 0 0.016563811035521153 0.0060408812455938288 0 0.017025470984011665 0.0059497133465091223 0 0.016725489873951355 0.0055033627063977046 0 0.017025470984011665 0.0059497133465091223 0 0.017049642252173158 0.0053267698326040225 0 0.016725489873951355 0.0055033627063977046 0 0.0083370564280981704 0.0073650502538494872 0 0.0084678209986810901 0.0074274318430561405 0 0.0084341220118768333 0.007445016984062699 0 0.0085987135935186552 0.0073386284597183249 0 0.0083370564280981704 0.0073650502538494872 0 0.0084341220118768333 0.007445016984062699 0 0.017025470984011665 0.0059497133465091223 0 0.017049642252173158 0.0053267698326040225 0 0.017354889162785131 0.0052129916475377788 0 0.012642578468307722 0.0066969998199159228 0 0.013117815418812571 0.0062389874471917225 0 0.0083370564280981704 0.0073650502538494872 0 0.0082948713774921683 0.0067934495694399969 0 0.0084503398119136208 0.0070947972347401161 0 0.0083588973198359066 0.0072464909370717027 0 0.0083023252363435152 0.0073016311735263992 0 0.0084678209986810901 0.0074274318430561405 0 0.0084341220118768333 0.007445016984062699 0 0.0085243667924438538 0.007232643799121718 0 0.013117815418812571 0.0062389874471917225 0 0.010954247009449322 0.0058170776742574514 0 0.017354889162785131 0.0052129916475377788 0 0.017133584437150195 0.0049357860497642736 0 0.017484771289505829 0.0047497255441652109 0 0.017049642252173158 0.0053267698326040225 0 0.017354889162785131 0.0052129916475377788 0 0.017133584437150195 0.0049357860497642736 0 0.017049642252173158 0.0053267698326040225 0 0.016725489873951355 0.0055033627063977046 0 0.017133584437150195 0.0049357860497642736 0 0.016725489873951355 0.0055033627063977046 0 0.017133584437150195 0.0049357860497642736 0 0.01656748391323707 0.0053237163669802691 0 0.017133584437150195 0.0049357860497642736 0 0.017040735540575797 0.0049118383743413973 0 0.017087222300732438 0.0048323960247838894 0 0.017133584437150195 0.0049357860497642736 0 0.017040735540575797 0.0049118383743413973 0 0.017014072535018427 0.0049788302011394463 0 0.017094002758942531 0.0049447431479392239 0 0.016616636205456569 0.0051110979555791204 0 0.017133584437150195 0.0049357860497642736 0 0.01656748391323707 0.0053237163669802691 0 0.01613274565532637 0.0052228322422413313 0 0.017054643876612194 0.0049179452191848109 0 0.017010345953882015 0.0049121798571698993 0 0.016019408298870778 0.0052328368687531608 0 0.016616636205456569 0.0051110979555791204 0 0.017066468686969403 0.0051126728226991809 0 0.017014072535018427 0.0049788302011394463 0 0.017039897148289747 0.0050795937789635346 0 0.017040735540575797 0.0049118383743413973 0 0.017014072535018427 0.0049788302011394463 0 0.017039897148289747 0.0050795937789635346 0 0.015279138331270386 0.0054969933369078284 0 0.01613274565532637 0.0052228322422413313 0 0.015872488982581569 0.0056692372580527846 0 0.01613274565532637 0.0052228322422413313 0 0.015872488982581569 0.0056692372580527846 0 0.016290219385537957 0.0056186638198641725 0 0.016079551569140857 0.0059826740298643032 0 0.015629238881095946 0.0060108307965906311 0 0.015872488982581569 0.0056692372580527846 0 0.016079551569140857 0.0059826740298643032 0 0.015872488982581569 0.0056692372580527846 0 0.016290219385537957 0.0056186638198641725 0 0.016079551569140857 0.0059826740298643032 0 0.016563811035521153 0.0060408812455938288 0 0.016290219385537957 0.0056186638198641725 0 0.016563811035521153 0.0060408812455938288 0 0.016725489873951355 0.0055033627063977046 0 0.016290219385537957 0.0056186638198641725 0 0.016725489873951355 0.0055033627063977046 0 0.01656748391323707 0.0053237163669802691 0 0.016290219385537957 0.0056186638198641725 0 0.01656748391323707 0.0053237163669802691 0 0.01613274565532637 0.0052228322422413313 0 0.016290219385537957 0.0056186638198641725 0 0.0059480520440261166 0.007181340912624342 0 0.0060715113501033958 0.0076833166857640436 0 0.00535227705590916 0.0075720831626347341 0 0.0059480520440261166 0.007181340912624342 0 0.0065076990274953546 0.0073998467899050813 0 0.0060715113501033958 0.0076833166857640436 0 0.0059480520440261166 0.007181340912624342 0 0.0053276328964161198 0.0069018100422231681 0 0.00535227705590916 0.0075720831626347341 0 0.0059480520440261166 0.007181340912624342 0 0.0059563510907783947 0.006531513804142474 0 0.0053276328964161198 0.0069018100422231681 0 0.0061721066686237737 0.0066640619858537656 0 0.0063606559789396609 0.0071218791288661576 0 0.0059491980587279463 0.00687910482666205 0 0.0059480520440261166 0.007181340912624342 0 0.0059563510907783947 0.006531513804142474 0 0.0065037793301693948 0.0069780333011060054 0 0.0059563510907783947 0.006531513804142474 0 0.0065037793301693948 0.0069780333011060054 0 0.0071097897995769021 0.0066507125425319877 0 0.0066457796025441484 0.0068276655686531507 0 0.0070502541062639288 0.00686694446407503 0 0.0063606559789396609 0.0071218791288661576 0 0.0069627197550156377 0.0068604007245493728 0 0.0072227715516340581 0.0070844962132135467 0 0.0064730916256275396 0.006763572497893596 0 0.0063606559789396609 0.0071218791288661576 0 0.0069627197550156377 0.0068604007245493728 0 0.0065037793301693948 0.0069780333011060054 0 0.0069989222664737236 0.0071433282255430938 0 0.0071097897995769021 0.0066507125425319877 0 0.0065037793301693948 0.0069780333011060054 0 0.0065076990274953546 0.0073998467899050813 0 0.0069989222664737236 0.0071433282255430938 0 0.0059480520440261166 0.007181340912624342 0 0.0065037793301693948 0.0069780333011060054 0 0.0065076990274953546 0.0073998467899050813 0 0.0065076990274953546 0.0073998467899050813 0 0.0069825378128379008 0.0075983071514709082 0 0.0069989222664737236 0.0071433282255430938 0 0.0069825378128379008 0.0075983071514709082 0 0.0073887302967461871 0.0073322885608359421 0 0.0069989222664737236 0.0071433282255430938 0 0.0069825378128379008 0.0075983071514709082 0 0.0073887302967461871 0.0073322885608359421 0 0.0074718841967574574 0.0077414646502077531 0 0.0073887302967461871 0.0073322885608359421 0 0.0077204384090436085 0.0073739325075885213 0 0.0074718841967574574 0.0077414646502077531 0 0.0073887302967461871 0.0073322885608359421 0 0.0073601573077349504 0.006987341403171309 0 0.0077073306510250083 0.0071376268725124002 0 0.0073887302967461871 0.0073322885608359421 0 0.0077073306510250083 0.0071376268725124002 0 0.0077204384090436085 0.0073739325075885213 0 0.0073887302967461871 0.0073322885608359421 0 0.0073601573077349504 0.006987341403171309 0 0.0069989222664737236 0.0071433282255430938 0 0.0074475205640802287 0.0067301670328764555 0 0.0072227715516340581 0.0070844962132135467 0 0.0080702162108521446 0.0069207062189973415 0 0.0073601573077349504 0.006987341403171309 0 0.0071097897995769021 0.0066507125425319877 0 0.0080702162108521446 0.0069207062189973415 0 0.0070502541062639288 0.00686694446407503 0 0.0080322565566646933 0.0069147847887632346 0 0.0073601573077349504 0.006987341403171309 0 0.0069989222664737236 0.0071433282255430938 0 0.0071097897995769021 0.0066507125425319877 0 0.0074475205640802287 0.0067301670328764555 0 0.0069627197550156377 0.0068604007245493728 0 0.0072227715516340581 0.0070844962132135467 0 0.0077179209115671677 0.0065282075707092388 0 0.0074475205640802287 0.0067301670328764555 0 0.0080702162108521446 0.0069207062189973415 0 0.0073601573077349504 0.006987341403171309 0 0.0080702162108521446 0.0069207062189973415 0 0.0077073306510250083 0.0071376268725124002 0 0.0080702162108521446 0.0069207062189973415 0 0.0082060680444397942 0.0071446871457903896 0 0.0079440886501529109 0.0071720854328079951 0 0.0082060680444397942 0.0071446871457903896 0 0.0079440886501529109 0.0071720854328079951 0 0.0080157021089878929 0.0073378591673548647 0 0.0080702162108521446 0.0069207062189973415 0 0.0077073306510250083 0.0071376268725124002 0 0.0079440886501529109 0.0071720854328079951 0 0.0077073306510250083 0.0071376268725124002 0 0.0079440886501529109 0.0071720854328079951 0 0.0077204384090436085 0.0073739325075885213 0 0.0079440886501529109 0.0071720854328079951 0 0.0077204384090436085 0.0073739325075885213 0 0.0080157021089878929 0.0073378591673548647 0 0.0077204384090436085 0.0073739325075885213 0 0.0080157021089878929 0.0073378591673548647 0 0.0078442233056682797 0.0076053926472558295 0 0.0077204384090436085 0.0073739325075885213 0 0.0078442233056682797 0.0076053926472558295 0 0.0074718841967574574 0.0077414646502077531 0 0.0082815134479961253 0.0073961037236475735 0 0.0080157021089878929 0.0073378591673548647 0 0.0078442233056682797 0.0076053926472558295 0 0.0082060680444397942 0.0071446871457903896 0 0.0082815134479961253 0.0073961037236475735 0 0.0080157021089878929 0.0073378591673548647 0 0.0083274146413883504 0.0073987818378857245 0 0.0082273010801302577 0.007640462440508069 0 0.0083370564280981704 0.0073650502538494872 0 0.0084349303850904927 0.0072375433032605373 0 0.0084503398119136208 0.0070947972347401161 0 0.0082815134479961253 0.0073961037236475735 0 0.0084349303850904927 0.0072375433032605373 0 0.0087756103583768608 0.0070907558093612722 0 0.0083370564280981704 0.0073650502538494872 0 0.0082815134479961253 0.0073961037236475735 0 0.0084349303850904927 0.0072375433032605373 0 0.0078442233056682797 0.0076053926472558295 0 0.0077911420131015771 0.0080859778621123011 0 0.0074718841967574574 0.0077414646502077531 0 0.0082815134479961253 0.0073961037236475735 0 0.0078442233056682797 0.0076053926472558295 0 0.0077911420131015771 0.0080859778621123011 0 0.0087756103583768608 0.0070907558093612722 0 0.0085403836572867028 0.006897732791562583 0 0.0087748217469538481 0.0068049841278061251 0 0.0082948713774921683 0.0067934495694399969 0 0.0084503398119136208 0.0070947972347401161 0 0.0085403836572867028 0.006897732791562583 0 0.0084349303850904927 0.0072375433032605373 0 0.0087756103583768608 0.0070907558093612722 0 0.0084503398119136208 0.0070947972347401161 0 0.0087756103583768608 0.0070907558093612722 0 0.0084503398119136208 0.0070947972347401161 0 0.0085403836572867028 0.006897732791562583 0 0.0083023252363435152 0.0073016311735263992 0 0.010954247009449322 0.0058170776742574514 0 0.0082948713774921683 0.0067934495694399969 0 0.0085403836572867028 0.006897732791562583 0 0.0086130254748025669 0.0065055768430617557 0 0.0082948713774921683 0.0067934495694399969 0 0.0086130254748025669 0.0065055768430617557 0 0.0084055938558098009 0.0060075543798939835 0 0.0086130254748025669 0.0065055768430617557 0 0.0089040664610139306 0.0063658527820249595 0 0.0087455183763174398 0.0060166367188510201 0 0.0086130254748025669 0.0065055768430617557 0 0.0089040664610139306 0.0063658527820249595 0 0.0087748217469538481 0.0068049841278061251 0 0.0085403836572867028 0.006897732791562583 0 0.0086130254748025669 0.0065055768430617557 0 0.0087748217469538481 0.0068049841278061251 0 0.0082273010801302577 0.007640462440508069 0 0.0081342505478125722 0.0069533066080717642 0 0.0090855569583186309 0.0065984268137661796 0 0.0081342505478125722 0.0069533066080717642 0 0.0087756103583768608 0.0070907558093612722 0 0.0087748217469538481 0.0068049841278061251 0 0.0091848473949645744 0.0065793019234259556 0 0.0077911420131015771 0.0080859778621123011 0 0.0072868857971674387 0.0087109516454946679 0 0.0073174944866857229 0.008228897868473254 0 0.0089040664610139306 0.0063658527820249595 0 0.0092958880179206966 0.0065271504226856033 0 0.0090867028895914373 0.0059678901065775966 0 0.0089040664610139306 0.0063658527820249595 0 0.0087748217469538481 0.0068049841278061251 0 0.0092958880179206966 0.0065271504226856033 0 0.0081342505478125722 0.0069533066080717642 0 0.0049671057882573737 0.0063564874658941948 0 0.0081342505478125722 0.0069533066080717642 0 0.007307512325460259 0.0050514771085990607 0 0.0072868857971674387 0.0087109516454946679 0 0.0073174944866857229 0.008228897868473254 0 0.0068026977942609668 0.0083772588557116685 0 0.0070351315331699128 0.0080124708999110492 0 0.0073174944866857229 0.008228897868473254 0 0.0068026977942609668 0.0083772588557116685 0 0.0070351315331699128 0.0080124708999110492 0 0.0073174944866857229 0.008228897868473254 0 0.0074718841967574574 0.0077414646502077531 0 0.0077911420131015771 0.0080859778621123011 0 0.0073174944866857229 0.008228897868473254 0 0.0074718841967574574 0.0077414646502077531 0 0.0069825378128379008 0.0075983071514709082 0 0.0070351315331699128 0.0080124708999110492 0 0.0074718841967574574 0.0077414646502077531 0 0.0065037392895787452 0.0079394516679741674 0 0.0068026977942609668 0.0083772588557116685 0 0.0060337179246143244 0.0083110527919442248 0 0.0065076990274953546 0.0073998467899050813 0 0.0069825378128379008 0.0075983071514709082 0 0.0065037392895787452 0.0079394516679741674 0 0.0069825378128379008 0.0075983071514709082 0 0.0070351315331699128 0.0080124708999110492 0 0.0065037392895787452 0.0079394516679741674 0 0.0065076990274953546 0.0073998467899050813 0 0.0065037392895787452 0.0079394516679741674 0 0.0060715113501033958 0.0076833166857640436 0 0.0070351315331699128 0.0080124708999110492 0 0.0065037392895787452 0.0079394516679741674 0 0.0068026977942609668 0.0083772588557116685 0 0.0068026977942609668 0.0083772588557116685 0 0.0060337179246143244 0.0083110527919442248 0 0.0066695835921063741 0.0090333388189550116 0 0.0033592803181847607 0.0073306368120210335 0 0.0049671057882573737 0.0063564874658941948 0 0.00086353428634994517 0.0061145612765021902 0 0.00086319190151321057 0.0061576924388490172 0 0.00086581763598858293 0.0061129413259878298 0 0.0072868857971674387 0.0087109516454946679 0 0.0068026977942609668 0.0083772588557116685 0 0.0066695835921063741 0.0090333388189550116 0 0.00086353428634994517 0.0061145612765021902 0 0.00086319190151321057 0.0061576924388490172 0 0.00087615694003774405 0.0061424353054632718 0 0.0060337179246143244 0.0083110527919442248 0 0.0060715113501033958 0.0076833166857640436 0 0.00535227705590916 0.0075720831626347341 0 0.0033592803181847607 0.0073306368120210335 0 0.0032261348438341634 0.0069060913208189171 0 0.00086319190151321057 0.0061576924388490172 0 0.00087615694003774405 0.0061424353054632718 0 0.00088959619625611573 0.0062216594164561838 0 0.0065037392895787452 0.0079394516679741674 0 0.0060337179246143244 0.0083110527919442248 0 0.0060715113501033958 0.0076833166857640436 0 0.0039058888747290181 0.0050170662693055645 0 0.0036511331073703578 0.0043207289610300952 0 0.0046685817726353192 0.004083105028594847 0 0.0039058888747290181 0.0050170662693055645 0 0.0036511331073703578 0.0043207289610300952 0 0.0032200266154336246 0.0051179827002795931 0 0.00086353428634994517 0.0061145612765021902 0 0.00085960600584573596 0.0060616730857191159 0 0.00087615694003774405 0.0061424353054632718 0 0.00086353428634994517 0.0061145612765021902 0 0.00085960600584573596 0.0060616730857191159 0 0.00086581763598858293 0.0061129413259878298 0 0.0019150110273930771 0.0051529666896680815 0 0.0049671057882573737 0.0063564874658941948 0 0.0036511331073703578 0.0043207289610300952 0 0.0044999477812763481 0.0038867180818871363 0 0.0046685817726353192 0.004083105028594847 0 0.0073070901753030486 0.0061608606458611707 0 0.0068671954026199612 0.0063876077445528361 0 0.0069967969733322581 0.0065387080764625722 0 0.0049671057882573737 0.0063564874658941948 0 0.007307512325460259 0.0050514771085990607 0 0.0072203062503036312 0.004372925449541834 0 0.0081043064902568181 0.003263968401597807 0 0.0079945525921069852 0.0042631419330595478 0 0.005313554669823254 0.004645201233109692 0 0.007307512325460259 0.0050514771085990607 0 0.0079945525921069852 0.0042631419330595478 0 0.008719638325393143 0.0039694772095121315 0 0.0083347968001740696 0.0049604142262357357 0 0.0081043064902568181 0.003263968401597807 0 0.0079945525921069852 0.0042631419330595478 0 0.008719638325393143 0.0039694772095121315 0 0.0091904616861921851 0.0053849036330587503 0 0.0090867028895914373 0.0059678901065775966 0 0.0088237830479318633 0.0054434825163397222 0 0.007307512325460259 0.0050514771085990607 0 0.0088885775698380812 0.0046601776393205259 0 0.0096869544896050278 0.0060039477282025728 0 0.0091904616861921851 0.0053849036330587503 0 0.0090867028895914373 0.0059678901065775966 0 0.0092958880179206966 0.0065271504226856033 0 0.0096869544896050278 0.0060039477282025728 0 0.0090867028895914373 0.0059678901065775966 0 0.0090867028895914373 0.0059678901065775966 0 0.0087455183763174398 0.0060166367188510201 0 0.0088237830479318633 0.0054434825163397222 0 0.0087455183763174398 0.0060166367188510201 0 0.0085607402091818757 0.0057446020086675161 0 0.0088237830479318633 0.0054434825163397222 0 0.0089040664610139306 0.0063658527820249595 0 0.0090867028895914373 0.0059678901065775966 0 0.0087455183763174398 0.0060166367188510201 0 0.0086130254748025669 0.0065055768430617557 0 0.0087455183763174398 0.0060166367188510201 0 0.0084055938558098009 0.0060075543798939835 0 0.0087455183763174398 0.0060166367188510201 0 0.0084055938558098009 0.0060075543798939835 0 0.0085607402091818757 0.0057446020086675161 0 0.010954247009449322 0.0058170776742574514 0 0.0098125875874264835 0.0063121986404837049 0 0.0084251649234472828 0.0059939142058437521 0 0.0085607402091818757 0.0057446020086675161 0 0.0086423888834806055 0.0047881370628587178 0 0.0091904616861921851 0.0053849036330587503 0 0.0088237830479318633 0.0054434825163397222 0 0.0087161166031852338 0.0047681001523228652 0 0.0085607402091818757 0.0057446020086675161 0 0.0088237830479318633 0.0054434825163397222 0 0.0086423888834806055 0.0047881370628587178 0 0.0088237830479318633 0.0054434825163397222 0 0.0086423888834806055 0.0047881370628587178 0 0.0087161166031852338 0.0047681001523228652 0 0.010954247009449322 0.0058170776742574514 0 0.013721390890679567 0.0040878095425767079 0 0.0088885775698380812 0.0046601776393205259 0 0.011656340998220964 0.0038488080994106733 0 0.017421205039348117 0.0042193846565108063 0 0.01740173203133788 0.0041918868153843014 0 0.017436436726901636 0.0040133512620383763 0 0.011137969211379361 0.0012754161708699314 0 0.010956278553031608 0.0024612041245364691 0 0.010484539304843984 0.0017786621136547845 0 0.013721390890679567 0.0040878095425767079 0 0.01795980956923782 0.0038267883713345636 0 0.017419120961318802 0.0042423236552461534 0 0.01740173203133788 0.0041918868153843014 0 0.01734466137006415 0.0042089807260335668 0 0.017419120961318802 0.0042423236552461534 0 0.01742136007534693 0.0042186636236046238 0 0.01740173203133788 0.0041918868153843014 0 0.013113761787017708 0.0052807897411675806 0 0.013418527646248101 0.0032695338195543292 0 0.014726351652628063 0.0048386198806391247 0 0.013721390890679567 0.0040878095425767079 0 0.01350264034700515 0.0037870190226905074 0 0.013721390890679567 0.0040878095425767079 0 0.011656340998220964 0.0038488080994106733 0 0.01350264034700515 0.0037870190226905074 0 0.011656340998220964 0.0038488080994106733 0 0.01350264034700515 0.0037870190226905074 0 0.014369267315679453 0.0043659310842556389 0 0.011137969211379361 0.0012754161708699314 0 0.011041233821439948 0.0011600202163862879 0 0.010484539304843984 0.0017786621136547845 0 0.01740173203133788 0.0041918868153843014 0 0.017360913316061818 0.004074410962219637 0 0.01734466137006415 0.0042089807260335668 0 0.01350264034700515 0.0037870190226905074 0 0.014245224923767758 0.0030179882332422286 0 0.01740173203133788 0.0041918868153843014 0 0.017360913316061818 0.004074410962219637 0 0.017436436726901636 0.0040133512620383763 0 0.010956278553031608 0.0024612041245364691 0 0.010484539304843984 0.0017786621136547845 0 0.010251137977945423 0.002965659892820782 0 0.017360913316061818 0.004074410962219637 0 0.017436436726901636 0.0040133512620383763 0 0.017369261349186225 0.003916548824389742 0 0.0096863903552813629 0.0015017328257737987 0 0.010484539304843984 0.0017786621136547845 0 0.0094407479700795924 0.0023353687528425925 0 0.010484539304843984 0.0017786621136547845 0 0.0094407479700795924 0.0023353687528425925 0 0.010251137977945423 0.002965659892820782 0 0.0094407479700795924 0.0023353687528425925 0 0.0093307096058210179 0.0031146911492948462 0 0.010251137977945423 0.002965659892820782 0 0.008719638325393143 0.0039694772095121315 0 0.0093502223845704086 0.0046893993390988899 0 0.0083347968001740696 0.0049604142262357357 0 0.011041233821439948 0.0011600202163862879 0 0.0096863903552813629 0.0015017328257737987 0 0.010484539304843984 0.0017786621136547845 0 0.011656340998220964 0.0038488080994106733 0 0.0087098115928215328 0.0032334922702351465 0 0.0087098115928215328 0.0032334922702351465 0 0.0081441469412232691 0.0034121905899938193 0 0.0079945525921069852 0.0042631419330595478 0 0.0083347968001740696 0.0049604142262357357 0 0.00733124461676498 0.0052257026873741902 0 0.0072203062503036312 0.004372925449541834 0 0.0079945525921069852 0.0042631419330595478 0 0.00733124461676498 0.0052257026873741902 0 0.0094407479700795924 0.0023353687528425925 0 0.0085627135464734407 0.0027990306957668149 0 0.0083221351072318393 0.0018553071590252425 0 0.0096863903552813629 0.0015017328257737987 0 0.0094407479700795924 0.0023353687528425925 0 0.0083221351072318393 0.0018553071590252425 0 0.0094407479700795924 0.0023353687528425925 0 0.0085627135464734407 0.0027990306957668149 0 0.0093307096058210179 0.0031146911492948462 0 0.0083221351072318393 0.0018553071590252425 0 0.0075373589219396497 0.0026376829351352229 0 0.0069702356145601527 0.0022175979482918027 0 0.0081441469412232691 0.0034121905899938193 0 0.0054122400727490885 0.0049409857261115174 0 0.0085627135464734407 0.0027990306957668149 0 0.0083221351072318393 0.0018553071590252425 0 0.0075373589219396497 0.0026376829351352229 0 0.005313554669823254 0.004645201233109692 0 0.0054122400727490885 0.0049409857261115174 0 0.0072203062503036312 0.004372925449541834 0 0.00733124461676498 0.0052257026873741902 0 0.0063229414356069822 0.0054892643998752481 0 0.017027035670655825 0.0046939617709311062 0 0.017101432133717513 0.0046634644025512362 0 0.017060280201865469 0.0045278056710956914 0 0.017101432133717513 0.0046634644025512362 0 0.017105035439020269 0.0042678227131859887 0 0.016882338505599018 0.0042633974580431203 0 0.017105840573922483 0.0046437166287679431 0 0.016976320884607571 0.004400140811183428 0 0.016960156610751315 0.0045916045123414436 0 0.017027035670655825 0.0046939617709311062 0 0.017060280201865469 0.0045278056710956914 0 0.016960156610751315 0.0045916045123414436 0 0.016956101721111869 0.0047345260952214481 0 0.017027035670655825 0.0046939617709311062 0 0.017040735540575797 0.0049118383743413973 0 0.016956101721111869 0.0047345260952214481 0 0.017027035670655825 0.0046939617709311062 0 0.017027035670655825 0.0046939617709311062 0 0.017101432133717513 0.0046634644025512362 0 0.017087222300732438 0.0048323960247838894 0 0.017040735540575797 0.0049118383743413973 0 0.017027035670655825 0.0046939617709311062 0 0.017087222300732438 0.0048323960247838894 0 0.017133584437150195 0.0049357860497642736 0 0.017101432133717513 0.0046634644025512362 0 0.017087222300732438 0.0048323960247838894 0 0.017133584437150195 0.0049357860497642736 0 0.017101432133717513 0.0046634644025512362 0 0.017292975364845493 0.0045682523574069722 0 0.017133584437150195 0.0049357860497642736 0 0.017484771289505829 0.0047497255441652109 0 0.017292975364845493 0.0045682523574069722 0 0.017484771289505829 0.0047497255441652109 0 0.01750235847919817 0.0042612937676761321 0 0.017292975364845493 0.0045682523574069722 0 0.01750235847919817 0.0042612937676761321 0 0.017292975364845493 0.0045682523574069722 0 0.017336983061330181 0.0043097935162071978 0 0.017292975364845493 0.0045682523574069722 0 0.017336983061330181 0.0043097935162071978 0 0.01722907732286243 0.004235902902501365 0 0.017101432133717513 0.0046634644025512362 0 0.017292975364845493 0.0045682523574069722 0 0.017105035439020269 0.0042678227131859887 0 0.017292975364845493 0.0045682523574069722 0 0.017105035439020269 0.0042678227131859887 0 0.01722907732286243 0.004235902902501365 0 0.017105035439020269 0.0042678227131859887 0 0.01722907732286243 0.004235902902501365 0 0.017181202188446449 0.0040346580145186918 0 0.01722907732286243 0.004235902902501365 0 0.017283950010534014 0.0041129991655030401 0 0.017181202188446449 0.0040346580145186918 0 0.017336983061330181 0.0043097935162071978 0 0.01722907732286243 0.004235902902501365 0 0.01734466137006415 0.0042089807260335668 0 0.017419120961318802 0.0042423236552461534 0 0.017336983061330181 0.0043097935162071978 0 0.01734466137006415 0.0042089807260335668 0 0.01722907732286243 0.004235902902501365 0 0.01734466137006415 0.0042089807260335668 0 0.017283950010534014 0.0041129991655030401 0 0.017360913316061818 0.004074410962219637 0 0.01734466137006415 0.0042089807260335668 0 0.017283950010534014 0.0041129991655030401 0 0.017360913316061818 0.004074410962219637 0 0.017283950010534014 0.0041129991655030401 0 0.017278384155592918 0.0039802078169760332 0 0.017283950010534014 0.0041129991655030401 0 0.017278384155592918 0.0039802078169760332 0 0.017181202188446449 0.0040346580145186918 0 0.017278384155592918 0.0039802078169760332 0 0.017181202188446449 0.0040346580145186918 0 0.017211123419297286 0.0039213683064608955 0 0.017360913316061818 0.004074410962219637 0 0.017278384155592918 0.0039802078169760332 0 0.017369261349186225 0.003916548824389742 0 0.017181202188446449 0.0040346580145186918 0 0.016982860120046767 0.0040005522846765056 0 0.017124817747400614 0.003848336332874291 0 0.017105035439020269 0.0042678227131859887 0 0.017181202188446449 0.0040346580145186918 0 0.016982860120046767 0.0040005522846765056 0 0.017105035439020269 0.0042678227131859887 0 0.016982860120046767 0.0040005522846765056 0 0.016882338505599018 0.0042633974580431203 0 0.016786858369534152 0.0039953369045071952 0 0.016982860120046767 0.0040005522846765056 0 0.016882338505599018 0.0042633974580431203 0 0.017002703379646988 0.0042683488681494923 0 0.016960156610751315 0.0045916045123414436 0 0.017060280201865469 0.0045278056710956914 0 0.016889569758682031 0.0041255903527281975 0 0.016976320884607571 0.004400140811183428 0 0.016786858369534152 0.0039953369045071952 0 0.016982860120046767 0.0040005522846765056 0 0.016904132279280115 0.003857021497516632 0 0.016904132279280115 0.003857021497516632 0 0.016917371010271576 0.0037064565471849787 0 0.016834399780867378 0.0037874969008888514 0 0.016904132279280115 0.003857021497516632 0 0.016917371010271576 0.0037064565471849787 0 0.017003371165604377 0.0037822748841371046 0 0.016917371010271576 0.0037064565471849787 0 0.016903596381338922 0.0036265747548490518 0 0.016935562917496365 0.0036430090284697335 0 0.016917371010271576 0.0037064565471849787 0 0.017000451839368082 0.0036554292965061013 0 0.016935562917496365 0.0036430090284697335 0 0.016917371010271576 0.0037064565471849787 0 0.016903596381338922 0.0036265747548490518 0 0.016849174279092882 0.0036241251738685122 0 0.017000451839368082 0.0036554292965061013 0 0.017003371165604377 0.0037822748841371046 0 0.017096877955093469 0.0036655236529451111 0 0.016917371010271576 0.0037064565471849787 0 0.017000451839368082 0.0036554292965061013 0 0.017003371165604377 0.0037822748841371046 0 0.016982860120046767 0.0040005522846765056 0 0.017003371165604377 0.0037822748841371046 0 0.017124817747400614 0.003848336332874291 0 0.016982860120046767 0.0040005522846765056 0 0.016904132279280115 0.003857021497516632 0 0.017003371165604377 0.0037822748841371046 0 0.017181202188446449 0.0040346580145186918 0 0.017124817747400614 0.003848336332874291 0 0.017211123419297286 0.0039213683064608955 0 0.017124817747400614 0.003848336332874291 0 0.017267877644642184 0.0038452764210904424 0 0.017184069846825349 0.0036801857231776609 0 0.017124817747400614 0.003848336332874291 0 0.017211123419297286 0.0039213683064608955 0 0.017267877644642184 0.0038452764210904424 0 0.017278384155592918 0.0039802078169760332 0 0.017267877644642184 0.0038452764210904424 0 0.017369261349186225 0.003916548824389742 0 0.017278384155592918 0.0039802078169760332 0 0.017211123419297286 0.0039213683064608955 0 0.017267877644642184 0.0038452764210904424 0 0.017267877644642184 0.0038452764210904424 0 0.017370573958413019 0.0038351527330972748 0 0.017346219119195844 0.0037787084978977595 0 0.017267877644642184 0.0038452764210904424 0 0.017369261349186225 0.003916548824389742 0 0.017370573958413019 0.0038351527330972748 0 0.017267877644642184 0.0038452764210904424 0 0.017184069846825349 0.0036801857231776609 0 0.017346219119195844 0.0037787084978977595 0 0.017124817747400614 0.003848336332874291 0 0.017184069846825349 0.0036801857231776609 0 0.017096877955093469 0.0036655236529451111 0 0.017003371165604377 0.0037822748841371046 0 0.017124817747400614 0.003848336332874291 0 0.017096877955093469 0.0036655236529451111 0 0.015307282367564668 -0.00044229264080459314 0 0.015286527663190986 -0.00044550293722291236 0 0.015263445082871016 -0.00043329961437844412 0 0.016371968433003807 0.0014684074563998664 0 0.016117899953465901 0.0015425796813101464 0 0.017096877955093469 0.0036655236529451111 0 0.017187147470171388 0.0036003675696726421 0 0.017058999580233339 0.0035791144795179609 0 0.017184069846825349 0.0036801857231776609 0 0.017096877955093469 0.0036655236529451111 0 0.017187147470171388 0.0036003675696726421 0 0.017184069846825349 0.0036801857231776609 0 0.017187147470171388 0.0036003675696726421 0 0.017198931423563945 0.0036250464685898538 0 0.015307282367564668 -0.00044229264080459314 0 0.015304373738454103 -0.00046204084244204694 0 0.015286527663190986 -0.00044550293722291236 0 0.015307282367564668 -0.00044229264080459314 0 0.015304373738454103 -0.00046204084244204694 0 0.015263006818879467 -0.000434051958631587 0 0.015304373738454103 -0.00046204084244204694 0 0.015286527663190986 -0.00044550293722291236 0 0.015282392337793639 -0.00045969310151755728 0 0.015286527663190986 -0.00044550293722291236 0 0.015288845695678052 -0.00042610382147439106 0 0.015263445082871016 -0.00043329961437844412 0 0.015286527663190986 -0.00044550293722291236 0 0.015282392337793639 -0.00045969310151755728 0 0.015288845695678052 -0.00042610382147439106 0 0.015282392337793639 -0.00045969310151755728 0 0.015288845695678052 -0.00042610382147439106 0 0.015240580412251991 -0.00046488012536449963 0 0.015363386690235341 -0.00039168292369639088 0 0.015340710624189057 -0.00025635597557104143 0 0.01551702377385468 -0.00023680953884775436 0 0.015376423390885069 -0.00040612390262889235 0 0.015432111677432562 8.4604325062506729e-06 0 0.015288845695678052 -0.00042610382147439106 0 0.015376423390885069 -0.00040612390262889235 0 0.015240580412251991 -0.00046488012536449963 0 0.015673854058959255 -0.00012508918863907292 0 0.01551702377385468 -0.00023680953884775436 0 0.015432111677432562 8.4604325062506729e-06 0 0.015673854058959255 -0.00012508918863907292 0 0.01551702377385468 -0.00023680953884775436 0 0.015577157575172747 -0.00040940058196271958 0 0.01551702377385468 -0.00023680953884775436 0 0.015577157575172747 -0.00040940058196271958 0 0.015376423390885069 -0.00040612390262889235 0 0.016922004041263965 0.0035880644795141903 0 0.016895295078398983 0.0035722438329112479 0 0.017058999580233339 0.0035791144795179609 0 0.016786878935539772 0.0024365373831739313 0 0.016336457847625399 0.002016440558034494 0 0.016903082720646046 0.0035776770528485099 0 0.016903596381338922 0.0036265747548490518 0 0.016849174279092882 0.0036241251738685122 0 0.016922004041263965 0.0035880644795141903 0 0.016903082720646046 0.0035776770528485099 0 0.016903596381338922 0.0036265747548490518 0 0.017000451839368082 0.0036554292965061013 0 0.016922004041263965 0.0035880644795141903 0 0.016935562917496365 0.0036430090284697335 0 0.016922004041263965 0.0035880644795141903 0 0.016903596381338922 0.0036265747548490518 0 0.016935562917496365 0.0036430090284697335 0 0.017000451839368082 0.0036554292965061013 0 0.016922004041263965 0.0035880644795141903 0 0.017058999580233339 0.0035791144795179609 0 0.016336457847625399 0.002016440558034494 0 0.016117899953465901 0.0015425796813101464 0 0.015577157575172747 -0.00040940058196271958 0 0.015263445082871016 -0.00043329961437844412 0 0.015376423390885069 -0.00040612390262889235 0 0.017000451839368082 0.0036554292965061013 0 0.017096877955093469 0.0036655236529451111 0 0.017058999580233339 0.0035791144795179609 0 0.015288845695678052 -0.00042610382147439106 0 0.015263445082871016 -0.00043329961437844412 0 0.015376423390885069 -0.00040612390262889235 0 0.0092281705447665903 0.0039512126466875004 0 0.0080456661336495462 0.0045874314131588633 0 0.007351199814958089 0.0039527435719760168 0 0.0079044662871202032 0.0038432234684516223 0 0.0086466172166496571 0.0044069712378972713 0 0.0070308315170045186 0.0042825054008855173 0 0.0086761509167724016 0.0041756567517043913 0 0.0072458647327389792 0.0041212488635190333 0 0.0092281705447665903 0.0039512126466875004 0 0.0088726798585854923 0.0046443593272476351 0 0.0080456661336495462 0.0045874314131588633 0 0.0079044662871202032 0.0038432234684516223 0 0.0086574330628163033 0.003567495013881504 0 0.0086466172166496571 0.0044069712378972713 0 0.0079044662871202032 0.0038432234684516223 0 0.0078597911431750808 0.0032823879082833777 0 0.0073365487255231589 0.003676389752677236 0 0.0075373589219396497 0.0026376829351352229 0 0.0078597911431750808 0.0032823879082833777 0 0.0069762109698739642 0.0031761385969617437 0 0.0085627135464734407 0.0027990306957668149 0 0.0078597911431750808 0.0032823879082833777 0 0.0086574330628163033 0.003567495013881504 0 0.0085627135464734407 0.0027990306957668149 0 0.0075373589219396497 0.0026376829351352229 0 0.0078597911431750808 0.0032823879082833777 0 0.0079044662871202032 0.0038432234684516223 0 0.0078597911431750808 0.0032823879082833777 0 0.0086574330628163033 0.003567495013881504 0 0.0085627135464734407 0.0027990306957668149 0 0.0086574330628163033 0.003567495013881504 0 0.0093307096058210179 0.0031146911492948462 0 0.0086574330628163033 0.003567495013881504 0 0.0093307096058210179 0.0031146911492948462 0 0.0096572096717543483 0.0036992680135890942 0 0.0092281705447665903 0.0039512126466875004 0 0.011093891589948661 0.0040200739536876591 0 0.0094642346189887459 0.0048344754663171528 0 0.0086761509167724016 0.0041756567517043913 0 0.011930386640030349 0.004236548826726803 0 0.0086574330628163033 0.003567495013881504 0 0.0086466172166496571 0.0044069712378972713 0 0.0096572096717543483 0.0036992680135890942 0 0.0092281705447665903 0.0039512126466875004 0 0.0094642346189887459 0.0048344754663171528 0 0.0088726798585854923 0.0046443593272476351 0 0.010267583405061561 0.0044862404264677143 0 0.0096572096717543483 0.0036992680135890942 0 0.01078153978026726 0.0036615623320364254 0 0.0086466172166496571 0.0044069712378972713 0 0.010267583405061561 0.0044862404264677143 0 0.0096572096717543483 0.0036992680135890942 0 0.011930386640030349 0.004236548826726803 0 0.015697766432347229 0.0038558356996401151 0 0.011930386640030349 0.004236548826726803 0 0.014092396612609543 0.0038763234681062817 0 0.0096572096717543483 0.0036992680135890942 0 0.010251137977945423 0.002965659892820782 0 0.01078153978026726 0.0036615623320364254 0 0.0093307096058210179 0.0031146911492948462 0 0.0096572096717543483 0.0036992680135890942 0 0.010251137977945423 0.002965659892820782 0 0.014245224923767758 0.0030179882332422286 0 0.014092396612609543 0.0038763234681062817 0 0.017436436726901636 0.0040133512620383763 0 0.017443536671711959 0.003824767249323591 0 0.017369261349186225 0.003916548824389742 0 0.010956278553031608 0.0024612041245364691 0 0.010251137977945423 0.002965659892820782 0 0.01078153978026726 0.0036615623320364254 0 0.017443536671711959 0.003824767249323591 0 0.017370573958413019 0.0038351527330972748 0 0.017346219119195844 0.0037787084978977595 0 0.017443536671711959 0.003824767249323591 0 0.017369261349186225 0.003916548824389742 0 0.017370573958413019 0.0038351527330972748 0 0.017890131802717677 0.0036413390001931397 0 0.015697766432347229 0.0038558356996401151 0 0.017184069846825349 0.0036801857231776609 0 0.017201514159642578 0.0036361174997204286 0 0.017198931423563945 0.0036250464685898538 0 0.017184069846825349 0.0036801857231776609 0 0.017346219119195844 0.0037787084978977595 0 0.017459817123543483 0.003701076045434507 0 0.014092396612609543 0.0038763234681062817 0 0.015697766432347229 0.0038558356996401151 0 0.013943852546243552 0.0037766000770415678 0 0.013938296848889045 0.0037996677527921954 0 0.013938455945040833 0.0037761762069240625 0 0.017443536671711959 0.003824767249323591 0 0.017346219119195844 0.0037787084978977595 0 0.017459817123543483 0.003701076045434507 0 0.015307282367564668 -0.00044229264080459314 0 0.015220665583002601 -0.00044321156369690848 0 0.015175732262459246 -0.00047651080480726372 0 0.017187147470171388 0.0036003675696726421 0 0.017198931423563945 0.0036250464685898538 0 0.017200209456892841 0.0036144059689373533 0 0.017201514159642578 0.0036361174997204286 0 0.017198931423563945 0.0036250464685898538 0 0.017200209456892841 0.0036144059689373533 0 0.016371968433003807 0.0014684074563998664 0 0.01561775098157748 0.0026165192175742181 0 0.015154434933695095 -0.00048203464975461144 0 0.01562026907065301 -0.00044980565871535804 0 0.015304373738454103 -0.00046204084244204694 0 0.01536840046095315 -0.00055552252603369276 0 0.015339713182182741 -0.00051937355545882342 0 0.015307282367564668 -0.00044229264080459314 0 0.015263006818879467 -0.000434051958631587 0 0.015220665583002601 -0.00044321156369690848 0 0.015304373738454103 -0.00046204084244204694 0 0.015263006818879467 -0.000434051958631587 0 0.015198587693511527 -0.00037063515864599675 0 0.015198587693511527 -0.00037063515864599675 0 0.015220665583002601 -0.00044321156369690848 0 0.015181522908498097 -0.00043162272035909664 0 0.015263006818879467 -0.000434051958631587 0 0.015198587693511527 -0.00037063515864599675 0 0.015220665583002601 -0.00044321156369690848 0 0.015220665583002601 -0.00044321156369690848 0 0.015181522908498097 -0.00043162272035909664 0 0.015175732262459246 -0.00047651080480726372 0 0.01562026907065301 -0.00044980565871535804 0 0.013290087218844527 -0.00036391629793333088 0 0.015181522908498097 -0.00043162272035909664 0 0.015124105097549152 -0.00043786027194946283 0 0.015175732262459246 -0.00047651080480726372 0 0.01536840046095315 -0.00055552252603369276 0 0.01528342788164912 -0.00056791803432473169 0 0.015136959895767497 -0.0007767552194587544 0 0.015198587693511527 -0.00037063515864599675 0 0.015056969494929105 -0.0004256382349999211 0 0.014877383134959482 -0.00036984049589748499 0 0.015124105097549152 -0.00043786027194946283 0 0.015056969494929105 -0.0004256382349999211 0 0.015175732262459246 -0.00047651080480726372 0 0.015198587693511527 -0.00037063515864599675 0 0.015124105097549152 -0.00043786027194946283 0 0.015056969494929105 -0.0004256382349999211 0 0.015198587693511527 -0.00037063515864599675 0 0.015181522908498097 -0.00043162272035909664 0 0.015124105097549152 -0.00043786027194946283 0 0.01536840046095315 -0.00055552252603369276 0 0.01528342788164912 -0.00056791803432473169 0 0.015337693319889007 -0.00052337844623256253 0 0.011930386640030349 0.004236548826726803 0 0.012504755750297813 0.0028310489455076015 0 0.015697766432347229 0.0038558356996401151 0 0.01561775098157748 0.0026165192175742181 0 0.015056969494929105 -0.0004256382349999211 0 0.015175732262459246 -0.00047651080480726372 0 0.014935805115739038 -0.00047310020145467267 0 0.013727680992107099 0.0035230364816486136 0 0.013711135321217236 0.0033637458977103158 0 0.013817571632184661 0.0033560326671750172 0 0.013727680992107099 0.0035230364816486136 0 0.013688271889083585 0.0035214297819510039 0 0.013711135321217236 0.0033637458977103158 0 0.01561775098157748 0.0026165192175742181 0 0.012504755750297813 0.0028310489455076015 0 0.011093891589948661 0.0040200739536876591 0 0.0094642346189887459 0.0048344754663171528 0 0.010075045465870043 0.0056285383554242167 0 0.0094642346189887459 0.0048344754663171528 0 0.0087554973567272078 0.0051934713341702139 0 0.0088726798585854923 0.0046443593272476351 0 0.0094642346189887459 0.0048344754663171528 0 0.0088807515610137468 0.0056814686166490342 0 0.0087554973567272078 0.0051934713341702139 0 0.012504755750297813 0.0028310489455076015 0 0.0095373099852184562 0.0035582699995078374 0 0.0094642346189887459 0.0048344754663171528 0 0.010075045465870043 0.0056285383554242167 0 0.0088807515610137468 0.0056814686166490342 0 0.015056969494929105 -0.0004256382349999211 0 0.014935805115739038 -0.00047310020145467267 0 0.014877383134959482 -0.00036984049589748499 0 0.013290087218844527 -0.00036391629793333088 0 0.012691532904427654 0.00012345216756330898 0 0.015136959895767497 -0.0007767552194587544 0 0.015051462152121184 -0.00058915004135671122 0 0.014612932250574966 -0.00018780106597175952 0 0.012504755750297813 0.0028310489455076015 0 0.013290087218844527 -0.00036391629793333088 0 0.015136959895767497 -0.0007767552194587544 0 0.015051462152121184 -0.00058915004135671122 0 0.01520746219025375 -0.0005525420310718023 0 0.01528342788164912 -0.00056791803432473169 0 0.015136959895767497 -0.0007767552194587544 0 0.01520746219025375 -0.0005525420310718023 0 0.012828182770386965 0.0015079015025953669 0 0.012220800614700295 0.0024736879596469895 0 0.010613520470189076 0.0016134938766473358 0 0.013290087218844527 -0.00036391629793333088 0 0.0082512418460062471 0.0017682404014457828 0 0.012220800614700295 0.0024736879596469895 0 0.010613520470189076 0.0016134938766473358 0 0.008397347476423199 0.0017229478924122336 0 0.011544949003593482 -0.001260639220737748 0 0.010454054743198226 0.00045091629859282748 0 0.0091738652612544935 -0.0017236949987525709 0 0.0095373099852184562 0.0035582699995078374 0 0.0082512418460062471 0.0017682404014457828 0 0.0086151576907001516 0.0051717556906378942 0 0.0071752083230060782 0.0049453825942869598 0 0.0087554973567272078 0.0051934713341702139 0 0.0080456661336495462 0.0045874314131588633 0 0.0071743823395824012 0.0050452418257471961 0 0.0087554973567272078 0.0051934713341702139 0 0.007194439821479175 0.0048559969385403579 0 0.007696478250679489 0.0056942010370182585 0 0.0088807515610137468 0.0056814686166490342 0 0.0087554973567272078 0.0051934713341702139 0 0.007696478250679489 0.0056942010370182585 0 0.0087554973567272078 0.0051934713341702139 0 0.0088726798585854923 0.0046443593272476351 0 0.0080456661336495462 0.0045874314131588633 0 0.0093711316168518469 0.002160533581653959 0 0.010454054743198226 0.00045091629859282748 0 0.0087683476436299403 0.00060094549262895214 0 0.014071656583204922 0.00057317962277459778 0 0.014612932250574966 -0.00018780106597175952 0 0.014340789831918294 0.00065771635976598071 0 0.010291618350530817 0.00036649924140769207 0 0.012691532904427654 0.00012345216756330898 0 0.014612932250574966 -0.00018780106597175952 0 0.015141937485764867 -4.004114962126158e-05 0 0.014340789831918294 0.00065771635976598071 0 0.010291618350530817 0.00036649924140769207 0 0.012239220534388048 -0.00086208444880242214 0 0.010454054743198226 0.00045091629859282748 0 0.0087683476436299403 0.00060094549262895214 0 0.0091738652612544935 -0.0017236949987525709 0 0.01509148312194291 -0.000457318372371098 0 0.014892520531697281 -0.00048688914533284711 0 0.015051462152121184 -0.00058915004135671122 0 0.014612932250574966 -0.00018780106597175952 0 0.015141937485764867 -4.004114962126158e-05 0 0.015051462152121184 -0.00058915004135671122 0 0.01520746219025375 -0.0005525420310718023 0 0.015201461448583756 -0.00039399128430466228 0 0.01520746219025375 -0.0005525420310718023 0 0.015201461448583756 -0.00039399128430466228 0 0.015296577736831933 -0.00048576409117764976 0 0.014892520531697281 -0.00048688914533284711 0 0.015193302209765542 -0.00058108165598415112 0 0.014892520531697281 -0.00048688914533284711 0 0.012239220534388048 -0.00086208444880242214 0 0.013797654938967079 -0.0011901896043070436 0 0.013921300059136795 -0.00056983152146881878 0 0.013313346993175103 -0.00076483405293406093 0 0.014892520531697281 -0.00048688914533284711 0 0.014065287407427296 -0.0012077287006514526 0 0.015373326424244662 -0.00051751190497281089 0 0.015351126921002664 -0.00056579120694067234 0 0.015442722302621949 -0.00070088240240527989 0 0.015351126921002664 -0.00056579120694067234 0 0.015334155491321028 -0.00058629531687813703 0 0.015372528813839548 -0.00064565179205521971 0 0.015351126921002664 -0.00056579120694067234 0 0.015326471231044934 -0.00051799192366989858 0 0.015332220517978119 -0.00053791387097161297 0 0.015373326424244662 -0.00051751190497281089 0 0.015351126921002664 -0.00056579120694067234 0 0.015326471231044934 -0.00051799192366989858 0 0.015373326424244662 -0.00051751190497281089 0 0.015326471231044934 -0.00051799192366989858 0 0.015296577736831933 -0.00048576409117764976 0 0.015326471231044934 -0.00051799192366989858 0 0.015296577736831933 -0.00048576409117764976 0 0.015337693319889007 -0.00052337844623256253 0 0.01528342788164912 -0.00056791803432473169 0 0.015296577736831933 -0.00048576409117764976 0 0.015337693319889007 -0.00052337844623256253 0 0.01528342788164912 -0.00056791803432473169 0 0.01520746219025375 -0.0005525420310718023 0 0.015296577736831933 -0.00048576409117764976 0 0.015326471231044934 -0.00051799192366989858 0 0.015337693319889007 -0.00052337844623256253 0 0.015332220517978119 -0.00053791387097161297 0 0.015337693319889007 -0.00052337844623256253 0 0.015332220517978119 -0.00053791387097161297 0 0.015339713182182741 -0.00051937355545882342 0 0.01536840046095315 -0.00055552252603369276 0 0.015337693319889007 -0.00052337844623256253 0 0.015339713182182741 -0.00051937355545882342 0 0.015332220517978119 -0.00053791387097161297 0 0.015339713182182741 -0.00051937355545882342 0 0.01531001428479581 -0.00052511442972118748 0 0.015332220517978119 -0.00053791387097161297 0 0.01531001428479581 -0.00052511442972118748 0 0.015301817486496073 -0.00057431851073741394 0 0.015332220517978119 -0.00053791387097161297 0 0.015334155491321028 -0.00058629531687813703 0 0.015301817486496073 -0.00057431851073741394 0 0.015351126921002664 -0.00056579120694067234 0 0.015332220517978119 -0.00053791387097161297 0 0.015334155491321028 -0.00058629531687813703 0 0.015334155491321028 -0.00058629531687813703 0 0.015322553527273424 -0.00066101479866506152 0 0.015301817486496073 -0.00057431851073741394 0 0.015320002791471431 -0.00066538786994836522 0 0.01522485690877627 -0.00069860376631025712 0 0.015322553527273424 -0.00066101479866506152 0 0.015301817486496073 -0.00057431851073741394 0 0.015290105091316779 -0.00059709451333859553 0 0.015322553527273424 -0.00066101479866506152 0 0.015292315949933239 -0.00081942231191456914 0 0.015121400524680986 -0.00081385738062586923 0 0.015334155491321028 -0.00058629531687813703 0 0.015322553527273424 -0.00066101479866506152 0 0.015372528813839548 -0.00064565179205521971 0 0.015322553527273424 -0.00066101479866506152 0 0.015292315949933239 -0.00081942231191456914 0 0.015408540428454779 -0.00075418060805095054 0 0.015230207951426595 -0.00095429870758067224 0 0.015384584507723825 -0.00092271616973945043 0 0.015260729366555236 -0.0011704127069698401 0 0.015292315949933239 -0.00081942231191456914 0 0.015230207951426595 -0.00095429870758067224 0 0.015121400524680986 -0.00081385738062586923 0 0.015292315949933239 -0.00081942231191456914 0 0.015230207951426595 -0.00095429870758067224 0 0.015384584507723825 -0.00092271616973945043 0 0.014065287407427296 -0.0012077287006514526 0 0.014425449202256704 -0.0019311235821907586 0 0.012730722510958447 -0.0018603784767822723 0 0.012754628379402791 -0.0024853528022221638 0 0.013037553746619945 -0.0011437891649218473 0 0.015384584507723825 -0.00092271616973945043 0 0.015517490232533251 -0.00072489539215084828 0 0.015469070027684832 -0.0010480476577457419 0 0.015292315949933239 -0.00081942231191456914 0 0.015384584507723825 -0.00092271616973945043 0 0.015408540428454779 -0.00075418060805095054 0 0.012730722510958447 -0.0018603784767822723 0 0.012545837472192256 -0.0013875198744485158 0 0.013037553746619945 -0.0011437891649218473 0 0.015351126921002664 -0.00056579120694067234 0 0.015442722302621949 -0.00070088240240527989 0 0.015372528813839548 -0.00064565179205521971 0 0.014065287407427296 -0.0012077287006514526 0 0.015493317906799501 -0.00072832748432593306 0 0.015384584507723825 -0.00092271616973945043 0 0.015517490232533251 -0.00072489539215084828 0 0.015408540428454779 -0.00075418060805095054 0 0.015322553527273424 -0.00066101479866506152 0 0.015408540428454779 -0.00075418060805095054 0 0.015372528813839548 -0.00064565179205521971 0 0.015442722302621949 -0.00070088240240527989 0 0.015408540428454779 -0.00075418060805095054 0 0.015372528813839548 -0.00064565179205521971 0 0.014065287407427296 -0.0012077287006514526 0 0.012239220534388048 -0.00086208444880242214 0 0.012754628379402791 -0.0024853528022221638 0 0.012187616106242357 -0.0020945310192244803 0 0.011350722782848018 -0.0029445775146192772 0 0.012730722510958447 -0.0018603784767822723 0 0.012754628379402791 -0.0024853528022221638 0 0.012187616106242357 -0.0020945310192244803 0 0.010144773406276357 -0.0042911316831713399 0 0.0091023069686150381 -0.0047953068147252795 0 0.0091872326237021368 -0.0038549167489941613 0 0.012529594490660372 -0.001366921088625008 0 0.012187616106242357 -0.0020945310192244803 0 0.011566330673867507 -0.0018195045625128117 0 0.01243668617539706 -0.0030174428950175188 0 0.010198526882188003 -0.0034313198380773358 0 0.012730722510958447 -0.0018603784767822723 0 0.012529594490660372 -0.001366921088625008 0 0.012187616106242357 -0.0020945310192244803 0 0.012361560620304453 -0.0017332280356502346 0 0.01243668617539706 -0.0030174428950175188 0 0.0091023069686150381 -0.0047953068147252795 0 0.0091872326237021368 -0.0038549167489941613 0 0.0084250497181331853 -0.0040463454449741953 0 0.010198526882188003 -0.0034313198380773358 0 0.0084244703748386964 -0.0017944538072983225 0 0.0091023069686150381 -0.0047953068147252795 0 0.0080609470831729032 -0.0052878836981753137 0 0.0084250497181331853 -0.0040463454449741953 0 0.011566330673867507 -0.0018195045625128117 0 0.011350722782848018 -0.0029445775146192772 0 0.010592591678408252 -0.0022782858577747524 0 0.012187616106242357 -0.0020945310192244803 0 0.011566330673867507 -0.0018195045625128117 0 0.011350722782848018 -0.0029445775146192772 0 0.0096476724720424567 -0.00075313559065979499 0 0.010367316138620448 -0.00051727460783470658 0 0.0092243134603699449 -8.6720020225691357e-05 0 0.012239220534388048 -0.00086208444880242214 0 0.0084244703748386964 -0.0017944538072983225 0 0.015218113966789373 -0.00054283476201066883 0 0.015240580412251991 -0.00046488012536449963 0 0.015278143204479179 -0.00052479292385342014 0 0.015218113966789373 -0.00054283476201066883 0 0.015278143204479179 -0.00052479292385342014 0 0.015254401589127229 -0.0005605903458523547 0 0.015404743892409188 -2.6252541463545535e-05 0 0.015340710624189057 -0.00025635597557104143 0 0.01552905145987799 0.00033488688834401267 0 0.015710962827031164 0.00035979439716964237 0 0.015748388448531572 0.0001891394448547002 0 0.01552905145987799 0.00033488688834401267 0 0.015432111677432562 8.4604325062506729e-06 0 0.015748388448531572 0.0001891394448547002 0 0.015673854058959255 -0.00012508918863907292 0 0.015432111677432562 8.4604325062506729e-06 0 0.015748388448531572 0.0001891394448547002 0 0.015282392337793639 -0.00045969310151755728 0 0.015240580412251991 -0.00046488012536449963 0 0.015278143204479179 -0.00052479292385342014 0 0.015304373738454103 -0.00046204084244204694 0 0.015282392337793639 -0.00045969310151755728 0 0.015278143204479179 -0.00052479292385342014 0 0.015304373738454103 -0.00046204084244204694 0 0.01531001428479581 -0.00052511442972118748 0 0.015278143204479179 -0.00052479292385342014 0 0.015304373738454103 -0.00046204084244204694 0 0.015339713182182741 -0.00051937355545882342 0 0.01531001428479581 -0.00052511442972118748 0 0.01531001428479581 -0.00052511442972118748 0 0.015301817486496073 -0.00057431851073741394 0 0.015278143204479179 -0.00052479292385342014 0 0.015301817486496073 -0.00057431851073741394 0 0.015278143204479179 -0.00052479292385342014 0 0.015290105091316779 -0.00059709451333859553 0 0.015278143204479179 -0.00052479292385342014 0 0.015290105091316779 -0.00059709451333859553 0 0.015254401589127229 -0.0005605903458523547 0 0.015254553704035827 -0.00058885777649711685 0 0.015290105091316779 -0.00059709451333859553 0 0.015254401589127229 -0.0005605903458523547 0 0.015059959100958583 -0.00078453482613240644 0 0.01522485690877627 -0.00069860376631025712 0 0.015230207951426595 -0.00095429870758067224 0 0.015121400524680986 -0.00081385738062586923 0 0.015084518849620514 -0.0010496933927250283 0 0.014950159607372992 -0.00090704792676275976 0 0.014891618763010631 -0.0010731649949777262 0 0.015084518849620514 -0.0010496933927250283 0 0.014950159607372992 -0.00090704792676275976 0 0.015121400524680986 -0.00081385738062586923 0 0.015084518849620514 -0.0010496933927250283 0 0.014950159607372992 -0.00090704792676275976 0 0.014891618763010631 -0.0010731649949777262 0 0.014756159792671718 -0.00097169186988580543 0 0.015059959100958583 -0.00078453482613240644 0 0.015136068437457852 -0.00037863382273908624 0 0.015254553704035827 -0.00058885777649711685 0 0.015234236377729781 -0.00057170501915058405 0 0.015254401589127229 -0.0005605903458523547 0 0.015254553704035827 -0.00058885777649711685 0 0.015234236377729781 -0.00057170501915058405 0 0.015209340530355725 -0.00059738610895657205 0 0.015218113966789373 -0.00054283476201066883 0 0.015234236377729781 -0.00057170501915058405 0 0.015254401589127229 -0.0005605903458523547 0 0.01552905145987799 0.00033488688834401267 0 0.015659999865181556 0.00045267851705479354 0 0.015605984135410419 0.00056435877418214444 0 0.015404743892409188 -2.6252541463545535e-05 0 0.015136068437457852 -0.00037863382273908624 0 0.015218113966789373 -0.00054283476201066883 0 0.015234236377729781 -0.00057170501915058405 0 0.015209340530355725 -0.00059738610895657205 0 0.01552905145987799 0.00033488688834401267 0 0.015659999865181556 0.00045267851705479354 0 0.015710962827031164 0.00035979439716964237 0 0.015659999865181556 0.00045267851705479354 0 0.015700051221041979 0.00050220548247442937 0 0.015671729456717652 0.00052789421324377203 0 0.015671729456717652 0.00052789421324377203 0 0.015703989166739853 0.00056918021912447765 0 0.015728613011166345 0.00053236846940042182 0 0.015714479425049714 0.00058510915535895064 0 0.015703989166739853 0.00056918021912447765 0 0.015605984135410419 0.00056435877418214444 0 0.015659999865181556 0.00045267851705479354 0 0.015671729456717652 0.00052789421324377203 0 0.015605984135410419 0.00056435877418214444 0 0.015136068437457852 -0.00037863382273908624 0 0.014785685808582905 -0.0011407092587842219 0 0.015700051221041979 0.00050220548247442937 0 0.015671729456717652 0.00052789421324377203 0 0.015728613011166345 0.00053236846940042182 0 0.014891618763010631 -0.0010731649949777262 0 0.014756159792671718 -0.00097169186988580543 0 0.014738280698494734 -0.0011477490468098533 0 0.014679419859322813 -0.00066950736382544629 0 0.014902778290864555 -0.00061086838033577707 0 0.014845523278488738 -0.0009776723826453134 0 0.015490647632130735 9.2436652710207396e-05 0 0.015136068437457852 -0.00037863382273908624 0 0.015671729456717652 0.00052789421324377203 0 0.015703989166739853 0.00056918021912447765 0 0.015605984135410419 0.00056435877418214444 0 0.015490647632130735 9.2436652710207396e-05 0 0.015523559149583626 0.00015050781207192509 0 0.015490647632130735 9.2436652710207396e-05 0 0.016082859885154094 0.00062910570660067275 0 0.015723495229667584 0.00058408641113121506 0 0.015785574828960973 0.00054032080286088113 0 0.015907644825816313 0.00051741047304297019 0 0.015785574828960973 0.00054032080286088113 0 0.015907644825816313 0.00051741047304297019 0 0.015831565900216681 0.00051641672063705167 0 0.015785574828960973 0.00054032080286088113 0 0.015762709312742647 0.00050848748944369191 0 0.015831565900216681 0.00051641672063705167 0 0.015728613011166345 0.00053236846940042182 0 0.015785574828960973 0.00054032080286088113 0 0.015762709312742647 0.00050848748944369191 0 0.015700051221041979 0.00050220548247442937 0 0.015728613011166345 0.00053236846940042182 0 0.015762709312742647 0.00050848748944369191 0 0.015728613011166345 0.00053236846940042182 0 0.015736761727502928 0.00055659489725389075 0 0.015785574828960973 0.00054032080286088113 0 0.015723495229667584 0.00058408641113121506 0 0.015736761727502928 0.00055659489725389075 0 0.015785574828960973 0.00054032080286088113 0 0.015703989166739853 0.00056918021912447765 0 0.015728613011166345 0.00053236846940042182 0 0.015736761727502928 0.00055659489725389075 0 0.015723495229667584 0.00058408641113121506 0 0.015703989166739853 0.00056918021912447765 0 0.015736761727502928 0.00055659489725389075 0 0.015907644825816313 0.00051741047304297019 0 0.015902488624106714 0.00053693168222662929 0 0.015831565900216681 0.00051641672063705167 0 0.015907644825816313 0.00051741047304297019 0 0.015902488624106714 0.00053693168222662929 0 0.015824163635687876 0.00052838026183991884 0 0.015902488624106714 0.00053693168222662929 0 0.015852373516155704 0.00045608329635036149 0 0.015947522202023803 0.00039801288404439969 0 0.015902488624106714 0.00053693168222662929 0 0.015852373516155704 0.00045608329635036149 0 0.015831565900216681 0.00051641672063705167 0 0.015852373516155704 0.00045608329635036149 0 0.015947522202023803 0.00039801288404439969 0 0.015840063649269986 0.00036192774041514321 0 0.015659999865181556 0.00045267851705479354 0 0.015700051221041979 0.00050220548247442937 0 0.015761004689895559 0.00044401782439204698 0 0.015700051221041979 0.00050220548247442937 0 0.015762709312742647 0.00050848748944369191 0 0.015761004689895559 0.00044401782439204698 0 0.015762709312742647 0.00050848748944369191 0 0.015831565900216681 0.00051641672063705167 0 0.015761004689895559 0.00044401782439204698 0 0.015852373516155704 0.00045608329635036149 0 0.015831565900216681 0.00051641672063705167 0 0.015761004689895559 0.00044401782439204698 0 0.015852373516155704 0.00045608329635036149 0 0.015761004689895559 0.00044401782439204698 0 0.015840063649269986 0.00036192774041514321 0 0.015761004689895559 0.00044401782439204698 0 0.015710962827031164 0.00035979439716964237 0 0.015840063649269986 0.00036192774041514321 0 0.015659999865181556 0.00045267851705479354 0 0.015761004689895559 0.00044401782439204698 0 0.015710962827031164 0.00035979439716964237 0 0.015710962827031164 0.00035979439716964237 0 0.015748388448531572 0.0001891394448547002 0 0.015840063649269986 0.00036192774041514321 0 0.015748388448531572 0.0001891394448547002 0 0.015840063649269986 0.00036192774041514321 0 0.015867344025128384 0.00023230840249359872 0 0.015840063649269986 0.00036192774041514321 0 0.015999819603783487 0.00027306023305290699 0 0.015867344025128384 0.00023230840249359872 0 0.015947522202023803 0.00039801288404439969 0 0.015840063649269986 0.00036192774041514321 0 0.015999819603783487 0.00027306023305290699 0 0.015899049440800641 0.0001224376839557097 0 0.016083082476677703 0.00017608327335496239 0 0.016053094730783764 3.8332955073944246e-05 0 0.015999819603783487 0.00027306023305290699 0 0.015899049440800641 0.0001224376839557097 0 0.016083082476677703 0.00017608327335496239 0 0.015999819603783487 0.00027306023305290699 0 0.015867344025128384 0.00023230840249359872 0 0.015899049440800641 0.0001224376839557097 0 0.015977557298137584 4.9028357802446666e-05 0 0.016521235327339553 0.0010374435587030238 0 0.015673854058959255 -0.00012508918863907292 0 0.015748388448531572 0.0001891394448547002 0 0.015998830248209531 4.1143163668835926e-05 0 0.015748388448531572 0.0001891394448547002 0 0.015867344025128384 0.00023230840249359872 0 0.015899049440800641 0.0001224376839557097 0 0.015758076848286257 0.00018935111077642391 0 0.015977557298137584 4.9028357802446666e-05 0 0.016761123607911654 0.00099263367959673884 0 0.016215608851524291 0.00099695637324497769 0 0.016229957655874285 0.00012221716474219009 0 0.016083082476677703 0.00017608327335496239 0 0.016053094730783764 3.8332955073944246e-05 0 0.016761123607911654 0.00099263367959673884 0 0.016521235327339553 0.0010374435587030238 0 0.016229957655874285 0.00012221716474219009 0 0.016083082476677703 0.00017608327335496239 0 0.016170286731437312 0.00035826233790731344 0 0.015947522202023803 0.00039801288404439969 0 0.015999819603783487 0.00027306023305290699 0 0.016170286731437312 0.00035826233790731344 0 0.015999819603783487 0.00027306023305290699 0 0.016083082476677703 0.00017608327335496239 0 0.016170286731437312 0.00035826233790731344 0 0.015769271074069363 0.00072264010930282946 0 0.015673311890922276 0.00067293655375920902 0 0.015609271032279014 0.000874993382108259 0 0.015942602353455158 0.00047118696450148574 0 0.016215608851524291 0.00099695637324497769 0 0.016229957655874285 0.00012221716474219009 0 0.016170286731437312 0.00035826233790731344 0 0.01640101539402793 0.00020661519790037206 0 0.015769271074069363 0.00072264010930282946 0 0.015673311890922276 0.00067293655375920902 0 0.015726679476670839 0.00055968388149170575 0 0.015909271573439701 0.00056375109094935149 0 0.015942602353455158 0.00047118696450148574 0 0.015769271074069363 0.00072264010930282946 0 0.015824163635687876 0.00052838026183991884 0 0.015726679476670839 0.00055968388149170575 0 0.015902488624106714 0.00053693168222662929 0 0.015947522202023803 0.00039801288404439969 0 0.016170286731437312 0.00035826233790731344 0 0.015902488624106714 0.00053693168222662929 0 0.015769271074069363 0.00072264010930282946 0 0.015824163635687876 0.00052838026183991884 0 0.015824163635687876 0.00052838026183991884 0 0.015726679476670839 0.00055968388149170575 0 0.01575461385106363 0.00045448150672462815 0 0.015673311890922276 0.00067293655375920902 0 0.015726679476670839 0.00055968388149170575 0 0.015602348410467256 0.00057139975589490005 0 0.015726679476670839 0.00055968388149170575 0 0.015602348410467256 0.00057139975589490005 0 0.015676834845692732 0.00044706092144495944 0 0.015726679476670839 0.00055968388149170575 0 0.01575461385106363 0.00045448150672462815 0 0.015676834845692732 0.00044706092144495944 0 0.015602348410467256 0.00057139975589490005 0 0.01548054286604305 0.00059618320537193844 0 0.015510985603853717 0.00046264037055875962 0 0.015602348410467256 0.00057139975589490005 0 0.01548054286604305 0.00059618320537193844 0 0.015510069213270073 0.00070062301975659376 0 0.01548054286604305 0.00059618320537193844 0 0.015401831739377711 0.00050003626019223585 0 0.015510985603853717 0.00046264037055875962 0 0.015510069213270073 0.00070062301975659376 0 0.015576393228301027 0.00073224600312502778 0 0.015469576672755817 0.00083698891879962806 0 0.015510069213270073 0.00070062301975659376 0 0.015421518712917135 0.00074274523932146071 0 0.015469576672755817 0.00083698891879962806 0 0.01548054286604305 0.00059618320537193844 0 0.015510069213270073 0.00070062301975659376 0 0.015421518712917135 0.00074274523932146071 0 0.015673311890922276 0.00067293655375920902 0 0.015602348410467256 0.00057139975589490005 0 0.015576393228301027 0.00073224600312502778 0 0.015602348410467256 0.00057139975589490005 0 0.015510069213270073 0.00070062301975659376 0 0.015576393228301027 0.00073224600312502778 0 0.015000007016683584 6.994627046771433e-05 0 0.015248378715308278 0.00013204984753520098 0 0.015041515446971864 0.00084678975876346604 0 0.015208278249257847 0.0005143114563306788 0 0.015318221760665008 0.00052877445379859449 0 0.015309221997065171 0.00043514037374325925 0 0.015208278249257847 0.0005143114563306788 0 0.015289618378165769 0.0005973550452714147 0 0.015318221760665008 0.00052877445379859449 0 0.015208278249257847 0.0005143114563306788 0 0.015289618378165769 0.0005973550452714147 0 0.015225427321853219 0.00069448220128481885 0 0.015289618378165769 0.0005973550452714147 0 0.015374449691350439 0.0006030459565426299 0 0.01531797163426396 0.00071704180960930198 0 0.015289618378165769 0.0005973550452714147 0 0.015318221760665008 0.00052877445379859449 0 0.015374449691350439 0.0006030459565426299 0 0.01548054286604305 0.00059618320537193844 0 0.015401831739377711 0.00050003626019223585 0 0.015374449691350439 0.0006030459565426299 0 0.015318221760665008 0.00052877445379859449 0 0.015401831739377711 0.00050003626019223585 0 0.015374449691350439 0.0006030459565426299 0 0.01548054286604305 0.00059618320537193844 0 0.015374449691350439 0.0006030459565426299 0 0.015421518712917135 0.00074274523932146071 0 0.015421518712917135 0.00074274523932146071 0 0.01531797163426396 0.00071704180960930198 0 0.015339359706658475 0.00090141289979270083 0 0.015374449691350439 0.0006030459565426299 0 0.015421518712917135 0.00074274523932146071 0 0.01531797163426396 0.00071704180960930198 0 0.015000007016683584 6.994627046771433e-05 0 0.015041515446971864 0.00084678975876346604 0 0.014999968206738138 0.00094078224513455006 0 0.015208278249257847 0.0005143114563306788 0 0.015225427321853219 0.00069448220128481885 0 0.015041515446971864 0.00084678975876346604 0 0.015219626504266837 0.00031381744358908092 0 0.015056746828647362 0.0008257981812329788 0 0.015289618378165769 0.0005973550452714147 0 0.01531797163426396 0.00071704180960930198 0 0.015225427321853219 0.00069448220128481885 0 0.01531797163426396 0.00071704180960930198 0 0.015225427321853219 0.00069448220128481885 0 0.01520278773384931 0.00080427800979854908 0 0.01531797163426396 0.00071704180960930198 0 0.015339359706658475 0.00090141289979270083 0 0.01520278773384931 0.00080427800979854908 0 0.01520278773384931 0.00080427800979854908 0 0.015041515446971864 0.00084678975876346604 0 0.014999968206738138 0.00094078224513455006 0 0.015339359706658475 0.00090141289979270083 0 0.01520278773384931 0.00080427800979854908 0 0.014999968206738138 0.00094078224513455006 0 0.015225427321853219 0.00069448220128481885 0 0.01520278773384931 0.00080427800979854908 0 0.015041515446971864 0.00084678975876346604 0 0.014999968206738138 0.00094078224513455006 0 0.015479842230885006 0.001451484215455903 0 0.014999948533068909 0.0018117454407875471 0 0.015339359706658475 0.00090141289979270083 0 0.014999968206738138 0.00094078224513455006 0 0.015479842230885006 0.001451484215455903 0 0.015366297447267684 0.00089802020473888321 0 0.01570197987705663 0.0010386065333773224 0 0.015339359706658475 0.00090141289979270083 0 0.015479842230885006 0.001451484215455903 0 0.015976823165834757 0.001211070599390902 0 0.015421518712917135 0.00074274523932146071 0 0.015339359706658475 0.00090141289979270083 0 0.015469576672755817 0.00083698891879962806 0 0.015479842230885006 0.001451484215455903 0 0.015976823165834757 0.001211070599390902 0 0.016037510327099134 0.0019026688173324755 0 0.015479842230885006 0.001451484215455903 0 0.016037510327099134 0.0019026688173324755 0 0.015461283530865446 0.0020387823311193115 0 0.015479842230885006 0.001451484215455903 0 0.014999948533068909 0.0018117454407875471 0 0.015461283530865446 0.0020387823311193115 0 0.015673311890922276 0.00067293655375920902 0 0.015576393228301027 0.00073224600312502778 0 0.015609271032279014 0.000874993382108259 0 0.015576393228301027 0.00073224600312502778 0 0.015469576672755817 0.00083698891879962806 0 0.015609271032279014 0.000874993382108259 0 0.01570197987705663 0.0010386065333773224 0 0.016215608851524291 0.00099695637324497769 0 0.015976823165834757 0.001211070599390902 0 0.016037510327099134 0.0019026688173324755 0 0.01661129639916261 0.0015042404113162372 0 0.016123777305326055 0.0019501560710860786 0 0.016215608851524291 0.00099695637324497769 0 0.017111890185972898 0.0018070235983580678 0 0.016534460393574767 0.0015622711255831238 0 0.016550721719033091 0.0021289950796829168 0 0.016037510327099134 0.0019026688173324755 0 0.016534460393574767 0.0015622711255831238 0 0.016550721719033091 0.0021289950796829168 0 0.016550721719033091 0.0021289950796829168 0 0.016562444411512004 0.0028740803606507525 0 0.017143453766514851 0.0024423244172817834 0 0.016524305057855262 0.002145126555304815 0 0.015712306051063569 0.0024729760536013556 0 0.016550721719033091 0.0021289950796829168 0 0.016193987837188031 0.0026343773814212494 0 0.015628835255120089 0.0026127648023192384 0 0.016037510327099134 0.0019026688173324755 0 0.016550721719033091 0.0021289950796829168 0 0.015781783118103476 0.0023548091833790006 0 0.016071813878046803 0.0029454228667726338 0 0.015628835255120089 0.0026127648023192384 0 0.015780060911369 0.0030764104722817284 0 0.016193987837188031 0.0026343773814212494 0 0.016071813878046803 0.0029454228667726338 0 0.015628835255120089 0.0026127648023192384 0 0.016071813878046803 0.0029454228667726338 0 0.016203369572635108 0.0031472503558492237 0 0.01602869411236596 0.0031918910490352586 0 0.016071813878046803 0.0029454228667726338 0 0.01602869411236596 0.0031918910490352586 0 0.015780060911369 0.0030764104722817284 0 0.016550721719033091 0.0021289950796829168 0 0.016193987837188031 0.0026343773814212494 0 0.016562444411512004 0.0028740803606507525 0 0.016151716301716697 0.0029029238724140355 0 0.016363778326038341 0.0027101178401182069 0 0.016071813878046803 0.0029454228667726338 0 0.016203369572635108 0.0031472503558492237 0 0.016408754542248844 0.0030382857290512204 0 0.016164020142453064 0.0030086841845051019 0 0.016363778326038341 0.0027101178401182069 0 0.016193987837188031 0.0026343773814212494 0 0.016071813878046803 0.0029454228667726338 0 0.016562444411512004 0.0028740803606507525 0 0.014999948533068909 0.0018117454407875471 0 0.015461283530865446 0.0020387823311193115 0 0.014999998065805485 0.0026825607855180981 0 0.016037510327099134 0.0019026688173324755 0 0.015461283530865446 0.0020387823311193115 0 0.015781783118103476 0.0023548091833790006 0 0.015628835255120089 0.0026127648023192384 0 0.015415937241249299 0.0030541841455857407 0 0.015780060911369 0.0030764104722817284 0 0.015461283530865446 0.0020387823311193115 0 0.015781783118103476 0.0023548091833790006 0 0.014999998065805485 0.0026825607855180981 0 0.015712306051063569 0.0024729760536013556 0 0.015000062946313175 0.0026826184699482547 0 0.015628835255120089 0.0026127648023192384 0 0.014999931531581388 0.0026830899242494296 0 0.015415937241249299 0.0030541841455857407 0 0.015415937241249299 0.0030541841455857407 0 0.01546714031079997 0.0034634706638885277 0 0.014999957931152719 0.0034458762925312077 0 0.014999931531581388 0.0026830899242494296 0 0.015415937241249299 0.0030541841455857407 0 0.014999957931152719 0.0034458762925312077 0 0.015415937241249299 0.0030541841455857407 0 0.015666677683701533 0.0033111972655785189 0 0.01546714031079997 0.0034634706638885277 0 0.015415937241249299 0.0030541841455857407 0 0.015666677683701533 0.0033111972655785189 0 0.015780060911369 0.0030764104722817284 0 0.015894226595302631 0.0038950880648157622 0 0.015502629812072292 0.0039417648238742938 0 0.015740137129471799 0.0035949557243441237 0 0.015502629812072292 0.0039417648238742938 0 0.015740137129471799 0.0035949557243441237 0 0.01546714031079997 0.0034634706638885277 0 0.015666677683701533 0.0033111972655785189 0 0.015740137129471799 0.0035949557243441237 0 0.01546714031079997 0.0034634706638885277 0 0.015502629812072292 0.0039417648238742938 0 0.01546714031079997 0.0034634706638885277 0 0.014999957931152719 0.0034458762925312077 0 0.016142847890859634 0.0033803527953542773 0 0.016353125287392772 0.0034555541887108135 0 0.016103661828388398 0.0036598190350500505 0 0.016203369572635108 0.0031472503558492237 0 0.016286099656884389 0.0031993369043867002 0 0.016353125287392772 0.0034555541887108135 0 0.016203369572635108 0.0031472503558492237 0 0.016142847890859634 0.0033803527953542773 0 0.016353125287392772 0.0034555541887108135 0 0.016142847890859634 0.0033803527953542773 0 0.01602869411236596 0.0031918910490352586 0 0.015916221384655687 0.0033636360893538383 0 0.016203369572635108 0.0031472503558492237 0 0.016142847890859634 0.0033803527953542773 0 0.01602869411236596 0.0031918910490352586 0 0.015666677683701533 0.0033111972655785189 0 0.015780060911369 0.0030764104722817284 0 0.015916221384655687 0.0033636360893538383 0 0.01602869411236596 0.0031918910490352586 0 0.015780060911369 0.0030764104722817284 0 0.015916221384655687 0.0033636360893538383 0 0.015666677683701533 0.0033111972655785189 0 0.015740137129471799 0.0035949557243441237 0 0.015916221384655687 0.0033636360893538383 0 0.016142847890859634 0.0033803527953542773 0 0.015916221384655687 0.0033636360893538383 0 0.016103661828388398 0.0036598190350500505 0 0.015894226595302631 0.0038950880648157622 0 0.015740137129471799 0.0035949557243441237 0 0.016103661828388398 0.0036598190350500505 0 0.015740137129471799 0.0035949557243441237 0 0.015916221384655687 0.0033636360893538383 0 0.016103661828388398 0.0036598190350500505 0 0.016157155903327367 0.0040053211609268856 0 0.015894226595302631 0.0038950880648157622 0 0.016103661828388398 0.0036598190350500505 0 0.016157155903327367 0.0040053211609268856 0 0.016103661828388398 0.0036598190350500505 0 0.016367926941484319 0.0038735278438577457 0 0.016353125287392772 0.0034555541887108135 0 0.016103661828388398 0.0036598190350500505 0 0.016367926941484319 0.0038735278438577457 0 0.016353125287392772 0.0034555541887108135 0 0.016367926941484319 0.0038735278438577457 0 0.016603492634526023 0.003646696041977818 0 0.016595775516529861 0.0039593536278032812 0 0.016367926941484319 0.0038735278438577457 0 0.016603492634526023 0.003646696041977818 0 0.016353125287392772 0.0034555541887108135 0 0.016603492634526023 0.003646696041977818 0 0.016593870154147573 0.0033899577439194498 0 0.016603492634526023 0.003646696041977818 0 0.016758517430078501 0.0036394781050963052 0 0.016593870154147573 0.0033899577439194498 0 0.016603492634526023 0.003646696041977818 0 0.016758445631753511 0.0038411385259113241 0 0.016758517430078501 0.0036394781050963052 0 0.016595775516529861 0.0039593536278032812 0 0.016603492634526023 0.003646696041977818 0 0.016758445631753511 0.0038411385259113241 0 0.016758445631753511 0.0038411385259113241 0 0.016834399780867378 0.0037874969008888514 0 0.016758517430078501 0.0036394781050963052 0 0.016786858369534152 0.0039953369045071952 0 0.016904132279280115 0.003857021497516632 0 0.016834399780867378 0.0037874969008888514 0 0.016786858369534152 0.0039953369045071952 0 0.016758445631753511 0.0038411385259113241 0 0.016834399780867378 0.0037874969008888514 0 0.016834399780867378 0.0037874969008888514 0 0.016849174279092882 0.0036241251738685122 0 0.016758517430078501 0.0036394781050963052 0 0.016917371010271576 0.0037064565471849787 0 0.016834399780867378 0.0037874969008888514 0 0.016849174279092882 0.0036241251738685122 0 0.016849174279092882 0.0036241251738685122 0 0.016758517430078501 0.0036394781050963052 0 0.016784903557615947 0.0035283928732233855 0 0.01641128465086332 0.0020226562996374558 0 0.016412628978219948 0.0020132802961066324 0 0.01640205716926554 0.0020193764538143969 0 0.016758517430078501 0.0036394781050963052 0 0.016784903557615947 0.0035283928732233855 0 0.016593870154147573 0.0033899577439194498 0 0.016903082720646046 0.0035776770528485099 0 0.016849174279092882 0.0036241251738685122 0 0.016784903557615947 0.0035283928732233855 0 0.016420105160028092 0.0020184106714786474 0 0.01641128465086332 0.0020226562996374558 0 0.016412628978219948 0.0020132802961066324 0 0.016336457847625399 0.002016440558034494 0 0.016659442136332275 0.0028526620338769322 0 0.016336457847625399 0.002016440558034494 0 0.016013068893837523 0.00073390936791099153 0 0.015673854058959255 -0.00012508918863907292 0 0.015577157575172747 -0.00040940058196271958 0 0.015923738539547774 -0.00025734866583691085 0 0.015673854058959255 -0.00012508918863907292 0 0.015998830248209531 4.1143163668835926e-05 0 0.015923738539547774 -0.00025734866583691085 0 0.016013068893837523 0.00073390936791099153 0 0.016521235327339553 0.0010374435587030238 0 0.015998830248209531 4.1143163668835926e-05 0 0.015923738539547774 -0.00025734866583691085 0 0.016246030032659203 -0.00010354912981540205 0 0.016412628978219948 0.0020132802961066324 0 0.01640205716926554 0.0020193764538143969 0 0.01640091441809503 0.0020047275024614362 0 0.017111890185972898 0.0018070235983580678 0 0.017692067806793034 0.0020699115066346746 0 0.017143453766514851 0.0024423244172817834 0 0.016521235327339553 0.0010374435587030238 0 0.01680895410074696 0.0022667403346416713 0 0.01640205716926554 0.0020193764538143969 0 0.01640091441809503 0.0020047275024614362 0 0.016384564584750839 0.002023105059183863 0 0.017111890185972898 0.0018070235983580678 0 0.016550721719033091 0.0021289950796829168 0 0.017143453766514851 0.0024423244172817834 0 0.016286099656884389 0.0031993369043867002 0 0.016353125287392772 0.0034555541887108135 0 0.016593870154147573 0.0033899577439194498 0 0.016363778326038341 0.0027101178401182069 0 0.01680895410074696 0.0022667403346416713 0 0.016363778326038341 0.0027101178401182069 0 0.01645800158024693 0.0026937427598249346 0 0.016360969447302455 0.0020493807919780707 0 0.016384564584750839 0.002023105059183863 0 0.016393250698357467 0.0020339885376786247 0 0.01640205716926554 0.0020193764538143969 0 0.016384564584750839 0.002023105059183863 0 0.016393250698357467 0.0020339885376786247 0 0.016659442136332275 0.0028526620338769322 0 0.01645800158024693 0.0026937427598249346 0 0.01641128465086332 0.0020226562996374558 0 0.01640205716926554 0.0020193764538143969 0 0.016393250698357467 0.0020339885376786247 0 -0.0052503706396985761 0.0016261557622883453 0 -0.0053604776218128007 0.0011949989889208663 0 -0.0054949901673252456 0.0018864607714228067 0 -0.0052503706396985761 0.0016261557622883453 0 -0.0049443763272811496 0.0012357960467468769 0 -0.0053604776218128007 0.0011949989889208663 0 -0.0049443763272811496 0.0012357960467468769 0 -0.0051412817648524255 0.0020779864862275821 0 -0.0040076189504180734 0.0013620148890381098 0 -0.0052503706396985761 0.0016261557622883453 0 -0.0049443763272811496 0.0012357960467468769 0 -0.0051412817648524255 0.0020779864862275821 0 -0.0049443763272811496 0.0012357960467468769 0 -0.0045499946589251591 0.00077062672155846917 0 -0.0049416952974543245 0.00068700733229438808 0 -0.0045499946589251591 0.00077062672155846917 0 -0.0049416952974543245 0.00068700733229438808 0 -0.0046012513505608987 0.00027305492211191233 0 -0.0049416952974543245 0.00068700733229438808 0 -0.005169334480724019 0.00080035075787187855 0 -0.005152813743619456 0.0010086197147755039 0 -0.0049443763272811496 0.0012357960467468769 0 -0.0049416952974543245 0.00068700733229438808 0 -0.005152813743619456 0.0010086197147755039 0 -0.0049443763272811496 0.0012357960467468769 0 -0.005152813743619456 0.0010086197147755039 0 -0.0053604776218128007 0.0011949989889208663 0 -0.0053604776218128007 0.0011949989889208663 0 -0.0053534360389573838 0.0010608934634869813 0 -0.005200855914059159 0.0010889078332184518 0 -0.005152813743619456 0.0010086197147755039 0 -0.0053604776218128007 0.0011949989889208663 0 -0.0053534360389573838 0.0010608934634869813 0 -0.005169334480724019 0.00080035075787187855 0 -0.0053534360389573838 0.0010608934634869813 0 -0.0052545316548481893 0.00039258757785679883 0 -0.005169334480724019 0.00080035075787187855 0 -0.005152813743619456 0.0010086197147755039 0 -0.0053534360389573838 0.0010608934634869813 0 -0.005200855914059159 0.0010889078332184518 0 -0.0050241311876515655 0.0012114452890131969 0 -0.0050416914296635218 0.00089810670779818494 0 -0.0053604776218128007 0.0011949989889208663 0 -0.005200855914059159 0.0010889078332184518 0 -0.0050416914296635218 0.00089810670779818494 0 -0.0053534360389573838 0.0010608934634869813 0 -0.0052273622156746285 0.0011914672507096905 0 -0.005200855914059159 0.0010889078332184518 0 -0.0052273622156746285 0.0011914672507096905 0 -0.005200855914059159 0.0010889078332184518 0 -0.0050241311876515655 0.0012114452890131969 0 -0.0050241311876515655 0.0012114452890131969 0 -0.0050416914296635218 0.00089810670779818494 0 -0.0047391398430761504 0.0010704662673980292 0 -0.0050241311876515655 0.0012114452890131969 0 -0.0047921905890610248 0.0012788641068306589 0 -0.0047391398430761504 0.0010704662673980292 0 -0.0050416914296635218 0.00089810670779818494 0 -0.0045872534881202815 0.00076925503990473213 0 -0.0047391398430761504 0.0010704662673980292 0 -0.0055650648269577095 0.0011536588008746389 0 -0.0045248358611749591 0.002111196605262228 0 -0.0058157415260890058 0.0015385068075939778 0 -0.0057849786859255738 0.0018889898542589099 0 -0.0061752756953268578 0.0016886742530317174 0 -0.0052848376269042261 0.001194274281674862 0 -0.0055650648269577095 0.0011536588008746389 0 -0.0053604776218128007 0.0011949989889208663 0 -0.0058157415260890058 0.0015385068075939778 0 -0.0054949901673252456 0.0018864607714228067 0 -0.0058157415260890058 0.0015385068075939778 0 -0.0054949901673252456 0.0018864607714228067 0 -0.0057849786859255738 0.0018889898542589099 0 -0.0054949901673252456 0.0018864607714228067 0 -0.0057849786859255738 0.0018889898542589099 0 -0.0055649704193861246 0.002166329231376633 0 -0.0057849786859255738 0.0018889898542589099 0 -0.0058754342255299789 0.0021348642002041699 0 -0.0061752756953268578 0.0016886742530317174 0 -0.0058754342255299789 0.0021348642002041699 0 -0.0055649704193861246 0.002166329231376633 0 -0.0054559980734710236 0.002417145359855885 0 -0.0057849786859255738 0.0018889898542589099 0 -0.0058754342255299789 0.0021348642002041699 0 -0.0055649704193861246 0.002166329231376633 0 -0.0054949901673252456 0.0018864607714228067 0 -0.0055649704193861246 0.002166329231376633 0 -0.0054105275280436384 0.0022610849866403562 0 -0.0054949901673252456 0.0018864607714228067 0 -0.0054105275280436384 0.0022610849866403562 0 -0.0051412817648524255 0.0020779864862275821 0 -0.0052503706396985761 0.0016261557622883453 0 -0.0054949901673252456 0.0018864607714228067 0 -0.0051412817648524255 0.0020779864862275821 0 -0.0054105275280436384 0.0022610849866403562 0 -0.0051412817648524255 0.0020779864862275821 0 -0.0054270751766309234 0.0022523809632243263 0 -0.0051412817648524255 0.0020779864862275821 0 -0.0054270751766309234 0.0022523809632243263 0 -0.0055509528610078818 0.0022786693324253491 0 -0.0054270751766309234 0.0022523809632243263 0 -0.0055509528610078818 0.0022786693324253491 0 -0.0057227585135797877 0.002270228175919022 0 -0.0057637168493179115 0.0023202199853870377 0 -0.0059314363340028332 0.0023161153679600718 0 -0.0057227585135797877 0.002270228175919022 0 -0.0055509528610078818 0.0022786693324253491 0 -0.0057637168493179115 0.0023202199853870377 0 -0.0057227585135797877 0.002270228175919022 0 -0.0057637168493179115 0.0023202199853870377 0 -0.0057679785571833203 0.0024433172517550803 0 -0.0058924621485668977 0.0023925500296543482 0 -0.0055509528610078818 0.0022786693324253491 0 -0.0057637168493179115 0.0023202199853870377 0 -0.0057679785571833203 0.0024433172517550803 0 -0.0055509528610078818 0.0022786693324253491 0 -0.0057679785571833203 0.0024433172517550803 0 -0.0056179616198463603 0.0026042817838459213 0 -0.0057679785571833203 0.0024433172517550803 0 -0.0058706128905686274 0.002600179816184552 0 -0.0056179616198463603 0.0026042817838459213 0 -0.0051412817648524255 0.0020779864862275821 0 -0.0055509528610078818 0.0022786693324253491 0 -0.0056179616198463603 0.0026042817838459213 0 -0.0061962765139581084 0.0023934401422286023 0 -0.0061099574845305173 0.0023072173652778885 0 -0.0062827601465696888 0.0023067248185912243 0 -0.0061962765139581084 0.0023934401422286023 0 -0.0060382501306486249 0.0024024679150756309 0 -0.0061099574845305173 0.0023072173652778885 0 -0.0061962765139581084 0.0023934401422286023 0 -0.0060382501306486249 0.0024024679150756309 0 -0.0061416939233742609 0.0025207120702199436 0 -0.0060382501306486249 0.0024024679150756309 0 -0.0059314363340028332 0.0023161153679600718 0 -0.0061099574845305173 0.0023072173652778885 0 -0.0057637168493179115 0.0023202199853870377 0 -0.0059314363340028332 0.0023161153679600718 0 -0.0058924621485668977 0.0023925500296543482 0 -0.0060382501306486249 0.0024024679150756309 0 -0.0059314363340028332 0.0023161153679600718 0 -0.0058924621485668977 0.0023925500296543482 0 -0.0057679785571833203 0.0024433172517550803 0 -0.0058924621485668977 0.0023925500296543482 0 -0.0059621121385891717 0.0025091474554500308 0 -0.0057679785571833203 0.0024433172517550803 0 -0.0059621121385891717 0.0025091474554500308 0 -0.0058706128905686274 0.002600179816184552 0 -0.0059621121385891717 0.0025091474554500308 0 -0.0060415198409442903 0.002651633697734444 0 -0.0058706128905686274 0.002600179816184552 0 -0.0060382501306486249 0.0024024679150756309 0 -0.0059621121385891717 0.0025091474554500308 0 -0.0061416939233742609 0.0025207120702199436 0 -0.0060382501306486249 0.0024024679150756309 0 -0.0058924621485668977 0.0023925500296543482 0 -0.0059621121385891717 0.0025091474554500308 0 -0.0059621121385891717 0.0025091474554500308 0 -0.0061416939233742609 0.0025207120702199436 0 -0.0060415198409442903 0.002651633697734444 0 -0.0061416939233742609 0.0025207120702199436 0 -0.0061907990971882794 0.0026649098500768436 0 -0.0063024936610782236 0.002565772389154061 0 -0.0061416939233742609 0.0025207120702199436 0 -0.0063024936610782236 0.002565772389154061 0 -0.0062591972919968037 0.0024773618315626772 0 -0.0061962765139581084 0.0023934401422286023 0 -0.0061416939233742609 0.0025207120702199436 0 -0.0062591972919968037 0.0024773618315626772 0 -0.0062236940314226502 0.0027894836197863452 0 -0.0061907990971882794 0.0026649098500768436 0 -0.0061099342966868583 0.0027751707260386905 0 -0.0061907990971882794 0.0026649098500768436 0 -0.0060415198409442903 0.002651633697734444 0 -0.0061099342966868583 0.0027751707260386905 0 -0.0061416939233742609 0.0025207120702199436 0 -0.0061907990971882794 0.0026649098500768436 0 -0.0060415198409442903 0.002651633697734444 0 -0.0060415198409442903 0.002651633697734444 0 -0.0061099342966868583 0.0027751707260386905 0 -0.0059777948757660212 0.0028130921036155277 0 -0.0060415198409442903 0.002651633697734444 0 -0.0058706128905686274 0.002600179816184552 0 -0.0059777948757660212 0.0028130921036155277 0 -0.0036510237136999617 0.00062722700188179578 0 -0.003445537567717876 0.00078760750387851753 0 -0.0038035037948603917 0.00083197519986595353 0 -0.0036510237136999617 0.00062722700188179578 0 -0.0034775082684811525 0.00071762267972824711 0 -0.0036496618875804165 0.00029351039015311915 0 -0.0036510237136999617 0.00062722700188179578 0 -0.0034775082684811525 0.00071762267972824711 0 -0.003445537567717876 0.00078760750387851753 0 -0.0061099342966868583 0.0027751707260386905 0 -0.0059777948757660212 0.0028130921036155277 0 -0.0063227846941713356 0.0029856820351381454 0 -0.0062236940314226502 0.0027894836197863452 0 -0.0061099342966868583 0.0027751707260386905 0 -0.0063227846941713356 0.0029856820351381454 0 -0.003445537567717876 0.00078760750387851753 0 -0.0035517173581129692 0.00078760327981069588 0 -0.0036586861479895238 0.00073227222254788091 0 -0.0034543574210867908 0.00070336848641285997 0 -0.0032670313002536623 0.000609762878001369 0 -0.0034775082684811525 0.00071762267972824711 0 -0.003445537567717876 0.00078760750387851753 0 -0.0035517173581129692 0.00078760327981069588 0 -0.0047156566173454303 0.0018068931534264191 0 -0.0050394745925812414 0.0019078062938997112 0 -0.0049443763272811496 0.0012357960467468769 0 -0.0045499946589251591 0.00077062672155846917 0 -0.0040076189504180734 0.0013620148890381098 0 -0.005143360989958436 0.0020891121963704904 0 -0.0048461160885561296 0.0019807694805671627 0 -0.003445537567717876 0.00078760750387851753 0 -0.0040076189504180734 0.0013620148890381098 0 -0.0038035037948603917 0.00083197519986595353 0 -0.0058706128905686274 0.002600179816184552 0 -0.0059777948757660212 0.0028130921036155277 0 -0.0056179616198463603 0.0026042817838459213 0 -0.0047156566173454303 0.0018068931534264191 0 -0.0048461160885561296 0.0019807694805671627 0 -0.0038035037948603917 0.00083197519986595353 0 -0.0042133808577701068 0.00050764004235275494 0 -0.0039344418297500589 0.00032450346853822625 0 -0.0040076189504180734 0.0013620148890381098 0 -0.0038035037948603917 0.00083197519986595353 0 -0.0042133808577701068 0.00050764004235275494 0 -0.0036510237136999617 0.00062722700188179578 0 -0.0038035037948603917 0.00083197519986595353 0 -0.0039344418297500589 0.00032450346853822625 0 -0.0045499946589251591 0.00077062672155846917 0 -0.0040076189504180734 0.0013620148890381098 0 -0.0042133808577701068 0.00050764004235275494 0 -0.0042572633585769622 0.00015477983071708959 0 -0.0042133808577701068 0.00050764004235275494 0 -0.0046012513505608987 0.00027305492211191233 0 -0.0045499946589251591 0.00077062672155846917 0 -0.0042133808577701068 0.00050764004235275494 0 -0.0046012513505608987 0.00027305492211191233 0 -0.0042572633585769622 0.00015477983071708959 0 -0.0043391333237631103 -0.00012214423352089099 0 -0.0046012513505608987 0.00027305492211191233 0 -0.0042572633585769622 0.00015477983071708959 0 -0.0039344418297500589 0.00032450346853822625 0 -0.0040652738618047321 -6.941114295737691e-05 0 -0.0042572633585769622 0.00015477983071708959 0 -0.0042133808577701068 0.00050764004235275494 0 -0.0039344418297500589 0.00032450346853822625 0 -0.0036510237136999617 0.00062722700188179578 0 -0.0039344418297500589 0.00032450346853822625 0 -0.0036496618875804165 0.00029351039015311915 0 -0.0039344418297500589 0.00032450346853822625 0 -0.0038135150675508026 3.9306746359365044e-05 0 -0.0036496618875804165 0.00029351039015311915 0 -0.0039344418297500589 0.00032450346853822625 0 -0.0038135150675508026 3.9306746359365044e-05 0 -0.0040652738618047321 -6.941114295737691e-05 0 -0.0038641598266047979 -0.00028930354431293861 0 -0.0041654183368347916 -0.00033633822500677649 0 -0.0040652738618047321 -6.941114295737691e-05 0 -0.0038135150675508026 3.9306746359365044e-05 0 -0.0038641598266047979 -0.00028930354431293861 0 -0.0040652738618047321 -6.941114295737691e-05 0 -0.0041654183368347916 -0.00033633822500677649 0 -0.0043391333237631103 -0.00012214423352089099 0 -0.0044173261846054837 -0.00044351800409036439 0 -0.0041654183368347916 -0.00033633822500677649 0 -0.0043391333237631103 -0.00012214423352089099 0 -0.0040652738618047321 -6.941114295737691e-05 0 -0.0042572633585769622 0.00015477983071708959 0 -0.0043391333237631103 -0.00012214423352089099 0 -0.0040652738618047321 -6.941114295737691e-05 0 -0.0034775082684811525 0.00071762267972824711 0 -0.0029610979033837343 0.00039492521943109896 0 -0.003348658514906025 0.00033367410082866725 0 -0.0029427296309801352 -1.8347027656612588e-05 0 -0.0029610979033837343 0.00039492521943109896 0 -0.003348658514906025 0.00033367410082866725 0 -0.0029427296309801352 -1.8347027656612588e-05 0 -0.003348658514906025 0.00033367410082866725 0 -0.0035255827827581371 -0.0001530709789216673 0 -0.003348658514906025 0.00033367410082866725 0 -0.0036496618875804165 0.00029351039015311915 0 -0.0035255827827581371 -0.0001530709789216673 0 -0.0034775082684811525 0.00071762267972824711 0 -0.003348658514906025 0.00033367410082866725 0 -0.0036496618875804165 0.00029351039015311915 0 -0.0038135150675508026 3.9306746359365044e-05 0 -0.0036496618875804165 0.00029351039015311915 0 -0.0035255827827581371 -0.0001530709789216673 0 -0.0038135150675508026 3.9306746359365044e-05 0 -0.0038641598266047979 -0.00028930354431293861 0 -0.0035255827827581371 -0.0001530709789216673 0 -0.0038641598266047979 -0.00028930354431293861 0 -0.0035255827827581371 -0.0001530709789216673 0 -0.0036428234941845829 -0.00042251710903396412 0 -0.0035255827827581371 -0.0001530709789216673 0 -0.0035237678041496207 -0.00033194830861847869 0 -0.0036428234941845829 -0.00042251710903396412 0 -0.0035069341562586768 -0.00031481309715516911 0 -0.0035255827827581371 -0.0001530709789216673 0 -0.0035237678041496207 -0.00033194830861847869 0 -0.0031961811343553027 -0.00014034960959746233 0 -0.0035100424859225328 -0.00017720306073437192 0 -0.0035237678041496207 -0.00033194830861847869 0 -0.003543682236672121 -0.00049259403537046324 0 -0.0034833317786379801 -0.00040278728251739776 0 -0.0035069341562586768 -0.00031481309715516911 0 -0.0035237678041496207 -0.00033194830861847869 0 -0.0034833317786379801 -0.00040278728251739776 0 -0.003543682236672121 -0.00049259403537046324 0 -0.0036428234941845829 -0.00042251710903396412 0 -0.0036432356147959705 -0.00066942399311188411 0 -0.003543682236672121 -0.00049259403537046324 0 -0.0036432356147959705 -0.00066942399311188411 0 -0.0035386218223390328 -0.00068941027447256902 0 -0.0035237678041496207 -0.00033194830861847869 0 -0.003543682236672121 -0.00049259403537046324 0 -0.0036428234941845829 -0.00042251710903396412 0 -0.0038641598266047979 -0.00028930354431293861 0 -0.0036428234941845829 -0.00042251710903396412 0 -0.003811598671735215 -0.00062120957923549578 0 -0.0036428234941845829 -0.00042251710903396412 0 -0.003811598671735215 -0.00062120957923549578 0 -0.0036432356147959705 -0.00066942399311188411 0 -0.003811598671735215 -0.00062120957923549578 0 -0.0037494467459007431 -0.00086757787672126071 0 -0.0038925499795882351 -0.00086402433172285103 0 -0.003811598671735215 -0.00062120957923549578 0 -0.0036432356147959705 -0.00066942399311188411 0 -0.0037494467459007431 -0.00086757787672126071 0 -0.0036432356147959705 -0.00066942399311188411 0 -0.0036008203434763721 -0.00087152468347559734 0 -0.0037494467459007431 -0.00086757787672126071 0 -0.0036432356147959705 -0.00066942399311188411 0 -0.0035386218223390328 -0.00068941027447256902 0 -0.0036008203434763721 -0.00087152468347559734 0 -0.0041654183368347916 -0.00033633822500677649 0 -0.0042101192637155494 -0.00064350408496631191 0 -0.00400910338028743 -0.0005360315701339771 0 -0.0041654183368347916 -0.00033633822500677649 0 -0.0042101192637155494 -0.00064350408496631191 0 -0.0044173261846054837 -0.00044351800409036439 0 -0.0038641598266047979 -0.00028930354431293861 0 -0.003811598671735215 -0.00062120957923549578 0 -0.00400910338028743 -0.0005360315701339771 0 -0.0038641598266047979 -0.00028930354431293861 0 -0.0041654183368347916 -0.00033633822500677649 0 -0.00400910338028743 -0.0005360315701339771 0 -0.003811598671735215 -0.00062120957923549578 0 -0.0040049730261906714 -0.00073060476683026708 0 -0.0038925499795882351 -0.00086402433172285103 0 -0.0040049730261906714 -0.00073060476683026708 0 -0.0038925499795882351 -0.00086402433172285103 0 -0.0041141023553452989 -0.00092013699420402683 0 -0.003811598671735215 -0.00062120957923549578 0 -0.00400910338028743 -0.0005360315701339771 0 -0.0040049730261906714 -0.00073060476683026708 0 -0.0042101192637155494 -0.00064350408496631191 0 -0.0040049730261906714 -0.00073060476683026708 0 -0.0041141023553452989 -0.00092013699420402683 0 -0.0042101192637155494 -0.00064350408496631191 0 -0.0043068822336090112 -0.00078215021864871915 0 -0.0041141023553452989 -0.00092013699420402683 0 -0.0042101192637155494 -0.00064350408496631191 0 -0.00400910338028743 -0.0005360315701339771 0 -0.0040049730261906714 -0.00073060476683026708 0 -0.0043068822336090112 -0.00078215021864871915 0 -0.0044395224851966984 -0.0008195955219262687 0 -0.0043016018268849567 -0.00096604597894023509 0 -0.0043068822336090112 -0.00078215021864871915 0 -0.0043495828925608909 -0.00063194443249279023 0 -0.0044585971519148183 -0.00064984965186043529 0 -0.0043068822336090112 -0.00078215021864871915 0 -0.0044395224851966984 -0.0008195955219262687 0 -0.0044585971519148183 -0.00064984965186043529 0 -0.0042101192637155494 -0.00064350408496631191 0 -0.0043068822336090112 -0.00078215021864871915 0 -0.0043495828925608909 -0.00063194443249279023 0 -0.004551441969940756 -0.00080090342926136229 0 -0.0044395224851966984 -0.0008195955219262687 0 -0.0044335882444713265 -0.0010168718927288899 0 -0.0044395224851966984 -0.0008195955219262687 0 -0.0045724243525043107 -0.0006638887532719077 0 -0.0044585971519148183 -0.00064984965186043529 0 -0.004551441969940756 -0.00080090342926136229 0 -0.0044395224851966984 -0.0008195955219262687 0 -0.0045724243525043107 -0.0006638887532719077 0 -0.004551441969940756 -0.00080090342926136229 0 -0.0045724243525043107 -0.0006638887532719077 0 -0.0046598054497314608 -0.00067253461271078469 0 -0.0045724243525043107 -0.0006638887532719077 0 -0.0045855240998725752 -0.00052902058755578511 0 -0.0046880942916821258 -0.00050895019202249674 0 -0.0045724243525043107 -0.0006638887532719077 0 -0.0046880942916821258 -0.00050895019202249674 0 -0.0046598054497314608 -0.00067253461271078469 0 -0.0045724243525043107 -0.0006638887532719077 0 -0.0045855240998725752 -0.00052902058755578511 0 -0.0044585971519148183 -0.00064984965186043529 0 -0.0045855240998725752 -0.00052902058755578511 0 -0.0046880942916821258 -0.00050895019202249674 0 -0.0046444651749967605 -0.00036585518793612391 0 -0.0046880942916821258 -0.00050895019202249674 0 -0.0046444651749967605 -0.00036585518793612391 0 -0.0047712061641124997 -0.00034595082734719009 0 -0.0042101192637155494 -0.00064350408496631191 0 -0.0043495828925608909 -0.00063194443249279023 0 -0.0044173261846054837 -0.00044351800409036439 0 -0.0043495828925608909 -0.00063194443249279023 0 -0.0044585971519148183 -0.00064984965186043529 0 -0.0044173261846054837 -0.00044351800409036439 0 -0.0045855240998725752 -0.00052902058755578511 0 -0.0044585971519148183 -0.00064984965186043529 0 -0.0044173261846054837 -0.00044351800409036439 0 -0.0045855240998725752 -0.00052902058755578511 0 -0.0044173261846054837 -0.00044351800409036439 0 -0.0046444651749967605 -0.00036585518793612391 0 -0.0043391333237631103 -0.00012214423352089099 0 -0.0044173261846054837 -0.00044351800409036439 0 -0.0045486933675149173 -0.00015487879104851047 0 -0.0043391333237631103 -0.00012214423352089099 0 -0.0045486933675149173 -0.00015487879104851047 0 -0.0046012513505608987 0.00027305492211191233 0 -0.0045486933675149173 -0.00015487879104851047 0 -0.0047552597858301739 -0.00011163992165503722 0 -0.0046012513505608987 0.00027305492211191233 0 -0.0044173261846054837 -0.00044351800409036439 0 -0.0045486933675149173 -0.00015487879104851047 0 -0.0046444651749967605 -0.00036585518793612391 0 -0.0045486933675149173 -0.00015487879104851047 0 -0.0046444651749967605 -0.00036585518793612391 0 -0.0047552597858301739 -0.00011163992165503722 0 -0.0046444651749967605 -0.00036585518793612391 0 -0.004782699373392988 -0.00025216094829527973 0 -0.0047552597858301739 -0.00011163992165503722 0 -0.0046444651749967605 -0.00036585518793612391 0 -0.0047712061641124997 -0.00034595082734719009 0 -0.004782699373392988 -0.00025216094829527973 0 -0.0047712061641124997 -0.00034595082734719009 0 -0.004782699373392988 -0.00025216094829527973 0 -0.0048274267949345003 -0.00024574151136897717 0 -0.0048938295248530652 -0.00014504082133911617 0 -0.0049876055295797134 0.00016925262335246567 0 -0.0050171823900002485 -0.00014893812954347473 0 -0.0048274267949345003 -0.00024574151136897717 0 -0.0048938295248530652 -0.00014504082133911617 0 -0.0048408535676291182 -0.00022381295911993776 0 -0.004782699373392988 -0.00025216094829527973 0 -0.0048274267949345003 -0.00024574151136897717 0 -0.0048938295248530652 -0.00014504082133911617 0 -0.0049056999130725164 -0.00022209170522222594 0 -0.0049312888123066679 -0.000252631664503244 0 -0.004782699373392988 -0.00025216094829527973 0 -0.0048938295248530652 -0.00014504082133911617 0 -0.0047552597858301739 -0.00011163992165503722 0 -0.0048938295248530652 -0.00014504082133911617 0 -0.0047552597858301739 -0.00011163992165503722 0 -0.0049876055295797134 0.00016925262335246567 0 -0.0047552597858301739 -0.00011163992165503722 0 -0.0049876055295797134 0.00016925262335246567 0 -0.0046012513505608987 0.00027305492211191233 0 -0.0053534360389573838 0.0010608934634869813 0 -0.0052545316548481893 0.00039258757785679883 0 -0.0057935364725077805 -0.00024574278011750859 0 -0.0050184766558503749 2.5926846691563519e-05 0 -0.0049312888123066679 -0.000252631664503244 0 -0.0049876055295797134 0.00016925262335246567 0 -0.0052545316548481893 0.00039258757785679883 0 -0.0055523199902418165 -0.00026811550834908871 0 -0.0049416952974543245 0.00068700733229438808 0 -0.005169334480724019 0.00080035075787187855 0 -0.0052545316548481893 0.00039258757785679883 0 -0.0049416952974543245 0.00068700733229438808 0 -0.0049876055295797134 0.00016925262335246567 0 -0.0052545316548481893 0.00039258757785679883 0 -0.0049416952974543245 0.00068700733229438808 0 -0.0049876055295797134 0.00016925262335246567 0 -0.0046012513505608987 0.00027305492211191233 0 -0.0050241311876515655 0.0012114452890131969 0 -0.0050997905024749712 0.0013682317923510827 0 -0.004826068668209775 0.0015283885793760678 0 -0.0050241311876515655 0.0012114452890131969 0 -0.0047921905890610248 0.0012788641068306589 0 -0.004826068668209775 0.0015283885793760678 0 -0.0052273622156746285 0.0011914672507096905 0 -0.0050997905024749712 0.0013682317923510827 0 -0.0052152472237963375 0.0015491455760038059 0 -0.0050997905024749712 0.0013682317923510827 0 -0.0052152472237963375 0.0015491455760038059 0 -0.004826068668209775 0.0015283885793760678 0 -0.0055461317569094363 0.0012975928903558916 0 -0.0046427512617809958 -9.5908779100024069e-05 0 -0.0053534360389573838 0.0010608934634869813 0 -0.0052273622156746285 0.0011914672507096905 0 -0.0052152472237963375 0.0015491455760038059 0 -0.0052273622156746285 0.0011914672507096905 0 -0.0050241311876515655 0.0012114452890131969 0 -0.0050997905024749712 0.0013682317923510827 0 -0.0052545316548481893 0.00039258757785679883 0 -0.0055523199902418165 -0.00026811550834908871 0 -0.0057935364725077805 -0.00024574278011750859 0 -0.0039401106462988843 -0.0014292965541239167 0 -0.0038290132653654055 -0.0011565457766336759 0 -0.0029974920461549484 -0.0015173422171685118 0 -0.0048274267949345003 -0.00024574151136897717 0 -0.0048408535676291182 -0.00022381295911993776 0 -0.0048622654497342092 -0.00029358671015992471 0 -0.0049312888123066679 -0.000252631664503244 0 -0.0046427512617809958 -9.5908779100024069e-05 0 -0.0049312888123066679 -0.000252631664503244 0 -0.0043777789970910206 -0.00072721201030977525 0 -0.0046427512617809958 -9.5908779100024069e-05 0 -0.0043777789970910206 -0.00072721201030977525 0 -0.0045985175428986166 -0.00041585244931600967 0 -0.0045853221570017217 -0.00041746155150275784 0 -0.0045779854080941406 -0.00040293907367531845 0 -0.0047712061641124997 -0.00034595082734719009 0 -0.0048274267949345003 -0.00024574151136897717 0 -0.0048622654497342092 -0.00029358671015992471 0 -0.0047712061641124997 -0.00034595082734719009 0 -0.0048622654497342092 -0.00029358671015992471 0 -0.0047746036401671542 -0.00041720671901466106 0 -0.0038290132653654055 -0.0011565457766336759 0 -0.0029974920461549484 -0.0015173422171685118 0 -0.002607714775033377 -0.0009423239005011641 0 -0.0046427512617809958 -9.5908779100024069e-05 0 -0.004006467611538304 3.7003572400300035e-05 0 -0.0043777789970910206 -0.00072721201030977525 0 -0.0028108446688688235 -0.00047564211957602023 0 -0.0038290132653654055 -0.0011565457766336759 0 -0.0028446185171975735 -0.00038973865111265342 0 -0.002607714775033377 -0.0009423239005011641 0 -0.0040527268688395736 -0.0013233893159582109 0 -0.0029241870181455055 -0.00044622493335007724 0 -0.0035517634360204449 -7.0882180310524964e-05 0 -0.0043777789970910206 -0.00072721201030977525 0 -0.0041285138927383254 -0.00049688826573310459 0 -0.0048622654497342092 -0.00029358671015992471 0 -0.0047677835313050601 -0.00053382785625025978 0 -0.0047952050764534463 -0.000734600716939546 0 -0.0048622654497342092 -0.00029358671015992471 0 -0.0047746036401671542 -0.00041720671901466106 0 -0.0047677835313050601 -0.00053382785625025978 0 -0.0046880942916821258 -0.00050895019202249674 0 -0.0047746036401671542 -0.00041720671901466106 0 -0.0047677835313050601 -0.00053382785625025978 0 -0.0046880942916821258 -0.00050895019202249674 0 -0.0047712061641124997 -0.00034595082734719009 0 -0.0047746036401671542 -0.00041720671901466106 0 -0.0047677835313050601 -0.00053382785625025978 0 -0.0047554966300519331 -0.00068862312355887502 0 -0.0047952050764534463 -0.000734600716939546 0 -0.0047677835313050601 -0.00053382785625025978 0 -0.0047554966300519331 -0.00068862312355887502 0 -0.0046598054497314608 -0.00067253461271078469 0 -0.0046880942916821258 -0.00050895019202249674 0 -0.0047677835313050601 -0.00053382785625025978 0 -0.0046598054497314608 -0.00067253461271078469 0 -0.0046290033796947743 -0.00082775614986752108 0 -0.0047494761378570546 -0.00075056990808024899 0 -0.004551355034626719 -0.0010042505371658267 0 -0.004551441969940756 -0.00080090342926136229 0 -0.0046598054497314608 -0.00067253461271078469 0 -0.0046290033796947743 -0.00082775614986752108 0 -0.0047554966300519331 -0.00068862312355887502 0 -0.0046598054497314608 -0.00067253461271078469 0 -0.0046290033796947743 -0.00082775614986752108 0 -0.0047554966300519331 -0.00068862312355887502 0 -0.0046290033796947743 -0.00082775614986752108 0 -0.0047494761378570546 -0.00075056990808024899 0 -0.004551441969940756 -0.00080090342926136229 0 -0.0046290033796947743 -0.00082775614986752108 0 -0.0044335882444713265 -0.0010168718927288899 0 -0.0029241870181455055 -0.00044622493335007724 0 -0.0035517634360204449 -7.0882180310524964e-05 0 -0.0025977751580291779 0.00048760713851057197 0 -0.0038217668337503148 -0.000512888246312728 0 -0.0041405501333246211 -0.00070526548896540642 0 -0.0040083747081383061 -0.00098997619684793427 0 -0.0041285138927383254 -0.00049688826573310459 0 -0.0033002004051091525 -7.826211556571759e-05 0 -0.0044985193494859466 -0.00067746724512573857 0 -0.0041285138927383254 -0.00049688826573310459 0 -0.0028446185171975735 -0.00038973865111265342 0 -0.0018506612602116515 -4.3436442092018615e-05 0 -0.0018007210895483851 0.000442261063975781 0 -0.0028108446688688235 -0.00047564211957602023 0 -0.0018710248205664182 0.00041678352839984482 0 -0.0029241870181455055 -0.00044622493335007724 0 -0.0025977751580291779 0.00048760713851057197 0 -0.0018007210895483851 0.000442261063975781 0 -0.0028446185171975735 -0.00038973865111265342 0 -0.0024186661469896005 -0.0006555404466070116 0 -0.0021004688652893908 -0.00041269050029460252 0 -0.0028446185171975735 -0.00038973865111265342 0 -0.0021004688652893908 -0.00041269050029460252 0 -0.0018506612602116515 -4.3436442092018615e-05 0 -0.0024186661469896005 -0.0006555404466070116 0 -0.002607714775033377 -0.0009423239005011641 0 -0.0021109760387803505 -0.00088559725059959491 0 -0.0024186661469896005 -0.0006555404466070116 0 -0.0021004688652893908 -0.00041269050029460252 0 -0.0021109760387803505 -0.00088559725059959491 0 -0.0028446185171975735 -0.00038973865111265342 0 -0.0024186661469896005 -0.0006555404466070116 0 -0.002607714775033377 -0.0009423239005011641 0 -0.0017184177503639889 -0.00068861168227992342 0 -0.0013200805102604213 -0.00052756156632901728 0 -0.0013938651111892156 -0.00092175227886016962 0 -0.0017184177503639889 -0.00068861168227992342 0 -0.0016929966744686346 -0.001044692549110791 0 -0.0013938651111892156 -0.00092175227886016962 0 -0.0017184177503639889 -0.00068861168227992342 0 -0.0021004688652893908 -0.00041269050029460252 0 -0.0021109760387803505 -0.00088559725059959491 0 -0.0017184177503639889 -0.00068861168227992342 0 -0.0021109760387803505 -0.00088559725059959491 0 -0.0016929966744686346 -0.001044692549110791 0 -0.0021004688652893908 -0.00041269050029460252 0 -0.0016553429017272595 -0.00033043503908978205 0 -0.0018506612602116515 -4.3436442092018615e-05 0 -0.0017184177503639889 -0.00068861168227992342 0 -0.0021004688652893908 -0.00041269050029460252 0 -0.0016553429017272595 -0.00033043503908978205 0 -0.0016553429017272595 -0.00033043503908978205 0 -0.0014068254424017615 -7.4251554927840053e-05 0 -0.0018506612602116515 -4.3436442092018615e-05 0 -0.0017184177503639889 -0.00068861168227992342 0 -0.0016553429017272595 -0.00033043503908978205 0 -0.0013200805102604213 -0.00052756156632901728 0 -0.0016553429017272595 -0.00033043503908978205 0 -0.0013200805102604213 -0.00052756156632901728 0 -0.0014068254424017615 -7.4251554927840053e-05 0 -0.0018506612602116515 -4.3436442092018615e-05 0 -0.0018007210895483851 0.000442261063975781 0 -0.0014482193399800892 0.00027006365581582631 0 -0.0014068254424017615 -7.4251554927840053e-05 0 -0.0018506612602116515 -4.3436442092018615e-05 0 -0.0014482193399800892 0.00027006365581582631 0 -0.0018007210895483851 0.000442261063975781 0 -0.0014482193399800892 0.00027006365581582631 0 -0.0011460150781830403 0.0004680992181379615 0 -0.0012629799787044879 -1.743544402223742e-05 0 -0.00022708695225786299 0.00046024352141751858 0 -0.0014068254424017615 -7.4251554927840053e-05 0 -0.0011460150781830403 0.0004680992181379615 0 -0.00057148425865618483 0.0002016834798635185 0 -0.0014068254424017615 -7.4251554927840053e-05 0 0.00031264333377963857 0.00065903798199499564 0 -0.00057454826244570951 -0.00028054701560218656 0 -0.0011460150781830403 0.0004680992181379615 0 -0.00057148425865618483 0.0002016834798635185 0 -0.00085023432714095393 0.00087845562344105788 0 0.00031264333377963857 0.00065903798199499564 0 0.00014048430247986802 -0.00034920930837138128 0 -0.00057454826244570951 -0.00028054701560218656 0 -0.0014068254424017615 -7.4251554927840053e-05 0 -0.0014482193399800892 0.00027006365581582631 0 -0.0011460150781830403 0.0004680992181379615 0 0.00031264333377963857 0.00065903798199499564 0 0.0021231244183337441 0.0013310673580852377 0 0.0016530926877956172 0.00010067141681334412 0 -0.00022708695225786299 0.00046024352141751858 0 0.0019649247918252363 -0.00018075064575200013 0 -0.00057148425865618483 0.0002016834798635185 0 0.00031518406652972513 0.00049831511264771531 0 -0.00026459416016511668 0.00098565867703733693 0 0.00031264333377963857 0.00065903798199499564 0 0.00080483174743050572 -0.00038293702305161218 0 0.0016530926877956172 0.00010067141681334412 0 0.00080483174743050572 -0.00038293702305161218 0 0.0016530926877956172 0.00010067141681334412 0 0.0016548378165301967 -0.00083410231706326982 0 0.00031264333377963857 0.00065903798199499564 0 0.00080483174743050572 -0.00038293702305161218 0 0.00014048430247986802 -0.00034920930837138128 0 0.00080483174743050572 -0.00038293702305161218 0 0.00014048430247986802 -0.00034920930837138128 0 0.00039494088448352682 -0.00093094555927524859 0 0.00080483174743050572 -0.00038293702305161218 0 0.00039494088448352682 -0.00093094555927524859 0 0.0010113542664210112 -0.0012016252645671128 0 0.00039494088448352682 -0.00093094555927524859 0 -2.8339965995595131e-05 -0.0015016974337144092 0 0.00055451127916552028 -0.0015307843062645583 0 0.00039494088448352682 -0.00093094555927524859 0 0.0010113542664210112 -0.0012016252645671128 0 0.00055451127916552028 -0.0015307843062645583 0 0.0010113542664210112 -0.0012016252645671128 0 0.0015119543681741555 -0.0015835708173501752 0 0.0016548378165301967 -0.00083410231706326982 0 0.00080483174743050572 -0.00038293702305161218 0 0.0010113542664210112 -0.0012016252645671128 0 0.0016548378165301967 -0.00083410231706326982 0 -0.0013200805102604213 -0.00052756156632901728 0 -0.00068345574812491555 -0.00067875066217334284 0 -0.00057454826244570951 -0.00028054701560218656 0 -0.0013200805102604213 -0.00052756156632901728 0 -0.0014068254424017615 -7.4251554927840053e-05 0 -0.00057454826244570951 -0.00028054701560218656 0 0.00014048430247986802 -0.00034920930837138128 0 -0.00057454826244570951 -0.00028054701560218656 0 -0.00022509453562711358 -0.00079311446804349473 0 0.00014048430247986802 -0.00034920930837138128 0 0.00039494088448352682 -0.00093094555927524859 0 -0.00022509453562711358 -0.00079311446804349473 0 -0.00068345574812491555 -0.00067875066217334284 0 -0.00057454826244570951 -0.00028054701560218656 0 -0.00022509453562711358 -0.00079311446804349473 0 -0.00068345574812491555 -0.00067875066217334284 0 -0.00022509453562711358 -0.00079311446804349473 0 -0.00061534994282963062 -0.0011187680224452393 0 0.00039494088448352682 -0.00093094555927524859 0 -0.00022509453562711358 -0.00079311446804349473 0 -2.8339965995595131e-05 -0.0015016974337144092 0 -0.00022509453562711358 -0.00079311446804349473 0 -0.00061534994282963062 -0.0011187680224452393 0 -2.8339965995595131e-05 -0.0015016974337144092 0 -0.0012867220563022026 -0.00060742463553053018 0 -0.00075006319259199805 -0.0016545498348682244 0 -0.0013200805102604213 -0.00052756156632901728 0 -0.00061534994282963062 -0.0011187680224452393 0 -0.0006809975006211548 -0.0019008584123703387 0 -0.0013200805102604213 -0.00052756156632901728 0 -0.0010477424588423354 -0.0011456394216428386 0 -0.0013938651111892156 -0.00092175227886016962 0 -0.0013200805102604213 -0.00052756156632901728 0 -0.00068345574812491555 -0.00067875066217334284 0 -0.00061534994282963062 -0.0011187680224452393 0 -0.0010477424588423354 -0.0011456394216428386 0 -0.0013938651111892156 -0.00092175227886016962 0 -0.001353589454315209 -0.0011863246681076132 0 -0.0010477424588423354 -0.0011456394216428386 0 -0.0011465250259658801 -0.0014061204330882572 0 -0.001353589454315209 -0.0011863246681076132 0 -0.0006809975006211548 -0.0019008584123703387 0 -2.8339965995595131e-05 -0.0015016974337144092 0 2.560305250197014e-05 -0.0022960106328932784 0 -0.00061534994282963062 -0.0011187680224452393 0 -0.0006809975006211548 -0.0019008584123703387 0 -2.8339965995595131e-05 -0.0015016974337144092 0 -0.0006809975006211548 -0.0019008584123703387 0 2.560305250197014e-05 -0.0022960106328932784 0 -4.061752972106477e-05 -0.0032081884891135017 0 -0.0010477424588423354 -0.0011456394216428386 0 -0.0011465250259658801 -0.0014061204330882572 0 -0.00074739461896418521 -0.0017527892744900629 0 -0.00075006319259199805 -0.0016545498348682244 0 0.00053883981642122668 -0.00072127967691964362 0 -0.0011465250259658801 -0.0014061204330882572 0 -0.001353589454315209 -0.0011863246681076132 0 -0.0015123815020399178 -0.0014144169405732824 0 -0.0011465250259658801 -0.0014061204330882572 0 -0.0013310754051105433 -0.0017465641187443784 0 -0.0015123815020399178 -0.0014144169405732824 0 -0.0013452676573729643 -0.0013882318722724324 0 -0.00095066497703332289 -0.00036129210503942695 0 0.0015119543681741555 -0.0015835708173501752 0 0.00094808215965175974 -0.0018222355356568773 0 0.0012963062377833266 -0.0021825398901905314 0 0.0010113542664210112 -0.0012016252645671128 0 0.0015119543681741555 -0.0015835708173501752 0 0.00094808215965175974 -0.0018222355356568773 0 -2.8339965995595131e-05 -0.0015016974337144092 0 2.560305250197014e-05 -0.0022960106328932784 0 0.00044273327399625717 -0.0020573186774204529 0 0.00094808215965175974 -0.0018222355356568773 0 0.00044273327399625717 -0.0020573186774204529 0 0.00082426654859198254 -0.0024006299234167524 0 0.00094808215965175974 -0.0018222355356568773 0 0.00055451127916552028 -0.0015307843062645583 0 0.00044273327399625717 -0.0020573186774204529 0 0.0010113542664210112 -0.0012016252645671128 0 0.00094808215965175974 -0.0018222355356568773 0 0.00055451127916552028 -0.0015307843062645583 0 -2.8339965995595131e-05 -0.0015016974337144092 0 0.00055451127916552028 -0.0015307843062645583 0 0.00044273327399625717 -0.0020573186774204529 0 2.560305250197014e-05 -0.0022960106328932784 0 0.00044490949039430384 -0.0027010436165684042 0 -4.061752972106477e-05 -0.0032081884891135017 0 2.560305250197014e-05 -0.0022960106328932784 0 0.00044273327399625717 -0.0020573186774204529 0 0.00044490949039430384 -0.0027010436165684042 0 0.00044490949039430384 -0.0027010436165684042 0 0.00082426654859198254 -0.0024006299234167524 0 0.0010178349442985111 -0.0030324767645939694 0 0.00044273327399625717 -0.0020573186774204529 0 0.00044490949039430384 -0.0027010436165684042 0 0.00082426654859198254 -0.0024006299234167524 0 0.00082426654859198254 -0.0024006299234167524 0 0.0012963062377833266 -0.0021825398901905314 0 0.0010178349442985111 -0.0030324767645939694 0 0.0012963062377833266 -0.0021825398901905314 0 0.0010178349442985111 -0.0030324767645939694 0 0.0019389870761411978 -0.0019981196342987425 0 0.00094808215965175974 -0.0018222355356568773 0 0.00082426654859198254 -0.0024006299234167524 0 0.0012963062377833266 -0.0021825398901905314 0 0.0022570971188021018 0.00026339160988357542 0 0.0022342814864192363 0.00034316486101626894 0 0.0022991989553990586 0.00038093704102098834 0 0.0022570971188021018 0.00026339160988357542 0 0.0023372614630848259 0.00025209892711353728 0 0.0022991989553990586 0.00038093704102098834 0 0.00053883981642122668 -0.00072127967691964362 0 0.0013168057846659682 0.00086340346906060633 0 0.0014126960304741486 -0.0033418603833365178 0 0.0010178349442985111 -0.0030324767645939694 0 -4.061752972106477e-05 -0.0032081884891135017 0 0.001810338357989414 -0.0014655924052099437 0 0.00053883981642122668 -0.00072127967691964362 0 0.00044490949039430384 -0.0027010436165684042 0 0.0010178349442985111 -0.0030324767645939694 0 -4.061752972106477e-05 -0.0032081884891135017 0 0.00032568678709287617 0.0010587272230496506 0 0.00033822484059922286 0.0010896134774265155 0 0.00031737004397728972 0.0011135288340430153 0 0.00034683298671912323 0.0010577632404273325 0 0.00032568678709287617 0.0010587272230496506 0 0.00033822484059922286 0.0010896134774265155 0 -0.0011465250259658801 -0.0014061204330882572 0 -0.0013097216571434167 -0.0016976610716877491 0 -0.00074739461896418521 -0.0017527892744900629 0 -0.00095066497703332289 -0.00036129210503942695 0 0.00053883981642122668 -0.00072127967691964362 0 0.00034683298671912323 0.0010577632404273325 0 0.00033822484059922286 0.0010896134774265155 0 0.00035690545986560141 0.0010833090369351355 0 -0.00095066497703332289 -0.00036129210503942695 0 -0.0015258596449128675 0.0015033418571647537 0 -0.0013310754051105433 -0.0017465641187443784 0 -0.0019967360377208124 -0.0016964723618418439 0 -0.0015123815020399178 -0.0014144169405732824 0 -0.0016475076900177839 0.00024105920229360809 0 -0.0017351422822147774 9.1696144836263518e-05 0 -0.0018780902222139909 0.00026106667710669348 0 -0.00095066497703332289 -0.00036129210503942695 0 -0.002728826604662091 -0.00026795871397037062 0 -0.0015258596449128675 0.0015033418571647537 0 -0.002728826604662091 -0.00026795871397037062 0 -0.0042543948961243517 0.0013091774628807963 0 -0.0044199705383417363 0.0015040607015249538 0 -0.0045432979572518819 0.001279153890014663 0 -0.004826068668209775 0.0015283885793760678 0 -0.0044199705383417363 0.0015040607015249538 0 -0.0045432979572518819 0.001279153890014663 0 -0.004006467611538304 3.7003572400300035e-05 0 -0.002728826604662091 -0.00026795871397037062 0 -0.0047921905890610248 0.0012788641068306589 0 -0.004826068668209775 0.0015283885793760678 0 -0.0045432979572518819 0.001279153890014663 0 -0.0029974920461549484 -0.0015173422171685118 0 -0.0021069631783386272 -0.0015823242346319172 0 -0.002607714775033377 -0.0009423239005011641 0 -0.0019967360377208124 -0.0016964723618418439 0 -0.002607714775033377 -0.0009423239005011641 0 -0.0021109760387803505 -0.00088559725059959491 0 -0.002728826604662091 -0.00026795871397037062 0 -0.0022382215789503294 -0.0014535922421137055 0 -0.0019967360377208124 -0.0016964723618418439 0 -0.0021109760387803505 -0.00088559725059959491 0 -0.0016929966744686346 -0.001044692549110791 0 -0.0016929966744686346 -0.001044692549110791 0 -0.001353589454315209 -0.0011863246681076132 0 -0.0015123815020399178 -0.0014144169405732824 0 -0.0016929966744686346 -0.001044692549110791 0 -0.0013938651111892156 -0.00092175227886016962 0 -0.001353589454315209 -0.0011863246681076132 0 -0.0019967360377208124 -0.0016964723618418439 0 -0.0016929966744686346 -0.001044692549110791 0 -0.0015123815020399178 -0.0014144169405732824 0 0.010367316138620448 -0.00051727460783470658 0 0.0092243134603699449 -8.6720020225691357e-05 0 0.0088895240196922923 0.00079899638636109227 0 0.0096376698998275872 -0.00074285219293235912 0 0.0092243134603699449 -8.6720020225691357e-05 0 0.0080937421348794645 -0.00051407276339373459 0 0.010291618350530817 0.00036649924140769207 0 0.0099574612080281094 7.7093693457536188e-05 0 0.0092243134603699449 -8.6720020225691357e-05 0 0.0080937421348794645 -0.00051407276339373459 0 0.0088895240196922923 0.00079899638636109227 0 0.0080609470831729032 -0.0052878836981753137 0 0.0077298498013875158 -0.0041332890167909368 0 0.0084250497181331853 -0.0040463454449741953 0 0.0080609470831729032 -0.0052878836981753137 0 0.0072234656794855703 -0.0045525266407212949 0 0.0077298498013875158 -0.0041332890167909368 0 0.0084244703748386964 -0.0017944538072983225 0 0.0062625934790802255 -0.002357988211236302 0 0.0061919989358760127 -0.00085632639516978548 0 0.0054571829103950021 -0.00023734655951347287 0 0.0050023707708712001 -0.00067385488582850602 0 0.0054571829103950021 -0.00023734655951347287 0 0.0046931276489275203 -0.00020899357009586164 0 0.0047526862690633435 0.00037091998597144727 0 0.0054571829103950021 -0.00023734655951347287 0 0.0050023707708712001 -0.00067385488582850602 0 0.0046931276489275203 -0.00020899357009586164 0 0.0061919989358760127 -0.00085632639516978548 0 0.0050499143591562949 -0.0013987406104468535 0 0.005115696689392297 -0.0012722583475834662 0 0.0084244703748386964 -0.0017944538072983225 0 0.0057542227678389129 -0.00069867787682528011 0 0.0061919989358760127 -0.00085632639516978548 0 0.0050023707708712001 -0.00067385488582850602 0 0.005115696689392297 -0.0012722583475834662 0 0.0080937421348794645 -0.00051407276339373459 0 0.0088895240196922923 0.00079899638636109227 0 0.0065606890998257915 -0.00033158910728093855 0 0.0050499143591562949 -0.0013987406104468535 0 0.005115696689392297 -0.0012722583475834662 0 0.004148238782576987 -0.00081883633987398343 0 0.0036022754024135728 -0.0013709740038856369 0 0.0028126909666979314 -0.0005277782742956589 0 0.0028255268426647488 -0.0025030660955614485 0 0.0050499143591562949 -0.0013987406104468535 0 0.0036022754024135728 -0.0013709740038856369 0 0.004148238782576987 -0.00081883633987398343 0 0.0036022754024135728 -0.0013709740038856369 0 0.004148238782576987 -0.00081883633987398343 0 0.0028126909666979314 -0.0005277782742956589 0 0.004148238782576987 -0.00081883633987398343 0 0.0035992192678923575 0.00012582808501355428 0 0.0028126909666979314 -0.0005277782742956589 0 0.0049971532839819229 -0.0011617616911278579 0 0.0040623035705190042 -0.00026947580769537985 0 0.0050023707708712001 -0.00067385488582850602 0 0.005115696689392297 -0.0012722583475834662 0 0.004386352135150989 -0.00064833751536714243 0 0.005115696689392297 -0.0012722583475834662 0 0.004148238782576987 -0.00081883633987398343 0 0.0035992192678923575 0.00012582808501355428 0 0.0050023707708712001 -0.00067385488582850602 0 0.0046931276489275203 -0.00020899357009586164 0 0.004386352135150989 -0.00064833751536714243 0 0.0046931276489275203 -0.00020899357009586164 0 0.004386352135150989 -0.00064833751536714243 0 0.0036343504117504377 -2.0454840840576129e-05 0 0.0046931276489275203 -0.00020899357009586164 0 0.0036343504117504377 -2.0454840840576129e-05 0 0.0047526862690633435 0.00037091998597144727 0 0.0040623035705190042 -0.00026947580769537985 0 0.0019649247918252363 -0.00018075064575200013 0 0.0035992192678923575 0.00012582808501355428 0 0.0024647207002335028 0.00031571417699965168 0 0.0021231244183337441 0.0013310673580852377 0 0.0024647207002335028 0.00031571417699965168 0 0.0021231244183337441 0.0013310673580852377 0 0.0016530926877956172 0.00010067141681334412 0 0.0027827655740481324 -0.00081964264264279313 0 0.0032740013811401267 -0.0020052557725889343 0 0.0016530926877956172 0.00010067141681334412 0 0.0028126909666979314 -0.0005277782742956589 0 0.0016548378165301967 -0.00083410231706326982 0 0.0028126909666979314 -0.0005277782742956589 0 0.0021452215809279695 -0.0013889039827375902 0 0.0027709848958566148 -0.0021928567886689665 0 0.0035992192678923575 0.00012582808501355428 0 0.0024647207002335028 0.00031571417699965168 0 0.0028126909666979314 -0.0005277782742956589 0 0.0024647207002335028 0.00031571417699965168 0 0.0016530926877956172 0.00010067141681334412 0 0.0028126909666979314 -0.0005277782742956589 0 0.0028126909666979314 -0.0005277782742956589 0 0.0021452215809279695 -0.0013889039827375902 0 0.0016548378165301967 -0.00083410231706326982 0 0.0015119543681741555 -0.0015835708173501752 0 0.0021452215809279695 -0.0013889039827375902 0 0.0016548378165301967 -0.00083410231706326982 0 0.0010178349442985111 -0.0030324767645939694 0 0.0019389870761411978 -0.0019981196342987425 0 0.0027709848958566148 -0.0021928567886689665 0 0.001003579151266741 -0.0030252095758601721 0 0.0032740013811401267 -0.0020052557725889343 0 0.0015119543681741555 -0.0015835708173501752 0 0.0012963062377833266 -0.0021825398901905314 0 0.0019389870761411978 -0.0019981196342987425 0 0.0015119543681741555 -0.0015835708173501752 0 0.0021452215809279695 -0.0013889039827375902 0 0.0019389870761411978 -0.0019981196342987425 0 0.0021452215809279695 -0.0013889039827375902 0 0.0019389870761411978 -0.0019981196342987425 0 0.0027709848958566148 -0.0021928567886689665 0 0.0032740013811401267 -0.0020052557725889343 0 0.0043288437839854189 -0.0011916105600222331 0 0.001810338357989414 -0.0014655924052099437 0 0.0035617628697398361 -0.00053330714486303065 0 0.0014126960304741486 -0.0033418603833365178 0 0.0010178349442985111 -0.0030324767645939694 0 0.0029443697057365504 -0.0020478004141400992 0 0.0022570971188021018 0.00026339160988357542 0 0.002170524259418462 0.00026920545070482937 0 0.0022342814864192363 0.00034316486101626894 0 0.0014126960304741486 -0.0033418603833365178 0 0.0029443697057365504 -0.0020478004141400992 0 0.0029505005771725138 -0.0029917481870166667 0 0.0035617628697398361 -0.00053330714486303065 0 0.0043288437839854189 -0.0011916105600222331 0 0.0014126960304741486 -0.0033418603833365178 0 0.0029533135464090065 -0.003463199069077372 0 0.0029505005771725138 -0.0029917481870166667 0 0.0050100446630192636 0.00074387061272832337 0 0.0056991745493299014 0.0002645933163071276 0 0.0071933691210678222 0.0014582458276030676 0 0.0050227852068014649 0.00032696497482962811 0 0.0056991745493299014 0.0002645933163071276 0 0.0050326516076614888 -0.0015144464241534591 0 0.0056991745493299014 0.0002645933163071276 0 0.0072211290992270473 -8.6734473690017942e-05 0 0.006261149902029594 -0.00074094081171600273 0 0.0050102908715378182 0.00032134580834152811 0 0.0050100446630192636 0.00074387061272832337 0 0.0056991745493299014 0.0002645933163071276 0 0.0035617628697398361 -0.00053330714486303065 0 0.0052849128031661925 -0.00026390169792728859 0 0.0043288437839854189 -0.0011916105600222331 0 0.0069860166264202788 -1.0438062493922866e-05 0 0.0057542227678389129 -0.00069867787682528011 0 0.0032740013811401267 -0.0020052557725889343 0 0.0050499143591562949 -0.0013987406104468535 0 0.0036022754024135728 -0.0013709740038856369 0 0.0028255268426647488 -0.0025030660955614485 0 0.0042454245134160851 -0.0014571663119597297 0 0.0042506760187379037 -0.0024818297918318389 0 0.0069341213086243471 -0.0016141082253167066 0 0.0065606890998257915 -0.00033158910728093855 0 0.0042454245134160851 -0.0014571663119597297 0 0.0069341213086243471 -0.0016141082253167066 0 0.0080937421348794645 -0.00051407276339373459 0 0.0065606890998257915 -0.00033158910728093855 0 0.0069341213086243471 -0.0016141082253167066 0 0.0071933691210678222 0.0014582458276030676 0 0.0072211290992270473 -8.6734473690017942e-05 0 0.0087683476436299403 0.00060094549262895214 0 0.0056991745493299014 0.0002645933163071276 0 0.0071933691210678222 0.0014582458276030676 0 0.0072211290992270473 -8.6734473690017942e-05 0 0.0072211290992270473 -8.6734473690017942e-05 0 0.0087683476436299403 0.00060094549262895214 0 0.0091738652612544935 -0.0017236949987525709 0 0.0093711316168518469 0.002160533581653959 0 0.0071933691210678222 0.0014582458276030676 0 0.0087683476436299403 0.00060094549262895214 0 0.0096376698998275872 -0.00074285219293235912 0 0.0080937421348794645 -0.00051407276339373459 0 0.0069341213086243471 -0.0016141082253167066 0 0.010291618350530817 0.00036649924140769207 0 0.0069860166264202788 -1.0438062493922866e-05 0 0.0082512418460062471 0.0017682404014457828 0 0.0061452334966405385 0.0035879785807091469 0 0.007194439821479175 0.0048559969385403579 0 0.007696478250679489 0.0056942010370182585 0 0.0058193236402765977 0.0052849413450791281 0 0.0082512418460062471 0.0017682404014457828 0 0.0068727750145760888 -6.7600470025833267e-05 0 0.0072211290992270473 -8.6734473690017942e-05 0 0.0091738652612544935 -0.0017236949987525709 0 0.007096730001993466 -0.0016243947176842923 0 0.0072211290992270473 -8.6734473690017942e-05 0 0.007096730001993466 -0.0016243947176842923 0 0.006261149902029594 -0.00074094081171600273 0 0.00818353035049562 0.0017250364649670355 0 0.0063129352036484059 0.0018127560990504972 0 0.0063141957008135919 0.0013552613699172491 0 0.0071743823395824012 0.0050452418257471961 0 0.0057034554147526095 0.0048414932394992777 0 0.0064431732910036508 0.0044756500076612313 0 0.007194439821479175 0.0048559969385403579 0 0.0058193236402765977 0.0052849413450791281 0 0.0055578309691498981 0.0045482889991370441 0 0.0071752083230060782 0.0049453825942869598 0 0.0057621867083799414 0.004748923132949937 0 0.0063141957008135919 0.0013552613699172491 0 0.0044447019502144363 0.0018998315212407912 0 0.0044471232374942724 0.00098787985249018878 0 0.0058193236402765977 0.0052849413450791281 0 0.0055578309691498981 0.0045482889991370441 0 0.0038668250119971333 0.0048759998258914332 0 0.0057621867083799414 0.004748923132949937 0 0.0035647185689051059 0.0036881991033554146 0 0.0055578309691498981 0.0045482889991370441 0 0.0038668250119971333 0.0048759998258914332 0 0.003868616151130458 0.0042623916380731498 0 0.0061452334966405385 0.0035879785807091469 0 0.0037362295591768352 0.0021937863063158218 0 0.007096730001993466 -0.0016243947176842923 0 0.006261149902029594 -0.00074094081171600273 0 0.0050326516076614888 -0.0015144464241534591 0 0.0056991745493299014 0.0002645933163071276 0 0.006261149902029594 -0.00074094081171600273 0 0.0050326516076614888 -0.0015144464241534591 0 0.0063129352036484059 0.0018127560990504972 0 0.0063141957008135919 0.0013552613699172491 0 0.0044447019502144363 0.0018998315212407912 0 0.0068727750145760888 -6.7600470025833267e-05 0 0.0043882039797242993 0.00016500503978409228 0 0.002170524259418462 0.00026920545070482937 0 0.0021660862511776466 0.00041879883908940084 0 0.0021963040614695786 0.00038229231723484408 0 0.002170524259418462 0.00026920545070482937 0 0.0021963040614695786 0.00038229231723484408 0 0.0022342814864192363 0.00034316486101626894 0 0.0035617628697398361 -0.00053330714486303065 0 0.0043882039797242993 0.00016500503978409228 0 0.0021660862511776466 0.00041879883908940084 0 0.0022002033936580631 0.00041848719653726194 0 0.0021987767358341457 0.00045342115176688863 0 0.0021660862511776466 0.00041879883908940084 0 0.0022002033936580631 0.00041848719653726194 0 0.0021963040614695786 0.00038229231723484408 0 0.0021963040614695786 0.00038229231723484408 0 0.0022342814864192363 0.00034316486101626894 0 0.0022349426228334534 0.00042024031340979362 0 0.0022002033936580631 0.00041848719653726194 0 0.0021963040614695786 0.00038229231723484408 0 0.0022349426228334534 0.00042024031340979362 0 0.0022002033936580631 0.00041848719653726194 0 0.0022349426228334534 0.00042024031340979362 0 0.0021987767358341457 0.00045342115176688863 0 0.0022349426228334534 0.00042024031340979362 0 0.0021987767358341457 0.00045342115176688863 0 0.0022492833509897875 0.00052564846316010942 0 0.0021987767358341457 0.00045342115176688863 0 0.0021668667062943346 0.000510004450260831 0 0.0022492833509897875 0.00052564846316010942 0 0.0043882039797242993 0.00016500503978409228 0 0.0037362295591768352 0.0021937863063158218 0 0.0021660862511776466 0.00041879883908940084 0 0.0021987767358341457 0.00045342115176688863 0 0.0021668667062943346 0.000510004450260831 0 0.0031001794643911919 0.0027282771392379691 0 0.0022745061535900924 0.0019757842928587207 0 0.0031020233827716596 0.0021046627461052056 0 0.0037362295591768352 0.0021937863063158218 0 0.0035647185689051059 0.0036881991033554146 0 0.0037362295591768352 0.0021937863063158218 0 0.0014676515679194909 0.0013544006733377824 0 0.0031001794643911919 0.0027282771392379691 0 0.0020158321785493432 0.0025125069113859566 0 0.0022745061535900924 0.0019757842928587207 0 0.0003213824459729201 0.001173328949546165 0 0.00031902084966250462 0.0011827661056046524 0 0.00032236603863538719 0.0011701538640076384 0 0.0014676515679194909 0.0013544006733377824 0 0.0014073806754625218 0.0022592780129394806 0 0.00046916273321808257 0.0021518858932482502 0 0.00063179571706991266 0.0018244783935129211 0 0.00016192355699152749 0.0020322178323812735 0 0.0014073806754625218 0.0022592780129394806 0 0.0013702049436540762 0.003725593191331718 0 0.0024703597530047238 0.0032982496046457736 0 0.0024207935401555306 0.0033373307587488883 0 0.0024297657563048273 0.0033931222907589631 0 0.0023861661561884405 0.0032874380608167602 0 0.0024207935401555306 0.0033373307587488883 0 0.0023847316183186361 0.00340658120451779 0 0.0014073806754625218 0.0022592780129394806 0 0.0035647185689051059 0.0036881991033554146 0 0.0024703597530047238 0.0032982496046457736 0 0.0023861661561884405 0.0032874380608167602 0 0.0024207935401555306 0.0033373307587488883 0 0.0044816713233996591 0.004623132070059769 0 0.0045095342937767936 0.0038782822580337292 0 0.0047485292364883363 0.0042532233177798844 0 0.0035647185689051059 0.0036881991033554146 0 0.0033945836359298167 0.0037075201949433503 0 0.0024207935401555306 0.0033373307587488883 0 0.0023847316183186361 0.00340658120451779 0 0.0024297657563048273 0.0033931222907589631 0 0.0033945836359298167 0.0037075201949433503 0 0.0013702049436540762 0.003725593191331718 0 0.0012072425150014214 0.0055585429176541034 0 0.0012220179379024616 0.0055420139833374064 0 0.0011984985650660169 0.0055613729176914066 0 0.0012131067955564367 0.0057806829115789543 0 0.0011761616357578197 0.005685224781996975 0 0.0012011822490850289 0.005741996201112055 0 0.0012074880607499995 0.0055602886219732498 0 0.0012072425150014214 0.0055585429176541034 0 0.0011987507486566447 0.0055668278558297229 0 0.0017300137690018397 0.0054696886635490147 0 0.0011004128038563602 0.0056531385920306305 0 0.0023402471787258225 0.0051962860173816201 0 0.0023412303876426442 0.0047211474667683507 0 0.0020836612013106202 0.0052670019941518844 0 0.0012072425150014214 0.0055585429176541034 0 0.0012220179379024616 0.0055420139833374064 0 0.0012213265934617108 0.0055514835711712122 0 0.0017300137690018397 0.0054696886635490147 0 0.0023732319538235678 0.00449119286350942 0 0.0012074880607499995 0.0055602886219732498 0 0.0012072425150014214 0.0055585429176541034 0 0.0012213265934617108 0.0055514835711712122 0 0.0013702049436540762 0.003725593191331718 0 0.0023732319538235678 0.00449119286350942 0 0.0041061505999373388 0.0041125516251470443 0 0.0041072790965262108 0.0034387285883152974 0 0.0044588046729020893 0.003426324929237157 0 0.0021767379724302147 0.0036653208782538695 0 0.0024711877245057515 0.0035852776139602438 0 0.0021764478980665879 0.0042152781459720897 0 0.0033945836359298167 0.0037075201949433503 0 0.0023732319538235678 0.00449119286350942 0 0.0041061505999373388 0.0041125516251470443 0 0.0052333233135817073 0.0032929012024568555 0 0.0061500447739912699 0.0035143526900904202 0 0.0033945836359298167 0.0037075201949433503 0 0.0064476818049564143 0.0035833266970514616 0 0.004388306870833949 0.0028673535164798081 0 0.0052333233135817073 0.0032929012024568555 0 0.0057256140464210506 0.0025255208696719675 0 0.0041061505999373388 0.0041125516251470443 0 0.0044588046729020893 0.003426324929237157 0 0.0052333233135817073 0.0032929012024568555 0 0.0044588046729020893 0.003426324929237157 0 0.004388306870833949 0.0028673535164798081 0 0.0052333233135817073 0.0032929012024568555 0 0.0041072790965262108 0.0034387285883152974 0 0.0044588046729020893 0.003426324929237157 0 0.004388306870833949 0.0028673535164798081 0 0.0023732319538235678 0.00449119286350942 0 0.0026870323397457474 0.0049180349150360287 0 0.0017300137690018397 0.0054696886635490147 0 0.0026870323397457474 0.0049180349150360287 0 0.0045095342937767936 0.0038782822580337292 0 0.0051501338146208164 0.0040614486790053438 0 0.0061500447739912699 0.0035143526900904202 0 0.0057034554147526095 0.0048414932394992777 0 0.0044816713233996591 0.004623132070059769 0 0.0051351700517636104 0.0043686514909202865 0 0.0051501338146208164 0.0040614486790053438 0 0.0051351700517636104 0.0043686514909202865 0 0.0055854073448833395 0.0040758417494616431 0 0.0045095342937767936 0.0038782822580337292 0 0.0051501338146208164 0.0040614486790053438 0 0.0047485292364883363 0.0042532233177798844 0 0.0051501338146208164 0.0040614486790053438 0 0.0047485292364883363 0.0042532233177798844 0 0.0051351700517636104 0.0043686514909202865 0 0.0044816713233996591 0.004623132070059769 0 0.0047485292364883363 0.0042532233177798844 0 0.0051351700517636104 0.0043686514909202865 0 0.0057034554147526095 0.0048414932394992777 0 0.0051351700517636104 0.0043686514909202865 0 0.0055854073448833395 0.0040758417494616431 0 0.0064431732910036508 0.0044756500076612313 0 0.0055854073448833395 0.0040758417494616431 0 0.007351199814958089 0.0039527435719760168 0 0.0051501338146208164 0.0040614486790053438 0 0.0055854073448833395 0.0040758417494616431 0 0.0061500447739912699 0.0035143526900904202 0 0.0056847758282797317 0.00407398194400621 0 0.0072458647327389792 0.0041212488635190333 0 0.0055854073448833395 0.0040758417494616431 0 0.0065964709865115141 0.003763696434600988 0 0.0070308315170045186 0.0042825054008855173 0 0.0057034554147526095 0.0048414932394992777 0 0.0064431732910036508 0.0044756500076612313 0 0.0055854073448833395 0.0040758417494616431 0 0.0055854073448833395 0.0040758417494616431 0 0.0061500447739912699 0.0035143526900904202 0 0.0065964709865115141 0.003763696434600988 0 0.0052333233135817073 0.0032929012024568555 0 0.0061500447739912699 0.0035143526900904202 0 0.0057256140464210506 0.0025255208696719675 0 0.0061500447739912699 0.0035143526900904202 0 0.0064796595016280191 0.0027832752810419002 0 0.0057256140464210506 0.0025255208696719675 0 0.0061500447739912699 0.0035143526900904202 0 0.0065964709865115141 0.003763696434600988 0 0.0069762109698739642 0.0031761385969617437 0 0.0061500447739912699 0.0035143526900904202 0 0.0069762109698739642 0.0031761385969617437 0 0.0064796595016280191 0.0027832752810419002 0 0.0069762109698739642 0.0031761385969617437 0 0.0064796595016280191 0.0027832752810419002 0 0.0068831981654299372 0.0027143452642676069 0 0.0065964709865115141 0.003763696434600988 0 0.0069762109698739642 0.0031761385969617437 0 0.0073365487255231589 0.003676389752677236 0 0.0078597911431750808 0.0032823879082833777 0 0.0069762109698739642 0.0031761385969617437 0 0.0073365487255231589 0.003676389752677236 0 0.0079044662871202032 0.0038432234684516223 0 0.0073365487255231589 0.003676389752677236 0 0.0070308315170045186 0.0042825054008855173 0 0.0065964709865115141 0.003763696434600988 0 0.0073365487255231589 0.003676389752677236 0 0.0070308315170045186 0.0042825054008855173 0 0.0071743823395824012 0.0050452418257471961 0 0.0064431732910036508 0.0044756500076612313 0 0.007351199814958089 0.0039527435719760168 0 0.0080456661336495462 0.0045874314131588633 0 0.0071743823395824012 0.0050452418257471961 0 0.007351199814958089 0.0039527435719760168 0 -0.0012077141342233331 0.0022664575550213929 0 -0.00073044141047853243 0.0023943553328090112 0 -0.00030608009406671413 0.0020410008179752737 0 -0.00099125235238163405 0.0025858159264687841 0 -0.0012273965606512719 0.0023991865963682245 0 -0.0011846509918764063 0.0028028407113713282 0 -0.00099125235238163405 0.0025858159264687841 0 -0.0012077141342233331 0.0022664575550213929 0 -0.00073044141047853243 0.0023943553328090112 0 -0.00099125235238163405 0.0025858159264687841 0 -0.0012273965606512719 0.0023991865963682245 0 -0.0012077141342233331 0.0022664575550213929 0 -0.0010598723524869373 0.0031225828737734655 0 -0.0010989809924308903 0.0037772512680536293 0 -0.0010989809924308903 0.0037772512680536293 0 -0.0045248358611749591 0.002111196605262228 0 -0.0045872534881202815 0.00076925503990473213 0 -0.0047391398430761504 0.0010704662673980292 0 -0.0044213405843136055 0.0010440903009910482 0 -0.0012273965606512719 0.0023991865963682245 0 -0.0012113569313424236 0.002269648920906921 0 -0.0014702854425873192 0.0023346515776785193 0 -0.0012273965606512719 0.0023991865963682245 0 -0.0014702854425873192 0.0023346515776785193 0 -0.0011846509918764063 0.0028028407113713282 0 -0.0045248358611749591 0.002111196605262228 0 -0.0027723613474787212 0.0019822766841805506 0 -0.0045432979572518819 0.001279153890014663 0 -0.0047391398430761504 0.0010704662673980292 0 -0.0044213405843136055 0.0010440903009910482 0 -0.0047921905890610248 0.0012788641068306589 0 -0.0045432979572518819 0.001279153890014663 0 -0.0047391398430761504 0.0010704662673980292 0 -0.00091793588622376108 0.0032628544719264566 0 -0.00099125235238163405 0.0025858159264687841 0 -0.0011846509918764063 0.0028028407113713282 0 -0.00091793588622376108 0.0032628544719264566 0 -0.00099125235238163405 0.0025858159264687841 0 -0.00041847972341843077 0.0026805276807954047 0 -0.0015258596449128675 0.0015033418571647537 0 -0.0027723613474787212 0.0019822766841805506 0 -0.0042543948961243517 0.0013091774628807963 0 -0.0045432979572518819 0.001279153890014663 0 -0.0044213405843136055 0.0010440903009910482 0 0.00033822484059922286 0.0010896134774265155 0 0.00031737004397728972 0.0011135288340430153 0 0.00034209313481495788 0.0011354304329223841 0 -0.0015258596449128675 0.0015033418571647537 0 0.00010893757028553271 0.0019234039049968843 0 0.00033822484059922286 0.0010896134774265155 0 0.00035690545986560141 0.0010833090369351355 0 0.00034209313481495788 0.0011354304329223841 0 0.0022342814864192363 0.00034316486101626894 0 0.0022349426228334534 0.00042024031340979362 0 0.0022991989553990586 0.00038093704102098834 0 0.00031737004397728972 0.0011135288340430153 0 0.00032499816740043949 0.0011518650726820494 0 0.00034209313481495788 0.0011354304329223841 0 0.0014676515679194909 0.0013544006733377824 0 0.0013168057846659682 0.00086340346906060633 0 0.0022349426228334534 0.00042024031340979362 0 0.0022492833509897875 0.00052564846316010942 0 0.0022991989553990586 0.00038093704102098834 0 -0.00041847972341843077 0.0026805276807954047 0 -0.00030608009406671413 0.0020410008179752737 0 0.0001129510072701346 0.0020849334976347088 0 0.00010893757028553271 0.0019234039049968843 0 0.00022695901809402754 0.0018057386823249904 0 0.00032499816740043949 0.0011518650726820494 0 0.00034209313481495788 0.0011354304329223841 0 0.00032627159215946702 0.0011852267694200868 0 0.00031155207342478409 0.001167592866231551 0 0.00031737004397728972 0.0011135288340430153 0 0.00032499816740043949 0.0011518650726820494 0 0.00031155207342478409 0.001167592866231551 0 0.00032499816740043949 0.0011518650726820494 0 0.00032236603863538719 0.0011701538640076384 0 0.00032499816740043949 0.0011518650726820494 0 0.00032236603863538719 0.0011701538640076384 0 0.00032627159215946702 0.0011852267694200868 0 0.0014676515679194909 0.0013544006733377824 0 0.00069297404330301749 0.0012124998808156846 0 -0.00099125235238163405 0.0025858159264687841 0 -0.00041847972341843077 0.0026805276807954047 0 -0.00073044141047853243 0.0023943553328090112 0 -0.00041847972341843077 0.0026805276807954047 0 -0.00073044141047853243 0.0023943553328090112 0 -0.00030608009406671413 0.0020410008179752737 0 0.0011968868205899847 0.0055534297129218244 0 0.0011987507486566447 0.0055668278558297229 0 0.0012113079306566915 0.0056024433036806608 0 0.0011968868205899847 0.0055534297129218244 0 0.0012113079306566915 0.0056024433036806608 0 0.0012321544588172609 0.0055699672339731641 0 0.00063179571706991266 0.0018244783935129211 0 -0.00030608009406671413 0.0020410008179752737 0 0.00016192355699152749 0.0020322178323812735 0 0.0013702049436540762 0.003725593191331718 0 0.00058519637363027577 0.003792690292033453 0 0.0012074880607499995 0.0055602886219732498 0 0.0011968868205899847 0.0055534297129218244 0 0.0011987507486566447 0.0055668278558297229 0 0.00046916273321808257 0.0021518858932482502 0 0.00011533179277036649 0.0020905342325661228 0 0.00016192355699152749 0.0020322178323812735 0 0.00031902084966250462 0.0011827661056046524 0 0.00032236603863538719 0.0011701538640076384 0 0.00032627159215946702 0.0011852267694200868 0 0.0014073806754625218 0.0022592780129394806 0 0.00022695901809402754 0.0018057386823249904 0 0.00022695901809402754 0.0018057386823249904 0 0.00020562549542922737 0.0018389981406447572 0 -0.00030608009406671413 0.0020410008179752737 0 0.0001129510072701346 0.0020849334976347088 0 0.00016192355699152749 0.0020322178323812735 0 0.0011761616357578197 0.005685224781996975 0 0.0012113079306566915 0.0056024433036806608 0 0.0011837699894708263 0.0056969909437568468 0 0.0011004128038563602 0.0056531385920306305 0 0.0012510574386888141 0.0055954852568684457 0 0.0011987507486566447 0.0055668278558297229 0 0.0011984985650660169 0.0055613729176914066 0 0.0012113079306566915 0.0056024433036806608 0 0.0012072425150014214 0.0055585429176541034 0 0.0011987507486566447 0.0055668278558297229 0 0.0011984985650660169 0.0055613729176914066 0 0.0012113079306566915 0.0056024433036806608 0 0.0012713397659232816 0.0056203656768789648 0 0.0012466181055276434 0.0056695820727342226 0 0.0012113079306566915 0.0056024433036806608 0 0.0012713397659232816 0.0056203656768789648 0 0.0012321544588172609 0.0055699672339731641 0 -0.0049049237009407484 0.0031409988573218388 0 -0.00488300067127406 0.0027430370643823951 0 -0.0050368839577851938 0.0029396851302145028 0 -0.0010989809924308903 0.0037772512680536293 0 -0.0019176386215289827 0.0043055014580785931 0 -0.0010989809924308903 0.0037772512680536293 0 0.00058519637363027577 0.003792690292033453 0 0.0012526795577052199 0.0055086050687249474 0 0.0012713397659232816 0.0056203656768789648 0 0.0012321544588172609 0.0055699672339731641 0 0.0012526795577052199 0.0055086050687249474 0 0.0011968868205899847 0.0055534297129218244 0 0.0012321544588172609 0.0055699672339731641 0 -0.0052412707434090185 0.0028187213449549038 0 -0.0050221686740625953 0.0031676228244714435 0 -0.0050368839577851938 0.0029396851302145028 0 -0.0049049237009407484 0.0031409988573218388 0 -0.0050221686740625953 0.0031676228244714435 0 -0.0050368839577851938 0.0029396851302145028 0 -0.0057155132787841722 0.0024870709775028175 0 -0.0045248358611749591 0.002111196605262228 0 -0.0052412707434090185 0.0028187213449549038 0 -0.00488300067127406 0.0027430370643823951 0 -0.0051227426578747638 0.002539440826429565 0 -0.0052412707434090185 0.0028187213449549038 0 -0.00488300067127406 0.0027430370643823951 0 -0.0050368839577851938 0.0029396851302145028 0 -0.0049015849669993292 0.0024112020262309218 0 -0.0050450070685754723 0.0022835820324276137 0 -0.0052031439840159151 0.0023407224452049414 0 -0.0051227426578747638 0.002539440826429565 0 -0.0049015849669993292 0.0024112020262309218 0 -0.0052031439840159151 0.0023407224452049414 0 -0.0019176386215289827 0.0043055014580785931 0 -0.0017685062717298038 0.0041225775669063392 0 -0.00488300067127406 0.0027430370643823951 0 -0.0051227426578747638 0.002539440826429565 0 -0.0049015849669993292 0.0024112020262309218 0 0.0012713397659232816 0.0056203656768789648 0 0.0012897701151479847 0.0057542766918700656 0 0.0012466181055276434 0.0056695820727342226 0 0.0012113079306566915 0.0056024433036806608 0 0.0012150945186267044 0.0057028651669478354 0 0.0011837699894708263 0.0056969909437568468 0 0.0012113079306566915 0.0056024433036806608 0 0.0012466181055276434 0.0056695820727342226 0 0.0012150945186267044 0.0057028651669478354 0 0.0012897701151479847 0.0057542766918700656 0 0.0012466181055276434 0.0056695820727342226 0 0.0012150945186267044 0.0057028651669478354 0 0.0011837699894708263 0.0056969909437568468 0 0.0011749367133175573 0.0057084155889891176 0 0.0011824334536957267 0.0057164749191880174 0 0.0011761616357578197 0.005685224781996975 0 0.0011837699894708263 0.0056969909437568468 0 0.0011824334536957267 0.0057164749191880174 0 0.0012150945186267044 0.0057028651669478354 0 0.0011837699894708263 0.0056969909437568468 0 0.0011881254198381154 0.0057212980058403105 0 0.0011881254198381154 0.0057212980058403105 0 0.0011749367133175573 0.0057084155889891176 0 0.0011729179595352105 0.0057318624516706105 0 0.0011837699894708263 0.0056969909437568468 0 0.0011881254198381154 0.0057212980058403105 0 0.0011749367133175573 0.0057084155889891176 0 0.0012150945186267044 0.0057028651669478354 0 0.0011881254198381154 0.0057212980058403105 0 0.0012137629324988548 0.0057833827026117076 0 0.0011881254198381154 0.0057212980058403105 0 0.0011729179595352105 0.0057318624516706105 0 0.0012137629324988548 0.0057833827026117076 0 0.0011729179595352105 0.0057318624516706105 0 0.0012137629324988548 0.0057833827026117076 0 0.0011637039799653509 0.0058016149382925609 0 0.0012897701151479847 0.0057542766918700656 0 0.0012150945186267044 0.0057028651669478354 0 0.0012137629324988548 0.0057833827026117076 0 0.0012897701151479847 0.0057542766918700656 0 0.0012137629324988548 0.0057833827026117076 0 0.001290857958375055 0.0059213057613201172 0 0.0012137629324988548 0.0057833827026117076 0 0.0011868788527818622 0.0058721455074262916 0 0.001290857958375055 0.0059213057613201172 0 0.0011868788527818622 0.0058721455074262916 0 0.0011637039799653509 0.0058016149382925609 0 0.0011246817416668679 0.0059006421107754663 0 0.0012137629324988548 0.0057833827026117076 0 0.0011868788527818622 0.0058721455074262916 0 0.0011637039799653509 0.0058016149382925609 0 0.0011868788527818622 0.0058721455074262916 0 0.0011956102049136535 0.0059670494465265522 0 0.0011246817416668679 0.0059006421107754663 0 0.0011868788527818622 0.0058721455074262916 0 0.0011956102049136535 0.0059670494465265522 0 0.001290857958375055 0.0059213057613201172 0 0.0011956102049136535 0.0059670494465265522 0 0.001290857958375055 0.0059213057613201172 0 0.0012035693185502285 0.0060527036883867109 0 -0.0049219295251000097 0.0022331167219623036 0 -0.0050576557026354085 0.0022121349478287397 0 -0.0050450070685754723 0.0022835820324276137 0 -0.0049219295251000097 0.0022331167219623036 0 -0.0050576557026354085 0.0022121349478287397 0 -0.0049959106515864013 0.0021743842768706268 0 -0.0050576557026354085 0.0022121349478287397 0 -0.0050830869666466209 0.0021626475164821901 0 -0.0049959106515864013 0.0021743842768706268 0 -0.0050576557026354085 0.0022121349478287397 0 -0.0050830869666466209 0.0021626475164821901 0 -0.0051368165472556208 0.0021884694104156873 0 -0.0050576557026354085 0.0022121349478287397 0 -0.0051368165472556208 0.0021884694104156873 0 -0.0051641458972671367 0.0022438558460493273 0 -0.0050450070685754723 0.0022835820324276137 0 -0.0051641458972671367 0.0022438558460493273 0 -0.0052031439840159151 0.0023407224452049414 0 -0.0050576557026354085 0.0022121349478287397 0 -0.0050450070685754723 0.0022835820324276137 0 -0.0051641458972671367 0.0022438558460493273 0 -0.0017685062717298038 0.0041225775669063392 0 -0.0019957982468251038 0.0037875344238022315 0 -0.0049015849669993292 0.0024112020262309218 0 -0.0049219295251000097 0.0022331167219623036 0 -0.0050450070685754723 0.0022835820324276137 0 0.0032200266154336246 0.0051179827002795931 0 0.0031481971871448792 0.0059746679980117057 0 0.0025861729458195922 0.0055313898523254735 0 0.0032200266154336246 0.0051179827002795931 0 0.0025861729458195922 0.0055313898523254735 0 0.0027991613974193909 0.0047582436141182316 0 0.0039058888747290181 0.0050170662693055645 0 0.0032200266154336246 0.0051179827002795931 0 0.0031481971871448792 0.0059746679980117057 0 0.0075373589219396497 0.0026376829351352229 0 0.0069702356145601527 0.0022175979482918027 0 0.007081669343789598 0.0024576106069024717 0 0.0075373589219396497 0.0026376829351352229 0 0.007081669343789598 0.0024576106069024717 0 0.0068831981654299372 0.0027143452642676069 0 0.0075373589219396497 0.0026376829351352229 0 0.0069762109698739642 0.0031761385969617437 0 0.0068831981654299372 0.0027143452642676069 0 0.0069702356145601527 0.0022175979482918027 0 0.007081669343789598 0.0024576106069024717 0 0.0068831981654299372 0.0027143452642676069 0 0.0069702356145601527 0.0022175979482918027 0 0.0064796595016280191 0.0027832752810419002 0 0.0068831981654299372 0.0027143452642676069 0 0.0031481971871448792 0.0059746679980117057 0 0.0023446549446346971 0.0061836496662759826 0 0.0025861729458195922 0.0055313898523254735 0 0.0069702356145601527 0.0022175979482918027 0 0.0064796595016280191 0.0027832752810419002 0 0.0057256140464210506 0.0025255208696719675 0 0.0054122400727490885 0.0049409857261115174 0 0.0040632799386276742 0.0043006825026554903 0 0.0023446549446346971 0.0061836496662759826 0 0.0025861729458195922 0.0055313898523254735 0 0.0019259359674682333 0.0057992684527835769 0 0.0025861729458195922 0.0055313898523254735 0 0.0019252348616822712 0.0052216934039971555 0 0.0027991613974193909 0.0047582436141182316 0 0.0025861729458195922 0.0055313898523254735 0 0.0019252348616822712 0.0052216934039971555 0 0.0019259359674682333 0.0057992684527835769 0 0.0019252348616822712 0.0052216934039971555 0 0.0011496135420947817 0.0056868369447174837 0 0.0013952346490922465 0.0056258777442274813 0 0.0014484641477344998 0.0055327939319470996 0 0.0011799418875927821 0.0056713974902916266 0 0.0019252348616822712 0.0052216934039971555 0 0.0019259359674682333 0.0057992684527835769 0 0.0013952346490922465 0.0056258777442274813 0 0.0023446549446346971 0.0061836496662759826 0 0.0019259359674682333 0.0057992684527835769 0 0.0016268837216728135 0.0062451369468433399 0 0.0015637380656435321 0.0063750468582824162 0 0.0023446549446346971 0.0061836496662759826 0 0.0016268837216728135 0.0062451369468433399 0 0.0026870323397457474 0.0049180349150360287 0 0.0040632799386276742 0.0043006825026554903 0 0.0014179811642915071 0.0064132570367587422 0 0.0016268837216728135 0.0062451369468433399 0 0.0015919107655782601 0.0059891473148338025 0 0.0014179811642915071 0.0064132570367587422 0 0.0015668641049386455 0.0063712763915725213 0 0.0016268837216728135 0.0062451369468433399 0 0.0026870323397457474 0.0049180349150360287 0 0.0023568369758954284 0.0055000776946647597 0 0.0019259359674682333 0.0057992684527835769 0 0.0016268837216728135 0.0062451369468433399 0 0.0015919107655782601 0.0059891473148338025 0 0.0019259359674682333 0.0057992684527835769 0 0.0015919107655782601 0.0059891473148338025 0 0.0013952346490922465 0.0056258777442274813 0 0.0012357126884679599 0.005714741783727809 0 0.0011496135420947817 0.0056868369447174837 0 0.0013952346490922465 0.0056258777442274813 0 0.0014179811642915071 0.0064132570367587422 0 0.0015919107655782601 0.0059891473148338025 0 0.0013952346490922465 0.0056258777442274813 0 0.0012131067955564367 0.0057806829115789543 0 0.0012357126884679599 0.005714741783727809 0 0.0013952346490922465 0.0056258777442274813 0 0.0017300137690018397 0.0054696886635490147 0 0.0013351829996046992 0.0058820302011119178 0 0.0012131067955564367 0.0057806829115789543 0 0.0012357126884679599 0.005714741783727809 0 0.0012011822490850289 0.005741996201112055 0 0.0011761616357578197 0.005685224781996975 0 0.0012011822490850289 0.005741996201112055 0 0.0011824334536957267 0.0057164749191880174 0 0.0012011822490850289 0.005741996201112055 0 0.0011824334536957267 0.0057164749191880174 0 0.0011882768649035299 0.0057106807127036132 0 0.0012357126884679599 0.005714741783727809 0 0.0012011822490850289 0.005741996201112055 0 0.0011882768649035299 0.0057106807127036132 0 0.0011749367133175573 0.0057084155889891176 0 0.0011824334536957267 0.0057164749191880174 0 0.0011882768649035299 0.0057106807127036132 0 0.0012357126884679599 0.005714741783727809 0 0.0011882768649035299 0.0057106807127036132 0 0.0011496135420947817 0.0056868369447174837 0 0.0011749367133175573 0.0057084155889891176 0 0.0011882768649035299 0.0057106807127036132 0 0.0011496135420947817 0.0056868369447174837 0 0.00099040651092313311 0.0058287589906449045 0 0.0011496135420947817 0.0056868369447174837 0 0.0010943864505565581 0.0058317622590390826 0 0.0011749367133175573 0.0057084155889891176 0 0.0011729179595352105 0.0057318624516706105 0 0.0011496135420947817 0.0056868369447174837 0 0.0011729179595352105 0.0057318624516706105 0 0.0011496135420947817 0.0056868369447174837 0 0.0011637039799653509 0.0058016149382925609 0 0.0011496135420947817 0.0056868369447174837 0 0.0011637039799653509 0.0058016149382925609 0 0.0010943864505565581 0.0058317622590390826 0 0.0011637039799653509 0.0058016149382925609 0 0.0010943864505565581 0.0058317622590390826 0 0.0011246817416668679 0.0059006421107754663 0 0.0010943864505565581 0.0058317622590390826 0 0.0011246817416668679 0.0059006421107754663 0 0.0010299793126549931 0.0059248698279164465 0 0.0011246817416668679 0.0059006421107754663 0 0.0010811625056812541 0.0059989123216494375 0 0.0010299793126549931 0.0059248698279164465 0 0.0011956102049136535 0.0059670494465265522 0 0.0010811625056812541 0.0059989123216494375 0 0.0011342079055236742 0.0060840423386739253 0 0.0011956102049136535 0.0059670494465265522 0 0.0011246817416668679 0.0059006421107754663 0 0.0010811625056812541 0.0059989123216494375 0 0.0010811625056812541 0.0059989123216494375 0 0.00096473167493458536 0.0060349719012650384 0 0.0010097534879627661 0.0061093891517025496 0 0.0010811625056812541 0.0059989123216494375 0 0.00096473167493458536 0.0060349719012650384 0 0.0010299793126549931 0.0059248698279164465 0 0.00099040651092313311 0.0058287589906449045 0 0.0010943864505565581 0.0058317622590390826 0 0.0010299793126549931 0.0059248698279164465 0 0.00099040651092313311 0.0058287589906449045 0 0.0010299793126549931 0.0059248698279164465 0 0.00089416676748047647 0.0059578477401301521 0 0.0014484641477344998 0.0055327939319470996 0 0.0019104066835038283 0.0053432305776506175 0 0.00096473167493458536 0.0060349719012650384 0 0.0010299793126549931 0.0059248698279164465 0 0.00089416676748047647 0.0059578477401301521 0 0.00096473167493458536 0.0060349719012650384 0 0.00089441361457287668 0.0060887292640202841 0 0.00089416676748047647 0.0059578477401301521 0 0.00096473167493458536 0.0060349719012650384 0 0.00089441361457287668 0.0060887292640202841 0 0.00093097273808871153 0.0061220167278057324 0 0.00085960600584573596 0.0060616730857191159 0 0.00089441361457287668 0.0060887292640202841 0 0.00087615694003774405 0.0061424353054632718 0 0.00085960600584573596 0.0060616730857191159 0 0.00089441361457287668 0.0060887292640202841 0 0.00089416676748047647 0.0059578477401301521 0 0.0019150110273930771 0.0051529666896680815 0 0.0019104066835038283 0.0053432305776506175 0 0.0036511331073703578 0.0043207289610300952 0 0.0032200266154336246 0.0051179827002795931 0 0.0027991613974193909 0.0047582436141182316 0 0.00090157204599645427 0.0061834370903022804 0 0.00092140636532447742 0.0062263377770868898 0 0.00088959619625611573 0.0062216594164561838 0 0.00087615694003774405 0.0061424353054632718 0 0.00090157204599645427 0.0061834370903022804 0 0.00088959619625611573 0.0062216594164561838 0 0.00089441361457287668 0.0060887292640202841 0 0.00087615694003774405 0.0061424353054632718 0 0.00090157204599645427 0.0061834370903022804 0 0.00089441361457287668 0.0060887292640202841 0 0.00093097273808871153 0.0061220167278057324 0 0.00090157204599645427 0.0061834370903022804 0 0.00093097273808871153 0.0061220167278057324 0 0.00090593072147182228 0.0062219130090109542 0 0.00090157204599645427 0.0061834370903022804 0 0.00090593072147182228 0.0062219130090109542 0 0.00090157204599645427 0.0061834370903022804 0 0.00092140636532447742 0.0062263377770868898 0 0.00089907986697145361 0.0062361822866591797 0 0.00086745180209798654 0.0063631516312224138 0 0.00090593072147182228 0.0062219130090109542 0 0.00096296013298349608 0.0064277873767933022 0 0.00078434341855482086 0.0064587150111997437 0 0.00090593072147182228 0.0062219130090109542 0 0.0010523878318745544 0.0062550087689330416 0 0.00096296013298349608 0.0064277873767933022 0 0.0010523878318745544 0.0062550087689330416 0 0.0011124510460769493 0.0064396560345691281 0 0.00096296013298349608 0.0064277873767933022 0 0.00090593072147182228 0.0062219130090109542 0 0.0010097534879627661 0.0061093891517025496 0 0.0010523878318745544 0.0062550087689330416 0 0.00093097273808871153 0.0061220167278057324 0 0.00090593072147182228 0.0062219130090109542 0 0.0010097534879627661 0.0061093891517025496 0 0.00096473167493458536 0.0060349719012650384 0 0.00093097273808871153 0.0061220167278057324 0 0.0010097534879627661 0.0061093891517025496 0 0.0011342079055236742 0.0060840423386739253 0 0.0010523878318745544 0.0062550087689330416 0 0.0012173440452726075 0.0063032120835774053 0 0.0010811625056812541 0.0059989123216494375 0 0.0010097534879627661 0.0061093891517025496 0 0.0011342079055236742 0.0060840423386739253 0 0.0010097534879627661 0.0061093891517025496 0 0.0011342079055236742 0.0060840423386739253 0 0.0010523878318745544 0.0062550087689330416 0 0.0010523878318745544 0.0062550087689330416 0 0.0011124510460769493 0.0064396560345691281 0 0.0012173440452726075 0.0063032120835774053 0 0.0011124510460769493 0.0064396560345691281 0 0.0010236046583318517 0.0066063237716113173 0 0.0012317576951184808 0.0066599813488717923 0 0.001120822897903919 0.0067757891613712982 0 0.0010236046583318517 0.0066063237716113173 0 0.0012317576951184808 0.0066599813488717923 0 0.001120822897903919 0.0067757891613712982 0 0.00091432811066918687 0.0067315487340999375 0 0.0010236046583318517 0.0066063237716113173 0 0.0012212268527184652 0.0069057280294349379 0 0.00041670062519227929 0.0068792951753789524 0 0.00091432811066918687 0.0067315487340999375 0 0.0010236046583318517 0.0066063237716113173 0 0.00085923744511348752 0.006595648984637827 0 0.0010236046583318517 0.0066063237716113173 0 0.00096296013298349608 0.0064277873767933022 0 0.00085923744511348752 0.006595648984637827 0 0.0011124510460769493 0.0064396560345691281 0 0.0010236046583318517 0.0066063237716113173 0 0.00096296013298349608 0.0064277873767933022 0 0.00096296013298349608 0.0064277873767933022 0 0.00078434341855482086 0.0064587150111997437 0 0.00085923744511348752 0.006595648984637827 0 0.00078434341855482086 0.0064587150111997437 0 0.00085923744511348752 0.006595648984637827 0 0.00072721428833571133 0.0066519397622790116 0 0.00086745180209798654 0.0063631516312224138 0 0.0018429093049634325 0.0067553969109859719 0 0.00041670062519227929 0.0068792951753789524 0 0.0028376192411040339 0.0068941629116840535 0 0.00082711358629827868 0.007064730741244773 0 0.00034584745147844028 0.0069991605863796349 0 0.00061115847836058161 0.0073415746396912913 0 0.00091432811066918687 0.0067315487340999375 0 0.00085923744511348752 0.006595648984637827 0 0.0007478883037172028 0.0066748299191646456 0 0.00091432811066918687 0.0067315487340999375 0 0.0007478883037172028 0.0066748299191646456 0 0.00070956984482721216 0.0067164384669854676 0 0.0007478883037172028 0.0066748299191646456 0 0.00073329986240383191 0.0066556291325968724 0 0.00070956984482721216 0.0067164384669854676 0 0.0018429093049634325 0.0067553969109859719 0 0.0028376192411040339 0.0068941629116840535 0 0.00085923744511348752 0.006595648984637827 0 0.0007478883037172028 0.0066748299191646456 0 0.00072721428833571133 0.0066519397622790116 0 0.0016884421006782588 0.0066509487284052444 0 0.0018429093049634325 0.0067553969109859719 0 0.0059563510907783947 0.006531513804142474 0 0.0047567897575489359 0.0064677086412298695 0 0.0053276328964161198 0.0069018100422231681 0 0.0063606559789396609 0.0071218791288661576 0 0.005522756501906363 0.0071205241203840365 0 0.0059491980587279463 0.00687910482666205 0 0.0046373882792797713 0.0067692136237473138 0 0.0047567897575489359 0.0064677086412298695 0 0.0053276328964161198 0.0069018100422231681 0 0.0066457796025441484 0.0068276655686531507 0 0.0028376192411040339 0.0068941629116840535 0 0.0018429093049634325 0.0067553969109859719 0 0.0032261348438341634 0.0069060913208189171 0 0.0046373882792797713 0.0067692136237473138 0 0.0053276328964161198 0.0069018100422231681 0 0.00535227705590916 0.0075720831626347341 0 0.00092140636532447742 0.0062263377770868898 0 0.00091987052117827506 0.0062637894382081049 0 0.00088959619625611573 0.0062216594164561838 0 -0.0028140577288082794 0.0052674125419137933 0 -0.00040555105833756084 0.0054753398467108534 0 1.6883903262590833e-05 0.0086785810478454736 0 0.0012479419859715271 0.0090448131614498575 0 0.00053934165177810505 0.0078527448102348116 0 -0.0050105244547828977 0.0020799155570200797 0 -0.005024465126719101 0.0021294907988256132 0 -0.0048831245778307242 0.0021273298225463542 0 -0.0050105244547828977 0.0020799155570200797 0 -0.0051246149885157809 0.0020567890677508265 0 -0.0051112065245919767 0.0021142551469854089 0 -0.0028140577288082794 0.0052674125419137933 0 -0.002981736571601779 0.0058452639587845421 0 -0.0050105244547828977 0.0020799155570200797 0 -0.005024465126719101 0.0021294907988256132 0 -0.0051112065245919767 0.0021142551469854089 0 -0.005024465126719101 0.0021294907988256132 0 -0.0050830869666466209 0.0021626475164821901 0 -0.0051112065245919767 0.0021142551469854089 0 -0.005024465126719101 0.0021294907988256132 0 -0.0050830869666466209 0.0021626475164821901 0 -0.0049959106515864013 0.0021743842768706268 0 -0.0049219295251000097 0.0022331167219623036 0 -0.0049959106515864013 0.0021743842768706268 0 -0.0048831245778307242 0.0021273298225463542 0 -0.0019957982468251038 0.0037875344238022315 0 -0.00040555105833756084 0.0054753398467108534 0 -0.005024465126719101 0.0021294907988256132 0 -0.0049959106515864013 0.0021743842768706268 0 -0.0048831245778307242 0.0021273298225463542 0 0.001290857958375055 0.0059213057613201172 0 0.0012035693185502285 0.0060527036883867109 0 0.001266343465475399 0.006063236744848031 0 0.0016352788441944045 0.0062454679009232494 0 -0.00040555105833756084 0.0054753398467108534 0 0.00101620621027562 0.0060363699197462078 0 0.0016352788441944045 0.0062454679009232494 0 0.0011342079055236742 0.0060840423386739253 0 0.0013636511481542807 0.0061819976544122066 0 0.0012173440452726075 0.0063032120835774053 0 0.0011956102049136535 0.0059670494465265522 0 0.0011342079055236742 0.0060840423386739253 0 0.0012035693185502285 0.0060527036883867109 0 0.0011124510460769493 0.0064396560345691281 0 0.0012173440452726075 0.0063032120835774053 0 0.0013365400146647798 0.0064568896795315564 0 0.0013636511481542807 0.0061819976544122066 0 0.0012173440452726075 0.0063032120835774053 0 0.0013365400146647798 0.0064568896795315564 0 0.0013636511481542807 0.0061819976544122066 0 0.0013365400146647798 0.0064568896795315564 0 0.0016014372995072799 0.0062687128630297927 0 0.0013365400146647798 0.0064568896795315564 0 0.0016014372995072799 0.0062687128630297927 0 0.0015392985997414029 0.0067026734313403238 0 -0.00040555105833756084 0.0054753398467108534 0 0.0016995326435177626 0.0075125554721374825 0 0.0013365400146647798 0.0064568896795315564 0 0.0015392985997414029 0.0067026734313403238 0 0.0012317576951184808 0.0066599813488717923 0 0.0011124510460769493 0.0064396560345691281 0 0.0013365400146647798 0.0064568896795315564 0 0.0012317576951184808 0.0066599813488717923 0 0.0012212268527184652 0.0069057280294349379 0 0.0012992082889098126 0.0068957706123953513 0 0.001120822897903919 0.0067757891613712982 0 0.0012317576951184808 0.0066599813488717923 0 0.0013350985209502611 0.0068910532006979299 0 0.0015392985997414029 0.0067026734313403238 0 0.0012317576951184808 0.0066599813488717923 0 0.0013350985209502611 0.0068910532006979299 0 0.0014408987783758702 0.0073031639688470647 0 0.0012478667759898672 0.0068914757560385002 0 0.0013650347737509743 0.0070463061578980683 0 0.0015392985997414029 0.0067026734313403238 0 0.0013350985209502611 0.0068910532006979299 0 0.0013650347737509743 0.0070463061578980683 0 0.0016995326435177626 0.0075125554721374825 0 0.0013399488015194486 0.0068306928621624796 0 0.0012478667759898672 0.0068914757560385002 0 0.00011789364332673495 0.0070277657416264174 0 -0.00030054345028090144 0.0062273526022744484 0 0.00083616127587650467 0.0072491871141015882 0 0.00053934165177810505 0.0078527448102348116 0 0.00011789364332673495 0.0070277657416264174 0 0.0012478667759898672 0.0068914757560385002 0 0.00083616127587650467 0.0072491871141015882 0 0.00011789364332673495 0.0070277657416264174 0 0.0014408987783758702 0.0073031639688470647 0 0.0012478667759898672 0.0068914757560385002 0 0.00083616127587650467 0.0072491871141015882 0 0.0012479419859715271 0.0090448131614498575 0 0.0014408987783758702 0.0073031639688470647 0 0.00053934165177810505 0.0078527448102348116 0 0.0014408987783758702 0.0073031639688470647 0 0.00083616127587650467 0.0072491871141015882 0 0.00053934165177810505 0.0078527448102348116 0 1.6883903262590833e-05 0.0086785810478454736 0 -0.00058547942033408457 0.0078608818147507427 0 -0.0012546807141489689 0.0082786460636138353 0 0.00053934165177810505 0.0078527448102348116 0 -0.00058547942033408457 0.0078608818147507427 0 0.00011789364332673495 0.0070277657416264174 0 1.6883903262590833e-05 0.0086785810478454736 0 0.00053934165177810505 0.0078527448102348116 0 -0.00058547942033408457 0.0078608818147507427 0 -0.00058547942033408457 0.0078608818147507427 0 -0.00069526683005904032 0.0070951548266333193 0 0.00011789364332673495 0.0070277657416264174 0 -0.00069526683005904032 0.0070951548266333193 0 0.00011789364332673495 0.0070277657416264174 0 -0.00030054345028090144 0.0062273526022744484 0 -0.00069526683005904032 0.0070951548266333193 0 -0.0011460504933976162 0.0064468361071292994 0 -0.00030054345028090144 0.0062273526022744484 0 -0.0011460504933976162 0.0064468361071292994 0 -0.0016153389873168097 0.0073638457881233851 0 -0.0019187222296493881 0.0061216872208369804 0 -0.00069526683005904032 0.0070951548266333193 0 -0.0011460504933976162 0.0064468361071292994 0 -0.0016153389873168097 0.0073638457881233851 0 -0.0031053022454063653 0.0069170462354985352 0 -0.0016153389873168097 0.0073638457881233851 0 -0.0019187222296493881 0.0061216872208369804 0 -0.0031053022454063653 0.0069170462354985352 0 -0.0019187222296493881 0.0061216872208369804 0 -0.0030370500871919237 0.0057707638808317148 0 -0.0031053022454063653 0.0069170462354985352 0 -0.0027736589198981911 0.0080319340367981992 0 -0.0040529530619064303 0.0075650539228016723 0 -0.0031053022454063653 0.0069170462354985352 0 -0.0027736589198981911 0.0080319340367981992 0 -0.0016153389873168097 0.0073638457881233851 0 -0.0040740574038439781 0.0044770740830519283 0 -0.0042719712057099008 0.0044091914281655185 0 -0.0041005484523671358 0.0046783222939960579 0 -0.0031829857812821333 0.0063345212204230922 0 -0.002981736571601779 0.0058452639587845421 0 -0.0027736589198981911 0.0080319340367981992 0 -0.0014800664336546596 0.0084729432534834982 0 -0.0016153389873168097 0.0073638457881233851 0 -0.0010721241232154875 0.0074641154340268825 0 -0.002981736571601779 0.0058452639587845421 0 -0.00058547942033408457 0.0078608818147507427 0 -0.0014800664336546596 0.0084729432534834982 0 -0.0016153389873168097 0.0073638457881233851 0 -0.00058547942033408457 0.0078608818147507427 0 -0.00069526683005904032 0.0070951548266333193 0 -0.0016153389873168097 0.0073638457881233851 0 -0.0037902016416255587 0.0046302637313494575 0 -0.003586862503639124 0.0050734397837565726 0 -0.0042659416038350242 0.0044798499085937325 0 -0.0040937257129539696 0.0053507342423550659 0 -0.0036984499830815545 0.0046910625314435152 0 -0.0037902016416255587 0.0046302637313494575 0 -0.0033622195362424351 0.0048457412329187205 0 -0.0036461296866509697 0.0045399238133828597 0 -0.0052950573642763857 0.0037371937267794701 0 -0.0040937257129539696 0.0053507342423550659 0 -0.0037902016416255587 0.0046302637313494575 0 -0.003586862503639124 0.0050734397837565726 0 -0.0033622195362424351 0.0048457412329187205 0 -0.0040937257129539696 0.0053507342423550659 0 -0.0027923836858735171 0.0053196886047117888 0 -0.0031053022454063653 0.0069170462354985352 0 -0.0045116974198040104 0.0068061600723512798 0 -0.0030370500871919237 0.0057707638808317148 0 -0.0031053022454063653 0.0069170462354985352 0 -0.0045116974198040104 0.0068061600723512798 0 -0.0040529530619064303 0.0075650539228016723 0 -0.0040937257129539696 0.0053507342423550659 0 -0.0047275934268591439 0.0045301705930960272 0 -0.0047417110777342548 0.0044292266073086492 0 -0.0046480608188400659 0.0043667897071735344 0 -0.0045726137238858849 0.0044893799785397379 0 -0.0060516472099293294 0.0023092656474050983 0 -0.0060749347719344718 0.0023103771234258561 0 -0.0060661555922223434 0.0023237585262381624 0 -0.0047275934268591439 0.0045301705930960272 0 -0.0051700423621756442 0.0024952365267133618 0 -0.0031829857812821333 0.0063345212204230922 0 -0.0047275934268591439 0.0045301705930960272 0 -0.0052950573642763857 0.0037371937267794701 0 -0.0064826385180144106 0.002518424954644462 0 -0.0060749347719344718 0.0023103771234258561 0 -0.0060847433442428574 0.0023186872643255144 0 -0.0061140674084210356 0.0023015795637955565 0 -0.0060736940187483008 0.0022990690413811259 0 -0.0060749347719344718 0.0023103771234258561 0 -0.0061140674084210356 0.0023015795637955565 0 -0.0060736940187483008 0.0022990690413811259 0 -0.0060516472099293294 0.0023092656474050983 0 -0.0060749347719344718 0.0023103771234258561 0 -0.0052950573642763857 0.0037371937267794701 0 -0.0047275934268591439 0.0045301705930960272 0 -0.0060848997657335282 0.0023292517533738733 0 -0.0060661555922223434 0.0023237585262381624 0 -0.006076205596858366 0.0023409449495731169 0 -0.0060847433442428574 0.0023186872643255144 0 -0.0060848997657335282 0.0023292517533738733 0 -0.0061117074759630477 0.0023228446007645706 0 -0.0060749347719344718 0.0023103771234258561 0 -0.0060847433442428574 0.0023186872643255144 0 -0.0060661555922223434 0.0023237585262381624 0 -0.0060847433442428574 0.0023186872643255144 0 -0.0060848997657335282 0.0023292517533738733 0 -0.0060661555922223434 0.0023237585262381624 0 -0.0060516472099293294 0.0023092656474050983 0 -0.0060661555922223434 0.0023237585262381624 0 -0.0060327491432851984 0.002334293504878585 0 -0.0060661555922223434 0.0023237585262381624 0 -0.006076205596858366 0.0023409449495731169 0 -0.0060327491432851984 0.002334293504878585 0 -0.0059969510304269573 0.0021873814453799022 0 -0.0051700423621756442 0.0024952365267133618 0 -0.0057576844979963186 0.0020736372932679027 0 -0.0054140736405215873 0.0018692486006198718 0 -0.0054822041092680799 0.002083382971526597 0 -0.0057576844979963186 0.0020736372932679027 0 -0.0054822041092680799 0.002083382971526597 0 -0.0054243670789446904 0.0022830155533297182 0 -0.006076205596858366 0.0023409449495731169 0 -0.0060809135755486837 0.0023254973760305818 0 -0.0060980041250810564 0.0023307073771393319 0 -0.0060848997657335282 0.0023292517533738733 0 -0.006076205596858366 0.0023409449495731169 0 -0.0060980041250810564 0.0023307073771393319 0 -0.0060848997657335282 0.0023292517533738733 0 -0.0060980041250810564 0.0023307073771393319 0 -0.0061117074759630477 0.0023228446007645706 0 -0.0051246149885157809 0.0020567890677508265 0 -0.0051112065245919767 0.0021142551469854089 0 -0.0052176137576011522 0.0020990938509409035 0 -0.0040740574038439781 0.0044770740830519283 0 -0.0038737556357837494 0.0045496409868908301 0 -0.0041005484523671358 0.0046783222939960579 0 -0.002981736571601779 0.0058452639587845421 0 -0.0051700423621756442 0.0024952365267133618 0 -0.0054140736405215873 0.0018692486006198718 0 -0.0054822041092680799 0.002083382971526597 0 -0.0052169460793870647 0.0021978014265399025 0 -0.0051700423621756442 0.0024952365267133618 0 -0.005301179920998102 0.0019818272442403344 0 -0.0052176137576011522 0.0020990938509409035 0 -0.0051484090741589199 0.0021576885930570679 0 -0.0052169460793870647 0.0021978014265399025 0 -0.0051112065245919767 0.0021142551469854089 0 -0.0052176137576011522 0.0020990938509409035 0 -0.0051484090741589199 0.0021576885930570679 0 -0.0050830869666466209 0.0021626475164821901 0 -0.0051112065245919767 0.0021142551469854089 0 -0.0051484090741589199 0.0021576885930570679 0 -0.0050830869666466209 0.0021626475164821901 0 -0.0051484090741589199 0.0021576885930570679 0 -0.0051368165472556208 0.0021884694104156873 0 -0.0051368165472556208 0.0021884694104156873 0 -0.0052169460793870647 0.0021978014265399025 0 -0.0054243670789446904 0.0022830155533297182 0 -0.0051368165472556208 0.0021884694104156873 0 -0.005273083249515787 0.0022100006546706616 0 -0.0053936818634384423 0.0021184253610234999 0 -0.0051484090741589199 0.0021576885930570679 0 -0.0051368165472556208 0.0021884694104156873 0 -0.0052169460793870647 0.0021978014265399025 0 -0.0051643883576134204 0.0021887685341856174 0 -0.0054117522179824356 0.0022017709371195599 0 -0.0051368165472556208 0.0021884694104156873 0 -0.005273083249515787 0.0022100006546706616 0 -0.0051641458972671367 0.0022438558460493273 0 -0.0051641458972671367 0.0022438558460493273 0 -0.0052922080863130414 0.0022649227087578948 0 -0.0052031439840159151 0.0023407224452049414 0 -0.0052922080863130414 0.0022649227087578948 0 -0.0052031439840159151 0.0023407224452049414 0 -0.0054247365706622695 0.0023195320415514064 0 -0.005273083249515787 0.0022100006546706616 0 -0.0051641458972671367 0.0022438558460493273 0 -0.0052922080863130414 0.0022649227087578948 0 -0.0053944067517633799 0.0022237885055876607 0 -0.0054705774858410765 0.0022562760073776712 0 -0.0054247365706622695 0.0023195320415514064 0 -0.0052922080863130414 0.0022649227087578948 0 -0.0053944067517633799 0.0022237885055876607 0 -0.0054247365706622695 0.0023195320415514064 0 -0.005273083249515787 0.0022100006546706616 0 -0.0052922080863130414 0.0022649227087578948 0 -0.0053944067517633799 0.0022237885055876607 0 -0.0053944067517633799 0.0022237885055876607 0 -0.0053936818634384423 0.0021184253610234999 0 -0.0054710975399597421 0.0021771718735581645 0 -0.0054822041092680799 0.002083382971526597 0 -0.0052169460793870647 0.0021978014265399025 0 -0.0054243670789446904 0.0022830155533297182 0 -0.005273083249515787 0.0022100006546706616 0 -0.0053944067517633799 0.0022237885055876607 0 -0.0053936818634384423 0.0021184253610234999 0 -0.0057576844979963186 0.0020736372932679027 0 -0.0054243670789446904 0.0022830155533297182 0 -0.0058530762209877156 0.0023458926912542496 0 -0.0054117522179824356 0.0022017709371195599 0 -0.0057075997463852217 0.0022163625335401248 0 -0.0053936818634384423 0.0021184253610234999 0 -0.0055537117049087072 0.0020916817935082463 0 -0.0054710975399597421 0.0021771718735581645 0 -0.0057576844979963186 0.0020736372932679027 0 -0.0058530762209877156 0.0023458926912542496 0 -0.0060809135755486837 0.0023254973760305818 0 -0.0059969510304269573 0.0021873814453799022 0 -0.0060433171592977715 0.0023130795181915461 0 -0.0055537117049087072 0.0020916817935082463 0 -0.005545984273531571 0.0021934604323514554 0 -0.0056504787399240964 0.0021470628429672914 0 -0.005545984273531571 0.0021934604323514554 0 -0.0056307563922097506 0.0022039347859767401 0 -0.0056504787399240964 0.0021470628429672914 0 -0.0055537117049087072 0.0020916817935082463 0 -0.005545984273531571 0.0021934604323514554 0 -0.0054710975399597421 0.0021771718735581645 0 -0.005545984273531571 0.0021934604323514554 0 -0.0056307563922097506 0.0022039347859767401 0 -0.0055244095543738811 0.0022587754800829293 0 -0.0053944067517633799 0.0022237885055876607 0 -0.0054710975399597421 0.0021771718735581645 0 -0.0054705774858410765 0.0022562760073776712 0 -0.005545984273531571 0.0021934604323514554 0 -0.0054710975399597421 0.0021771718735581645 0 -0.0054705774858410765 0.0022562760073776712 0 -0.005545984273531571 0.0021934604323514554 0 -0.0054705774858410765 0.0022562760073776712 0 -0.0055244095543738811 0.0022587754800829293 0 -0.0054705774858410765 0.0022562760073776712 0 -0.0054603179707841927 0.0023121096225676065 0 -0.0055244095543738811 0.0022587754800829293 0 -0.0054705774858410765 0.0022562760073776712 0 -0.0054603179707841927 0.0023121096225676065 0 -0.0054247365706622695 0.0023195320415514064 0 -0.0056307563922097506 0.0022039347859767401 0 -0.0055244095543738811 0.0022587754800829293 0 -0.0056836858523316158 0.0022376888979181459 0 -0.0055244095543738811 0.0022587754800829293 0 -0.0055436778616356165 0.0022665562370266447 0 -0.0056836858523316158 0.0022376888979181459 0 -0.0054603179707841927 0.0023121096225676065 0 -0.0055244095543738811 0.0022587754800829293 0 -0.0055436778616356165 0.0022665562370266447 0 -0.0054270751766309234 0.0022523809632243263 0 -0.0054603179707841927 0.0023121096225676065 0 -0.0055436778616356165 0.0022665562370266447 0 -0.0054105275280436384 0.0022610849866403562 0 -0.0054270751766309234 0.0022523809632243263 0 -0.0054603179707841927 0.0023121096225676065 0 -0.0054105275280436384 0.0022610849866403562 0 -0.0054603179707841927 0.0023121096225676065 0 -0.0054559980734710236 0.002417145359855885 0 -0.0055649704193861246 0.002166329231376633 0 -0.0054105275280436384 0.0022610849866403562 0 -0.0054559980734710236 0.002417145359855885 0 -0.0057155132787841722 0.0024870709775028175 0 -0.0054304139341365245 0.0024213526582291495 0 -0.0052412707434090185 0.0028187213449549038 0 -0.0051227426578747638 0.002539440826429565 0 -0.0054559980734710236 0.002417145359855885 0 -0.0051227426578747638 0.002539440826429565 0 -0.0054559980734710236 0.002417145359855885 0 -0.0052031439840159151 0.0023407224452049414 0 -0.0054559980734710236 0.002417145359855885 0 -0.0052031439840159151 0.0023407224452049414 0 -0.0054247365706622695 0.0023195320415514064 0 -0.0054603179707841927 0.0023121096225676065 0 -0.0054559980734710236 0.002417145359855885 0 -0.0054247365706622695 0.0023195320415514064 0 -0.0060093506735464175 0.0022558179152493561 0 -0.0059186723914576153 0.0022274478333485313 0 -0.0061401083307631756 0.0022245702598903392 0 -0.0060093506735464175 0.0022558179152493561 0 -0.0061957334533164522 0.0022496930943206443 0 -0.0061401083307631756 0.0022245702598903392 0 -0.0061957334533164522 0.0022496930943206443 0 -0.0061401083307631756 0.0022245702598903392 0 -0.0062544781774735098 0.0022371192243298118 0 -0.0060093506735464175 0.0022558179152493561 0 -0.0061957334533164522 0.0022496930943206443 0 -0.0061099574845305173 0.0023072173652778885 0 -0.0061957334533164522 0.0022496930943206443 0 -0.0061099574845305173 0.0023072173652778885 0 -0.0062827601465696888 0.0023067248185912243 0 -0.0059314363340028332 0.0023161153679600718 0 -0.0060093506735464175 0.0022558179152493561 0 -0.0061099574845305173 0.0023072173652778885 0 -0.0059314363340028332 0.0023161153679600718 0 -0.0060093506735464175 0.0022558179152493561 0 -0.0057227585135797877 0.002270228175919022 0 -0.0055436778616356165 0.0022665562370266447 0 -0.0057227585135797877 0.002270228175919022 0 -0.0056836858523316158 0.0022376888979181459 0 -0.0054270751766309234 0.0022523809632243263 0 -0.0055436778616356165 0.0022665562370266447 0 -0.0057227585135797877 0.002270228175919022 0 -0.0060093506735464175 0.0022558179152493561 0 -0.0057227585135797877 0.002270228175919022 0 -0.0059186723914576153 0.0022274478333485313 0 -0.0056836858523316158 0.0022376888979181459 0 -0.0059186723914576153 0.0022274478333485313 0 -0.0057800613036439966 0.0021893098931679614 0 -0.0057227585135797877 0.002270228175919022 0 -0.0056836858523316158 0.0022376888979181459 0 -0.0059186723914576153 0.0022274478333485313 0 -0.0059186723914576153 0.0022274478333485313 0 -0.0057800613036439966 0.0021893098931679614 0 -0.0061231168366796826 0.0022248858180939943 0 -0.0057800613036439966 0.0021893098931679614 0 -0.0057732621101496458 0.0020682383095504573 0 -0.0061231168366796826 0.0022248858180939943 0 -0.0056307563922097506 0.0022039347859767401 0 -0.0056836858523316158 0.0022376888979181459 0 -0.0057800613036439966 0.0021893098931679614 0 -0.0056307563922097506 0.0022039347859767401 0 -0.0057800613036439966 0.0021893098931679614 0 -0.0056504787399240964 0.0021470628429672914 0 -0.0057800613036439966 0.0021893098931679614 0 -0.0056504787399240964 0.0021470628429672914 0 -0.0057732621101496458 0.0020682383095504573 0 -0.0057075997463852217 0.0022163625335401248 0 -0.0059694387446517054 0.0022153958121945067 0 -0.0058530762209877156 0.0023458926912542496 0 -0.0061825372730426841 0.0023574043930319082 0 -0.0060809135755486837 0.0023254973760305818 0 -0.0055537117049087072 0.0020916817935082463 0 -0.0056504787399240964 0.0021470628429672914 0 -0.0057732621101496458 0.0020682383095504573 0 -0.0061825372730426841 0.0023574043930319082 0 -0.0061416795746410584 0.0023266113088279581 0 -0.0060809135755486837 0.0023254973760305818 0 -0.0059694387446517054 0.0022153958121945067 0 -0.006098599859755042 0.0022221862303137625 0 -0.0061825372730426841 0.0023574043930319082 0 -0.0061685741066550498 0.0023222878499969137 0 -0.0061231168366796826 0.0022248858180939943 0 -0.0061825372730426841 0.0023574043930319082 0 -0.0061416795746410584 0.0023266113088279581 0 -0.0061685741066550498 0.0023222878499969137 0 -0.0061685741066550498 0.0023222878499969137 0 -0.0061231168366796826 0.0022248858180939943 0 -0.0062144084870915904 0.0024192595630642979 0 -0.0061231168366796826 0.0022248858180939943 0 -0.0062282922173911804 0.002294200445365149 0 -0.0062144084870915904 0.0024192595630642979 0 -0.0059186723914576153 0.0022274478333485313 0 -0.0061231168366796826 0.0022248858180939943 0 -0.0061401083307631756 0.0022245702598903392 0 -0.0061231168366796826 0.0022248858180939943 0 -0.0061401083307631756 0.0022245702598903392 0 -0.0062282922173911804 0.002294200445365149 0 -0.0061401083307631756 0.0022245702598903392 0 -0.0062544781774735098 0.0022371192243298118 0 -0.0062282922173911804 0.002294200445365149 0 -0.0062282922173911804 0.002294200445365149 0 -0.0062144084870915904 0.0024192595630642979 0 -0.006184250111274386 0.0025507552895467096 0 -0.0061685741066550498 0.0023222878499969137 0 -0.0062144084870915904 0.0024192595630642979 0 -0.0061732090577329771 0.002357501724000234 0 -0.0062144084870915904 0.0024192595630642979 0 -0.0061732090577329771 0.002357501724000234 0 -0.0061641992665081857 0.0023187917888061746 0 -0.0062156995919206053 0.0024218866242720163 0 -0.0062544090394416095 0.0024693799487180883 0 -0.0062144084870915904 0.0024192595630642979 0 -0.0063825401835925829 0.0026272683041703741 0 -0.006179989674445485 0.0027386171078835936 0 -0.0062144084870915904 0.0024192595630642979 0 -0.006184250111274386 0.0025507552895467096 0 -0.006179989674445485 0.0027386171078835936 0 -0.006184250111274386 0.0025507552895467096 0 -0.006179989674445485 0.0027386171078835936 0 -0.0061116125370992277 0.002840819008280863 0 -0.0061416795746410584 0.0023266113088279581 0 -0.0060809135755486837 0.0023254973760305818 0 -0.0060980041250810564 0.0023307073771393319 0 -0.0061416795746410584 0.0023266113088279581 0 -0.0060980041250810564 0.0023307073771393319 0 -0.0061457355782619108 0.0023389914480326105 0 -0.0060980041250810564 0.0023307073771393319 0 -0.0061457355782619108 0.0023389914480326105 0 -0.0061117074759630477 0.0023228446007645706 0 -0.0061416795746410584 0.0023266113088279581 0 -0.0061685741066550498 0.0023222878499969137 0 -0.0061457355782619108 0.0023389914480326105 0 -0.0061685741066550498 0.0023222878499969137 0 -0.0061457355782619108 0.0023389914480326105 0 -0.0061732090577329771 0.002357501724000234 0 -0.0061457355782619108 0.0023389914480326105 0 -0.0061732090577329771 0.002357501724000234 0 -0.0061641992665081857 0.0023187917888061746 0 -0.0061457355782619108 0.0023389914480326105 0 -0.0061641992665081857 0.0023187917888061746 0 -0.0061117074759630477 0.0023228446007645706 0 -0.0062544090394416095 0.0024693799487180883 0 -0.0064826385180144106 0.002518424954644462 0 -0.0060847433442428574 0.0023186872643255144 0 -0.0061117074759630477 0.0023228446007645706 0 -0.0061140674084210356 0.0023015795637955565 0 -0.0061641992665081857 0.0023187917888061746 0 -0.0061117074759630477 0.0023228446007645706 0 -0.0061140674084210356 0.0023015795637955565 0 -0.0068672098069272516 0.0030173755686896159 0 -0.0066186949016882896 0.0028244445516474007 0 -0.0066290402837997928 0.0029853758852000627 0 -0.0066186949016882896 0.0028244445516474007 0 -0.0066290402837997928 0.0029853758852000627 0 -0.006472324890911825 0.0029442718595231406 0 -0.0063825401835925829 0.0026272683041703741 0 -0.006472324890911825 0.0029442718595231406 0 -0.0062445620860137512 0.0029479176797591869 0 -0.0063825401835925829 0.0026272683041703741 0 -0.0066186949016882896 0.0028244445516474007 0 -0.006472324890911825 0.0029442718595231406 0 -0.005603780994955539 0.0038477536568136956 0 -0.0059680020780806618 0.0034468501753069955 0 -0.006472324890911825 0.0029442718595231406 0 -0.0065476138413124397 0.003156200025633001 0 -0.0062445620860137512 0.0029479176797591869 0 -0.0065476138413124397 0.003156200025633001 0 -0.0062445620860137512 0.0029479176797591869 0 -0.0059988527128747816 0.0033614827795188651 0 -0.003586862503639124 0.0050734397837565726 0 -0.0047660464260473609 0.0045222601632989067 0 -0.0042659416038350242 0.0044798499085937325 0 -0.0052950573642763857 0.0037371937267794701 0 -0.005603780994955539 0.0038477536568136956 0 -0.0068672098069272516 0.0030173755686896159 0 -0.0066290402837997928 0.0029853758852000627 0 -0.0065476138413124397 0.003156200025633001 0 -0.0066290402837997928 0.0029853758852000627 0 -0.006472324890911825 0.0029442718595231406 0 -0.0065476138413124397 0.003156200025633001 0 -0.0047660464260473609 0.0045222601632989067 0 -0.0042659416038350242 0.0044798499085937325 0 -0.0052147224155133075 0.0036289615340646939 0 -0.006179989674445485 0.0027386171078835936 0 -0.0060500643305277492 0.00305340745918417 0 -0.0061116125370992277 0.002840819008280863 0 -0.006179989674445485 0.0027386171078835936 0 -0.0062445620860137512 0.0029479176797591869 0 -0.0060500643305277492 0.00305340745918417 0 -0.0063825401835925829 0.0026272683041703741 0 -0.006179989674445485 0.0027386171078835936 0 -0.0062445620860137512 0.0029479176797591869 0 -0.0062445620860137512 0.0029479176797591869 0 -0.0060500643305277492 0.00305340745918417 0 -0.0059988527128747816 0.0033614827795188651 0 -0.0060500643305277492 0.00305340745918417 0 -0.006057747086957329 0.0030188141944124968 0 -0.0061116125370992277 0.002840819008280863 0 -0.0060500643305277492 0.00305340745918417 0 -0.0059585880758321105 0.0031289573581876774 0 -0.006057747086957329 0.0030188141944124968 0 -0.0060500643305277492 0.00305340745918417 0 -0.0059585880758321105 0.0031289573581876774 0 -0.0059988527128747816 0.0033614827795188651 0 -0.0059585880758321105 0.0031289573581876774 0 -0.0059988527128747816 0.0033614827795188651 0 -0.0055962832378364958 0.0030922277377239023 0 -0.0059585880758321105 0.0031289573581876774 0 -0.0056751878516565386 0.0029285607900116067 0 -0.0055962832378364958 0.0030922277377239023 0 -0.0059585880758321105 0.0031289573581876774 0 -0.0059305083005179032 0.0029610554524682228 0 -0.0056751878516565386 0.0029285607900116067 0 -0.0059585880758321105 0.0031289573581876774 0 -0.0059305083005179032 0.0029610554524682228 0 -0.0060507616106462506 0.0030077143420700662 0 -0.0059305083005179032 0.0029610554524682228 0 -0.0056761425822286857 0.0028481525083766993 0 -0.0056751878516565386 0.0029285607900116067 0 -0.0059305083005179032 0.0029610554524682228 0 -0.0056761425822286857 0.0028481525083766993 0 -0.0058648325534017571 0.0028067946445160604 0 -0.0056751878516565386 0.0029285607900116067 0 -0.0055292416817129594 0.002809194183029 0 -0.0053545338761442924 0.002771673460218236 0 -0.0056761425822286857 0.0028481525083766993 0 -0.0056751878516565386 0.0029285607900116067 0 -0.0055292416817129594 0.002809194183029 0 -0.0054538112071128029 0.002793369197142459 0 -0.0055666524210121566 0.0025493331535782668 0 -0.0047263334413150298 0.0026011732534325029 0 -0.0056761425822286857 0.0028481525083766993 0 -0.0055292416817129594 0.002809194183029 0 -0.0054538112071128029 0.002793369197142459 0 -0.0055292416817129594 0.002809194183029 0 -0.0054538112071128029 0.002793369197142459 0 -0.0054550882854871403 0.0027764933930591227 0 -0.0056937651118120223 0.0032672242521282254 0 -0.0011648189840252564 0.0069285528366053529 0 -0.0054538112071128029 0.002793369197142459 0 -0.0054550882854871403 0.0027764933930591227 0 -0.0054477814574049903 0.0027769643930405266 0 -0.0054538112071128029 0.002793369197142459 0 -0.0057067211781440114 0.0027257102538458143 0 -0.0055666524210121566 0.0025493331535782668 0 -0.0057067211781440114 0.0027257102538458143 0 -0.0058648325534017571 0.0028067946445160604 0 -0.0058888118051608684 0.002614667978118556 0 -0.0056761425822286857 0.0028481525083766993 0 -0.0057067211781440114 0.0027257102538458143 0 -0.0058648325534017571 0.0028067946445160604 0 -0.0056761425822286857 0.0028481525083766993 0 -0.0054538112071128029 0.002793369197142459 0 -0.0057067211781440114 0.0027257102538458143 0 -0.0023772482244602128 0.0052153986243098352 0 -0.0011648189840252564 0.0069285528366053529 0 -0.0037993179917126243 0.003000891229405995 0 -0.0043085480625875885 0.0034809423391247299 0 -0.0044350584186609483 0.0029425907787749574 0 -0.0054550882854871403 0.0027764933930591227 0 -0.0053545338761442924 0.002771673460218236 0 -0.0054477814574049903 0.0027769643930405266 0 -0.0053507045797896889 0.0021765983231855214 0 -0.0011648189840252564 0.0069285528366053529 0 -0.0055292416817129594 0.002809194183029 0 -0.0054550882854871403 0.0027764933930591227 0 -0.0053545338761442924 0.002771673460218236 0 -0.0037993179917126243 0.003000891229405995 0 -0.0043085480625875885 0.0034809423391247299 0 -0.0037748394813560938 0.0034655967092934543 0 -0.0043085480625875885 0.0034809423391247299 0 -0.0038674558096731503 0.0038855303292738364 0 -0.0037748394813560938 0.0034655967092934543 0 -0.0038674558096731503 0.0038855303292738364 0 -0.0041698417795582761 0.0040815718598603981 0 -0.003925740510783763 0.0042899092565243076 0 -0.0043085480625875885 0.0034809423391247299 0 -0.0038674558096731503 0.0038855303292738364 0 -0.0041698417795582761 0.0040815718598603981 0 -0.0056751878516565386 0.0029285607900116067 0 -0.0053545338761442924 0.002771673460218236 0 -0.0055962832378364958 0.0030922277377239023 0 -0.0053507045797896889 0.0021765983231855214 0 -0.0044748250173709059 0.0038576858234680403 0 -0.0053545338761442924 0.002771673460218236 0 -0.0049657557387550047 0.0030949132813729609 0 -0.0055962832378364958 0.0030922277377239023 0 -0.0047660464260473609 0.0045222601632989067 0 -0.0059988527128747816 0.0033614827795188651 0 -0.0052147224155133075 0.0036289615340646939 0 -0.0049657557387550047 0.0030949132813729609 0 -0.0055962832378364958 0.0030922277377239023 0 -0.0052147224155133075 0.0036289615340646939 0 -0.0059988527128747816 0.0033614827795188651 0 -0.0055962832378364958 0.0030922277377239023 0 -0.0052147224155133075 0.0036289615340646939 0 -0.0043140560460685311 0.0043472690304007999 0 -0.0044748250173709059 0.0038576858234680403 0 -0.0042659416038350242 0.0044798499085937325 0 -0.0041698417795582761 0.0040815718598603981 0 -0.003925740510783763 0.0042899092565243076 0 -0.0042659416038350242 0.0044798499085937325 0 -0.0049657557387550047 0.0030949132813729609 0 -0.0052147224155133075 0.0036289615340646939 0 -0.0037902016416255587 0.0046302637313494575 0 -0.0042659416038350242 0.0044798499085937325 0 -0.003925740510783763 0.0042899092565243076 0 -0.0037902016416255587 0.0046302637313494575 0 -0.003925740510783763 0.0042899092565243076 0 -0.0036461296866509697 0.0045399238133828597 0 -0.0033694757304009258 0.0050419447047322504 0 -0.0036461296866509697 0.0045399238133828597 0 -0.0031728886933688918 0.004311981223199598 0 -0.003925740510783763 0.0042899092565243076 0 -0.0036461296866509697 0.0045399238133828597 0 -0.0036248627588846816 0.0041584215131346483 0 -0.0036461296866509697 0.0045399238133828597 0 -0.0031728886933688918 0.004311981223199598 0 -0.0036248627588846816 0.0041584215131346483 0 -0.0033694757304009258 0.0050419447047322504 0 -0.0031728886933688918 0.004311981223199598 0 -0.0026277779377063245 0.0047640474015516847 0 -0.0031728886933688918 0.004311981223199598 0 -0.0024707542011030556 0.0042084156044126511 0 -0.0029000177266099532 0.0036621165767326182 0 -0.0031728886933688918 0.004311981223199598 0 -0.0034425880169567939 0.0037840413199209033 0 -0.0029000177266099532 0.0036621165767326182 0 -0.0038674558096731503 0.0038855303292738364 0 -0.003925740510783763 0.0042899092565243076 0 -0.0036248627588846816 0.0041584215131346483 0 -0.0038674558096731503 0.0038855303292738364 0 -0.0034425880169567939 0.0037840413199209033 0 -0.0036248627588846816 0.0041584215131346483 0 -0.0031728886933688918 0.004311981223199598 0 -0.0034425880169567939 0.0037840413199209033 0 -0.0036248627588846816 0.0041584215131346483 0 -0.0010678052091754144 0.0055903015991701603 0 -0.0019187222296493881 0.0061216872208369804 0 -0.0015392681192515885 0.0046060923970599275 0 -0.0010678052091754144 0.0055903015991701603 0 -0.0015392681192515885 0.0046060923970599275 0 -0.00042134360652173325 0.0047820110286847864 0 -0.0011460504933976162 0.0064468361071292994 0 -0.0010678052091754144 0.0055903015991701603 0 -0.0019187222296493881 0.0061216872208369804 0 -0.0026277779377063245 0.0047640474015516847 0 -0.0024707542011030556 0.0042084156044126511 0 -0.0015392681192515885 0.0046060923970599275 0 -0.0019187222296493881 0.0061216872208369804 0 -0.0030370500871919237 0.0057707638808317148 0 -0.0015392681192515885 0.0046060923970599275 0 -0.0027923836858735171 0.0053196886047117888 0 -0.0016111656211082782 0.0045887908026486469 0 -0.0031728886933688918 0.004311981223199598 0 -0.0026277779377063245 0.0047640474015516847 0 -0.0024707542011030556 0.0042084156044126511 0 -0.0024707542011030556 0.0042084156044126511 0 -0.0020699953382470018 0.0035398077179953158 0 -0.0029000177266099532 0.0036621165767326182 0 -0.0024707542011030556 0.0042084156044126511 0 -0.0015392681192515885 0.0046060923970599275 0 -0.0020699953382470018 0.0035398077179953158 0 -0.0015392681192515885 0.0046060923970599275 0 -0.0020699953382470018 0.0035398077179953158 0 -0.00042134360652173325 0.0047820110286847864 0 0.001684721711830698 0.0072885650585312938 0 0.0015907076312336439 0.0071338032479748206 0 0.0015986314740331416 0.0072792270472391146 0 -0.00053874595432316854 0.0049817024179264757 0 0.00065810852539275721 0.0060868017756275494 0 0.001684721711830698 0.0072885650585312938 0 0.0016733504727839913 0.0073579540363105803 0 0.0015986314740331416 0.0072792270472391146 0 0.001684721711830698 0.0072885650585312938 0 0.0016733504727839913 0.0073579540363105803 0 0.00173107258511201 0.0073646928177995598 0 -0.0020699953382470018 0.0035398077179953158 0 -0.0029000177266099532 0.0036621165767326182 0 -0.0029747361632700667 0.0030147371898029685 0 -0.00053874595432316854 0.0049817024179264757 0 0.00076470575469808253 0.0073355727170073782 0 0.0036623343456668091 0.01167558335217256 0 0.0041972869947363633 0.011423442043668785 0 0.0039812376669661996 0.011946016994872584 0 0.0030777014931540557 0.0096386000852789443 0 0.00076470575469808253 0.0073355727170073782 0 0.0036623343456668091 0.01167558335217256 0 0.0034439688794644639 0.011349851154555226 0 0.0041972869947363633 0.011423442043668785 0 0.0036623343456668091 0.01167558335217256 0 0.0034439688794644639 0.011349851154555226 0 0.0032461844696661814 0.011609510502189157 0 -0.0038674558096731503 0.0038855303292738364 0 -0.0034425880169567939 0.0037840413199209033 0 -0.0037748394813560938 0.0034655967092934543 0 -0.0034425880169567939 0.0037840413199209033 0 -0.0033932827466014561 0.0033676415282574636 0 -0.0037748394813560938 0.0034655967092934543 0 -0.0034425880169567939 0.0037840413199209033 0 -0.0033932827466014561 0.0033676415282574636 0 -0.0029000177266099532 0.0036621165767326182 0 -0.0033932827466014561 0.0033676415282574636 0 -0.0029000177266099532 0.0036621165767326182 0 -0.0029747361632700667 0.0030147371898029685 0 0.0041972869947363633 0.011423442043668785 0 0.0046817682207167871 0.011811464235964146 0 0.0039812376669661996 0.011946016994872584 0 0.00076470575469808253 0.0073355727170073782 0 0.0027707040287163523 0.01013695524330612 0 -0.0037993179917126243 0.003000891229405995 0 -0.0033932827466014561 0.0033676415282574636 0 -0.0029747361632700667 0.0030147371898029685 0 0.00034578825386596631 0.0082700583226103935 0 0.00070970443767149206 0.0083113316472660306 0 0.00053456356745051144 0.0081786527169234284 0 -0.0037993179917126243 0.003000891229405995 0 -0.0033932827466014561 0.0033676415282574636 0 -0.0037748394813560938 0.0034655967092934543 0 -0.0023772482244602128 0.0052153986243098352 0 0.00076470575469808253 0.0073355727170073782 0 0.0027707040287163523 0.01013695524330612 0 0.0034209421128052584 0.011875126379087627 0 0.0046817682207167871 0.011811464235964146 0 0.0046642183432954853 0.012520874181134921 0 0.0051716472942271059 0.012237471485616458 0 0.00034578825386596631 0.0082700583226103935 0 0.00053456356745051144 0.0081786527169234284 0 0.00036165736315123427 0.0080321281853666104 0 0.0046817682207167871 0.011811464235964146 0 0.004228705228818878 0.012355820258964511 0 0.0039812376669661996 0.011946016994872584 0 0.0046817682207167871 0.011811464235964146 0 0.004228705228818878 0.012355820258964511 0 0.0046642183432954853 0.012520874181134921 0 0.004228705228818878 0.012355820258964511 0 0.0040826139906141295 0.01292251375535337 0 0.0046642183432954853 0.012520874181134921 0 0.004077315741307307 0.012967748749662679 0 0.0045618611868329046 0.012749583234201693 0 0.0040826139906141295 0.01292251375535337 0 0.0043082978096635758 0.013162965249175278 0 0.0042849077192502246 0.013298699935074558 0 0.0044547358328427076 0.013283674159544571 0 0.0043082978096635758 0.013162965249175278 0 0.0042849077192502246 0.013298699935074558 0 0.0044547358328427076 0.013283674159544571 0 0.0044816118125282321 0.013486401373115589 0 0.0042849077192502246 0.013298699935074558 0 0.0045618611868329046 0.012749583234201693 0 0.0034209421128052584 0.011875126379087627 0 0.0044547358328427076 0.013283674159544571 0 0.0043082978096635758 0.013162965249175278 0 0.0044963901830326735 0.013202610956708457 0 0.0036623343456668091 0.01167558335217256 0 0.0032461844696661814 0.011609510502189157 0 0.0034573812847955025 0.012002939160273911 0 0.0034573812847955025 0.012002939160273911 0 0.0032899017526513358 0.012237842549075251 0 0.0031208203702995066 0.011893085975492532 0 0.0032461844696661814 0.011609510502189157 0 0.0034573812847955025 0.012002939160273911 0 0.0031208203702995066 0.011893085975492532 0 0.0034573812847955025 0.012002939160273911 0 0.0039812376669661996 0.011946016994872584 0 0.0036863914352092365 0.012460596113634146 0 0.0036623343456668091 0.01167558335217256 0 0.0034573812847955025 0.012002939160273911 0 0.0039812376669661996 0.011946016994872584 0 0.004228705228818878 0.012355820258964511 0 0.0039812376669661996 0.011946016994872584 0 0.0036863914352092365 0.012460596113634146 0 0.0037372068249661092 0.012847834023904358 0 0.0036863914352092365 0.012460596113634146 0 0.0033067207491985231 0.012724915049209218 0 0.004228705228818878 0.012355820258964511 0 0.0040826139906141295 0.01292251375535337 0 0.0036863914352092365 0.012460596113634146 0 0.0040826139906141295 0.01292251375535337 0 0.0037372068249661092 0.012847834023904358 0 0.0036863914352092365 0.012460596113634146 0 0.0036863914352092365 0.012460596113634146 0 0.0032899017526513358 0.012237842549075251 0 0.0033067207491985231 0.012724915049209218 0 0.0034573812847955025 0.012002939160273911 0 0.0036863914352092365 0.012460596113634146 0 0.0032899017526513358 0.012237842549075251 0 0.0040402382763242654 0.014278441364676141 0 0.0041115517074117036 0.014495766832789428 0 0.0039867125048711457 0.014433666294764575 0 0.0040402382763242654 0.014278441364676141 0 0.0041915383586853296 0.014247121187586241 0 0.0041115517074117036 0.014495766832789428 0 0.0037372068249661092 0.012847834023904358 0 0.0033067207491985231 0.012724915049209218 0 0.0038984964570559113 0.013271760966001724 0 0.0037351162025368069 0.013592091503181487 0 0.0040682736679853509 0.013750901449718821 0 0.0040826139906141295 0.01292251375535337 0 0.0037372068249661092 0.012847834023904358 0 0.0038984964570559113 0.013271760966001724 0 0.0041915383586853296 0.014247121187586241 0 0.0041115517074117036 0.014495766832789428 0 0.0042223938892159783 0.014395173948475882 0 0.0041115517074117036 0.014495766832789428 0 0.0039867125048711457 0.014433666294764575 0 0.0039449781407939876 0.014605470521838766 0 0.0041115517074117036 0.014495766832789428 0 0.0039449781407939876 0.014605470521838766 0 0.0040319213983319923 0.014766074220794071 0 0.0044816118125282321 0.013486401373115589 0 0.0043563058680330486 0.013912029136328323 0 0.0045433363202358771 0.013869030241359685 0 0.0044816118125282321 0.013486401373115589 0 0.0042849077192502246 0.013298699935074558 0 0.0043563058680330486 0.013912029136328323 0 0.0040682736679853509 0.013750901449718821 0 0.0043912655779564311 0.013911930852633703 0 0.0038984964570559113 0.013271760966001724 0 0.0042849077192502246 0.013298699935074558 0 0.0043563058680330486 0.013912029136328323 0 0.0040826139906141295 0.01292251375535337 0 0.0038984964570559113 0.013271760966001724 0 0.0042849077192502246 0.013298699935074558 0 0.0041915383586853296 0.014247121187586241 0 0.0042223938892159783 0.014395173948475882 0 0.0043563058680330486 0.013912029136328323 0 0.0042223938892159783 0.014395173948475882 0 0.0043563058680330486 0.013912029136328323 0 0.0044420189781485906 0.014282670819851594 0 0.0043563058680330486 0.013912029136328323 0 0.0045433363202358771 0.013869030241359685 0 0.0044420189781485906 0.014282670819851594 0 0.0046855592044484405 0.014175885874869126 0 0.0045433363202358771 0.013869030241359685 0 0.0044420189781485906 0.014282670819851594 0 0.0046855592044484405 0.014175885874869126 0 0.0046793264230205424 0.013833741981450985 0 0.0045433363202358771 0.013869030241359685 0 0.0044816118125282321 0.013486401373115589 0 0.0045433363202358771 0.013869030241359685 0 0.0045774817911998032 0.013510607811873189 0 0.0046793264230205424 0.013833741981450985 0 0.0045433363202358771 0.013869030241359685 0 0.0045774817911998032 0.013510607811873189 0 0.0044816118125282321 0.013486401373115589 0 0.0045774817911998032 0.013510607811873189 0 0.0045305037433324034 0.01333945953631629 0 0.004697929942149715 0.013522125118393801 0 0.0049122155495533639 0.013921474315215671 0 0.0050164683248765879 0.013328940101377761 0 0.004753154684844915 0.01322054747247939 0 0.0035695241161275426 0.013217252571370365 0 0.004697929942149715 0.013522125118393801 0 0.0046129035079788775 0.013336030832807239 0 0.0045033020826563634 0.013298056875322426 0 0.0045774817911998032 0.013510607811873189 0 0.004697929942149715 0.013522125118393801 0 0.0045290205796956074 0.013326480714957456 0 0.0046793264230205424 0.013833741981450985 0 0.004697929942149715 0.013522125118393801 0 0.0049122155495533639 0.013921474315215671 0 0.0046793264230205424 0.013833741981450985 0 0.0045774817911998032 0.013510607811873189 0 0.004697929942149715 0.013522125118393801 0 0.0046855592044484405 0.014175885874869126 0 0.0049122155495533639 0.013921474315215671 0 0.0050642414606515002 0.014475241873502633 0 0.0046855592044484405 0.014175885874869126 0 0.0046793264230205424 0.013833741981450985 0 0.0049122155495533639 0.013921474315215671 0 0.0049122155495533639 0.013921474315215671 0 0.0053825375012639502 0.014048721884662618 0 0.0050642414606515002 0.014475241873502633 0 -0.0018152461372422325 0.015317396075735547 0 -0.0019099740924380798 0.015123069325827529 0 -0.0020656462675447806 0.015312172975701368 0 -0.0018152461372422325 0.015317396075735547 0 -0.0020112440123545212 0.01551812700740017 0 -0.0020656462675447806 0.015312172975701368 0 0.00027885003281960828 0.014355390750220206 0 -0.0015234187925585116 0.014248287967740083 0 -0.00034045408699685304 0.012388212029046825 0 -0.00084727590181766241 0.012989506284948231 0 -0.00039877288140717862 0.013284577610886503 0 -0.00084727590181766241 0.012989506284948231 0 -0.00039877288140717862 0.013284577610886503 0 -0.0013734243108051375 0.013589731146779747 0 -0.00034045408699685304 0.012388212029046825 0 -0.00039877288140717862 0.013284577610886503 0 0.00024214117790961176 0.013402446385782984 0 0.0049122155495533639 0.013921474315215671 0 0.0053825375012639502 0.014048721884662618 0 0.0050164683248765879 0.013328940101377761 0 0.00027885003281960828 0.014355390750220206 0 0.0035695241161275426 0.013217252571370365 0 0.0035695241161275426 0.013217252571370365 0 0.00090215712184389999 0.013797514205235579 0 -0.00039877288140717862 0.013284577610886503 0 0.00024214117790961176 0.013402446385782984 0 -0.00042761000514300568 0.013869493774494614 0 0.0038424610814550993 0.01222532225512429 0 0.0035647677684746441 0.013135302835670543 0 0.002419582069513379 0.0131175323796726 0 0.0035647677684746441 0.013135302835670543 0 0.002419582069513379 0.0131175323796726 0 0.0032001595097604571 0.01354287511067752 0 0.0035647677684746441 0.013135302835670543 0 0.0040133918566789585 0.013510685875645601 0 0.0043251638028599807 0.013151407315977585 0 0.0038424610814550993 0.01222532225512429 0 0.0035647677684746441 0.013135302835670543 0 0.0043251638028599807 0.013151407315977585 0 -0.00042761000514300568 0.013869493774494614 0 -0.0011113918878537517 0.014332159802754001 0 -0.0013734243108051375 0.013589731146779747 0 -0.00039877288140717862 0.013284577610886503 0 -0.00042761000514300568 0.013869493774494614 0 -0.0013734243108051375 0.013589731146779747 0 -0.0057067211781440114 0.0027257102538458143 0 -0.0055666524210121566 0.0025493331535782668 0 -0.0058888118051608684 0.002614667978118556 0 -0.0012420600412519035 0.0084126888028609841 0 -0.0026591245077904049 0.010027943274516877 0 0.00090215712184389999 0.013797514205235579 0 -0.0026591245077904049 0.010027943274516877 0 0.002419582069513379 0.0131175323796726 0 0.0026059160728011876 0.014285053901625501 0 0.001041538149041069 0.014017985475405779 0 -0.0012420600412519035 0.0084126888028609841 0 -0.0011648189840252564 0.0069285528366053529 0 0.0026059160728011876 0.014285053901625501 0 0.0034570359375254017 0.013942805834527951 0 0.0041309961540691668 0.014427223203117392 0 0.0035647677684746441 0.013135302835670543 0 0.0032001595097604571 0.01354287511067752 0 0.0040133918566789585 0.013510685875645601 0 0.0032001595097604571 0.01354287511067752 0 0.0034570359375254017 0.013942805834527951 0 0.0040133918566789585 0.013510685875645601 0 0.002419582069513379 0.0131175323796726 0 0.0032001595097604571 0.01354287511067752 0 0.0026059160728011876 0.014285053901625501 0 0.0032001595097604571 0.01354287511067752 0 0.0026059160728011876 0.014285053901625501 0 0.0034570359375254017 0.013942805834527951 0 -0.0011648189840252564 0.0069285528366053529 0 0.0039754253478955738 0.015547355692049031 0 0.0034570359375254017 0.013942805834527951 0 0.0041309961540691668 0.014427223203117392 0 0.0040133918566789585 0.013510685875645601 0 0.0043054480429593313 0.01342524866866013 0 0.0040133918566789585 0.013510685875645601 0 0.0043251638028599807 0.013151407315977585 0 0.0042229808815415007 0.013688569574408411 0 0.0043054480429593313 0.01342524866866013 0 0.0040133918566789585 0.013510685875645601 0 0.0042229808815415007 0.013688569574408411 0 0.0043054480429593313 0.01342524866866013 0 0.0044455751727552261 0.013383866450007189 0 0.0042229808815415007 0.013688569574408411 0 0.004638549640363988 0.013325494714153889 0 0.0044455751727552261 0.013383866450007189 0 0.00034578825386596631 0.0082700583226103935 0 -4.259561724705522e-05 0.0081970493588007214 0 0.00036165736315123427 0.0080321281853666104 0 -0.0011648189840252564 0.0069285528366053529 0 0.0034209421128052584 0.011875126379087627 0 0.004638549640363988 0.013325494714153889 0 0.0044455751727552261 0.013383866450007189 0 0.0045555572133268354 0.013277568574524619 0 0.0034209421128052584 0.011875126379087627 0 0.0042791054095223605 0.012720583972331908 0 0.0045043045198180989 0.013302207456141059 0 0.0045555572133268354 0.013277568574524619 0 0.0045305037433324034 0.01333945953631629 0 0.0044455751727552261 0.013383866450007189 0 0.0045043045198180989 0.013302207456141059 0 0.0045555572133268354 0.013277568574524619 0 0.0044455751727552261 0.013383866450007189 0 0.0045043045198180989 0.013302207456141059 0 0.0044477424471023649 0.013277092883871851 0 0.0044547358328427076 0.013283674159544571 0 0.0045555572133268354 0.013277568574524619 0 0.0045305037433324034 0.01333945953631629 0 0.0044547358328427076 0.013283674159544571 0 0.0044963901830326735 0.013202610956708457 0 0.0045555572133268354 0.013277568574524619 0 0.0044547358328427076 0.013283674159544571 0 0.0044816118125282321 0.013486401373115589 0 0.0045305037433324034 0.01333945953631629 0 0.0045774817911998032 0.013510607811873189 0 0.0045305037433324034 0.01333945953631629 0 0.0045290205796956074 0.013326480714957456 0 0.0045043045198180989 0.013302207456141059 0 0.0045305037433324034 0.01333945953631629 0 0.0045290205796956074 0.013326480714957456 0 0.004697929942149715 0.013522125118393801 0 0.0045290205796956074 0.013326480714957456 0 0.0045033020826563634 0.013298056875322426 0 0.0045290205796956074 0.013326480714957456 0 0.0045033020826563634 0.013298056875322426 0 0.0044477424471023649 0.013277092883871851 0 0.0035695241161275426 0.013217252571370365 0 0.0041041061746932093 0.013182293558569378 0 0.0046129035079788775 0.013336030832807239 0 0.0045033020826563634 0.013298056875322426 0 0.0043251638028599807 0.013151407315977585 0 0.0043054480429593313 0.01342524866866013 0 0.0043251638028599807 0.013151407315977585 0 0.0044477424471023649 0.013277092883871851 0 0.0045033020826563634 0.013298056875322426 0 0.0043251638028599807 0.013151407315977585 0 0.0044477424471023649 0.013277092883871851 0 0.0043054480429593313 0.01342524866866013 0 0.0044455751727552261 0.013383866450007189 0 0.0044477424471023649 0.013277092883871851 0 0.0045043045198180989 0.013302207456141059 0 0.0045290205796956074 0.013326480714957456 0 0.0044477424471023649 0.013277092883871851 0 0.0012003449090274968 0.010453295858361751 0 0.0013698425869565773 0.0098296909660389835 0 0.0016214733060744529 0.010865547772491003 0 0.00069172209894664263 0.010063981404262529 0 0.0013686053670486935 0.011034479810277041 0 0.00086383158973071458 0.010711396322101857 0 0.0012003449090274968 0.010453295858361751 0 0.0016214733060744529 0.010865547772491003 0 0.00096485591520506346 0.010066843542388756 0 0.0012003449090274968 0.010453295858361751 0 0.0013698425869565773 0.0098296909660389835 0 0.00096485591520506346 0.010066843542388756 0 0.0012003449090274968 0.010453295858361751 0 0.00091214436256494458 0.010398312464263239 0 0.00086383158973071458 0.010711396322101857 0 0.0012003449090274968 0.010453295858361751 0 0.00091214436256494458 0.010398312464263239 0 0.0015827024718227892 0.010766175765834605 0 0.00041423568161639093 0.010181587180355169 0 0.001091115489398655 0.011278436761715699 0 0.0015827024718227892 0.010766175765834605 0 0.0019200284178526258 0.011334165373175716 0 0.001091115489398655 0.011278436761715699 0 0.0015827024718227892 0.010766175765834605 0 0.00041423568161639093 0.010181587180355169 0 0.0017239627646818056 0.0097799613874291116 0 0.00041423568161639093 0.010181587180355169 0 3.7801336140060095e-05 0.0086060989107817204 0 0.0017239627646818056 0.0097799613874291116 0 0.00069172209894664263 0.010063981404262529 0 0.0032211433521807027 0.0073973701611103121 0 0.00071204373400467896 0.0095516391297707798 0 0.0013698425869565773 0.0098296909660389835 0 0.0010436391432686474 0.0087314934723687187 0 0.00041423568161639093 0.010181587180355169 0 3.7801336140060095e-05 0.0086060989107817204 0 -0.00026542036813865914 0.0082021528149809966 0 0.00071204373400467896 0.0095516391297707798 0 0.00096485591520506346 0.010066843542388756 0 0.0013698425869565773 0.0098296909660389835 0 3.7801336140060095e-05 0.0086060989107817204 0 -0.00026542036813865914 0.0082021528149809966 0 0.0003298892088391866 0.0079037912331550251 0 -0.00026542036813865914 0.0082021528149809966 0 0.0003298892088391866 0.0079037912331550251 0 0.00011038322156732051 0.0074390540690168561 0 0.0032211433521807027 0.0073973701611103121 0 0.0029170873074074758 0.0070371785533226029 0 0.0061721066686237737 0.0066640619858537656 0 0.0059259781734925347 0.0060722787972763807 0 0.005732630402839574 0.0065955330044033741 0 0.0003298892088391866 0.0079037912331550251 0 0.00011038322156732051 0.0074390540690168561 0 0.00061115847836058161 0.0073415746396912913 0 0.0028376192411040339 0.0068941629116840535 0 0.0029170873074074758 0.0070371785533226029 0 0.005522756501906363 0.0071205241203840365 0 0.005732630402839574 0.0065955330044033741 0 0.0059491980587279463 0.00687910482666205 0 0.0061721066686237737 0.0066640619858537656 0 0.005732630402839574 0.0065955330044033741 0 0.0059491980587279463 0.00687910482666205 0 0.00034584745147844028 0.0069991605863796349 0 0.00011038322156732051 0.0074390540690168561 0 0.00061115847836058161 0.0073415746396912913 0 0.0003298892088391866 0.0079037912331550251 0 0.00061115847836058161 0.0073415746396912913 0 0.00070241485074453585 0.0076487098721437679 0 3.7801336140060095e-05 0.0086060989107817204 0 0.0003298892088391866 0.0079037912331550251 0 0.00082853569797959896 0.0078861766286241891 0 0.0003298892088391866 0.0079037912331550251 0 0.00070241485074453585 0.0076487098721437679 0 0.00082853569797959896 0.0078861766286241891 0 2.8159511275632362e-05 0.0086065649074674195 0 0.001175473359898668 0.0088268641496237546 0 0.00096050957362198912 0.0074288450104263298 0 0.0011445777794791695 0.0075793467185041232 0 0.00082853569797959896 0.0078861766286241891 0 0.00070241485074453585 0.0076487098721437679 0 0.00096050957362198912 0.0074288450104263298 0 0.00082853569797959896 0.0078861766286241891 0 0.00061115847836058161 0.0073415746396912913 0 0.00070241485074453585 0.0076487098721437679 0 0.00096050957362198912 0.0074288450104263298 0 0.0011118940371908003 0.0070330202410980982 0 0.00082711358629827868 0.007064730741244773 0 0.00096050957362198912 0.0074288450104263298 0 0.00082711358629827868 0.007064730741244773 0 0.00061115847836058161 0.0073415746396912913 0 0.00096050957362198912 0.0074288450104263298 0 0.0011118940371908003 0.0070330202410980982 0 0.00096050957362198912 0.0074288450104263298 0 0.0012010084657366662 0.0072345962086133985 0 0.00096050957362198912 0.0074288450104263298 0 0.0011445777794791695 0.0075793467185041232 0 0.0012010084657366662 0.0072345962086133985 0 0.002350989528457326 0.010513141450557026 0 0.0017239627646818056 0.0097799613874291116 0 0.0022113699258478939 0.011021194009814664 0 0.0017108062059549383 0.0090351234392484301 0 0.001175473359898668 0.0088268641496237546 0 0.0015827024718227892 0.010766175765834605 0 0.0017239627646818056 0.0097799613874291116 0 0.0022113699258478939 0.011021194009814664 0 0.0015827024718227892 0.010766175765834605 0 0.0022113699258478939 0.011021194009814664 0 0.0019200284178526258 0.011334165373175716 0 0.002350989528457326 0.010513141450557026 0 0.0022113699258478939 0.011021194009814664 0 0.0025701023370993939 0.011330063861097684 0 0.0025701023370993939 0.011330063861097684 0 0.0026832141464572597 0.010963592634342705 0 0.0028114849591009822 0.011413455747308772 0 0.0017108062059549383 0.0090351234392484301 0 0.0020176639312768333 0.0091890672958101858 0 0.002350989528457326 0.010513141450557026 0 0.0025701023370993939 0.011330063861097684 0 0.0026832141464572597 0.010963592634342705 0 0.0011445777794791695 0.0075793467185041232 0 0.0013427707202459897 0.0074074837209435942 0 0.0012883201447721764 0.0073177653883775536 0 0.0012883201447721764 0.0073177653883775536 0 0.0012010084657366662 0.0072345962086133985 0 0.0013650347737509743 0.0070463061578980683 0 0.0011445777794791695 0.0075793467185041232 0 0.0012883201447721764 0.0073177653883775536 0 0.0012010084657366662 0.0072345962086133985 0 0.0011118940371908003 0.0070330202410980982 0 0.0013350985209502611 0.0068910532006979299 0 0.0012010084657366662 0.0072345962086133985 0 0.0013350985209502611 0.0068910532006979299 0 0.0012010084657366662 0.0072345962086133985 0 0.0013650347737509743 0.0070463061578980683 0 0.0012883201447721764 0.0073177653883775536 0 0.0013650347737509743 0.0070463061578980683 0 0.0014355976528971051 0.0072352941813163532 0 0.0013427707202459897 0.0074074837209435942 0 0.0012883201447721764 0.0073177653883775536 0 0.0014355976528971051 0.0072352941813163532 0 0.0014355976528971051 0.0072352941813163532 0 0.00138585093371924 0.0070776504200506379 0 0.0015907076312336439 0.0071338032479748206 0 0.0013650347737509743 0.0070463061578980683 0 0.0014355976528971051 0.0072352941813163532 0 0.00138585093371924 0.0070776504200506379 0 0.0011790722360466776 0.0067584396712218782 0 0.00065810852539275721 0.0060868017756275494 0 0.0012478667759898672 0.0068914757560385002 0 0.00138585093371924 0.0070776504200506379 0 0.0015907076312336439 0.0071338032479748206 0 0.0012478667759898672 0.0068914757560385002 0 0.0013650347737509743 0.0070463061578980683 0 0.00138585093371924 0.0070776504200506379 0 -0.0010678052091754144 0.0055903015991701603 0 -0.00030054345028090144 0.0062273526022744484 0 -0.00042134360652173325 0.0047820110286847864 0 0.0012478667759898672 0.0068914757560385002 0 -0.00030054345028090144 0.0062273526022744484 0 -0.00042134360652173325 0.0047820110286847864 0 -0.0011460504933976162 0.0064468361071292994 0 -0.0010678052091754144 0.0055903015991701603 0 -0.00030054345028090144 0.0062273526022744484 0 0.0014355976528971051 0.0072352941813163532 0 0.0015907076312336439 0.0071338032479748206 0 0.0015986314740331416 0.0072792270472391146 0 0.0014355976528971051 0.0072352941813163532 0 0.0015220884005934245 0.007374286979551818 0 0.0015986314740331416 0.0072792270472391146 0 0.0016733504727839913 0.0073579540363105803 0 0.0015220884005934245 0.007374286979551818 0 0.0015986314740331416 0.0072792270472391146 0 0.0013427707202459897 0.0074074837209435942 0 0.0014355976528971051 0.0072352941813163532 0 0.0015220884005934245 0.007374286979551818 0 0.0020176639312768333 0.0091890672958101858 0 0.0021233752085879024 0.0092525871377262033 0 0.0029708023272545341 0.011232719657217187 0 0.0028114849591009822 0.011413455747308772 0 0.0030035287195860315 0.011579679162056782 0 0.0026832141464572597 0.010963592634342705 0 0.0029708023272545341 0.011232719657217187 0 0.0028114849591009822 0.011413455747308772 0 0.0032461844696661814 0.011609510502189157 0 0.0029708023272545341 0.011232719657217187 0 0.0030035287195860315 0.011579679162056782 0 0.0034439688794644639 0.011349851154555226 0 0.0032461844696661814 0.011609510502189157 0 0.0029708023272545341 0.011232719657217187 0 0.0030777014931540557 0.0096386000852789443 0 0.0021233752085879024 0.0092525871377262033 0 0.0031208203702995066 0.011893085975492532 0 0.0029307238357024878 0.011796766144350849 0 0.0029397607583036972 0.012082982696785061 0 0.0032461844696661814 0.011609510502189157 0 0.0030035287195860315 0.011579679162056782 0 0.0031208203702995066 0.011893085975492532 0 0.0030035287195860315 0.011579679162056782 0 0.0031208203702995066 0.011893085975492532 0 0.0029307238357024878 0.011796766144350849 0 0.0028114849591009822 0.011413455747308772 0 0.0028055580030604721 0.011747027099352636 0 0.0029307238357024878 0.011796766144350849 0 0.0028114849591009822 0.011413455747308772 0 0.0030035287195860315 0.011579679162056782 0 0.0029307238357024878 0.011796766144350849 0 0.0028055580030604721 0.011747027099352636 0 0.0029307238357024878 0.011796766144350849 0 0.0029397607583036972 0.012082982696785061 0 0.0028055580030604721 0.011747027099352636 0 0.0028961310567550066 0.012062025098627532 0 0.0029397607583036972 0.012082982696785061 0 0.0031305251645812053 0.011822669299741077 0 0.0028535535896151857 0.012105856219027085 0 0.0026581260492305847 0.011683157669441124 0 0.003146541465904127 0.012495178061676352 0 0.0026040232167215899 0.011668751360588318 0 0.0028055580030604721 0.011747027099352636 0 0.0028961310567550066 0.012062025098627532 0 0.0026336030897525747 0.011784761869233076 0 0.0037351162025368069 0.013592091503181487 0 0.003146541465904127 0.012495178061676352 0 0.0032899017526513358 0.012237842549075251 0 0.0031208203702995066 0.011893085975492532 0 0.0029397607583036972 0.012082982696785061 0 0.0032899017526513358 0.012237842549075251 0 0.0033067207491985231 0.012724915049209218 0 0.0029397607583036972 0.012082982696785061 0 0.0033067207491985231 0.012724915049209218 0 0.0027389491138059756 0.012291881516839456 0 0.0029397607583036972 0.012082982696785061 0 0.003146541465904127 0.012495178061676352 0 0.0030462318936620093 0.012239296836880371 0 0.0040402382763242654 0.014278441364676141 0 0.0038288872228251099 0.014398949873434461 0 0.0039867125048711457 0.014433666294764575 0 0.0040402382763242654 0.014278441364676141 0 0.003785582475682303 0.014188552435813528 0 0.0038288872228251099 0.014398949873434461 0 0.0038288872228251099 0.014398949873434461 0 0.0039449781407939876 0.014605470521838766 0 0.0037315822563834663 0.014606746981824499 0 0.0038288872228251099 0.014398949873434461 0 0.0039867125048711457 0.014433666294764575 0 0.0039449781407939876 0.014605470521838766 0 0.0038288872228251099 0.014398949873434461 0 0.0037315822563834663 0.014606746981824499 0 0.0035971556157694947 0.014367251876579551 0 0.0037315822563834663 0.014606746981824499 0 0.0035971556157694947 0.014367251876579551 0 0.0035571523039097499 0.014711715714275334 0 0.0039449781407939876 0.014605470521838766 0 0.0037315822563834663 0.014606746981824499 0 0.0038619896909162571 0.014793288548442318 0 0.003785582475682303 0.014188552435813528 0 0.0038288872228251099 0.014398949873434461 0 0.0035971556157694947 0.014367251876579551 0 0.003146541465904127 0.012495178061676352 0 0.0031859427009867211 0.013299585202698212 0 0.0025993543679511916 0.012021626213856705 0 0.0028535535896151857 0.012105856219027085 0 0.0025737615521401296 0.01240950130114191 0 0.0025993543679511916 0.012021626213856705 0 0.0028535535896151857 0.012105856219027085 0 0.0026581260492305847 0.011683157669441124 0 0.0035971556157694947 0.014367251876579551 0 0.0033630051008424013 0.014592870058824576 0 0.0035571523039097499 0.014711715714275334 0 0.0031859427009867211 0.013299585202698212 0 0.0033489121246690228 0.013567626609470784 0 0.002216612684681961 0.011994511371569237 0 0.0022519316045926914 0.012006131248665775 0 0.0021840842747974571 0.012003509692004656 0 0.002216612684681961 0.011994511371569237 0 0.0022519316045926914 0.012006131248665775 0 0.0023070254339218905 0.011905691654277142 0 0.0025993543679511916 0.012021626213856705 0 0.0025737615521401296 0.01240950130114191 0 0.0023070254339218905 0.011905691654277142 0 0.0033489121246690228 0.013567626609470784 0 0.0019232634129758405 0.011322570615204272 0 0.0025993543679511916 0.012021626213856705 0 0.0023070254339218905 0.011905691654277142 0 0.0026581260492305847 0.011683157669441124 0 0.0023070254339218905 0.011905691654277142 0 0.0026581260492305847 0.011683157669441124 0 0.0022902188820011615 0.011569035098373483 0 0.0026040232167215899 0.011668751360588318 0 0.0023351673005272428 0.011605426229427056 0 0.0025701023370993939 0.011330063861097684 0 0.0028055580030604721 0.011747027099352636 0 0.0026336030897525747 0.011784761869233076 0 0.0025701023370993939 0.011330063861097684 0 0.0028114849591009822 0.011413455747308772 0 0.0028055580030604721 0.011747027099352636 0 0.0025701023370993939 0.011330063861097684 0 0.0026336030897525747 0.011784761869233076 0 0.0022902188820011615 0.011569035098373483 0 0.0022113699258478939 0.011021194009814664 0 0.0022902188820011615 0.011569035098373483 0 0.0019200284178526258 0.011334165373175716 0 0.0022113699258478939 0.011021194009814664 0 0.0025701023370993939 0.011330063861097684 0 0.0022902188820011615 0.011569035098373483 0 0.0022902188820011615 0.011569035098373483 0 0.0019200284178526258 0.011334165373175716 0 0.002025690446847331 0.011654300539816538 0 0.0019200284178526258 0.011334165373175716 0 0.002025690446847331 0.011654300539816538 0 0.0017959798788980772 0.011640128238360543 0 0.002025690446847331 0.011654300539816538 0 0.0017959798788980772 0.011640128238360543 0 0.0019623142606964208 0.011834441453568777 0 0.0017959798788980772 0.011640128238360543 0 0.0019623142606964208 0.011834441453568777 0 0.001855814891844515 0.011793709618822066 0 0.0019623142606964208 0.011834441453568777 0 0.001972951075360275 0.011976779694534808 0 0.0018901127334853081 0.011902586078823911 0 0.0019623142606964208 0.011834441453568777 0 0.0018901127334853081 0.011902586078823911 0 0.001855814891844515 0.011793709618822066 0 0.002025690446847331 0.011654300539816538 0 0.0019623142606964208 0.011834441453568777 0 0.0021235425966464158 0.011831909917398856 0 0.0019623142606964208 0.011834441453568777 0 0.0021235425966464158 0.011831909917398856 0 0.0020467953119760584 0.011936348414896472 0 0.0023070254339218905 0.011905691654277142 0 0.0022902188820011615 0.011569035098373483 0 0.0021235425966464158 0.011831909917398856 0 0.0022902188820011615 0.011569035098373483 0 0.002025690446847331 0.011654300539816538 0 0.0021235425966464158 0.011831909917398856 0 0.0023070254339218905 0.011905691654277142 0 0.0021284821406044405 0.01195570497094111 0 0.0021739735062054916 0.011987653379046729 0 0.0023070254339218905 0.011905691654277142 0 0.0021235425966464158 0.011831909917398856 0 0.0021284821406044405 0.01195570497094111 0 0.002216612684681961 0.011994511371569237 0 0.0023070254339218905 0.011905691654277142 0 0.0021739735062054916 0.011987653379046729 0 0.0021284821406044405 0.01195570497094111 0 0.0021739735062054916 0.011987653379046729 0 0.0021138734867314395 0.011989251787138002 0 0.0021739735062054916 0.011987653379046729 0 0.0021437409619635898 0.011986888733819874 0 0.0021138734867314395 0.011989251787138002 0 0.0021739735062054916 0.011987653379046729 0 0.0021749819642089374 0.011993226010064587 0 0.0021437409619635898 0.011986888733819874 0 0.002216612684681961 0.011994511371569237 0 0.0021739735062054916 0.011987653379046729 0 0.0021749819642089374 0.011993226010064587 0 0.0021293635354166346 0.011975512228679543 0 0.0021437409619635898 0.011986888733819874 0 0.0021138734867314395 0.011989251787138002 0 0.0021293635354166346 0.011975512228679543 0 0.0021138734867314395 0.011989251787138002 0 0.0020962843817159491 0.011985509026549329 0 0.0021138734867314395 0.011989251787138002 0 0.0020562183601478879 0.011988893005679329 0 0.0020962843817159491 0.011985509026549329 0 0.0020562183601478879 0.011988893005679329 0 0.001972951075360275 0.011976779694534808 0 0.0020189334523529443 0.012005781220565429 0 0.0021284821406044405 0.01195570497094111 0 0.0021138734867314395 0.011989251787138002 0 0.0020562183601478879 0.011988893005679329 0 0.0021284821406044405 0.01195570497094111 0 0.0020562183601478879 0.011988893005679329 0 0.0020467953119760584 0.011936348414896472 0 0.0021235425966464158 0.011831909917398856 0 0.0021284821406044405 0.01195570497094111 0 0.0020467953119760584 0.011936348414896472 0 0.0019623142606964208 0.011834441453568777 0 0.0020467953119760584 0.011936348414896472 0 0.001972951075360275 0.011976779694534808 0 0.0020562183601478879 0.011988893005679329 0 0.0020467953119760584 0.011936348414896472 0 0.001972951075360275 0.011976779694534808 0 0.001972951075360275 0.011976779694534808 0 0.0019079127182790852 0.012046427784022805 0 0.0018901127334853081 0.011902586078823911 0 0.001972951075360275 0.011976779694534808 0 0.0019079127182790852 0.012046427784022805 0 0.0020189334523529443 0.012005781220565429 0 0.0019079127182790852 0.012046427784022805 0 0.0020874949827103043 0.012023918633045701 0 0.0020189334523529443 0.012005781220565429 0 0.0019079127182790852 0.012046427784022805 0 0.0020874949827103043 0.012023918633045701 0 0.0021795427873643916 0.012112804892518259 0 0.0020874949827103043 0.012023918633045701 0 0.0020189334523529443 0.012005781220565429 0 0.0021326723921672379 0.011985955319101611 0 0.0020874949827103043 0.012023918633045701 0 0.0021326723921672379 0.011985955319101611 0 0.0022184460578377981 0.012021995387068161 0 0.0020562183601478879 0.011988893005679329 0 0.0020189334523529443 0.012005781220565429 0 0.0020962843817159491 0.011985509026549329 0 0.0020962843817159491 0.011985509026549329 0 0.0021326723921672379 0.011985955319101611 0 0.0021557711320123255 0.011959075889898151 0 0.0020189334523529443 0.012005781220565429 0 0.0020962843817159491 0.011985509026549329 0 0.0021326723921672379 0.011985955319101611 0 0.0021326723921672379 0.011985955319101611 0 0.0022255173231661997 0.011943422053544053 0 0.0021557711320123255 0.011959075889898151 0 0.0021326723921672379 0.011985955319101611 0 0.0022255173231661997 0.011943422053544053 0 0.0022458735163329835 0.011977141241517959 0 0.0021293635354166346 0.011975512228679543 0 0.0020962843817159491 0.011985509026549329 0 0.0021557711320123255 0.011959075889898151 0 0.00244967180389725 0.011932691060550242 0 0.0023249844744496727 0.011937353617766103 0 0.0023590997611613448 0.011998834732302194 0 0.0023249844744496727 0.011937353617766103 0 0.0022458735163329835 0.011977141241517959 0 0.0023590997611613448 0.011998834732302194 0 0.0022255173231661997 0.011943422053544053 0 0.0023249844744496727 0.011937353617766103 0 0.0022458735163329835 0.011977141241517959 0 0.0021326723921672379 0.011985955319101611 0 0.0022458735163329835 0.011977141241517959 0 0.0022184460578377981 0.012021995387068161 0 0.0022458735163329835 0.011977141241517959 0 0.0023590997611613448 0.011998834732302194 0 0.0022184460578377981 0.012021995387068161 0 0.0023590997611613448 0.011998834732302194 0 0.0023413635443987869 0.012090064578649241 0 0.0022184460578377981 0.012021995387068161 0 0.0020874949827103043 0.012023918633045701 0 0.0022184460578377981 0.012021995387068161 0 0.0021795427873643916 0.012112804892518259 0 0.0023413635443987869 0.012090064578649241 0 0.0022184460578377981 0.012021995387068161 0 0.0021795427873643916 0.012112804892518259 0 0.0023413635443987869 0.012090064578649241 0 0.0021795427873643916 0.012112804892518259 0 0.002348366976165547 0.012218856931324983 0 0.002552958735777796 0.010822397020384027 0 0.0024046398110202202 0.010807613757157598 0 0.0025204339106102884 0.010902113309674262 0 0.0024608046012860028 0.011587305754258044 0 0.0019445265902036423 0.01157152311646213 0 0.0024171358306813123 0.012376199218490825 0 0.002348366976165547 0.012218856931324983 0 0.0021680933806155684 0.012346833081809235 0 0.0021795427873643916 0.012112804892518259 0 0.002348366976165547 0.012218856931324983 0 0.0021680933806155684 0.012346833081809235 0 0.0019079127182790852 0.012046427784022805 0 0.0013462141875399032 0.011706024285524384 0 0.0016998178276834599 0.011743934579967377 0 0.001922082465174985 0.01207422868693255 0 0.0019445265902036423 0.01157152311646213 0 0.0019079127182790852 0.012046427784022805 0 0.0021795427873643916 0.012112804892518259 0 0.0021680933806155684 0.012346833081809235 0 0.0017576215819999526 0.011800384255304422 0 0.0016998178276834599 0.011743934579967377 0 0.0016214733060744529 0.010865547772491003 0 0.0019079127182790852 0.012046427784022805 0 0.0017576215819999526 0.011800384255304422 0 0.0016998178276834599 0.011743934579967377 0 0.0019079127182790852 0.012046427784022805 0 0.0018901127334853081 0.011902586078823911 0 0.0017576215819999526 0.011800384255304422 0 0.0018901127334853081 0.011902586078823911 0 0.0017576215819999526 0.011800384255304422 0 0.001855814891844515 0.011793709618822066 0 0.0017959798788980772 0.011640128238360543 0 0.0017576215819999526 0.011800384255304422 0 0.001855814891844515 0.011793709618822066 0 0.0019445265902036423 0.01157152311646213 0 0.0015928896486298695 0.011631570532754531 0 0.0019200284178526258 0.011334165373175716 0 0.0017959798788980772 0.011640128238360543 0 0.001091115489398655 0.011278436761715699 0 0.0016911458377238875 0.011721013585192617 0 0.0013686053670486935 0.011034479810277041 0 0.0017959798788980772 0.011640128238360543 0 0.0017576215819999526 0.011800384255304422 0 0.001091115489398655 0.011278436761715699 0 0.0013798648420898505 0.011665128475600977 0 0.0016998178276834599 0.011743934579967377 0 0.0016214733060744529 0.010865547772491003 0 0.0013798648420898505 0.011665128475600977 0 0.0016214733060744529 0.010865547772491003 0 0.00089130777875438578 0.011137869796310861 0 0.00086383158973071458 0.010711396322101857 0 0.0016214733060744529 0.010865547772491003 0 0.00089130777875438578 0.011137869796310861 0 0.0019445265902036423 0.01157152311646213 0 0.001616260133070877 0.01091702262094321 0 0.0062271093895932723 0.015632604566765549 0 0.0059193026957528446 0.015748598092316921 0 0.0062616702633456764 0.015621919814081651 0 0.0062182391578375126 0.0155870199841314 0 0.0060832847050366606 0.015825358654355557 0 0.0062991040945147968 0.015577673480568528 0 0.0062616702633456764 0.015621919814081651 0 0.0062182391578375126 0.0155870199841314 0 0.0062182391578375126 0.0155870199841314 0 0.0060832847050366606 0.015825358654355557 0 0.006138255156969542 0.015539854635128832 0 0.0059716138403924177 0.015653883452951795 0 0.0060832847050366606 0.015825358654355557 0 0.006138255156969542 0.015539854635128832 0 0.0059716138403924177 0.015653883452951795 0 0.0060832847050366606 0.015825358654355557 0 0.0058499782308970684 0.015844854017344839 0 0.0057741562041213066 0.01566252367918166 0 0.0060881752873394729 0.015902594637467515 0 0.0056003755878084906 0.015986330875557432 0 0.0062616702633456764 0.015621919814081651 0 0.0057741562041213066 0.01566252367918166 0 0.0060881752873394729 0.015902594637467515 0 0.002505207576431483 0.011810895068855248 0 0.0023677546653564454 0.011730383942345202 0 0.002371170161693345 0.011834054762157584 0 0.0023677546653564454 0.011730383942345202 0 0.002371170161693345 0.011834054762157584 0 0.0022728759653134457 0.011849677685520383 0 0.002371170161693345 0.011834054762157584 0 0.0022978259565302125 0.011894656109770778 0 0.002401891724237399 0.011885969784417926 0 0.002371170161693345 0.011834054762157584 0 0.0022978259565302125 0.011894656109770778 0 0.0022728759653134457 0.011849677685520383 0 0.0022255173231661997 0.011943422053544053 0 0.0023249844744496727 0.011937353617766103 0 0.0022978259565302125 0.011894656109770778 0 0.00244967180389725 0.011932691060550242 0 0.0023249844744496727 0.011937353617766103 0 0.002401891724237399 0.011885969784417926 0 0.0023249844744496727 0.011937353617766103 0 0.0022978259565302125 0.011894656109770778 0 0.002401891724237399 0.011885969784417926 0 0.0021557711320123255 0.011959075889898151 0 0.0022179039165317548 0.011909268507821107 0 0.0021674818603304685 0.011937654199606889 0 0.0021293635354166346 0.011975512228679543 0 0.0021557711320123255 0.011959075889898151 0 0.0021674818603304685 0.011937654199606889 0 0.0022255173231661997 0.011943422053544053 0 0.0022978259565302125 0.011894656109770778 0 0.0022179039165317548 0.011909268507821107 0 0.0022255173231661997 0.011943422053544053 0 0.0021557711320123255 0.011959075889898151 0 0.0022179039165317548 0.011909268507821107 0 0.0022978259565302125 0.011894656109770778 0 0.0022179039165317548 0.011909268507821107 0 0.0022728759653134457 0.011849677685520383 0 0.0022179039165317548 0.011909268507821107 0 0.0022034074462042048 0.011887604870664934 0 0.0021674818603304685 0.011937654199606889 0 0.0022034074462042048 0.011887604870664934 0 0.0022728759653134457 0.011849677685520383 0 0.0022013760779408856 0.011833212833792026 0 0.0023677546653564454 0.011730383942345202 0 0.0022728759653134457 0.011849677685520383 0 0.0022013760779408856 0.011833212833792026 0 0.003902529298584988 0.013796985283757376 0 0.0038906821752404553 0.013841869680162327 0 0.0022034074462042048 0.011887604870664934 0 0.0022013760779408856 0.011833212833792026 0 0.0021687584464610884 0.011917817291365774 0 0.0022179039165317548 0.011909268507821107 0 0.0022034074462042048 0.011887604870664934 0 0.0022728759653134457 0.011849677685520383 0 0.0038906821752404553 0.013841869680162327 0 0.0041732805648155256 0.014990623425387524 0 0.0022013760779408856 0.011833212833792026 0 0.0021687584464610884 0.011917817291365774 0 0.0021493098088864095 0.011941142854813038 0 0.0056003755878084906 0.015986330875557432 0 0.0052078710941913823 0.015910144159722684 0 0.0050514921727323123 0.016049371140270455 0 0.0052078710941913823 0.015910144159722684 0 0.0050847377326275443 0.015985827868243666 0 0.0051822702389162064 0.015806770744444448 0 0.0046560990978717475 0.015452104953423078 0 0.0041732805648155256 0.014990623425387524 0 0.0021687584464610884 0.011917817291365774 0 0.0021533776277129608 0.011955237494980302 0 0.0021493098088864095 0.011941142854813038 0 0.0021687584464610884 0.011917817291365774 0 0.0021674818603304685 0.011937654199606889 0 0.0021496774923301654 0.011961082886781552 0 0.0022034074462042048 0.011887604870664934 0 0.0021687584464610884 0.011917817291365774 0 0.0021674818603304685 0.011937654199606889 0 0.0021496774923301654 0.011961082886781552 0 0.0021574199881990185 0.011978466919797185 0 0.0021533776277129608 0.011955237494980302 0 0.0021687584464610884 0.011917817291365774 0 0.0021496774923301654 0.011961082886781552 0 0.0021533776277129608 0.011955237494980302 0 0.0021293635354166346 0.011975512228679543 0 0.0021437409619635898 0.011986888733819874 0 0.0021496774923301654 0.011961082886781552 0 0.0021437409619635898 0.011986888733819874 0 0.0021496774923301654 0.011961082886781552 0 0.0021574199881990185 0.011978466919797185 0 0.0021293635354166346 0.011975512228679543 0 0.0021674818603304685 0.011937654199606889 0 0.0021496774923301654 0.011961082886781552 0 0.002216612684681961 0.011994511371569237 0 0.0021749819642089374 0.011993226010064587 0 0.0021840842747974571 0.012003509692004656 0 0.0021574199881990185 0.011978466919797185 0 0.0021533776277129608 0.011955237494980302 0 0.0021840842747974571 0.012003509692004656 0 0.0021749819642089374 0.011993226010064587 0 0.0021574199881990185 0.011978466919797185 0 0.0021840842747974571 0.012003509692004656 0 0.0021749819642089374 0.011993226010064587 0 0.0021437409619635898 0.011986888733819874 0 0.0021574199881990185 0.011978466919797185 0 0.0043478568957315226 0.015881324910078192 0 0.0045920961134303202 0.015840236285975643 0 0.0045594137517142794 0.015674874639571672 0 0.0050847377326275443 0.015985827868243666 0 0.0049558992011934236 0.015919968060028242 0 0.0047900076032810473 0.015934956926985447 0 0.0041732805648155256 0.014990623425387524 0 0.0047681831260365714 0.015857205384959244 0 0.0021533776277129608 0.011955237494980302 0 0.0021493098088864095 0.011941142854813038 0 0.0021840842747974571 0.012003509692004656 0 0.0054192099786161893 0.015927724005212807 0 0.0050424157751837659 0.016110243897443671 0 0.0049558992011934236 0.015919968060028242 0 0.0051822702389162064 0.015806770744444448 0 0.0047769538716027245 0.015915352772961341 0 0.0041732805648155256 0.014990623425387524 0 0.0033486782323147086 0.013775542019869122 0 0.0050847377326275443 0.015985827868243666 0 0.0049558992011934236 0.015919968060028242 0 0.0051822702389162064 0.015806770744444448 0 0.0054209915120128219 0.016072381243620731 0 0.0052843956340188642 0.016109283357849166 0 0.0051859532770947136 0.01623945224705118 0 0.0054209915120128219 0.016072381243620731 0 0.0053124680046057454 0.016001788647544868 0 0.0052843956340188642 0.016109283357849166 0 0.0054209915120128219 0.016072381243620731 0 0.0056836737375931716 0.016052767259275402 0 0.0051859532770947136 0.01623945224705118 0 0.0054209915120128219 0.016072381243620731 0 0.0054658822489662426 0.015984117940070278 0 0.0053124680046057454 0.016001788647544868 0 0.0053124680046057454 0.016001788647544868 0 0.0054388705455959696 0.015857799273299136 0 0.0052615217582098082 0.015827342078279849 0 0.0054658822489662426 0.015984117940070278 0 0.0053124680046057454 0.016001788647544868 0 0.0054388705455959696 0.015857799273299136 0 0.0054388705455959696 0.015857799273299136 0 0.0055845712997068227 0.015937970139301025 0 0.0056115325928897588 0.015785833910142801 0 0.0055845712997068227 0.015937970139301025 0 0.0056819221599864389 0.015902139063799951 0 0.0056115325928897588 0.015785833910142801 0 0.0054658822489662426 0.015984117940070278 0 0.0054388705455959696 0.015857799273299136 0 0.0055845712997068227 0.015937970139301025 0 0.0055845712997068227 0.015937970139301025 0 0.0055436729932981516 0.016015002387829439 0 0.0056836737375931716 0.016052767259275402 0 0.0054209915120128219 0.016072381243620731 0 0.0055436729932981516 0.016015002387829439 0 0.0056836737375931716 0.016052767259275402 0 0.0054209915120128219 0.016072381243620731 0 0.0054658822489662426 0.015984117940070278 0 0.0055436729932981516 0.016015002387829439 0 0.0054658822489662426 0.015984117940070278 0 0.0055845712997068227 0.015937970139301025 0 0.0055436729932981516 0.016015002387829439 0 0.0057741562041213066 0.01566252367918166 0 0.0056003755878084906 0.015986330875557432 0 0.0051822702389162064 0.015806770744444448 0 0.0060832847050366606 0.015825358654355557 0 0.0056836737375931716 0.016052767259275402 0 0.0058499782308970684 0.015844854017344839 0 0.0056003755878084906 0.015986330875557432 0 0.0052078710941913823 0.015910144159722684 0 0.0051822702389162064 0.015806770744444448 0 0.0059193026957528446 0.015748598092316921 0 0.0054192099786161893 0.015927724005212807 0 0.0056836737375931716 0.016052767259275402 0 0.0058499782308970684 0.015844854017344839 0 0.0056819221599864389 0.015902139063799951 0 0.0058499782308970684 0.015844854017344839 0 0.0056819221599864389 0.015902139063799951 0 0.0056115325928897588 0.015785833910142801 0 0.0055845712997068227 0.015937970139301025 0 0.0056836737375931716 0.016052767259275402 0 0.0056819221599864389 0.015902139063799951 0 0.0058499782308970684 0.015844854017344839 0 0.0057696536299846266 0.015631398151158916 0 0.0056115325928897588 0.015785833910142801 0 0.0059716138403924177 0.015653883452951795 0 0.0058499782308970684 0.015844854017344839 0 0.0057696536299846266 0.015631398151158916 0 0.0053997092276974988 0.015744398116498418 0 0.0056115325928897588 0.015785833910142801 0 0.0054663169841055077 0.015590107315887992 0 0.0057696536299846266 0.015631398151158916 0 0.0056115325928897588 0.015785833910142801 0 0.0054663169841055077 0.015590107315887992 0 0.0053997092276974988 0.015744398116498418 0 0.0052055914901408306 0.015667949231873386 0 0.0054663169841055077 0.015590107315887992 0 0.0054388705455959696 0.015857799273299136 0 0.0053997092276974988 0.015744398116498418 0 0.0052615217582098082 0.015827342078279849 0 0.0054388705455959696 0.015857799273299136 0 0.0053997092276974988 0.015744398116498418 0 0.0056115325928897588 0.015785833910142801 0 0.0049430939602149778 0.015665953167491257 0 0.0052055914901408306 0.015667949231873386 0 0.0050251438095556761 0.015805946298823165 0 0.0053997092276974988 0.015744398116498418 0 0.0052055914901408306 0.015667949231873386 0 0.0052615217582098082 0.015827342078279849 0 0.0052055914901408306 0.015667949231873386 0 0.0050251438095556761 0.015805946298823165 0 0.0052615217582098082 0.015827342078279849 0 0.0052055914901408306 0.015667949231873386 0 0.0050944765938936527 0.015528626590107919 0 0.0054663169841055077 0.015590107315887992 0 0.0049430939602149778 0.015665953167491257 0 0.0052055914901408306 0.015667949231873386 0 0.0050944765938936527 0.015528626590107919 0 0.0049430939602149778 0.015665953167491257 0 0.0046176186579095077 0.015535363048799166 0 0.0050944765938936527 0.015528626590107919 0 0.0049430939602149778 0.015665953167491257 0 0.0046176186579095077 0.015535363048799166 0 0.0047616543810284975 0.015821275802810633 0 0.0047616543810284975 0.015821275802810633 0 0.0047621292439942791 0.016142282736861815 0 0.0040903445570822884 0.015610485449714731 0 0.0046176186579095077 0.015535363048799166 0 0.0047616543810284975 0.015821275802810633 0 0.0040903445570822884 0.015610485449714731 0 0.0047616543810284975 0.015821275802810633 0 0.0050022893008957337 0.016073394406432167 0 0.0047621292439942791 0.016142282736861815 0 0.0047616543810284975 0.015821275802810633 0 0.0050022893008957337 0.016073394406432167 0 0.0049862574785298841 0.01591222342281335 0 0.0050022893008957337 0.016073394406432167 0 0.0049862574785298841 0.01591222342281335 0 0.0051450946289004233 0.015961450459208149 0 0.0047616543810284975 0.015821275802810633 0 0.0049862574785298841 0.01591222342281335 0 0.0050251438095556761 0.015805946298823165 0 0.0049430939602149778 0.015665953167491257 0 0.0047616543810284975 0.015821275802810633 0 0.0050251438095556761 0.015805946298823165 0 0.0049862574785298841 0.01591222342281335 0 0.0050251438095556761 0.015805946298823165 0 0.0051450946289004233 0.015961450459208149 0 0.0050251438095556761 0.015805946298823165 0 0.0052615217582098082 0.015827342078279849 0 0.0051450946289004233 0.015961450459208149 0 0.0053124680046057454 0.016001788647544868 0 0.0052615217582098082 0.015827342078279849 0 0.0051450946289004233 0.015961450459208149 0 0.0053124680046057454 0.016001788647544868 0 0.0051450946289004233 0.015961450459208149 0 0.0051878704686552802 0.016075709636616364 0 0.0050022893008957337 0.016073394406432167 0 0.0051450946289004233 0.015961450459208149 0 0.0051878704686552802 0.016075709636616364 0 0.0053124680046057454 0.016001788647544868 0 0.0051878704686552802 0.016075709636616364 0 0.0052843956340188642 0.016109283357849166 0 0.0045920961134303202 0.015840236285975643 0 0.004697790932075915 0.015723813671606999 0 0.0048481085642689175 0.01580115695837854 0 0.0049558992011934236 0.015919968060028242 0 0.0047769538716027245 0.015915352772961341 0 0.0047900076032810473 0.015934956926985447 0 0.0051878704686552802 0.016075709636616364 0 0.0052843956340188642 0.016109283357849166 0 0.0051859532770947136 0.01623945224705118 0 0.0047681831260365714 0.015857205384959244 0 0.0048192666142820913 0.015825294301551447 0 0.0047769538716027245 0.015915352772961341 0 0.0047900076032810473 0.015934956926985447 0 0.0048481085642689175 0.01580115695837854 0 0.0050022893008957337 0.016073394406432167 0 0.0051878704686552802 0.016075709636616364 0 0.0051859532770947136 0.01623945224705118 0 0.0050022893008957337 0.016073394406432167 0 0.0051859532770947136 0.01623945224705118 0 0.0047621292439942791 0.016142282736861815 0 0.0047730933391341955 0.015461101177379238 0 0.004697790932075915 0.015723813671606999 0 0.0048481085642689175 0.01580115695837854 0 0.0047730933391341955 0.015461101177379238 0 0.0045594137517142794 0.015674874639571672 0 0.004697790932075915 0.015723813671606999 0 0.0045920961134303202 0.015840236285975643 0 0.0045594137517142794 0.015674874639571672 0 0.004697790932075915 0.015723813671606999 0 0.0033489121246690228 0.013567626609470784 0 0.0033486782323147086 0.013775542019869122 0 0.0033630051008424013 0.014592870058824576 0 0.0035571523039097499 0.014711715714275334 0 0.0035592596374027985 0.014958446091847709 0 0.0047730933391341955 0.015461101177379238 0 0.0048481085642689175 0.01580115695837854 0 0.0049086545430025025 0.015785165431657401 0 0.0033489121246690228 0.013567626609470784 0 0.0043265822563257148 0.015753381027630561 0 0.0035571523039097499 0.014711715714275334 0 0.0035592596374027985 0.014958446091847709 0 0.0036707807796831915 0.014914948321300095 0 0.0043265822563257148 0.015753381027630561 0 0.0039191762583496341 0.015511732941102118 0 0.0051859532770947136 0.01623945224705118 0 0.0045046851614095476 0.016535633215385447 0 0.0047621292439942791 0.016142282736861815 0 0.0047769538716027245 0.015915352772961341 0 0.0048481085642689175 0.01580115695837854 0 0.0049086545430025025 0.015785165431657401 0 0.0050424157751837659 0.016110243897443671 0 0.0043265822563257148 0.015753381027630561 0 0.0045046851614095476 0.016535633215385447 0 0.0047621292439942791 0.016142282736861815 0 0.0040903445570822884 0.015610485449714731 0 0.0034853927283250703 0.014988581579105797 0 0.0039348371316782899 0.015166596378026672 0 0.0040903445570822884 0.015610485449714731 0 0.0039348371316782899 0.015166596378026672 0 0.0040676433547037752 0.015263684298278091 0 0.0040903445570822884 0.015610485449714731 0 0.0043265822563257148 0.015753381027630561 0 0.0039752728707916447 0.015596546081209717 0 0.0034853927283250703 0.014988581579105797 0 0.0039348371316782899 0.015166596378026672 0 0.0036707807796831915 0.014914948321300095 0 0.0039348371316782899 0.015166596378026672 0 0.0036707807796831915 0.014914948321300095 0 0.0038619896909162571 0.014793288548442318 0 0.0036707807796831915 0.014914948321300095 0 0.0038619896909162571 0.014793288548442318 0 0.0037052053408359242 0.01475540929785352 0 0.0037315822563834663 0.014606746981824499 0 0.0038619896909162571 0.014793288548442318 0 0.0037052053408359242 0.01475540929785352 0 0.0035571523039097499 0.014711715714275334 0 0.0036707807796831915 0.014914948321300095 0 0.0037052053408359242 0.01475540929785352 0 0.0037315822563834663 0.014606746981824499 0 0.0035571523039097499 0.014711715714275334 0 0.0037052053408359242 0.01475540929785352 0 0.0039449781407939876 0.014605470521838766 0 0.0038619896909162571 0.014793288548442318 0 0.0040319213983319923 0.014766074220794071 0 0.0038619896909162571 0.014793288548442318 0 0.0039969974697388888 0.014992695210148711 0 0.0040319213983319923 0.014766074220794071 0 0.0039969974697388888 0.014992695210148711 0 0.0040676433547037752 0.015263684298278091 0 0.0041021474093465371 0.014902193661079196 0 0.0039348371316782899 0.015166596378026672 0 0.0038619896909162571 0.014793288548442318 0 0.0039969974697388888 0.014992695210148711 0 0.0039348371316782899 0.015166596378026672 0 0.0039969974697388888 0.014992695210148711 0 0.0040676433547037752 0.015263684298278091 0 0.0040676433547037752 0.015263684298278091 0 0.0040930393375610509 0.015409536869329809 0 0.00409572579645473 0.015221082989530734 0 0.0040676433547037752 0.015263684298278091 0 0.0040903445570822884 0.015610485449714731 0 0.0040930393375610509 0.015409536869329809 0 0.0046176186579095077 0.015535363048799166 0 0.0040903445570822884 0.015610485449714731 0 0.0042460290448369806 0.015456844856023153 0 0.0040903445570822884 0.015610485449714731 0 0.0040930393375610509 0.015409536869329809 0 0.0042460290448369806 0.015456844856023153 0 0.0040930393375610509 0.015409536869329809 0 0.0042460290448369806 0.015456844856023153 0 0.0040935105971842342 0.015386558514246721 0 0.0042460290448369806 0.015456844856023153 0 0.0041949654583318197 0.01537168213905455 0 0.0040935105971842342 0.015386558514246721 0 0.0042460290448369806 0.015456844856023153 0 0.0045053480698571801 0.015382660940086666 0 0.0041949654583318197 0.01537168213905455 0 0.0046176186579095077 0.015535363048799166 0 0.0042460290448369806 0.015456844856023153 0 0.0045053480698571801 0.015382660940086666 0 0.0045053480698571801 0.015382660940086666 0 0.0041949654583318197 0.01537168213905455 0 0.0041816972686073203 0.01529529271956291 0 0.0045053480698571801 0.015382660940086666 0 0.0041816972686073203 0.01529529271956291 0 0.0047579342651518624 0.015232477176210924 0 0.0041949654583318197 0.01537168213905455 0 0.0041816972686073203 0.01529529271956291 0 0.004002096635779431 0.015325844607634554 0 0.0041816972686073203 0.01529529271956291 0 0.0043665161743898862 0.014999930871216802 0 0.0038916595794576412 0.015232464416241986 0 0.0043665161743898862 0.014999930871216802 0 0.0038916595794576412 0.015232464416241986 0 0.003598104107685119 0.0149999002608673 0 0.0041816972686073203 0.01529529271956291 0 0.0043665161743898862 0.014999930871216802 0 0.0046319170929231121 0.015352466551700691 0 0.0042401036142884346 0.015285157445091003 0 0.0046740429004070386 0.015159060233871931 0 0.0041816972686073203 0.01529529271956291 0 0.0046901196289817881 0.014955680678053815 0 0.0047579342651518624 0.015232477176210924 0 0.0046901196289817881 0.014955680678053815 0 0.005178421462358718 0.015102203811301982 0 0.0047579342651518624 0.015232477176210924 0 0.0046901196289817881 0.014955680678053815 0 0.0052943790999905966 0.014858053093695863 0 0.005178421462358718 0.015102203811301982 0 0.005178421462358718 0.015102203811301982 0 0.0051552933179330801 0.015255356886074488 0 0.0047579342651518624 0.015232477176210924 0 0.0046740429004070386 0.015159060233871931 0 0.0052771313188820605 0.015062286851622607 0 0.0043665161743898862 0.014999930871216802 0 0.0046319170929231121 0.015352466551700691 0 0.005136907213232466 0.014999916675514955 0 0.0046319170929231121 0.015352466551700691 0 0.005136907213232466 0.014999916675514955 0 0.0052858682815194466 0.015246051955190121 0 0.0052771313188820605 0.015062286851622607 0 0.0059067756874880461 0.014999994868049241 0 0.005136907213232466 0.014999916675514955 0 0.0052858682815194466 0.015246051955190121 0 0.0059069703590336397 0.015000026015097524 0 0.0052943790999905966 0.014858053093695863 0 0.005178421462358718 0.015102203811301982 0 0.0055935562794033489 0.015110767115284498 0 0.005178421462358718 0.015102203811301982 0 0.0054478161578847559 0.015250619389622504 0 0.0051552933179330801 0.015255356886074488 0 0.005178421462358718 0.015102203811301982 0 0.0054478161578847559 0.015250619389622504 0 0.0055935562794033489 0.015110767115284498 0 0.0051552933179330801 0.015255356886074488 0 0.004912539013936775 0.015386930637630634 0 0.0054176272283502427 0.015383813168982493 0 0.0054478161578847559 0.015250619389622504 0 0.0051552933179330801 0.015255356886074488 0 0.0054176272283502427 0.015383813168982493 0 0.0045053480698571801 0.015382660940086666 0 0.0047579342651518624 0.015232477176210924 0 0.004912539013936775 0.015386930637630634 0 0.0051552933179330801 0.015255356886074488 0 0.0047579342651518624 0.015232477176210924 0 0.004912539013936775 0.015386930637630634 0 0.0046176186579095077 0.015535363048799166 0 0.0045053480698571801 0.015382660940086666 0 0.004912539013936775 0.015386930637630634 0 0.0046176186579095077 0.015535363048799166 0 0.004912539013936775 0.015386930637630634 0 0.0050944765938936527 0.015528626590107919 0 0.004912539013936775 0.015386930637630634 0 0.0050944765938936527 0.015528626590107919 0 0.0054176272283502427 0.015383813168982493 0 0.0050944765938936527 0.015528626590107919 0 0.0054663169841055077 0.015590107315887992 0 0.0054176272283502427 0.015383813168982493 0 0.0056825529217157536 0.015461735687464362 0 0.0054663169841055077 0.015590107315887992 0 0.0054176272283502427 0.015383813168982493 0 0.0057696536299846266 0.015631398151158916 0 0.0056825529217157536 0.015461735687464362 0 0.0054663169841055077 0.015590107315887992 0 0.0059716138403924177 0.015653883452951795 0 0.0057696536299846266 0.015631398151158916 0 0.0059779850380864046 0.015440947815197127 0 0.0057696536299846266 0.015631398151158916 0 0.0056825529217157536 0.015461735687464362 0 0.0059779850380864046 0.015440947815197127 0 0.0056825529217157536 0.015461735687464362 0 0.0059779850380864046 0.015440947815197127 0 0.0057594146905464039 0.015281325836846157 0 0.0059779850380864046 0.015440947815197127 0 0.0057594146905464039 0.015281325836846157 0 0.006095950113779859 0.015281399529128699 0 0.0056825529217157536 0.015461735687464362 0 0.0057594146905464039 0.015281325836846157 0 0.0054176272283502427 0.015383813168982493 0 0.0054478161578847559 0.015250619389622504 0 0.0057594146905464039 0.015281325836846157 0 0.0054176272283502427 0.015383813168982493 0 0.0057594146905464039 0.015281325836846157 0 0.0055935562794033489 0.015110767115284498 0 0.0061478651742925966 0.015165515899216851 0 0.0054478161578847559 0.015250619389622504 0 0.0057594146905464039 0.015281325836846157 0 0.0055935562794033489 0.015110767115284498 0 0.0055935562794033489 0.015110767115284498 0 0.005907354168890681 0.014999125547334364 0 0.0061478651742925966 0.015165515899216851 0 0.0052943790999905966 0.014858053093695863 0 0.0055935562794033489 0.015110767115284498 0 0.005907354168890681 0.014999125547334364 0 0.005907354168890681 0.014999125547334364 0 0.0061478651742925966 0.015165515899216851 0 0.0067265167885067131 0.015000151558242313 0 0.0057594146905464039 0.015281325836846157 0 0.0061478651742925966 0.015165515899216851 0 0.006095950113779859 0.015281399529128699 0 0.006095950113779859 0.015281399529128699 0 0.0063653228382474563 0.015220361864747485 0 0.0062002809791885565 0.015355596884006792 0 0.0061478651742925966 0.015165515899216851 0 0.006095950113779859 0.015281399529128699 0 0.0063653228382474563 0.015220361864747485 0 0.0070030051683362552 0.015442285733956411 0 0.0069121201151634299 0.015058683139941419 0 0.0067280841879921657 0.01500003225275026 0 0.0061478651742925966 0.015165515899216851 0 0.0063653228382474563 0.015220361864747485 0 0.0067265167885067131 0.015000151558242313 0 0.0066898017580540366 0.015314190641189758 0 0.0067279167700877631 0.014999991682806276 0 0.0070030051683362552 0.015442285733956411 0 0.0069121201151634299 0.015058683139941419 0 0.0071920341305266649 0.015446520113718144 0 0.0075019783177867868 0.014999921250524999 0 0.0069121201151634299 0.015058683139941419 0 0.0073961693192182067 0.015248418563930397 0 0.0069121201151634299 0.015058683139941419 0 0.0073961693192182067 0.015248418563930397 0 0.0074396989659465049 0.015597225175087321 0 0.0069414399977385348 0.015084037554543225 0 0.0073026087986851262 0.015501874386976242 0 0.0075019783177867868 0.014999921250524999 0 0.0069121201151634299 0.015058683139941419 0 0.0067280841879921657 0.01500003225275026 0 0.0077259103687224483 0.015338595613194327 0 0.0073961693192182067 0.015248418563930397 0 0.0074396989659465049 0.015597225175087321 0 0.0070030051683362552 0.015442285733956411 0 0.0071920341305266649 0.015446520113718144 0 0.0071754584020903827 0.015721777846502381 0 0.0062863331166875015 0.015419090800998391 0 0.0062002809791885565 0.015355596884006792 0 0.006138255156969542 0.015539854635128832 0 0.0066898017580540366 0.015314190641189758 0 0.006706058062095766 0.015509420075249665 0 0.0073751678340857043 0.015698137021528669 0 0.0071920341305266649 0.015446520113718144 0 0.0071754584020903827 0.015721777846502381 0 0.0063653228382474563 0.015220361864747485 0 0.0062863331166875015 0.015419090800998391 0 0.0062002809791885565 0.015355596884006792 0 0.0059779850380864046 0.015440947815197127 0 0.006095950113779859 0.015281399529128699 0 0.0062002809791885565 0.015355596884006792 0 0.0059779850380864046 0.015440947815197127 0 0.0062002809791885565 0.015355596884006792 0 0.006138255156969542 0.015539854635128832 0 0.0059716138403924177 0.015653883452951795 0 0.0059779850380864046 0.015440947815197127 0 0.006138255156969542 0.015539854635128832 0 0.0069175934068271749 0.016027424337876125 0 0.006706058062095766 0.015509420075249665 0 0.0062991040945147968 0.015577673480568528 0 0.0062182391578375126 0.0155870199841314 0 0.0062863331166875015 0.015419090800998391 0 0.0062182391578375126 0.0155870199841314 0 0.0062863331166875015 0.015419090800998391 0 0.006138255156969542 0.015539854635128832 0 -0.00037774960460630391 0.014055289094045659 0 -0.00096204439381386531 0.014328250015746708 0 -0.00026171407657874006 0.014815341822501707 0 0.00024452308701424717 0.014227572015095712 0 -0.00037774960460630391 0.014055289094045659 0 -0.00026171407657874006 0.014815341822501707 0 0.0024119809534842479 0.014619740406803288 0 0.0022516935701717123 0.01485334131719853 0 0.0045966723739738627 0.015165192899829524 0 0.0048261545803299144 0.014848209549614735 0 0.0045336319202284427 0.014891504037838564 0 0.00024452308701424717 0.014227572015095712 0 -0.00037774960460630391 0.014055289094045659 0 -5.7820508555208794e-05 0.01364075513483457 0 0.00024452308701424717 0.014227572015095712 0 0.00075257972205266274 0.013630512237137923 0 -5.7820508555208794e-05 0.01364075513483457 0 -0.00037774960460630391 0.014055289094045659 0 -0.00086830197728854201 0.013858230276715093 0 -0.0004819044065998643 0.013490483389995518 0 -0.00086830197728854201 0.013858230276715093 0 -0.001676016702419256 0.014003433842419293 0 -0.00096204439381386531 0.014328250015746708 0 -0.00086830197728854201 0.013858230276715093 0 -0.001676016702419256 0.014003433842419293 0 -0.00084224063900500956 0.013410767178022424 0 -0.00037774960460630391 0.014055289094045659 0 -0.00086830197728854201 0.013858230276715093 0 -0.00096204439381386531 0.014328250015746708 0 -0.001676016702419256 0.014003433842419293 0 -0.0016519947048089668 0.014539755799226313 0 -0.00096204439381386531 0.014328250015746708 0 -0.0016519947048089668 0.014539755799226313 0 -0.00096204439381386531 0.014328250015746708 0 -0.0011760563484679483 0.014906301974337077 0 -0.00096204439381386531 0.014328250015746708 0 -0.0011760563484679483 0.014906301974337077 0 -0.00026171407657874006 0.014815341822501707 0 -0.0011760563484679483 0.014906301974337077 0 -0.0015717937169038574 0.015490255204656489 0 -0.0007623571244069798 0.015407168671066614 0 -0.0011760563484679483 0.014906301974337077 0 -0.0007623571244069798 0.015407168671066614 0 -0.00026171407657874006 0.014815341822501707 0 -0.0011760563484679483 0.014906301974337077 0 -0.0015717937169038574 0.015490255204656489 0 -0.0019126849583821297 0.014912855396185322 0 -0.0016519947048089668 0.014539755799226313 0 -0.0011760563484679483 0.014906301974337077 0 -0.0019126849583821297 0.014912855396185322 0 -0.0017380147249011553 0.015345453817153272 0 -0.0019128868495154863 0.0149375221739062 0 0.00027885003281960828 0.014355390750220206 0 -0.0017380147249011553 0.015345453817153272 0 -0.0012589264936593847 0.016012852737256573 0 -0.0015717937169038574 0.015490255204656489 0 -0.0007623571244069798 0.015407168671066614 0 0.00027885003281960828 0.014355390750220206 0 0.0023546878062433835 0.01494382631133483 0 0.0046855592044484405 0.014175885874869126 0 0.0050642414606515002 0.014475241873502633 0 0.0045917964732782434 0.01459756562936724 0 0.0023546878062433835 0.01494382631133483 0 0.0022516935701717123 0.01485334131719853 0 0.0050642414606515002 0.014475241873502633 0 0.0048261545803299144 0.014848209549614735 0 0.0045917964732782434 0.01459756562936724 0 0.0048261545803299144 0.014848209549614735 0 0.0045917964732782434 0.01459756562936724 0 0.0045336319202284427 0.014891504037838564 0 0.0046855592044484405 0.014175885874869126 0 0.0045917964732782434 0.01459756562936724 0 0.0044420189781485906 0.014282670819851594 0 0.0045917964732782434 0.01459756562936724 0 0.0044420189781485906 0.014282670819851594 0 0.0043430912606888927 0.014727376926262076 0 0.0042223938892159783 0.014395173948475882 0 0.0044420189781485906 0.014282670819851594 0 0.0043430912606888927 0.014727376926262076 0 0.0042223938892159783 0.014395173948475882 0 0.0043430912606888927 0.014727376926262076 0 0.0041813494196028655 0.014717975328164398 0 0.0043430912606888927 0.014727376926262076 0 0.0041813494196028655 0.014717975328164398 0 0.0041642770950518606 0.015055632152748464 0 0.0045917964732782434 0.01459756562936724 0 0.0043430912606888927 0.014727376926262076 0 0.0045336319202284427 0.014891504037838564 0 0.0043430912606888927 0.014727376926262076 0 0.0043489408184662383 0.015094311485224637 0 0.0045336319202284427 0.014891504037838564 0 0.0039969974697388888 0.014992695210148711 0 0.0040319213983319923 0.014766074220794071 0 0.0041021474093465371 0.014902193661079196 0 0.0041115517074117036 0.014495766832789428 0 0.0040319213983319923 0.014766074220794071 0 0.0041021474093465371 0.014902193661079196 0 0.0041115517074117036 0.014495766832789428 0 0.0042223938892159783 0.014395173948475882 0 0.0041813494196028655 0.014717975328164398 0 0.0041115517074117036 0.014495766832789428 0 0.0041813494196028655 0.014717975328164398 0 0.0041021474093465371 0.014902193661079196 0 0.0041813494196028655 0.014717975328164398 0 0.0041021474093465371 0.014902193661079196 0 0.0041642770950518606 0.015055632152748464 0 0.0041021474093465371 0.014902193661079196 0 0.00409572579645473 0.015221082989530734 0 0.0041642770950518606 0.015055632152748464 0 0.0040676433547037752 0.015263684298278091 0 0.0041021474093465371 0.014902193661079196 0 0.00409572579645473 0.015221082989530734 0 0.00409572579645473 0.015221082989530734 0 0.0041642770950518606 0.015055632152748464 0 0.0040862821875443664 0.015328147292808488 0 0.0040862821875443664 0.015328147292808488 0 0.0041448841664462853 0.015278064517614298 0 0.0040558055907747911 0.015340323984254901 0 0.0041642770950518606 0.015055632152748464 0 0.0040862821875443664 0.015328147292808488 0 0.0041448841664462853 0.015278064517614298 0 0.0040930393375610509 0.015409536869329809 0 0.0040862821875443664 0.015328147292808488 0 0.0040935105971842342 0.015386558514246721 0 0.0040930393375610509 0.015409536869329809 0 0.00409572579645473 0.015221082989530734 0 0.0040862821875443664 0.015328147292808488 0 0.0045966723739738627 0.015165192899829524 0 0.0043489408184662383 0.015094311485224637 0 0.0045336319202284427 0.014891504037838564 0 0.0041642770950518606 0.015055632152748464 0 0.0043489408184662383 0.015094311485224637 0 0.0041448841664462853 0.015278064517614298 0 0.0043430912606888927 0.014727376926262076 0 0.0041642770950518606 0.015055632152748464 0 0.0043489408184662383 0.015094311485224637 0 0.0043489408184662383 0.015094311485224637 0 0.0041448841664462853 0.015278064517614298 0 0.0043944473935563551 0.015424220874359466 0 0.0046229720474499185 0.015486729553441774 0 0.0029233965540891946 0.015092716053810649 0 0.0024119809534842479 0.014619740406803288 0 0.0029233965540891946 0.015092716053810649 0 0.0045966723739738627 0.015165192899829524 0 0.0043489408184662383 0.015094311485224637 0 0.0043944473935563551 0.015424220874359466 0 0.0021948687761169814 0.016676640120536105 0 0.0021411592506221295 0.016125470349721314 0 0.0017712650339180072 0.016419881113194607 0 0.0029233965540891946 0.015092716053810649 0 0.00073474811155251518 0.014693575931347099 0 0.0040956278267650368 0.015319099832390196 0 0.0040862657951922319 0.015321724258055721 0 0.0040338063846213539 0.015332093503002717 0 0.0041448841664462853 0.015278064517614298 0 0.0040956278267650368 0.015319099832390196 0 0.0040862657951922319 0.015321724258055721 0 0.0029233965540891946 0.015092716053810649 0 0.0033271060233257231 0.015871441345142154 0 0.0026532981028415501 0.01613095090578473 0 0.0021411592506221295 0.016125470349721314 0 0.0022856856109188632 0.015551709275510509 0 0.0021948687761169814 0.016676640120536105 0 0.0026532981028415501 0.01613095090578473 0 0.0021411592506221295 0.016125470349721314 0 0.0040935105971842342 0.015386558514246721 0 0.0040558055907747911 0.015340323984254901 0 0.004002096635779431 0.015325844607634554 0 0.0040862821875443664 0.015328147292808488 0 0.0040935105971842342 0.015386558514246721 0 0.0040558055907747911 0.015340323984254901 0 0.0040862657951922319 0.015321724258055721 0 0.0040338063846213539 0.015332093503002717 0 0.0040558055907747911 0.015340323984254901 0 0.0041448841664462853 0.015278064517614298 0 0.0040862657951922319 0.015321724258055721 0 0.0040558055907747911 0.015340323984254901 0 0.0040338063846213539 0.015332093503002717 0 0.004002096635779431 0.015325844607634554 0 0.003906796802147245 0.015275035903241124 0 0.0040338063846213539 0.015332093503002717 0 0.0040558055907747911 0.015340323984254901 0 0.004002096635779431 0.015325844607634554 0 0.0041949654583318197 0.01537168213905455 0 0.0040935105971842342 0.015386558514246721 0 0.004002096635779431 0.015325844607634554 0 0.004002096635779431 0.015325844607634554 0 0.0038916595794576412 0.015232464416241986 0 0.003906796802147245 0.015275035903241124 0 0.0041816972686073203 0.01529529271956291 0 0.004002096635779431 0.015325844607634554 0 0.0038916595794576412 0.015232464416241986 0 0.0033271060233257231 0.015871441345142154 0 0.0035272668042335021 0.015373426836913225 0 0.0031233339226365104 0.015571107001653732 0 0.0035968028547014876 0.014999997296193742 0 0.0027269581179342017 0.014999988730683794 0 0.0038916595794576412 0.015232464416241986 0 0.003906796802147245 0.015275035903241124 0 0.003598104107685119 0.0149999002608673 0 0.0035272668042335021 0.015373426836913225 0 0.0035968625141948696 0.015000084114111974 0 0.0021411592506221295 0.016125470349721314 0 0.0022856856109188632 0.015551709275510509 0 0.0016953305968706979 0.015925877449598155 0 0.0022856856109188632 0.015551709275510509 0 0.0016534037999646816 0.015443101872258504 0 0.0016953305968706979 0.015925877449598155 0 0.0026532981028415501 0.01613095090578473 0 0.0031233339226365104 0.015571107001653732 0 0.0022856856109188632 0.015551709275510509 0 0.0031233339226365104 0.015571107001653732 0 0.0022856856109188632 0.015551709275510509 0 0.0027269581179342017 0.014999988730683794 0 0.0022856856109188632 0.015551709275510509 0 0.0027269581179342017 0.014999988730683794 0 0.0018571216959608913 0.014999994679100423 0 0.0022856856109188632 0.015551709275510509 0 0.0018571216959608913 0.014999994679100423 0 0.0016534037999646816 0.015443101872258504 0 0.0018571216959608913 0.014999994679100423 0 0.0016534037999646816 0.015443101872258504 0 0.00098727852385767259 0.014999980900816487 0 0.0016534037999646816 0.015443101872258504 0 0.00098727852385767259 0.014999980900816487 0 0.0012696661095377754 0.015700726748053666 0 0.0012696661095377754 0.015700726748053666 0 0.001334001153277772 0.016190322200057384 0 0.00077920562600847091 0.015851552707630348 0 0.00098727852385767259 0.014999980900816487 0 0.0012696661095377754 0.015700726748053666 0 0.00077920562600847091 0.015851552707630348 0 0.0016534037999646816 0.015443101872258504 0 0.0012696661095377754 0.015700726748053666 0 0.0016953305968706979 0.015925877449598155 0 0.0021411592506221295 0.016125470349721314 0 0.0016953305968706979 0.015925877449598155 0 0.0017712650339180072 0.016419881113194607 0 0.0012696661095377754 0.015700726748053666 0 0.0016953305968706979 0.015925877449598155 0 0.001334001153277772 0.016190322200057384 0 0.0016953305968706979 0.015925877449598155 0 0.0013565696767140311 0.016162241822886912 0 0.0017712650339180072 0.016419881113194607 0 0.00092342816581660059 0.015533575308348537 0 0.00073474811155251518 0.014693575931347099 0 0.0015811993407805233 0.015895701853347623 0 0.00092342816581660059 0.015533575308348537 0 0.00077958986851333527 0.016112699574325096 0 0.0010979761381334256 0.016106621229471509 0 0.00067361667681871699 0.016418148543944872 0 0.00092342816581660059 0.015533575308348537 0 -0.00081639095680018515 0.014684276917292811 0 0.00092342816581660059 0.015533575308348537 0 0.00079453710205708533 0.015913329234597044 0 0.00077958986851333527 0.016112699574325096 0 0.0010979761381334256 0.016106621229471509 0 0.0006493166867774107 0.015819015315714807 0 -0.00024074165594010642 0.013022130300607192 0 -0.0004819044065998643 0.013490483389995518 0 -0.00081423445347124401 0.013430376295956063 0 -0.00024074165594010642 0.013022130300607192 0 -0.0004819044065998643 0.013490483389995518 0 -5.7820508555208794e-05 0.01364075513483457 0 -0.00037774960460630391 0.014055289094045659 0 -0.0004819044065998643 0.013490483389995518 0 -5.7820508555208794e-05 0.01364075513483457 0 -0.00069524183318213123 0.013924350479954072 0 -0.00081639095680018515 0.014684276917292811 0 0.00075257972205266274 0.013630512237137923 0 -5.7820508555208794e-05 0.01364075513483457 0 0.00025154918181130635 0.01331965157650083 0 -0.00024074165594010642 0.013022130300607192 0 -5.7820508555208794e-05 0.01364075513483457 0 0.00025154918181130635 0.01331965157650083 0 -0.002745168483369679 0.015619438619183374 0 -0.0027475623527036322 0.015532239415961602 0 -0.0025801735892317526 0.015536542526044132 0 -0.0013766996242738807 0.016083409939558011 0 -0.00081639095680018515 0.014684276917292811 0 -0.0023743910231867815 0.014812440406524985 0 -0.00081639095680018515 0.014684276917292811 0 -0.00086830197728854201 0.013858230276715093 0 -0.0004819044065998643 0.013490483389995518 0 -0.00084224063900500956 0.013410767178022424 0 0.00077958986851333527 0.016112699574325096 0 0.00067361667681871699 0.016418148543944872 0 0.00038944554565991421 0.016095122047859962 0 0.00077958986851333527 0.016112699574325096 0 0.00038944554565991421 0.016095122047859962 0 0.0006493166867774107 0.015819015315714807 0 3.1782079384723586e-06 0.016320514321035769 0 0.00038944554565991421 0.016095122047859962 0 -0.00013468601274098445 0.015840065959121512 0 3.1782079384723586e-06 0.016320514321035769 0 0.00067361667681871699 0.016418148543944872 0 0.00038944554565991421 0.016095122047859962 0 0.00038944554565991421 0.016095122047859962 0 0.0002086290251043147 0.015501432587109154 0 -0.00013468601274098445 0.015840065959121512 0 0.00038944554565991421 0.016095122047859962 0 0.0002086290251043147 0.015501432587109154 0 0.0006493166867774107 0.015819015315714807 0 0.00020766934837553532 0.015500586892570441 0 0.00079453710205708533 0.015913329234597044 0 0.00098727852385767259 0.014999980900816487 0 0.0002086290251043147 0.015501432587109154 0 0.00077920562600847091 0.015851552707630348 0 0.00098727852385767259 0.014999980900816487 0 0.0002086290251043147 0.015501432587109154 0 0.00011736260427572053 0.01499999052735319 0 0.0002086290251043147 0.015501432587109154 0 0.00011736260427572053 0.01499999052735319 0 -0.00022748664749853046 0.015384435039061894 0 0.00011736260427572053 0.01499999052735319 0 -0.00022748664749853046 0.015384435039061894 0 -0.0007524290000020887 0.01499998045949163 0 -0.0007524290000020887 0.01499998045949163 0 -0.00057288932525854973 0.015575065527350719 0 -0.0011830170511834869 0.015519468896877773 0 -0.00022748664749853046 0.015384435039061894 0 -0.0007524290000020887 0.01499998045949163 0 -0.00057288932525854973 0.015575065527350719 0 -0.00057288932525854973 0.015575065527350719 0 -0.0011830170511834869 0.015519468896877773 0 -0.00074662532224455049 0.016214131509478549 0 -0.00022748664749853046 0.015384435039061894 0 -0.00057288932525854973 0.015575065527350719 0 -0.00013468601274098445 0.015840065959121512 0 0.0002086290251043147 0.015501432587109154 0 -0.00022748664749853046 0.015384435039061894 0 -0.00013468601274098445 0.015840065959121512 0 -0.00057288932525854973 0.015575065527350719 0 -0.00013468601274098445 0.015840065959121512 0 -0.00074662532224455049 0.016214131509478549 0 -0.0016224539121467148 0.014999857192681442 0 -0.0011830170511834869 0.015519468896877773 0 -0.0019405539105027043 0.015421881299806711 0 -0.0007524290000020887 0.01499998045949163 0 -0.0016224539121467148 0.014999857192681442 0 -0.0011830170511834869 0.015519468896877773 0 -0.0011830170511834869 0.015519468896877773 0 -0.0019405539105027043 0.015421881299806711 0 -0.0015888329751468163 0.016060667470107485 0 -0.0019405539105027043 0.015421881299806711 0 -0.0015888329751468163 0.016060667470107485 0 -0.0026521581657837083 0.015677702150163064 0 -0.0028576517998604007 0.015649516547780847 0 -0.0028445604852833767 0.015620655008730168 0 -0.0026521581657837083 0.015677702150163064 0 -0.0011830170511834869 0.015519468896877773 0 -0.0015888329751468163 0.016060667470107485 0 -0.00074662532224455049 0.016214131509478549 0 -0.002220794242235047 0.01584299046551332 0 -0.0017966284637928574 0.015875129537901458 0 -0.0028576517998604007 0.015649516547780847 0 -0.0028683340771341261 0.015605877916216303 0 -0.0028470198913549336 0.015570512785877158 0 -0.0028683340771341261 0.015605877916216303 0 -0.0028574793230118751 0.015600756996052312 0 -0.0028831614462951319 0.015610391132448108 0 -0.0028576517998604007 0.015649516547780847 0 -0.0028683340771341261 0.015605877916216303 0 -0.0028445604852833767 0.015620655008730168 0 -0.0028683340771341261 0.015605877916216303 0 -0.0028445604852833767 0.015620655008730168 0 -0.0028831614462951319 0.015610391132448108 0 -0.0013766996242738807 0.016083409939558011 0 -0.0017966284637928574 0.015875129537901458 0 3.1782079384723586e-06 0.016320514321035769 0 -0.00013468601274098445 0.015840065959121512 0 -0.00074662532224455049 0.016214131509478549 0 -0.0028683340771341261 0.015605877916216303 0 -0.0028470198913549336 0.015570512785877158 0 -0.0028574793230118751 0.015600756996052312 0 -0.0027475623527036322 0.015532239415961602 0 -0.0028470198913549336 0.015570512785877158 0 -0.0028574793230118751 0.015600756996052312 0 -0.002745168483369679 0.015619438619183374 0 -0.0027475623527036322 0.015532239415961602 0 -0.0028574793230118751 0.015600756996052312 0 -0.002745168483369679 0.015619438619183374 0 -0.0028631963226223738 0.015622533511426893 0 -0.0028574793230118751 0.015600756996052312 0 -0.0016519947048089668 0.014539755799226313 0 -0.0023424287962884242 0.014589705876736313 0 -0.0019126849583821297 0.014912855396185322 0 -0.001676016702419256 0.014003433842419293 0 -0.0016519947048089668 0.014539755799226313 0 -0.0023424287962884242 0.014589705876736313 0 -0.0023743910231867815 0.014812440406524985 0 -0.0025601743800116429 0.015089880112623938 0 -0.0028631963226223738 0.015622533511426893 0 -0.0028574793230118751 0.015600756996052312 0 -0.0029006410019512909 0.015596320041159257 0 -0.0028574793230118751 0.015600756996052312 0 -0.0028831614462951319 0.015610391132448108 0 -0.0029006410019512909 0.015596320041159257 0 -0.0028445604852833767 0.015620655008730168 0 -0.0028831614462951319 0.015610391132448108 0 -0.0028815259488099106 0.015638905119001342 0 -0.0028831614462951319 0.015610391132448108 0 -0.0028988890446299386 0.015584731821574063 0 -0.0028815259488099106 0.015638905119001342 0 -0.0028831614462951319 0.015610391132448108 0 -0.0028988890446299386 0.015584731821574063 0 -0.0029006410019512909 0.015596320041159257 0 -0.0028988890446299386 0.015584731821574063 0 -0.0029006410019512909 0.015596320041159257 0 -0.0029448094749936187 0.01553754368794439 0 -0.0028631963226223738 0.015622533511426893 0 -0.0029006410019512909 0.015596320041159257 0 -0.0029448094749936187 0.01553754368794439 0 -0.0025601743800116429 0.015089880112623938 0 -0.0028242291632994466 0.015256527579534523 0 -0.0029448094749936187 0.01553754368794439 0 -0.0029317660176146382 0.015348086409823269 0 -0.0028582369262530943 0.015489800690383578 0 -0.0028988890446299386 0.015584731821574063 0 -0.0029448094749936187 0.01553754368794439 0 -0.0028582369262530943 0.015489800690383578 0 -0.0028242291632994466 0.015256527579534523 0 -0.0029140442316330784 0.015333183391758317 0 -0.0027110989662388406 0.01498080574852239 0 -0.0027601819795342675 0.015257085443542652 0 -0.0029317660176146382 0.015348086409823269 0 -0.0027601819795342675 0.015257085443542652 0 -0.0029317660176146382 0.015348086409823269 0 -0.0028715978517295524 0.015348893430833553 0 -0.0027110989662388406 0.01498080574852239 0 -0.0025635604596994637 0.015244971449128543 0 -0.0023379335263447585 0.015015588608076603 0 -0.0027110989662388406 0.01498080574852239 0 -0.0027601819795342675 0.015257085443542652 0 -0.0025635604596994637 0.015244971449128543 0 -0.0021051165750341585 0.01514096789264532 0 -0.0023379335263447585 0.015015588608076603 0 -0.0023111298028594338 0.015291058378524701 0 -0.0025635604596994637 0.015244971449128543 0 -0.0023379335263447585 0.015015588608076603 0 -0.0023111298028594338 0.015291058378524701 0 -0.0019099740924380798 0.015123069325827529 0 -0.0021051165750341585 0.01514096789264532 0 -0.0019126849583821297 0.014912855396185322 0 -0.0021051165750341585 0.01514096789264532 0 -0.0023111298028594338 0.015291058378524701 0 -0.0020656462675447806 0.015312172975701368 0 -0.0019099740924380798 0.015123069325827529 0 -0.0021051165750341585 0.01514096789264532 0 -0.0020656462675447806 0.015312172975701368 0 -0.0021051165750341585 0.01514096789264532 0 -0.0019126849583821297 0.014912855396185322 0 -0.0023379335263447585 0.015015588608076603 0 -0.0023424287962884242 0.014589705876736313 0 -0.0019126849583821297 0.014912855396185322 0 -0.0023379335263447585 0.015015588608076603 0 -0.0023424287962884242 0.014589705876736313 0 -0.0027110989662388406 0.01498080574852239 0 -0.0023379335263447585 0.015015588608076603 0 -0.0034125156378887814 0.015496057364423105 0 -0.003383771383850868 0.015554380579481488 0 -0.0033934117427978213 0.01558876035811488 0 -0.0037538999559287387 0.015588619323329854 0 -0.0033934117427978213 0.01558876035811488 0 -0.0035358492192292187 0.01556636768647633 0 -0.0035110542031485284 0.015409439714526608 0 -0.0034125156378887814 0.015496057364423105 0 -0.0033934117427978213 0.01558876035811488 0 -0.0036281380123811924 0.015500350469389915 0 -0.0034192238622881847 0.015565848890240697 0 -0.0037538999559287387 0.015588619323329854 0 -0.0035358492192292187 0.01556636768647633 0 -0.0038050528336153249 0.01547627484965582 0 -0.0035110542031485284 0.015409439714526608 0 -0.0034564805033346449 0.015481429016659085 0 -0.0035486782050497918 0.015509150824114951 0 -0.0035110542031485284 0.015409439714526608 0 -0.0034564805033346449 0.015481429016659085 0 -0.0034125156378887814 0.015496057364423105 0 -0.0034564805033346449 0.015481429016659085 0 -0.0034125156378887814 0.015496057364423105 0 -0.0034013675124452756 0.015501283619249488 0 -0.0033474676284290638 0.015503998810200767 0 -0.0033734887270492463 0.015502740834120577 0 -0.0034032325260044387 0.01553429574380694 0 -0.0034013675124452756 0.015501283619249488 0 -0.0033734887270492463 0.015502740834120577 0 -0.0033394270175886248 0.015513298542313529 0 -0.0033474676284290638 0.015503998810200767 0 -0.0033734887270492463 0.015502740834120577 0 -0.0033394270175886248 0.015513298542313529 0 -0.0034125156378887814 0.015496057364423105 0 -0.0034013675124452756 0.015501283619249488 0 -0.0033734887270492463 0.015502740834120577 0 -0.0031272941091759886 0.015513111580719054 0 -0.0031141903349342684 0.015434602464143911 0 -0.0033474676284290638 0.015503998810200767 0 -0.0034032325260044387 0.01553429574380694 0 -0.0032925743185247911 0.015492597766712484 0 -0.0029317660176146382 0.015348086409823269 0 -0.0028582369262530943 0.015489800690383578 0 -0.0029448177876365846 0.015321519619529815 0 -0.0034032325260044387 0.01553429574380694 0 -0.003383771383850868 0.015554380579481488 0 -0.0033205252928887809 0.015672557312115015 0 -0.0034125156378887814 0.015496057364423105 0 -0.0033734887270492463 0.015502740834120577 0 -0.003383771383850868 0.015554380579481488 0 -0.0033734887270492463 0.015502740834120577 0 -0.0034032325260044387 0.01553429574380694 0 -0.003383771383850868 0.015554380579481488 0 -0.0033205252928887809 0.015672557312115015 0 -0.0034029034399714522 0.01564862161231196 0 -0.0033934117427978213 0.01558876035811488 0 -0.003383771383850868 0.015554380579481488 0 -0.0033205252928887809 0.015672557312115015 0 -0.0033934117427978213 0.01558876035811488 0 -0.0031272941091759886 0.015513111580719054 0 -0.0030858285955486608 0.01563039480795067 0 -0.0028988890446299386 0.015584731821574063 0 -0.0028582369262530943 0.015489800690383578 0 -0.0028644850790162106 0.015623001064781646 0 -0.0028815259488099106 0.015638905119001342 0 -0.0028644850790162106 0.015623001064781646 0 -0.0029897859094682798 0.015681397850020463 0 -0.0028988890446299386 0.015584731821574063 0 -0.0028815259488099106 0.015638905119001342 0 -0.0028644850790162106 0.015623001064781646 0 -0.0033205252928887809 0.015672557312115015 0 -0.0033368761287142453 0.015708635480079652 0 -0.0029897859094682798 0.015681397850020463 0 -0.0033205252928887809 0.015672557312115015 0 -0.0033368761287142453 0.015708635480079652 0 -0.0034029034399714522 0.01564862161231196 0 -0.0030858285955486608 0.01563039480795067 0 -0.0030144061875258974 0.015656999942697258 0 -0.0033368761287142453 0.015708635480079652 0 -0.0034029034399714522 0.01564862161231196 0 -0.0035287199174658061 0.015709691141473709 0 -0.0034029034399714522 0.01564862161231196 0 -0.0035358492192292187 0.01556636768647633 0 -0.0035287199174658061 0.015709691141473709 0 -0.0034029034399714522 0.01564862161231196 0 -0.0033934117427978213 0.01558876035811488 0 -0.0035358492192292187 0.01556636768647633 0 -0.0035358492192292187 0.01556636768647633 0 -0.0035287199174658061 0.015709691141473709 0 -0.0037081491883563644 0.015822718186187874 0 -0.0035801475911615582 0.015567437214718011 0 -0.003844327609603836 0.015529829824432984 0 -0.0035358492192292187 0.01556636768647633 0 -0.0039671757903553349 0.015253022063804791 0 -0.0038050528336153249 0.01547627484965582 0 -0.0035925729841201947 0.015701884215551853 0 -0.0035287199174658061 0.015709691141473709 0 -0.0037081491883563644 0.015822718186187874 0 -0.0033368761287142453 0.015708635480079652 0 -0.0035925729841201947 0.015701884215551853 0 -0.0035287199174658061 0.015709691141473709 0 -0.0035925729841201947 0.015701884215551853 0 -0.0032950873978166281 0.01565899905031479 0 -0.0036717940000127766 0.015590889645209341 0 -0.0033368761287142453 0.015708635480079652 0 -0.0035925729841201947 0.015701884215551853 0 -0.0032950873978166281 0.01565899905031479 0 -0.0033368761287142453 0.015708635480079652 0 -0.0032950873978166281 0.01565899905031479 0 -0.0029897859094682798 0.015681397850020463 0 -0.0032950873978166281 0.01565899905031479 0 -0.0030230597628752597 0.015637913557151609 0 -0.0031855611925657467 0.015467797321261264 0 -0.0032950873978166281 0.01565899905031479 0 -0.0036717940000127766 0.015590889645209341 0 -0.0031855611925657467 0.015467797321261264 0 -0.0028445604852833767 0.015620655008730168 0 -0.0028815259488099106 0.015638905119001342 0 -0.0029897859094682798 0.015681397850020463 0 -0.0032950873978166281 0.01565899905031479 0 -0.0029897859094682798 0.015681397850020463 0 -0.0030230597628752597 0.015637913557151609 0 -0.0030230597628752597 0.015637913557151609 0 -0.0026521581657837083 0.015677702150163064 0 -0.0031855611925657467 0.015467797321261264 0 -0.0029897859094682798 0.015681397850020463 0 -0.0030230597628752597 0.015637913557151609 0 -0.0026521581657837083 0.015677702150163064 0 -0.002220794242235047 0.01584299046551332 0 -0.0026230600545663948 0.015702575711580746 0 -0.0028445604852833767 0.015620655008730168 0 -0.0029897859094682798 0.015681397850020463 0 -0.0026521581657837083 0.015677702150163064 0 -0.0019405539105027043 0.015421881299806711 0 -0.0026521581657837083 0.015677702150163064 0 -0.00249247595176801 0.014999913989291883 0 -0.0026521581657837083 0.015677702150163064 0 -0.00249247595176801 0.014999913989291883 0 -0.0031855611925657467 0.015467797321261264 0 -0.0016224539121467148 0.014999857192681442 0 -0.0019405539105027043 0.015421881299806711 0 -0.00249247595176801 0.014999913989291883 0 -0.0036717940000127766 0.015590889645209341 0 -0.0031855611925657467 0.015467797321261264 0 -0.0038935418808008016 0.015393758910431843 0 -0.00249247595176801 0.014999913989291883 0 -0.0031855611925657467 0.015467797321261264 0 -0.0033620557839474292 0.014999855789828409 0 -0.0031855611925657467 0.015467797321261264 0 -0.0033620557839474292 0.014999855789828409 0 -0.0038935418808008016 0.015393758910431843 0 -0.0033620557839474292 0.014999855789828409 0 -0.0038935418808008016 0.015393758910431843 0 -0.004231537760899089 0.014999936045833185 0 -0.0038935418808008016 0.015393758910431843 0 -0.0044318503966956409 0.015411952474209097 0 -0.0041054225607855327 0.015524738497654369 0 -0.0038935418808008016 0.015393758910431843 0 -0.0044318503966956409 0.015411952474209097 0 -0.004231537760899089 0.014999936045833185 0 -0.0044318503966956409 0.015411952474209097 0 -0.004231537760899089 0.014999936045833185 0 -0.0051013910153665382 0.014999816771181829 0 -0.0044318503966956409 0.015411952474209097 0 -0.0051013910153665382 0.014999816771181829 0 -0.0054862370702826171 0.015621102032485479 0 -0.0051013910153665382 0.014999816771181829 0 -0.0054862370702826171 0.015621102032485479 0 -0.0059715864046556207 0.015000075032830748 0 -0.0044318503966956409 0.015411952474209097 0 -0.0043561065286271562 0.01540289626444505 0 -0.0043386799130266411 0.015404532384245025 0 -0.0045181455124315107 0.015427934646000402 0 -0.0047885081699826221 0.015502871463059197 0 -0.0044318503966956409 0.015411952474209097 0 -0.0043386799130266411 0.015404532384245025 0 -0.0041054225607855327 0.015524738497654369 0 -0.0043561065286271562 0.01540289626444505 0 -0.0043386799130266411 0.015404532384245025 0 -0.004362205066835833 0.015373901703253839 0 -0.0043386799130266411 0.015404532384245025 0 -0.0043462231622071234 0.015389575536964741 0 -0.004362205066835833 0.015373901703253839 0 -0.0043386799130266411 0.015404532384245025 0 -0.0041054225607855327 0.015524738497654369 0 -0.0041306950163680486 0.015686542684666779 0 -0.0043386799130266411 0.015404532384245025 0 -0.0043462231622071234 0.015389575536964741 0 -0.0041306950163680486 0.015686542684666779 0 -0.0038559165617384548 0.015663983076215408 0 -0.0041054225607855327 0.015524738497654369 0 -0.0041306950163680486 0.015686542684666779 0 -0.0035925729841201947 0.015701884215551853 0 -0.0036717940000127766 0.015590889645209341 0 -0.0038559165617384548 0.015663983076215408 0 -0.0036717940000127766 0.015590889645209341 0 -0.0038559165617384548 0.015663983076215408 0 -0.0041054225607855327 0.015524738497654369 0 -0.0036717940000127766 0.015590889645209341 0 -0.0038935418808008016 0.015393758910431843 0 -0.0041054225607855327 0.015524738497654369 0 -0.0073986694225680024 0.015405839322963097 0 -0.0068859188559306185 0.014999959148299302 0 -0.008117374272552786 0.014999894206428699 0 -0.0073986694225680024 0.015405839322963097 0 -0.007070415444821552 0.015683372531092983 0 -0.0074000592914321029 0.01581555824802976 0 -0.0073986694225680024 0.015405839322963097 0 -0.0068859188559306185 0.014999959148299302 0 -0.007070415444821552 0.015683372531092983 0 -0.0068859188559306185 0.014999959148299302 0 -0.007070415444821552 0.015683372531092983 0 -0.0063801562172432734 0.015661288455657143 0 -0.0072999644318625483 0.015717948226960016 0 -0.005882498718995665 0.015525561001784784 0 -0.005882498718995665 0.015525561001784784 0 -0.0059719940295541426 0.015000522165042787 0 -0.0068859188559306185 0.014999959148299302 0 -0.0063801562172432734 0.015661288455657143 0 -0.0059715265673225973 0.014999992154160577 0 -0.0054862370702826171 0.015621102032485479 0 -0.006321725417983628 0.015693837128725061 0 -0.0059715864046556207 0.015000075032830748 0 -0.0047885081699826221 0.015502871463059197 0 -0.005882498718995665 0.015525561001784784 0 -0.0043561065286271562 0.01540289626444505 0 -0.0043590404732381594 0.015393617032308276 0 -0.004362205066835833 0.015373901703253839 0 -0.0043462231622071234 0.015389575536964741 0 -0.004362205066835833 0.015373901703253839 0 -0.0043644049532737201 0.015280158750515136 0 -0.004362205066835833 0.015373901703253839 0 -0.004337019594771673 0.015351785100783239 0 -0.0043644049532737201 0.015280158750515136 0 -0.0043590404732381594 0.015393617032308276 0 -0.004362205066835833 0.015373901703253839 0 -0.004337019594771673 0.015351785100783239 0 -0.005882498718995665 0.015525561001784784 0 -0.0055991564822701744 0.015621673347806691 0 -0.007070415444821552 0.015683372531092983 0 -0.0069913860681882871 0.016000500643943417 0 -0.007284108911693306 0.016046110943427228 0 -0.007070415444821552 0.015683372531092983 0 -0.0067677519199104124 0.01565554888564814 0 -0.0069913860681882871 0.016000500643943417 0 -0.0069913860681882871 0.016000500643943417 0 -0.0072500094202705926 0.016178274255924 0 -0.0071659353214511504 0.016251822482287966 0 -0.0055991564822701744 0.015621673347806691 0 -0.0058419039928150254 0.015933805077743463 0 -0.004337019594771673 0.015351785100783239 0 -0.0043243591135794261 0.015254426949935663 0 -0.0043644049532737201 0.015280158750515136 0 -0.0069913860681882871 0.016000500643943417 0 -0.007284108911693306 0.016046110943427228 0 -0.0072500094202705926 0.016178274255924 0 -0.0072980468379745369 0.016146868385012031 0 -0.0077325438025219262 0.01582197698907517 0 -0.007284108911693306 0.016046110943427228 0 -0.0072500094202705926 0.016178274255924 0 -0.007642337149475974 0.016145646063315214 0 -0.007284108911693306 0.016046110943427228 0 -0.0074000592914321029 0.01581555824802976 0 -0.007642337149475974 0.016145646063315214 0 -0.007070415444821552 0.015683372531092983 0 -0.007284108911693306 0.016046110943427228 0 -0.0074000592914321029 0.01581555824802976 0 -0.0043243591135794261 0.015254426949935663 0 -0.004363102891377587 0.015066747763881788 0 -0.0042878441437931847 0.01507834719224312 0 -0.0058419039928150254 0.015933805077743463 0 -0.0054876392975542676 0.015212118868395207 0 -0.0072500094202705926 0.016178274255924 0 -0.0071659353214511504 0.016251822482287966 0 -0.007476985778854037 0.016872356183830622 0 -0.0043243591135794261 0.015254426949935663 0 -0.0043802339043396274 0.01514656385952398 0 -0.0043644049532737201 0.015280158750515136 0 -0.0043243591135794261 0.015254426949935663 0 -0.0043802339043396274 0.01514656385952398 0 -0.004363102891377587 0.015066747763881788 0 -0.0043835372766817902 0.015167087791513288 0 -0.0043644049532737201 0.015280158750515136 0 -0.0043538081737170241 0.015237195179843926 0 -0.0043802339043396274 0.01514656385952398 0 -0.0043835372766817902 0.015167087791513288 0 -0.0043644049532737201 0.015280158750515136 0 -0.0043462231622071234 0.015389575536964741 0 -0.0043644049532737201 0.015280158750515136 0 -0.0043538081737170241 0.015237195179843926 0 -0.0043835372766817902 0.015167087791513288 0 -0.0043538081737170241 0.015237195179843926 0 -0.0043698454318226946 0.01517636497333528 0 -0.0043538081737170241 0.015237195179843926 0 -0.0043698454318226946 0.01517636497333528 0 -0.0043289164100092595 0.015232227848966096 0 -0.0043698454318226946 0.01517636497333528 0 -0.0043567734392840063 0.015183300359615064 0 -0.0043289164100092595 0.015232227848966096 0 -0.0043567734392840063 0.015183300359615064 0 -0.0042997329682624109 0.015259397970911895 0 -0.0043817360360711459 0.015138493718250146 0 -0.0043567734392840063 0.015183300359615064 0 -0.0043977339163422877 0.015102784240331705 0 -0.0043817360360711459 0.015138493718250146 0 -0.0043698454318226946 0.01517636497333528 0 -0.0043567734392840063 0.015183300359615064 0 -0.0043977339163422877 0.015102784240331705 0 -0.0043977339163422877 0.015102784240331705 0 -0.0044107908162269172 0.015053271448225903 0 -0.0043817360360711459 0.015138493718250146 0 -0.0043977339163422877 0.015102784240331705 0 -0.0044047580109658766 0.0150695409071494 0 -0.0044220312900795783 0.014997134147222251 0 -0.0043977339163422877 0.015102784240331705 0 -0.0044107908162269172 0.015053271448225903 0 -0.0044220312900795783 0.014997134147222251 0 -0.0043835372766817902 0.015167087791513288 0 -0.0043698454318226946 0.01517636497333528 0 -0.0043977339163422877 0.015102784240331705 0 -0.0043835372766817902 0.015167087791513288 0 -0.0043977339163422877 0.015102784240331705 0 -0.0044047580109658766 0.0150695409071494 0 -0.0043802339043396274 0.01514656385952398 0 -0.0043835372766817902 0.015167087791513288 0 -0.0044047580109658766 0.0150695409071494 0 -0.0043802339043396274 0.01514656385952398 0 -0.0043960727238461453 0.015033140506532457 0 -0.0044047580109658766 0.0150695409071494 0 -0.0043802339043396274 0.01514656385952398 0 -0.0043960727238461453 0.015033140506532457 0 -0.004363102891377587 0.015066747763881788 0 -0.0043960727238461453 0.015033140506532457 0 -0.0044047580109658766 0.0150695409071494 0 -0.0044147679519596387 0.01494031795905402 0 -0.0044047580109658766 0.0150695409071494 0 -0.0044220312900795783 0.014997134147222251 0 -0.0044147679519596387 0.01494031795905402 0 -0.0044107908162269172 0.015053271448225903 0 -0.0044220312900795783 0.014997134147222251 0 -0.0044302819207038989 0.014958431526091691 0 -0.0044220312900795783 0.014997134147222251 0 -0.0044324751070369895 0.014869054510799739 0 -0.0044302819207038989 0.014958431526091691 0 -0.0044220312900795783 0.014997134147222251 0 -0.0044324751070369895 0.014869054510799739 0 -0.0044147679519596387 0.01494031795905402 0 -0.0044324751070369895 0.014869054510799739 0 -0.0044147679519596387 0.01494031795905402 0 -0.0044162058043558973 0.014815402430953601 0 -0.0044147679519596387 0.01494031795905402 0 -0.0044162058043558973 0.014815402430953601 0 -0.0043798301662438715 0.014953464305855785 0 -0.0044324751070369895 0.014869054510799739 0 -0.0044274233137079986 0.014736865185455628 0 -0.0044162058043558973 0.014815402430953601 0 -0.0044274233137079986 0.014736865185455628 0 -0.0044162058043558973 0.014815402430953601 0 -0.0044236794839552741 0.014583248096706664 0 -0.0044162058043558973 0.014815402430953601 0 -0.0043798301662438715 0.014953464305855785 0 -0.0043186948639792914 0.01480935406720626 0 -0.0043798301662438715 0.014953464305855785 0 -0.0043318663618643841 0.015037740407240825 0 -0.0043186948639792914 0.01480935406720626 0 -0.0043960727238461453 0.015033140506532457 0 -0.0044147679519596387 0.01494031795905402 0 -0.0043798301662438715 0.014953464305855785 0 -0.0043960727238461453 0.015033140506532457 0 -0.0043798301662438715 0.014953464305855785 0 -0.004363102891377587 0.015066747763881788 0 -0.0043798301662438715 0.014953464305855785 0 -0.004363102891377587 0.015066747763881788 0 -0.0043318663618643841 0.015037740407240825 0 -0.004170528405037296 0.0151662193031833 0 -0.0054876392975542676 0.015212118868395207 0 -0.0039671757903553349 0.015253022063804791 0 -0.0042308401407041172 0.015224285024971092 0 -0.0041703410446977162 0.015351705430079798 0 -0.0039671757903553349 0.015253022063804791 0 -0.003970619346031757 0.015440675159144126 0 -0.0038050528336153249 0.01547627484965582 0 -0.0035925729841201947 0.015701884215551853 0 -0.0038559165617384548 0.015663983076215408 0 -0.0037081491883563644 0.015822718186187874 0 -0.003844327609603836 0.015529829824432984 0 -0.0041655722339976374 0.015457004331603116 0 -0.0038559165617384548 0.015663983076215408 0 -0.0037081491883563644 0.015822718186187874 0 -0.0041306950163680486 0.015686542684666779 0 -0.0043189852388557 0.015401405656281394 0 -0.0041655722339976374 0.015457004331603116 0 -0.0043462231622071234 0.015389575536964741 0 -0.0042308401407041172 0.015224285024971092 0 -0.004306060076386219 0.0152638402595335 0 -0.0043462231622071234 0.015389575536964741 0 -0.0043538081737170241 0.015237195179843926 0 -0.004306060076386219 0.0152638402595335 0 -0.0043538081737170241 0.015237195179843926 0 -0.004306060076386219 0.0152638402595335 0 -0.0043289164100092595 0.015232227848966096 0 -0.0042308401407041172 0.015224285024971092 0 -0.004306060076386219 0.0152638402595335 0 -0.0041703410446977162 0.015351705430079798 0 -0.004306060076386219 0.0152638402595335 0 -0.0042530248731218918 0.015304132951248522 0 -0.0041703410446977162 0.015351705430079798 0 -0.004306060076386219 0.0152638402595335 0 -0.0043289164100092595 0.015232227848966096 0 -0.0042530248731218918 0.015304132951248522 0 -0.0043567734392840063 0.015183300359615064 0 -0.0043289164100092595 0.015232227848966096 0 -0.0042997329682624109 0.015259397970911895 0 -0.0043289164100092595 0.015232227848966096 0 -0.0042997329682624109 0.015259397970911895 0 -0.0042530248731218918 0.015304132951248522 0 -0.0041754088012887136 0.015386466791477316 0 -0.0042530248731218918 0.015304132951248522 0 -0.0041703410446977162 0.015351705430079798 0 -0.0042997329682624109 0.015259397970911895 0 -0.0041754088012887136 0.015386466791477316 0 -0.0042530248731218918 0.015304132951248522 0 -0.0041754088012887136 0.015386466791477316 0 -0.0041703410446977162 0.015351705430079798 0 -0.0040737059984082679 0.015488268785895333 0 -0.0041703410446977162 0.015351705430079798 0 -0.003970619346031757 0.015440675159144126 0 -0.0040737059984082679 0.015488268785895333 0 -0.0039671757903553349 0.015253022063804791 0 -0.0041703410446977162 0.015351705430079798 0 -0.003970619346031757 0.015440675159144126 0 -0.0037538999559287387 0.015588619323329854 0 -0.003970619346031757 0.015440675159144126 0 -0.0038050528336153249 0.01547627484965582 0 -0.0036281380123811924 0.015500350469389915 0 -0.0039307085029129628 0.015438279717028644 0 -0.0037538999559287387 0.015588619323329854 0 -0.003970619346031757 0.015440675159144126 0 -0.0040737059984082679 0.015488268785895333 0 -0.0035110542031485284 0.015409439714526608 0 -0.0037882974416539707 0.015386246696189453 0 -0.0035486782050497918 0.015509150824114951 0 -0.0037120525496586593 0.015525669790196341 0 -0.0037882974416539707 0.015386246696189453 0 -0.0035486782050497918 0.015509150824114951 0 -0.0037120525496586593 0.015525669790196341 0 -0.0035486782050497918 0.015509150824114951 0 -0.0036059891773603373 0.015601938521949524 0 -0.0051511284335424316 0.01512004155841995 0 -0.0051426411703390674 0.01518027395395451 0 -0.0048080572634439803 0.015207004129297569 0 -0.0037120525496586593 0.015525669790196341 0 -0.0037451554955330261 0.015664235418111176 0 -0.0036059891773603373 0.015601938521949524 0 -0.0037120525496586593 0.015525669790196341 0 -0.0037451554955330261 0.015664235418111176 0 -0.0039086793847696128 0.015497214436369016 0 -0.0051511284335424316 0.01512004155841995 0 -0.0052776637721206193 0.015022654504356399 0 -0.0052770004875461714 0.015033966870376163 0 -0.0044648580955348816 0.015365970283688567 0 -0.0046424754400530167 0.015439584746419634 0 -0.0037451554955330261 0.015664235418111176 0 -0.0039086793847696128 0.015497214436369016 0 -0.0041415819640546279 0.01554175911083896 0 -0.0051511284335424316 0.01512004155841995 0 -0.0052770004875461714 0.015033966870376163 0 -0.0051426411703390674 0.01518027395395451 0 -0.0037120525496586593 0.015525669790196341 0 -0.0039086793847696128 0.015497214436369016 0 -0.0037882974416539707 0.015386246696189453 0 -0.0039307085029129628 0.015438279717028644 0 -0.0041546454228073675 0.015427228308543395 0 -0.0039086793847696128 0.015497214436369016 0 -0.0037882974416539707 0.015386246696189453 0 -0.004171192973746538 0.01540900269356507 0 -0.0041754088012887136 0.015386466791477316 0 -0.0040737059984082679 0.015488268785895333 0 -0.004171192973746538 0.01540900269356507 0 -0.0041754088012887136 0.015386466791477316 0 -0.0042295054460713757 0.015343321931441382 0 -0.004171192973746538 0.01540900269356507 0 -0.0042997329682624109 0.015259397970911895 0 -0.0041754088012887136 0.015386466791477316 0 -0.0042295054460713757 0.015343321931441382 0 -0.0042997329682624109 0.015259397970911895 0 -0.0042659031634353466 0.015332384878343531 0 -0.0043435578031012032 0.015227323302788696 0 -0.0042997329682624109 0.015259397970911895 0 -0.0042295054460713757 0.015343321931441382 0 -0.0042659031634353466 0.015332384878343531 0 -0.0042295054460713757 0.015343321931441382 0 -0.0042659031634353466 0.015332384878343531 0 -0.004171192973746538 0.01540900269356507 0 -0.0054425325668477275 0.012744426233012923 0 -0.0050551927093583993 0.013873793428448588 0 -0.0054332996650698255 0.010750394234075578 0 -0.005428728010222328 0.010715062804026638 0 -0.0054365192999942533 0.010708467331502285 0 -0.0046424754400530167 0.015439584746419634 0 -0.0050551927093583993 0.013873793428448588 0 -0.0042659031634353466 0.015332384878343531 0 -0.0041415819640546279 0.01554175911083896 0 -0.004355007548016431 0.015306942298527691 0 -0.0052776637721206193 0.015022654504356399 0 -0.0052770004875461714 0.015033966870376163 0 -0.0052922958907925758 0.014919484809698189 0 -0.0039086793847696128 0.015497214436369016 0 -0.004171192973746538 0.01540900269356507 0 -0.0041415819640546279 0.01554175911083896 0 -0.0042659031634353466 0.015332384878343531 0 -0.004171192973746538 0.01540900269356507 0 -0.0041415819640546279 0.01554175911083896 0 -0.0054332996650698255 0.010750394234075578 0 -0.0054961981558512051 0.010701628301073423 0 -0.0055924449704630851 0.010722092344221864 0 -0.0054332996650698255 0.010750394234075578 0 -0.0054961981558512051 0.010701628301073423 0 -0.0054430792374242764 0.010708847235161956 0 -0.0054332996650698255 0.010750394234075578 0 -0.0054430792374242764 0.010708847235161956 0 -0.005428728010222328 0.010715062804026638 0 -0.0054430792374242764 0.010708847235161956 0 -0.0054372339756252079 0.010659668844522687 0 -0.005428728010222328 0.010715062804026638 0 -0.0054961981558512051 0.010701628301073423 0 -0.0054430792374242764 0.010708847235161956 0 -0.0054372339756252079 0.010659668844522687 0 -0.0054961981558512051 0.010701628301073423 0 -0.0054372339756252079 0.010659668844522687 0 -0.0055626197467708288 0.010625708109300483 0 -0.0054372339756252079 0.010659668844522687 0 -0.0054243428749295008 0.0107002877153372 0 -0.0054160614315346923 0.010687138518423159 0 -0.005428728010222328 0.010715062804026638 0 -0.0054243428749295008 0.0107002877153372 0 -0.0054365192999942533 0.010708467331502285 0 -0.0054372339756252079 0.010659668844522687 0 -0.005428728010222328 0.010715062804026638 0 -0.0054243428749295008 0.0107002877153372 0 -0.0049705647754289886 0.010149643860180737 0 -0.0050952458077594756 0.01024760745330236 0 -0.0049073595986008972 0.010073468811058079 0 -0.0052066749231239311 0.010431255472694058 0 -0.005306628107856504 0.010385467045251194 0 -0.0054372339756252079 0.010659668844522687 0 -0.0054160614315346923 0.010687138518423159 0 -0.0054497835287308141 0.010546533045038964 0 -0.0054372339756252079 0.010659668844522687 0 -0.0054497835287308141 0.010546533045038964 0 -0.0055626197467708288 0.010625708109300483 0 -0.005306628107856504 0.010385467045251194 0 -0.0056779768156036163 0.010311991691422809 0 -0.0054497835287308141 0.010546533045038964 0 -0.0056946508137435776 0.010292744933060528 0 -0.0055626197467708288 0.010625708109300483 0 -0.0056946508137435776 0.010292744933060528 0 -0.0057446323137572948 0.010579206677733191 0 -0.0055626197467708288 0.010625708109300483 0 -0.0056946508137435776 0.010292744933060528 0 -0.0060205516489033207 0.010039475263680457 0 -0.0061182422311198735 0.010413983654323816 0 -0.0056946508137435776 0.010292744933060528 0 -0.0057446323137572948 0.010579206677733191 0 -0.0061182422311198735 0.010413983654323816 0 -0.0057446323137572948 0.010579206677733191 0 -0.0061244595757049772 0.010642661299201859 0 -0.0061182422311198735 0.010413983654323816 0 -0.0057446323137572948 0.010579206677733191 0 -0.0058127798311551782 0.010837859026041253 0 -0.0056752805790531938 0.010698938280221601 0 -0.0057446323137572948 0.010579206677733191 0 -0.0058127798311551782 0.010837859026041253 0 -0.0061244595757049772 0.010642661299201859 0 -0.0054425325668477275 0.012744426233012923 0 -0.0054563098284782906 0.013029779335506265 0 -0.0058127798311551782 0.010837859026041253 0 -0.0055924449704630851 0.010722092344221864 0 -0.0056752805790531938 0.010698938280221601 0 -0.0054332996650698255 0.010750394234075578 0 -0.0058127798311551782 0.010837859026041253 0 -0.0055924449704630851 0.010722092344221864 0 -0.0054961981558512051 0.010701628301073423 0 -0.0055924449704630851 0.010722092344221864 0 -0.0055626197467708288 0.010625708109300483 0 -0.0055924449704630851 0.010722092344221864 0 -0.0055626197467708288 0.010625708109300483 0 -0.0056752805790531938 0.010698938280221601 0 -0.0057446323137572948 0.010579206677733191 0 -0.0055626197467708288 0.010625708109300483 0 -0.0056752805790531938 0.010698938280221601 0 -0.0055494249927088117 0.010841837629006134 0 -0.0055482529268663242 0.010826686103726661 0 -0.0055635294662217854 0.010903634739399738 0 -0.0055494249927088117 0.010841837629006134 0 -0.0055377937951372278 0.010795607409703244 0 -0.0055482529268663242 0.010826686103726661 0 -0.004445548546787156 0.014739165016479004 0 -0.0044248450324472256 0.014622114776308114 0 -0.0043982925362369314 0.014680603382590852 0 -0.0044248450324472256 0.014622114776308114 0 -0.0044327050779755031 0.014738967857106716 0 -0.0044276579853244815 0.014547702982363166 0 -0.004445548546787156 0.014739165016479004 0 -0.0044248450324472256 0.014622114776308114 0 -0.0044327050779755031 0.014738967857106716 0 -0.0044274233137079986 0.014736865185455628 0 -0.0044327050779755031 0.014738967857106716 0 -0.0044276579853244815 0.014547702982363166 0 -0.0044324751070369895 0.014869054510799739 0 -0.0044274233137079986 0.014736865185455628 0 -0.0044327050779755031 0.014738967857106716 0 -0.0044324751070369895 0.014869054510799739 0 -0.0044327050779755031 0.014738967857106716 0 -0.0044385207574385386 0.014861813107222319 0 -0.0044395201340317108 0.014804402173243568 0 -0.0044327050779755031 0.014738967857106716 0 -0.0044385207574385386 0.014861813107222319 0 -0.004445548546787156 0.014739165016479004 0 -0.0044395201340317108 0.014804402173243568 0 -0.0044402455942400033 0.014857837648715108 0 -0.004445548546787156 0.014739165016479004 0 -0.0044395201340317108 0.014804402173243568 0 -0.0044327050779755031 0.014738967857106716 0 -0.004445548546787156 0.014739165016479004 0 -0.0044402455942400033 0.014857837648715108 0 -0.0044376304665320618 0.014926445946784384 0 -0.0044402455942400033 0.014857837648715108 0 -0.0044385207574385386 0.014861813107222319 0 -0.004434365441665063 0.014948362000485728 0 -0.0044395201340317108 0.014804402173243568 0 -0.0044402455942400033 0.014857837648715108 0 -0.0044385207574385386 0.014861813107222319 0 -0.0044324751070369895 0.014869054510799739 0 -0.0044385207574385386 0.014861813107222319 0 -0.0044302819207038989 0.014958431526091691 0 -0.0044385207574385386 0.014861813107222319 0 -0.0044302819207038989 0.014958431526091691 0 -0.004434365441665063 0.014948362000485728 0 -0.0044302819207038989 0.014958431526091691 0 -0.004434365441665063 0.014948362000485728 0 -0.0044204389212282669 0.015030085911665637 0 -0.0044402455942400033 0.014857837648715108 0 -0.004434365441665063 0.014948362000485728 0 -0.0044376304665320618 0.014926445946784384 0 -0.004434365441665063 0.014948362000485728 0 -0.0044376304665320618 0.014926445946784384 0 -0.0044289546995258345 0.01501521225045536 0 -0.0044376304665320618 0.014926445946784384 0 -0.0044367721877975642 0.014942774562823391 0 -0.0044289546995258345 0.01501521225045536 0 -0.004445548546787156 0.014739165016479004 0 -0.0044367721877975642 0.014942774562823391 0 -0.0044291603933007458 0.015077294501675515 0 -0.0044367721877975642 0.014942774562823391 0 -0.0044291603933007458 0.015077294501675515 0 -0.0044289546995258345 0.01501521225045536 0 -0.0044779725075428109 0.014749006203491127 0 -0.0044873492118472783 0.014943702968958129 0 -0.0055494249927088117 0.010841837629006134 0 -0.0055377937951372278 0.010795607409703244 0 -0.0055141418540636325 0.010734476036332697 0 -0.0055377937951372278 0.010795607409703244 0 -0.0055141418540636325 0.010734476036332697 0 -0.0055338694357140086 0.010774586633290433 0 -0.0049575900557840939 0.012768494904104019 0 -0.0051853526456070182 0.012524470912436438 0 -0.004445548546787156 0.014739165016479004 0 -0.0047405746474753858 0.014585778570291861 0 -0.0047733129763594647 0.014617311159845957 0 -0.004445548546787156 0.014739165016479004 0 -0.0043982925362369314 0.014680603382590852 0 -0.0047405746474753858 0.014585778570291861 0 -0.004445548546787156 0.014739165016479004 0 -0.0044376304665320618 0.014926445946784384 0 -0.0044367721877975642 0.014942774562823391 0 -0.0051853526456070182 0.012524470912436438 0 -0.0050551927093583993 0.013873793428448588 0 -0.0044291603933007458 0.015077294501675515 0 -0.0043967268862214904 0.015128816474785664 0 -0.004355007548016431 0.015306942298527691 0 -0.0047405746474753858 0.014585778570291861 0 -0.0047733129763594647 0.014617311159845957 0 -0.0051260753407153855 0.0144889125573951 0 -0.0044873492118472783 0.014943702968958129 0 -0.0050551927093583993 0.013873793428448588 0 -0.0055141418540636325 0.010734476036332697 0 -0.0054365192999942533 0.010708467331502285 0 -0.0054769762436560577 0.010722570009908896 0 -0.0055141418540636325 0.010734476036332697 0 -0.0054769762436560577 0.010722570009908896 0 -0.0055011510425001311 0.010732322638725263 0 -0.0055141418540636325 0.010734476036332697 0 -0.0055011510425001311 0.010732322638725263 0 -0.005520051378227156 0.0107435257653867 0 -0.0044291603933007458 0.015077294501675515 0 -0.0044289546995258345 0.01501521225045536 0 -0.0043967268862214904 0.015128816474785664 0 -0.004434365441665063 0.014948362000485728 0 -0.0044289546995258345 0.01501521225045536 0 -0.0044204389212282669 0.015030085911665637 0 -0.0044289546995258345 0.01501521225045536 0 -0.0044204389212282669 0.015030085911665637 0 -0.0043967268862214904 0.015128816474785664 0 -0.0044107908162269172 0.015053271448225903 0 -0.0044302819207038989 0.014958431526091691 0 -0.0044204389212282669 0.015030085911665637 0 -0.0044107908162269172 0.015053271448225903 0 -0.0044204389212282669 0.015030085911665637 0 -0.0043817360360711459 0.015138493718250146 0 -0.0044204389212282669 0.015030085911665637 0 -0.0043967268862214904 0.015128816474785664 0 -0.0043817360360711459 0.015138493718250146 0 -0.0042997329682624109 0.015259397970911895 0 -0.0043817360360711459 0.015138493718250146 0 -0.0043435578031012032 0.015227323302788696 0 -0.0043967268862214904 0.015128816474785664 0 -0.0043817360360711459 0.015138493718250146 0 -0.0043435578031012032 0.015227323302788696 0 -0.0042659031634353466 0.015332384878343531 0 -0.0043435578031012032 0.015227323302788696 0 -0.004355007548016431 0.015306942298527691 0 -0.0043967268862214904 0.015128816474785664 0 -0.0043435578031012032 0.015227323302788696 0 -0.004355007548016431 0.015306942298527691 0 -0.0054243428749295008 0.0107002877153372 0 -0.0054365192999942533 0.010708467331502285 0 -0.0054506189288617158 0.010711125789140678 0 -0.0054365192999942533 0.010708467331502285 0 -0.0054506189288617158 0.010711125789140678 0 -0.0054769762436560577 0.010722570009908896 0 -0.0054506189288617158 0.010711125789140678 0 -0.0054843907066451335 0.010724464690625395 0 -0.0054769762436560577 0.010722570009908896 0 -0.0054243428749295008 0.0107002877153372 0 -0.0054160614315346923 0.010687138518423159 0 -0.0054506189288617158 0.010711125789140678 0 -0.0054160614315346923 0.010687138518423159 0 -0.0054506189288617158 0.010711125789140678 0 -0.0054941759011948978 0.010734804984185163 0 -0.0049705647754289886 0.010149643860180737 0 -0.0053973142290329621 0.010331236546787678 0 -0.0052590716616013142 0.010375145710036454 0 -0.0052066749231239311 0.010431255472694058 0 -0.0054207476662476925 0.010537046632964392 0 -0.0053973142290329621 0.010331236546787678 0 -0.0054979217486138821 0.010560245744054774 0 -0.0054446759211685481 0.010463725273132161 0 -0.0053973142290329621 0.010331236546787678 0 -0.0054446759211685481 0.010463725273132161 0 -0.0052590716616013142 0.010375145710036454 0 -0.0054941759011948978 0.010734804984185163 0 -0.0055075977261451227 0.010731139578017841 0 -0.0055293195430269719 0.010732602146749535 0 -0.0055075977261451227 0.010731139578017841 0 -0.0054843907066451335 0.010724464690625395 0 -0.0055011510425001311 0.010732322638725263 0 -0.0054506189288617158 0.010711125789140678 0 -0.0054941759011948978 0.010734804984185163 0 -0.0054843907066451335 0.010724464690625395 0 -0.0054941759011948978 0.010734804984185163 0 -0.0055075977261451227 0.010731139578017841 0 -0.0054843907066451335 0.010724464690625395 0 -0.0054843907066451335 0.010724464690625395 0 -0.0054769762436560577 0.010722570009908896 0 -0.0055011510425001311 0.010732322638725263 0 -0.0055075977261451227 0.010731139578017841 0 -0.0055011510425001311 0.010732322638725263 0 -0.005520051378227156 0.0107435257653867 0 -0.0055338694357140086 0.010774586633290433 0 -0.0055293195430269719 0.010732602146749535 0 -0.0055218856276105172 0.010667101488155853 0 -0.005520051378227156 0.0107435257653867 0 -0.0055338694357140086 0.010774586633290433 0 -0.0055293195430269719 0.010732602146749535 0 -0.0055075977261451227 0.010731139578017841 0 -0.005520051378227156 0.0107435257653867 0 -0.0055293195430269719 0.010732602146749535 0 -0.0055141418540636325 0.010734476036332697 0 -0.005520051378227156 0.0107435257653867 0 -0.0055338694357140086 0.010774586633290433 0 -0.0054941759011948978 0.010734804984185163 0 -0.0055293195430269719 0.010732602146749535 0 -0.0055218856276105172 0.010667101488155853 0 -0.0054207476662476925 0.010537046632964392 0 -0.0054936039049760495 0.01063728083589234 0 -0.0053973142290329621 0.010331236546787678 0 -0.0055218856276105172 0.010667101488155853 0 -0.0054979217486138821 0.010560245744054774 0 -0.0055218856276105172 0.010667101488155853 0 -0.005499967275268379 0.010627972408763262 0 -0.0054979217486138821 0.010560245744054774 0 -0.0055218856276105172 0.010667101488155853 0 -0.005499967275268379 0.010627972408763262 0 -0.0055553198655885379 0.010798621454882581 0 -0.0055338694357140086 0.010774586633290433 0 -0.0055218856276105172 0.010667101488155853 0 -0.0055482529268663242 0.010826686103726661 0 -0.0055218856276105172 0.010667101488155853 0 -0.0055482529268663242 0.010826686103726661 0 -0.0055553198655885379 0.010798621454882581 0 -0.0055377937951372278 0.010795607409703244 0 -0.0055338694357140086 0.010774586633290433 0 -0.0055482529268663242 0.010826686103726661 0 -0.0054063605362687618 0.010472810074329557 0 -0.005499967275268379 0.010627972408763262 0 -0.0054435162833634705 0.010501209479760808 0 -0.0054063605362687618 0.010472810074329557 0 -0.0054435162833634705 0.010501209479760808 0 -0.0053767071697099688 0.010357143364309989 0 -0.0054979217486138821 0.010560245744054774 0 -0.005462718165422137 0.010496899074073191 0 -0.0054435162833634705 0.010501209479760808 0 -0.005499967275268379 0.010627972408763262 0 -0.0054979217486138821 0.010560245744054774 0 -0.0054435162833634705 0.010501209479760808 0 -0.0054979217486138821 0.010560245744054774 0 -0.005462718165422137 0.010496899074073191 0 -0.0054446759211685481 0.010463725273132161 0 -0.005462718165422137 0.010496899074073191 0 -0.0054435162833634705 0.010501209479760808 0 -0.005430188047745481 0.01039264434732364 0 -0.0054435162833634705 0.010501209479760808 0 -0.005430188047745481 0.01039264434732364 0 -0.0053767071697099688 0.010357143364309989 0 -0.005430188047745481 0.01039264434732364 0 -0.0055923485708980402 0.010334953246912611 0 -0.0054946067680425566 0.010182555809137945 0 -0.005462718165422137 0.010496899074073191 0 -0.005430188047745481 0.01039264434732364 0 -0.005483264917400906 0.010468166838411489 0 -0.005430188047745481 0.01039264434732364 0 -0.0055923485708980402 0.010334953246912611 0 -0.005483264917400906 0.010468166838411489 0 -0.005462718165422137 0.010496899074073191 0 -0.0054446759211685481 0.010463725273132161 0 -0.005483264917400906 0.010468166838411489 0 -0.0054446759211685481 0.010463725273132161 0 -0.005483264917400906 0.010468166838411489 0 -0.0052590716616013142 0.010375145710036454 0 -0.0052590716616013142 0.010375145710036454 0 -0.0046896636890852474 0.0097613016409479701 0 -0.0049073595986008972 0.010073468811058079 0 -0.0052907790077526334 0.010292945892996739 0 -0.0053621021074307506 0.010050448090575224 0 -0.0049705647754289886 0.010149643860180737 0 -0.0052590716616013142 0.010375145710036454 0 -0.0049073595986008972 0.010073468811058079 0 -0.005483264917400906 0.010468166838411489 0 -0.0052590716616013142 0.010375145710036454 0 -0.0059616278111643845 0.010452043294363819 0 -0.0055923485708980402 0.010334953246912611 0 -0.0059616278111643845 0.010452043294363819 0 -0.0058109836342817344 0.010092190432607352 0 -0.0055923485708980402 0.010334953246912611 0 -0.005483264917400906 0.010468166838411489 0 -0.0059616278111643845 0.010452043294363819 0 -0.0058109836342817344 0.010092190432607352 0 -0.0060119004869582954 0.0095459688027021566 0 -0.0066818942779043166 0.0098681030135196034 0 -0.0058109836342817344 0.010092190432607352 0 -0.0060119004869582954 0.0095459688027021566 0 -0.0056055583178404094 0.0097861773059605209 0 -0.0060119004869582954 0.0095459688027021566 0 -0.005700322035834606 0.0093518158409372897 0 -0.005984572220042692 0.0090230272050221393 0 -0.0060119004869582954 0.0095459688027021566 0 -0.0056055583178404094 0.0097861773059605209 0 -0.005700322035834606 0.0093518158409372897 0 -0.0056055583178404094 0.0097861773059605209 0 -0.005700322035834606 0.0093518158409372897 0 -0.0053185351681351413 0.0094295045018761691 0 -0.0056055583178404094 0.0097861773059605209 0 -0.0053185351681351413 0.0094295045018761691 0 -0.0053673154917615274 0.0099394934530104909 0 -0.0056055583178404094 0.0097861773059605209 0 -0.0054946067680425566 0.010182555809137945 0 -0.0053673154917615274 0.0099394934530104909 0 -0.0058109836342817344 0.010092190432607352 0 -0.0056055583178404094 0.0097861773059605209 0 -0.0054946067680425566 0.010182555809137945 0 -0.0055923485708980402 0.010334953246912611 0 -0.0058109836342817344 0.010092190432607352 0 -0.0054946067680425566 0.010182555809137945 0 -0.005430188047745481 0.01039264434732364 0 -0.0054946067680425566 0.010182555809137945 0 -0.0053144881778753915 0.010217225233409375 0 -0.005430188047745481 0.01039264434732364 0 -0.0053144881778753915 0.010217225233409375 0 -0.0053767071697099688 0.010357143364309989 0 -0.0053144881778753915 0.010217225233409375 0 -0.0053767071697099688 0.010357143364309989 0 -0.0053298717543132793 0.010233259103202915 0 -0.0053033418150803518 0.010143205616057339 0 -0.0053135277181751601 0.010071666838396493 0 -0.0054946067680425566 0.010182555809137945 0 -0.0053144881778753915 0.010217225233409375 0 -0.0053673154917615274 0.0099394934530104909 0 -0.0053144881778753915 0.010217225233409375 0 -0.0050460465647200886 0.0099255781495826353 0 -0.0053673154917615274 0.0099394934530104909 0 -0.0053266575059941531 0.0093239778962945791 0 -0.0053135277181751601 0.010071666838396493 0 -0.0053185351681351413 0.0094295045018761691 0 -0.0050460465647200886 0.0099255781495826353 0 -0.0053673154917615274 0.0099394934530104909 0 -0.0048801585155369949 0.0097432290492323621 0 -0.004894879901712201 0.009219151935547433 0 -0.0043444447226520955 0.0090026376250954068 0 -0.0053214212828910611 0.0092388802479627507 0 -0.0048801585155369949 0.0097432290492323621 0 -0.004894879901712201 0.009219151935547433 0 -0.0053135277181751601 0.010071666838396493 0 -0.0049029415364360181 0.0098297805953196909 0 -0.0060148306532185969 0.010410953494161934 0 -0.0058444191010535544 0.010404543204329111 0 -0.0059036170684914312 0.010227179737195009 0 -0.0058412630514344541 0.010581938153585794 0 -0.0060148306532185969 0.010410953494161934 0 -0.0058444191010535544 0.010404543204329111 0 -0.0056781223735535898 0.010535990633644151 0 -0.0053135277181751601 0.010071666838396493 0 -0.0054063605362687618 0.010472810074329557 0 -0.0053767071697099688 0.010357143364309989 0 -0.0053298717543132793 0.010233259103202915 0 -0.0056099004126144618 0.0097202213994219428 0 -0.0050309265529252063 0.0096815122095720938 0 -0.0054125834655095253 0.0091731565190533403 0 -0.0056099004126144618 0.0097202213994219428 0 -0.0054125834655095253 0.0091731565190533403 0 -0.0059580820310164827 0.0091679308756827012 0 -0.0056099004126144618 0.0097202213994219428 0 -0.0059580820310164827 0.0091679308756827012 0 -0.0062299425604659979 0.0096380681042782107 0 -0.0056099004126144618 0.0097202213994219428 0 -0.0060205516489033207 0.010039475263680457 0 -0.0062299425604659979 0.0096380681042782107 0 -0.0056946508137435776 0.010292744933060528 0 -0.0056099004126144618 0.0097202213994219428 0 -0.0060205516489033207 0.010039475263680457 0 -0.0050952458077594756 0.01024760745330236 0 -0.0056946508137435776 0.010292744933060528 0 -0.0056099004126144618 0.0097202213994219428 0 -0.0050952458077594756 0.01024760745330236 0 -0.0049073595986008972 0.010073468811058079 0 -0.0050309265529252063 0.0096815122095720938 0 -0.0050952458077594756 0.01024760745330236 0 -0.0056099004126144618 0.0097202213994219428 0 -0.0050309265529252063 0.0096815122095720938 0 -0.0046896636890852474 0.0097613016409479701 0 -0.0049073595986008972 0.010073468811058079 0 -0.0050309265529252063 0.0096815122095720938 0 -0.0046896636890852474 0.0097613016409479701 0 -0.0050309265529252063 0.0096815122095720938 0 -0.0046299974154990669 0.0089165729878464342 0 -0.0050309265529252063 0.0096815122095720938 0 -0.0050314069077688761 0.008783881931823067 0 -0.0054125834655095253 0.0091731565190533403 0 -0.0050309265529252063 0.0096815122095720938 0 -0.0050314069077688761 0.008783881931823067 0 -0.0046299974154990669 0.0089165729878464342 0 -0.0059616278111643845 0.010452043294363819 0 -0.0058109836342817344 0.010092190432607352 0 -0.0066818942779043166 0.0098681030135196034 0 -0.0053621021074307506 0.010050448090575224 0 -0.0056680438274616619 0.0093608794192156768 0 -0.0060119004869582954 0.0095459688027021566 0 -0.0066818942779043166 0.0098681030135196034 0 -0.0064641235555909903 0.0089139936304447071 0 -0.0066818942779043166 0.0098681030135196034 0 -0.0073547434810245461 0.0090322207806088489 0 -0.0064641235555909903 0.0089139936304447071 0 -0.0056680438274616619 0.0093608794192156768 0 -0.0060340016223244166 0.0084503757723424795 0 -0.0050314069077688761 0.008783881931823067 0 -0.0046299974154990669 0.0089165729878464342 0 -0.0046916391388077804 0.0079290412119595675 0 -0.0050314069077688761 0.008783881931823067 0 -0.005536504559688145 0.0084915715835785187 0 -0.0046916391388077804 0.0079290412119595675 0 -0.0050314069077688761 0.008783881931823067 0 -0.0054125834655095253 0.0091731565190533403 0 -0.005536504559688145 0.0084915715835785187 0 -0.0054125834655095253 0.0091731565190533403 0 -0.0059580820310164827 0.0091679308756827012 0 -0.005536504559688145 0.0084915715835785187 0 -0.0059580820310164827 0.0091679308756827012 0 -0.005536504559688145 0.0084915715835785187 0 -0.006302719364794482 0.0086301921703655967 0 -0.005536504559688145 0.0084915715835785187 0 -0.0059138849976129873 0.0080125504559262414 0 -0.0053887174825441291 0.00753988415662656 0 -0.005536504559688145 0.0084915715835785187 0 -0.0059138849976129873 0.0080125504559262414 0 -0.006302719364794482 0.0086301921703655967 0 -0.0059138849976129873 0.0080125504559262414 0 -0.0067348806318635627 0.0081142065385489907 0 -0.006302719364794482 0.0086301921703655967 0 -0.0067348806318635627 0.0081142065385489907 0 -0.0069127441531047938 0.0087029391396801718 0 -0.0073617916434356003 0.0084906014679888599 0 -0.0067348806318635627 0.0081142065385489907 0 -0.0069127441531047938 0.0087029391396801718 0 -0.006302719364794482 0.0086301921703655967 0 -0.0069127441531047938 0.0087029391396801718 0 -0.0066693707283078793 0.0092481049436003871 0 -0.0071988777484026101 0.009135633256134543 0 -0.0069127441531047938 0.0087029391396801718 0 -0.006302719364794482 0.0086301921703655967 0 -0.0066693707283078793 0.0092481049436003871 0 -0.0059580820310164827 0.0091679308756827012 0 -0.006302719364794482 0.0086301921703655967 0 -0.0066693707283078793 0.0092481049436003871 0 -0.0059580820310164827 0.0091679308756827012 0 -0.0062299425604659979 0.0096380681042782107 0 -0.0066693707283078793 0.0092481049436003871 0 -0.0062299425604659979 0.0096380681042782107 0 -0.0066693707283078793 0.0092481049436003871 0 -0.0068201912530366218 0.0098403745337088139 0 -0.0066693707283078793 0.0092481049436003871 0 -0.0068201912530366218 0.0098403745337088139 0 -0.0071208123742555812 0.0095694780992717186 0 -0.0066693707283078793 0.0092481049436003871 0 -0.0071208123742555812 0.0095694780992717186 0 -0.0071988777484026101 0.009135633256134543 0 -0.0068201912530366218 0.0098403745337088139 0 -0.0064557925246840966 0.010093995667507223 0 -0.0069755321838562362 0.010222256310725805 0 -0.0062299425604659979 0.0096380681042782107 0 -0.0068201912530366218 0.0098403745337088139 0 -0.0064557925246840966 0.010093995667507223 0 -0.0060205516489033207 0.010039475263680457 0 -0.0062299425604659979 0.0096380681042782107 0 -0.0064557925246840966 0.010093995667507223 0 -0.0077872929220214699 0.0096742495092824801 0 -0.0073913703557026414 0.010009548995969949 0 -0.0078437075284002195 0.010221654528570658 0 -0.0077872929220214699 0.0096742495092824801 0 -0.0082014632802872144 0.0097928234546066778 0 -0.0078437075284002195 0.010221654528570658 0 -0.0077872929220214699 0.0096742495092824801 0 -0.0080037978441276584 0.0093750834402994213 0 -0.0082014632802872144 0.0097928234546066778 0 -0.0068201912530366218 0.0098403745337088139 0 -0.0073913703557026414 0.010009548995969949 0 -0.0069755321838562362 0.010222256310725805 0 -0.0068201912530366218 0.0098403745337088139 0 -0.0073913703557026414 0.010009548995969949 0 -0.0071208123742555812 0.0095694780992717186 0 -0.0073913703557026414 0.010009548995969949 0 -0.0074386910403081595 0.0096176773432274671 0 -0.0071208123742555812 0.0095694780992717186 0 -0.0077872929220214699 0.0096742495092824801 0 -0.0073913703557026414 0.010009548995969949 0 -0.0074386910403081595 0.0096176773432274671 0 -0.0074386910403081595 0.0096176773432274671 0 -0.0071988777484026101 0.009135633256134543 0 -0.0076666726125708207 0.0090860166186883876 0 -0.0074386910403081595 0.0096176773432274671 0 -0.0071208123742555812 0.0095694780992717186 0 -0.0071988777484026101 0.009135633256134543 0 -0.0077872929220214699 0.0096742495092824801 0 -0.0080037978441276584 0.0093750834402994213 0 -0.0076666726125708207 0.0090860166186883876 0 -0.0077872929220214699 0.0096742495092824801 0 -0.0074386910403081595 0.0096176773432274671 0 -0.0076666726125708207 0.0090860166186883876 0 -0.0080037978441276584 0.0093750834402994213 0 -0.0079431684335343096 0.0090809291322322596 0 -0.0080936177941952417 0.0091557916985362878 0 -0.0080037978441276584 0.0093750834402994213 0 -0.0079431684335343096 0.0090809291322322596 0 -0.0076666726125708207 0.0090860166186883876 0 -0.0076666726125708207 0.0090860166186883876 0 -0.0073617916434356003 0.0084906014679888599 0 -0.0078848152572121195 0.0084524859480065925 0 -0.0079431684335343096 0.0090809291322322596 0 -0.0078848152572121195 0.0084524859480065925 0 -0.0082213111983564496 0.0090908044094330231 0 -0.0079431684335343096 0.0090809291322322596 0 -0.0076666726125708207 0.0090860166186883876 0 -0.0078848152572121195 0.0084524859480065925 0 -0.0070381906737519264 0.0055821539450316617 0 -0.0064574941835573475 0.0069736912066366823 0 -0.0069127441531047938 0.0087029391396801718 0 -0.0071988777484026101 0.009135633256134543 0 -0.0073617916434356003 0.0084906014679888599 0 -0.0071988777484026101 0.009135633256134543 0 -0.0076666726125708207 0.0090860166186883876 0 -0.0073617916434356003 0.0084906014679888599 0 -0.0073617916434356003 0.0084906014679888599 0 -0.0078848152572121195 0.0084524859480065925 0 -0.0075219966049927672 0.0077337810707044669 0 -0.0067348806318635627 0.0081142065385489907 0 -0.0073617916434356003 0.0084906014679888599 0 -0.0075219966049927672 0.0077337810707044669 0 -0.0070381906737519264 0.0055821539450316617 0 -0.0067892040433782238 0.0053165853172460146 0 -0.0061198890845708068 0.0029531150391540638 0 -0.0061483320036808927 0.0029421077234466414 0 -0.0061549135759991006 0.0028774001594573154 0 -0.0061483320036808927 0.0029421077234466414 0 -0.0061236649077390749 0.0029548280358078567 0 -0.0061549135759991006 0.0028774001594573154 0 -0.0061483320036808927 0.0029421077234466414 0 -0.006138346041768418 0.0029535144985962246 0 -0.0061236649077390749 0.0029548280358078567 0 -0.0061483320036808927 0.0029421077234466414 0 -0.006138346041768418 0.0029535144985962246 0 -0.0061530796582706937 0.0029704443650478041 0 -0.0061198890845708068 0.0029531150391540638 0 -0.0061483320036808927 0.0029421077234466414 0 -0.0061530796582706937 0.0029704443650478041 0 -0.0079431684335343096 0.0090809291322322596 0 -0.0082213111983564496 0.0090908044094330231 0 -0.0080936177941952417 0.0091557916985362878 0 -0.0059585880758321105 0.0031289573581876774 0 -0.006057747086957329 0.0030188141944124968 0 -0.0060507616106462506 0.0030077143420700662 0 -0.006057747086957329 0.0030188141944124968 0 -0.0061236649077390749 0.0029548280358078567 0 -0.0060507616106462506 0.0030077143420700662 0 -0.006138346041768418 0.0029535144985962246 0 -0.0061236649077390749 0.0029548280358078567 0 -0.0060859067239991483 0.0029566032048237703 0 -0.0061236649077390749 0.0029548280358078567 0 -0.0060859067239991483 0.0029566032048237703 0 -0.0060507616106462506 0.0030077143420700662 0 -0.0059305083005179032 0.0029610554524682228 0 -0.0060859067239991483 0.0029566032048237703 0 -0.0060507616106462506 0.0030077143420700662 0 -0.0059305083005179032 0.0029610554524682228 0 -0.0058648325534017571 0.0028067946445160604 0 -0.0059923194503234793 0.0028862480889881763 0 -0.0059305083005179032 0.0029610554524682228 0 -0.0060859067239991483 0.0029566032048237703 0 -0.0059923194503234793 0.0028862480889881763 0 -0.0060859067239991483 0.0029566032048237703 0 -0.0059923194503234793 0.0028862480889881763 0 -0.0060755829490948916 0.0027982273725223575 0 -0.0060859067239991483 0.0029566032048237703 0 -0.0060755829490948916 0.0027982273725223575 0 -0.0061514526240806049 0.0029111252507624617 0 -0.0058600268746460942 0.0052301242970639256 0 -0.00553479563759609 0.0054139831872501952 0 -0.0052601343691006212 0.0082941714918439054 0 -0.0053221963874539235 0.0082807749930755327 0 -0.005254583103654023 0.0082790712579540876 0 -0.0073527601829740299 0.0089634865754140824 0 -0.0046488838051889254 0.012000663187300007 0 -0.0058600268746460942 0.0052301242970639256 0 -0.0026591245077904049 0.010027943274516877 0 -0.0058648325534017571 0.0028067946445160604 0 -0.0060755829490948916 0.0027982273725223575 0 -0.0058888118051608684 0.002614667978118556 0 -0.0058648325534017571 0.0028067946445160604 0 -0.0059923194503234793 0.0028862480889881763 0 -0.0060755829490948916 0.0027982273725223575 0 -0.0064574941835573475 0.0069736912066366823 0 -0.0073527601829740299 0.0089634865754140824 0 -0.0080037978441276584 0.0093750834402994213 0 -0.0082213111983564496 0.0090908044094330231 0 -0.0082014632802872144 0.0097928234546066778 0 -0.0064574941835573475 0.0069736912066366823 0 -0.00553479563759609 0.0054139831872501952 0 -0.0082213111983564496 0.0090908044094330231 0 -0.0086042721483927925 0.0097531724687692171 0 -0.0082014632802872144 0.0097928234546066778 0 -0.0080037978441276584 0.0093750834402994213 0 -0.0082213111983564496 0.0090908044094330231 0 -0.0080936177941952417 0.0091557916985362878 0 -0.0053768723181904492 0.0082337229244772367 0 -0.0053285157965890645 0.0082734157912760196 0 -0.0053221963874539235 0.0082807749930755327 0 -0.006138346041768418 0.0029535144985962246 0 -0.0060859067239991483 0.0029566032048237703 0 -0.0061514526240806049 0.0029111252507624617 0 -0.006138346041768418 0.0029535144985962246 0 -0.0061530796582706937 0.0029704443650478041 0 -0.0061514526240806049 0.0029111252507624617 0 -0.0052601343691006212 0.0082941714918439054 0 -0.0053285157965890645 0.0082734157912760196 0 -0.0053221963874539235 0.0082807749930755327 0 -0.0086042721483927925 0.0097531724687692171 0 -0.0082014632802872144 0.0097928234546066778 0 -0.0082769134843788186 0.010467974094983654 0 -0.0082014632802872144 0.0097928234546066778 0 -0.0082769134843788186 0.010467974094983654 0 -0.0078437075284002195 0.010221654528570658 0 -0.0059745507434755115 0.01333034468122197 0 -0.0046488838051889254 0.012000663187300007 0 -0.0086042721483927925 0.0097531724687692171 0 -0.0082769134843788186 0.010467974094983654 0 -0.0089746594862385263 0.010331804275047497 0 -0.0032339327430011785 0.015896502210336935 0 -0.0024450093143705593 0.016036155220452781 0 -0.0025063864013662304 0.015631843313904853 0 -0.0030998009889018014 0.015562133097529676 0 -0.0025485172160826315 0.01562233541724339 0 -0.0032339327430011785 0.015896502210336935 0 -0.003345933036604771 0.015415267260787621 0 -0.0025063864013662304 0.015631843313904853 0 -0.0032339327430011785 0.015896502210336935 0 -0.003345933036604771 0.015415267260787621 0 -0.004114024203722263 0.015643551848211874 0 -0.0052601343691006212 0.0082941714918439054 0 -0.0051798067142183038 0.0082910212596317596 0 -0.005254583103654023 0.0082790712579540876 0 -0.0011113918878537517 0.014332159802754001 0 -0.0019099048115605525 0.014199113900013095 0 -0.0013734243108051375 0.013589731146779747 0 -0.0026591245077904049 0.010027943274516877 0 -0.0046488838051889254 0.012000663187300007 0 -0.0046488838051889254 0.012000663187300007 0 -0.001739549201345862 0.014897825709871981 0 -0.0024450093143705593 0.016036155220452781 0 -0.0025063864013662304 0.015631843313904853 0 -0.0022061815697022474 0.015710226643685311 0 -0.0015234187925585116 0.014248287967740083 0 -0.001739549201345862 0.014897825709871981 0 -0.0020112440123545212 0.01551812700740017 0 -0.0022061815697022474 0.015710226643685311 0 -0.0022671464261635023 0.015483226679414942 0 -0.0025063864013662304 0.015631843313904853 0 -0.0022671464261635023 0.015483226679414942 0 -0.0024910701999512432 0.015442643043274617 0 -0.0025063864013662304 0.015631843313904853 0 -0.0022061815697022474 0.015710226643685311 0 -0.0022671464261635023 0.015483226679414942 0 -0.0022671464261635023 0.015483226679414942 0 -0.0024910701999512432 0.015442643043274617 0 -0.0023111298028594338 0.015291058378524701 0 -0.0025635604596994637 0.015244971449128543 0 -0.0024910701999512432 0.015442643043274617 0 -0.0023111298028594338 0.015291058378524701 0 -0.0020112440123545212 0.01551812700740017 0 -0.0022671464261635023 0.015483226679414942 0 -0.0020656462675447806 0.015312172975701368 0 -0.0022671464261635023 0.015483226679414942 0 -0.0023111298028594338 0.015291058378524701 0 -0.0020656462675447806 0.015312172975701368 0 -0.0028058069681037418 0.015537380149060804 0 -0.0026741914938110353 0.015546178842386422 0 -0.0027490846493357758 0.015404815771434141 0 -0.0028058069681037418 0.015537380149060804 0 -0.0028912508952689702 0.01544056879408545 0 -0.0030533540230114572 0.015638107780766113 0 -0.002844314236244279 0.015704495277445676 0 -0.0028058069681037418 0.015537380149060804 0 -0.0030533540230114572 0.015638107780766113 0 -0.002844314236244279 0.015704495277445676 0 -0.0028058069681037418 0.015537380149060804 0 -0.0026741914938110353 0.015546178842386422 0 -0.0025063864013662304 0.015631843313904853 0 -0.0024910701999512432 0.015442643043274617 0 -0.0026741914938110353 0.015546178842386422 0 -0.002844314236244279 0.015704495277445676 0 -0.0025063864013662304 0.015631843313904853 0 -0.0026741914938110353 0.015546178842386422 0 -0.0024910701999512432 0.015442643043274617 0 -0.0026741914938110353 0.015546178842386422 0 -0.0027490846493357758 0.015404815771434141 0 -0.0025635604596994637 0.015244971449128543 0 -0.0024910701999512432 0.015442643043274617 0 -0.0027490846493357758 0.015404815771434141 0 -0.0027601819795342675 0.015257085443542652 0 -0.0025635604596994637 0.015244971449128543 0 -0.0027490846493357758 0.015404815771434141 0 -0.0027601819795342675 0.015257085443542652 0 -0.0027490846493357758 0.015404815771434141 0 -0.0028715978517295524 0.015348893430833553 0 -0.0028058069681037418 0.015537380149060804 0 -0.0027490846493357758 0.015404815771434141 0 -0.0028912508952689702 0.01544056879408545 0 -0.0027490846493357758 0.015404815771434141 0 -0.0028912508952689702 0.01544056879408545 0 -0.0028715978517295524 0.015348893430833553 0 -0.0032925743185247911 0.015492597766712484 0 -0.0032587092715804017 0.015555182061215735 0 -0.0030533540230114572 0.015638107780766113 0 -0.0029317660176146382 0.015348086409823269 0 -0.0028715978517295524 0.015348893430833553 0 -0.0029448177876365846 0.015321519619529815 0 -0.0031141903349342684 0.015434602464143911 0 -0.0030579795959599044 0.015640060179791526 0 -0.0028912508952689702 0.01544056879408545 0 -0.0028715978517295524 0.015348893430833553 0 -0.0029448177876365846 0.015321519619529815 0 -0.0028912508952689702 0.01544056879408545 0 -0.0029448177876365846 0.015321519619529815 0 -0.0030533540230114572 0.015638107780766113 0 -0.0032925743185247911 0.015492597766712484 0 -0.0032587092715804017 0.015555182061215735 0 -0.0033394270175886248 0.015513298542313529 0 -0.0033474676284290638 0.015503998810200767 0 -0.0032925743185247911 0.015492597766712484 0 -0.0033394270175886248 0.015513298542313529 0 -0.002844314236244279 0.015704495277445676 0 -0.0030533540230114572 0.015638107780766113 0 -0.003308071489839485 0.015708156082842418 0 -0.0032587092715804017 0.015555182061215735 0 -0.0032420221834120059 0.015607268934941762 0 -0.0030533540230114572 0.015638107780766113 0 -0.0032420221834120059 0.015607268934941762 0 -0.0030533540230114572 0.015638107780766113 0 -0.003308071489839485 0.015708156082842418 0 -0.0033266752828938905 0.015617217184412304 0 -0.0034008530014233568 0.015643067258926748 0 -0.003308071489839485 0.015708156082842418 0 -0.0032420221834120059 0.015607268934941762 0 -0.0033266752828938905 0.015617217184412304 0 -0.003308071489839485 0.015708156082842418 0 -0.0032420221834120059 0.015607268934941762 0 -0.0033266752828938905 0.015617217184412304 0 -0.0032999602251814349 0.015565843320192438 0 -0.0033266752828938905 0.015617217184412304 0 -0.0032999602251814349 0.015565843320192438 0 -0.0033596839408706878 0.015572874159425962 0 -0.0032587092715804017 0.015555182061215735 0 -0.0032420221834120059 0.015607268934941762 0 -0.0032999602251814349 0.015565843320192438 0 -0.0033266752828938905 0.015617217184412304 0 -0.0033596839408706878 0.015572874159425962 0 -0.0034008530014233568 0.015643067258926748 0 -0.0033596839408706878 0.015572874159425962 0 -0.0033394270175886248 0.015513298542313529 0 -0.0033922337237800417 0.01553686468641941 0 -0.0032587092715804017 0.015555182061215735 0 -0.0032999602251814349 0.015565843320192438 0 -0.0033394270175886248 0.015513298542313529 0 -0.0032999602251814349 0.015565843320192438 0 -0.0033596839408706878 0.015572874159425962 0 -0.0033394270175886248 0.015513298542313529 0 -0.0034013675124452756 0.015501283619249488 0 -0.0033394270175886248 0.015513298542313529 0 -0.0033922337237800417 0.01553686468641941 0 -0.0034013675124452756 0.015501283619249488 0 -0.0034501000797974974 0.015523582531174055 0 -0.0033922337237800417 0.01553686468641941 0 -0.0034564805033346449 0.015481429016659085 0 -0.0034013675124452756 0.015501283619249488 0 -0.0034501000797974974 0.015523582531174055 0 -0.0034501000797974974 0.015523582531174055 0 -0.0034799878331519762 0.015570858282741696 0 -0.0034248687817404625 0.015574408063828322 0 -0.0033596839408706878 0.015572874159425962 0 -0.0034248687817404625 0.015574408063828322 0 -0.0033922337237800417 0.01553686468641941 0 -0.0034501000797974974 0.015523582531174055 0 -0.0034248687817404625 0.015574408063828322 0 -0.0033922337237800417 0.01553686468641941 0 -0.0034564805033346449 0.015481429016659085 0 -0.0034501000797974974 0.015523582531174055 0 -0.0035486782050497918 0.015509150824114951 0 -0.0034501000797974974 0.015523582531174055 0 -0.0034799878331519762 0.015570858282741696 0 -0.0035486782050497918 0.015509150824114951 0 -0.0034799878331519762 0.015570858282741696 0 -0.0035486782050497918 0.015509150824114951 0 -0.0035246179670859177 0.015606087393989129 0 -0.0044648580955348816 0.015365970283688567 0 -0.0041493980298595223 0.015444464292281777 0 -0.0037451554955330261 0.015664235418111176 0 -0.0036059891773603373 0.015601938521949524 0 -0.0034958937907667701 0.015673669770264333 0 -0.0035486782050497918 0.015509150824114951 0 -0.0036059891773603373 0.015601938521949524 0 -0.0035246179670859177 0.015606087393989129 0 -0.0035246179670859177 0.015606087393989129 0 -0.0034958937907667701 0.015673669770264333 0 -0.0034630016215949945 0.015615888613446769 0 -0.0036059891773603373 0.015601938521949524 0 -0.0035246179670859177 0.015606087393989129 0 -0.0034958937907667701 0.015673669770264333 0 -0.0034958937907667701 0.015673669770264333 0 -0.0034008530014233568 0.015643067258926748 0 -0.003308071489839485 0.015708156082842418 0 -0.0041493980298595223 0.015444464292281777 0 -0.0037451058871572551 0.015498810179983006 0 -0.0033596839408706878 0.015572874159425962 0 -0.0034248687817404625 0.015574408063828322 0 -0.0034008530014233568 0.015643067258926748 0 -0.0034248687817404625 0.015574408063828322 0 -0.0034630016215949945 0.015615888613446769 0 -0.0034008530014233568 0.015643067258926748 0 -0.0034799878331519762 0.015570858282741696 0 -0.0034248687817404625 0.015574408063828322 0 -0.0034630016215949945 0.015615888613446769 0 -0.0034799878331519762 0.015570858282741696 0 -0.0035246179670859177 0.015606087393989129 0 -0.0034630016215949945 0.015615888613446769 0 -0.0034958937907667701 0.015673669770264333 0 -0.0034630016215949945 0.015615888613446769 0 -0.0034008530014233568 0.015643067258926748 0 -0.006606300401373247 0.010808984074527897 0 -0.0069565731028787487 0.010527064490762423 0 -0.0074800256535763349 0.010656352703452693 0 -0.0048080572634439803 0.015207004129297569 0 -0.0047763284496555574 0.015384853316372312 0 -0.0041859733409697966 0.015293279781226807 0 -0.0058127798311551782 0.010837859026041253 0 -0.006606300401373247 0.010808984074527897 0 -0.0061244595757049772 0.010642661299201859 0 -0.006606300401373247 0.010808984074527897 0 -0.0061244595757049772 0.010642661299201859 0 -0.0063583908259051735 0.010565584514830235 0 -0.0054563098284782906 0.013029779335506265 0 -0.0056999816271416041 0.013092898454459134 0 -0.0051426411703390674 0.01518027395395451 0 -0.0048080572634439803 0.015207004129297569 0 -0.0047763284496555574 0.015384853316372312 0 -0.006606300401373247 0.010808984074527897 0 -0.0063583908259051735 0.010565584514830235 0 -0.0065973701621188366 0.010403199981857462 0 -0.0064557925246840966 0.010093995667507223 0 -0.0061182422311198735 0.010413983654323816 0 -0.0065973701621188366 0.010403199981857462 0 -0.0061182422311198735 0.010413983654323816 0 -0.0063583908259051735 0.010565584514830235 0 -0.0065973701621188366 0.010403199981857462 0 -0.0061244595757049772 0.010642661299201859 0 -0.0061182422311198735 0.010413983654323816 0 -0.0063583908259051735 0.010565584514830235 0 -0.0060205516489033207 0.010039475263680457 0 -0.0064557925246840966 0.010093995667507223 0 -0.0061182422311198735 0.010413983654323816 0 -0.0064557925246840966 0.010093995667507223 0 -0.0065973701621188366 0.010403199981857462 0 -0.0069755321838562362 0.010222256310725805 0 -0.0069565731028787487 0.010527064490762423 0 -0.0065973701621188366 0.010403199981857462 0 -0.0069755321838562362 0.010222256310725805 0 -0.006606300401373247 0.010808984074527897 0 -0.0069565731028787487 0.010527064490762423 0 -0.0065973701621188366 0.010403199981857462 0 -0.0069565731028787487 0.010527064490762423 0 -0.0072679469237053656 0.010347342278166942 0 -0.0074800256535763349 0.010656352703452693 0 -0.0073913703557026414 0.010009548995969949 0 -0.0069755321838562362 0.010222256310725805 0 -0.0072679469237053656 0.010347342278166942 0 -0.0069565731028787487 0.010527064490762423 0 -0.0069755321838562362 0.010222256310725805 0 -0.0072679469237053656 0.010347342278166942 0 -0.0072679469237053656 0.010347342278166942 0 -0.0074963773384296838 0.010307691763345301 0 -0.0074800256535763349 0.010656352703452693 0 -0.0073913703557026414 0.010009548995969949 0 -0.0072679469237053656 0.010347342278166942 0 -0.0074963773384296838 0.010307691763345301 0 -0.0073913703557026414 0.010009548995969949 0 -0.0074963773384296838 0.010307691763345301 0 -0.0078437075284002195 0.010221654528570658 0 -0.0082769134843788186 0.010467974094983654 0 -0.0078437075284002195 0.010221654528570658 0 -0.0074800256535763349 0.010656352703452693 0 -0.0074963773384296838 0.010307691763345301 0 -0.0078437075284002195 0.010221654528570658 0 -0.0074800256535763349 0.010656352703452693 0 -0.0059745507434755115 0.01333034468122197 0 -0.0057363008908563329 0.013132024078904911 0 -0.0030998009889018014 0.015562133097529676 0 -0.0037451058871572551 0.015498810179983006 0 -0.003345933036604771 0.015415267260787621 0 -0.0041859733409697966 0.015293279781226807 0 -0.004114024203722263 0.015643551848211874 0 -0.0047763284496555574 0.015384853316372312 0 -0.0041859733409697966 0.015293279781226807 0 -0.004114024203722263 0.015643551848211874 0 -0.0056999816271416041 0.013092898454459134 0 -0.0057363008908563329 0.013132024078904911 0 -0.01525780164799476 0.01161201474078883 0 -0.015251506783588229 0.011796725211585535 0 -0.015270744744109572 0.011743955175158489 0 -0.015000307885336827 0.011944111010534384 0 -0.01525780164799476 0.01161201474078883 0 -0.015270744744109572 0.011743955175158489 0 -0.015000307885336827 0.011944111010534384 0 -0.01525780164799476 0.01161201474078883 0 -0.014999741671603914 0.011132774380021167 0 -0.015336606885772585 0.011958129285463751 0 -0.015385652045680534 0.011368346594894019 0 -0.01525780164799476 0.01161201474078883 0 -0.015251506783588229 0.011796725211585535 0 -0.015533136234080076 0.011117061570876132 0 -0.014672605993723302 0.012020830625672989 0 -0.015251506783588229 0.011796725211585535 0 -0.014839923051389446 0.012439598818063962 0 -0.015251506783588229 0.011796725211585535 0 -0.014839923051389446 0.012439598818063962 0 -0.015459273820091249 0.012571101645903467 0 -0.014672605993723302 0.012020830625672989 0 -0.014336005116628126 0.012350970984762889 0 -0.014839923051389446 0.012439598818063962 0 -0.014672605993723302 0.012020830625672989 0 -0.01480471613881866 0.011701180420940741 0 -0.014246441690807833 0.011922127910046954 0 -0.014672605993723302 0.012020830625672989 0 -0.01480471613881866 0.011701180420940741 0 -0.015251506783588229 0.011796725211585535 0 -0.01480471613881866 0.011701180420940741 0 -0.015251506783588229 0.011796725211585535 0 -0.015114557334447372 0.011592772994733764 0 -0.01480471613881866 0.011701180420940741 0 -0.014586147201603089 0.011096577095255794 0 -0.014246441690807833 0.011922127910046954 0 -0.01480471613881866 0.011701180420940741 0 -0.015114557334447372 0.011592772994733764 0 -0.014586147201603089 0.011096577095255794 0 -0.013584333865382716 0.015401210436645014 0 -0.01442957751263361 0.014669905589516878 0 -0.013769358525618704 0.014876314346046667 0 -0.01403113703522612 0.013217052121674532 0 -0.014937261949065641 0.013238125196763298 0 -0.013584333865382716 0.015401210436645014 0 -0.01442957751263361 0.014669905589516878 0 -0.01454644314181373 0.014767382163732868 0 -0.015114557334447372 0.011592772994733764 0 -0.014586147201603089 0.011096577095255794 0 -0.015178081500222077 0.011284182051196398 0 -0.015020490915095296 0.013731682970852225 0 -0.014937261949065641 0.013238125196763298 0 -0.014570946848759857 0.014610211342682235 0 -0.014999698855044527 0.013036292636467561 0 -0.014789038759529314 0.014032161878130266 0 -0.014937261949065641 0.013238125196763298 0 -0.015332462133041461 0.011947778015905472 0 -0.015855535879539064 0.012923573407444584 0 -0.015432875794481897 0.01244210947005512 0 -0.015323327124526852 0.012722730950583678 0 -0.01442957751263361 0.014669905589516878 0 -0.014570946848759857 0.014610211342682235 0 -0.014789038759529314 0.014032161878130266 0 -0.015251506783588229 0.011796725211585535 0 -0.015114557334447372 0.011592772994733764 0 -0.015270744744109572 0.011743955175158489 0 -0.015114557334447372 0.011592772994733764 0 -0.015178081500222077 0.011284182051196398 0 -0.015270744744109572 0.011743955175158489 0 -0.015000131380543687 0.0119453212324435 0 -0.015332462133041461 0.011947778015905472 0 -0.015000003323928635 0.011945253241625719 0 -0.015432875794481897 0.01244210947005512 0 -0.014999989015331793 0.012489152186677108 0 -0.015432875794481897 0.01244210947005512 0 -0.014999989015331793 0.012489152186677108 0 -0.015323327124526852 0.012722730950583678 0 -0.014999989015331793 0.012489152186677108 0 -0.014999997532536899 0.01303300484206819 0 -0.015323327124526852 0.012722730950583678 0 -0.014937261949065641 0.013238125196763298 0 -0.015000097619210891 0.013033646811105066 0 -0.015855535879539064 0.012923573407444584 0 -0.014999997532536899 0.01303300484206819 0 -0.015323327124526852 0.012722730950583678 0 -0.014999698855044527 0.013036292636467561 0 -0.014789038759529314 0.014032161878130266 0 -0.014999800371741638 0.013783780781985036 0 -0.014999945164633377 0.014997756375427211 0 -0.013492163280487175 0.014950924799895357 0 -0.012012571039697726 0.014999322752811807 0 -0.01442957751263361 0.014669905589516878 0 -0.014789038759529314 0.014032161878130266 0 -0.014250512367913103 0.014458404668478343 0 -0.014789038759529314 0.014032161878130266 0 -0.014615601839926265 0.013972209024945274 0 -0.014250512367913103 0.014458404668478343 0 -0.014789038759529314 0.014032161878130266 0 -0.014615601839926265 0.013972209024945274 0 -0.014999800371741638 0.013783780781985036 0 -0.014502278949594329 0.014318292557816614 0 -0.014999786213907742 0.013785573681863611 0 -0.014451379714501583 0.014641617026228414 0 -0.014998517836500677 0.013789389110644564 0 -0.014999945164633377 0.014997756375427211 0 -0.014451379714501583 0.014641617026228414 0 -0.014999945164633377 0.014997756375427211 0 -0.013492163280487175 0.014950924799895357 0 -0.014451379714501583 0.014641617026228414 0 -0.013492163280487175 0.014950924799895357 0 -0.013689816992917698 0.014824026623274826 0 -0.013689816992917698 0.014824026623274826 0 -0.013769358525618704 0.014876314346046667 0 -0.013347510415257398 0.014993200559478611 0 -0.013492163280487175 0.014950924799895357 0 -0.013689816992917698 0.014824026623274826 0 -0.013347510415257398 0.014993200559478611 0 -0.014615601839926265 0.013972209024945274 0 -0.013689816992917698 0.014824026623274826 0 -0.014250512367913103 0.014458404668478343 0 -0.014502278949594329 0.014318292557816614 0 -0.013792985414730329 0.014728560129962513 0 -0.01442957751263361 0.014669905589516878 0 -0.014250512367913103 0.014458404668478343 0 -0.013769358525618704 0.014876314346046667 0 -0.013584333865382716 0.015401210436645014 0 -0.013769358525618704 0.014876314346046667 0 -0.013181004486187366 0.015224875606686603 0 -0.013689816992917698 0.014824026623274826 0 -0.014250512367913103 0.014458404668478343 0 -0.013769358525618704 0.014876314346046667 0 -0.013769358525618704 0.014876314346046667 0 -0.013181004486187366 0.015224875606686603 0 -0.013347510415257398 0.014993200559478611 0 -0.013181004486187366 0.015224875606686603 0 -0.013026305527080324 0.015142454888240484 0 -0.013347510415257398 0.014993200559478611 0 -0.013181004486187366 0.015224875606686603 0 -0.013026305527080324 0.015142454888240484 0 -0.01268390599289769 0.015271998847397548 0 -0.013181004486187366 0.015224875606686603 0 -0.01268390599289769 0.015271998847397548 0 -0.012892754967944951 0.015732236081110552 0 -0.012953521635304053 0.015063029359187408 0 -0.012811962213884335 0.015105685499029834 0 -0.01244615399968698 0.015152431786779483 0 -0.013026305527080324 0.015142454888240484 0 -0.012953521635304053 0.015063029359187408 0 -0.01268390599289769 0.015271998847397548 0 -0.013492163280487175 0.014950924799895357 0 -0.012953521635304053 0.015063029359187408 0 -0.013347510415257398 0.014993200559478611 0 -0.013026305527080324 0.015142454888240484 0 -0.012953521635304053 0.015063029359187408 0 -0.013347510415257398 0.014993200559478611 0 -0.013492163280487175 0.014950924799895357 0 -0.012953521635304053 0.015063029359187408 0 -0.012811962213884335 0.015105685499029834 0 -0.013492163280487175 0.014950924799895357 0 -0.012811962213884335 0.015105685499029834 0 -0.012012571039697726 0.014999322752811807 0 -0.012811962213884335 0.015105685499029834 0 -0.012012571039697726 0.014999322752811807 0 -0.011869202578965501 0.015513291301045713 0 -0.012730603233935808 0.01513478184622891 0 -0.012149344860100593 0.015188618258983913 0 -0.012811962213884335 0.015105685499029834 0 -0.012462716834073115 0.014905714167618775 0 -0.01244615399968698 0.015152431786779483 0 -0.012012571039697726 0.014999322752811807 0 -0.011869202578965501 0.015513291301045713 0 -0.0111260958423049 0.015597279213345996 0 -0.012149344860100593 0.015188618258983913 0 -0.011426181193839714 0.015146399502365602 0 -0.012462716834073115 0.014905714167618775 0 -0.01244615399968698 0.015152431786779483 0 -0.01175516864602893 0.014699864559005195 0 -0.012334509706002198 0.014850576558745526 0 -0.011896658389840003 0.015128550927406951 0 -0.01140171263861669 0.0147591917380109 0 -0.012334509706002198 0.014850576558745526 0 -0.011896658389840003 0.015128550927406951 0 -0.012281005630563085 0.015247513313787984 0 -0.012379304875661844 0.015002468321406467 0 -0.011467738968793099 0.014939345485194905 0 -0.012915188227263629 0.015054294432530974 0 -0.012379304875661844 0.015002468321406467 0 -0.012953521635304053 0.015063029359187408 0 -0.012334509706002198 0.014850576558745526 0 -0.01268390599289769 0.015271998847397548 0 -0.012334509706002198 0.014850576558745526 0 -0.01268390599289769 0.015271998847397548 0 -0.012281005630563085 0.015247513313787984 0 -0.01268390599289769 0.015271998847397548 0 -0.012281005630563085 0.015247513313787984 0 -0.012403805201176796 0.015555538275832885 0 -0.011896658389840003 0.015128550927406951 0 -0.012281005630563085 0.015247513313787984 0 -0.011953228294499312 0.015486705862535239 0 -0.012281005630563085 0.015247513313787984 0 -0.011953228294499312 0.015486705862535239 0 -0.012403805201176796 0.015555538275832885 0 -0.011953228294499312 0.015486705862535239 0 -0.012133111217737812 0.016023230903008796 0 -0.012403805201176796 0.015555538275832885 0 -0.011953228294499312 0.015486705862535239 0 -0.012133111217737812 0.016023230903008796 0 -0.011545014127341465 0.015739660976134939 0 -0.012436762338038473 0.011040510165698375 0 -0.012302931763959255 0.012201629326041324 0 -0.011199589406200293 0.011172234581458438 0 -0.012436762338038473 0.011040510165698375 0 -0.013633268633416459 0.011019520532706002 0 -0.01315854821743073 0.011768486491400667 0 -0.01268390599289769 0.015271998847397548 0 -0.012403805201176796 0.015555538275832885 0 -0.012892754967944951 0.015732236081110552 0 -0.012201964909887394 0.0135424129320638 0 -0.013265454727659234 0.013381383658895987 0 -0.012133111217737812 0.016023230903008796 0 -0.012403805201176796 0.015555538275832885 0 -0.012892754967944951 0.015732236081110552 0 -0.014586147201603089 0.011096577095255794 0 -0.013633268633416459 0.011019520532706002 0 -0.014246441690807833 0.011922127910046954 0 -0.013584333865382716 0.015401210436645014 0 -0.013181004486187366 0.015224875606686603 0 -0.012892754967944951 0.015732236081110552 0 -0.01403113703522612 0.013217052121674532 0 -0.013265454727659234 0.013381383658895987 0 -0.013633268633416459 0.011019520532706002 0 -0.014246441690807833 0.011922127910046954 0 -0.01315854821743073 0.011768486491400667 0 -0.014246441690807833 0.011922127910046954 0 -0.013476228415943082 0.01264028453401298 0 -0.01315854821743073 0.011768486491400667 0 -0.014246441690807833 0.011922127910046954 0 -0.01376654250958731 0.012162187198188549 0 -0.014336005116628126 0.012350970984762889 0 -0.014672605993723302 0.012020830625672989 0 -0.014246441690807833 0.011922127910046954 0 -0.014336005116628126 0.012350970984762889 0 -0.014238529832880202 0.011937221320259456 0 -0.013511331466088678 0.012444833097580058 0 -0.013476228415943082 0.01264028453401298 0 -0.012302931763959255 0.012201629326041324 0 -0.012641942574475647 0.013288163575539805 0 -0.012302931763959255 0.012201629326041324 0 -0.011889173014888087 0.013104490508584834 0 -0.012641942574475647 0.013288163575539805 0 -0.012436762338038473 0.011040510165698375 0 -0.012302931763959255 0.012201629326041324 0 -0.01315854821743073 0.011768486491400667 0 -0.013476228415943082 0.01264028453401298 0 -0.012302931763959255 0.012201629326041324 0 -0.01315854821743073 0.011768486491400667 0 -0.011349528827698558 0.0123056951753556 0 -0.010594793596728441 0.012181008460011186 0 -0.011199589406200293 0.011172234581458438 0 -0.012302931763959255 0.012201629326041324 0 -0.011349528827698558 0.0123056951753556 0 -0.011199589406200293 0.011172234581458438 0 -0.012302931763959255 0.012201629326041324 0 -0.011349528827698558 0.0123056951753556 0 -0.011889173014888087 0.013104490508584834 0 -0.011349528827698558 0.0123056951753556 0 -0.011196451993194651 0.013033843205101897 0 -0.011889173014888087 0.013104490508584834 0 -0.0075645121164142739 0.012521865776274248 0 -0.0078407738211712912 0.013207202080950069 0 -0.011349528827698558 0.0123056951753556 0 -0.010594793596728441 0.012181008460011186 0 -0.011196451993194651 0.013033843205101897 0 -0.0050518086664379895 0.013282330026161535 0 -0.005038531213707247 0.013589412059535691 0 -0.0045344235764212242 0.013147047102279329 0 -0.0050518086664379895 0.013282330026161535 0 -0.005215826442231941 0.013531347729356703 0 -0.005038531213707247 0.013589412059535691 0 -0.005215826442231941 0.013531347729356703 0 -0.0051998065662773076 0.01358332804566725 0 -0.005038531213707247 0.013589412059535691 0 -0.0051998065662773076 0.01358332804566725 0 -0.005038531213707247 0.013589412059535691 0 -0.0051889677771360916 0.013617850017184926 0 -0.0075645121164142739 0.012521865776274248 0 -0.0087548650625312932 0.014033588535413824 0 -0.0087548650625312932 0.014033588535413824 0 -0.011500849392146973 0.013682507887450226 0 -0.010594793596728441 0.012181008460011186 0 -0.0099819982816205903 0.011328283970456286 0 -0.011199589406200293 0.011172234581458438 0 -0.010213069253005949 0.016431387652238189 0 -0.010506516949371004 0.015968003339830155 0 -0.011196101705471207 0.016266923651143038 0 -0.010139163490229334 0.016555596193317822 0 -0.0098570351314581865 0.016134517043855098 0 -0.0092292637568453743 0.01669058296820395 0 -0.0087548650625312932 0.014033588535413824 0 -0.006908850353367268 0.015245355478837323 0 -0.0051998065662773076 0.01358332804566725 0 -0.0051889677771360916 0.013617850017184926 0 -0.0051567172045128545 0.013506422404149553 0 -0.0087548650625312932 0.014033588535413824 0 -0.010133649749608516 0.016436384132524337 0 -0.010133649749608516 0.016436384132524337 0 -0.0095480348214332256 0.015607614015118459 0 -0.010213069253005949 0.016431387652238189 0 -0.0099124432130703235 0.016033288042582652 0 -0.010506516949371004 0.015968003339830155 0 -0.0099124432130703235 0.016033288042582652 0 -0.010506516949371004 0.015968003339830155 0 -0.010276425548970474 0.015482625030202103 0 -0.010506516949371004 0.015968003339830155 0 -0.010944869053256055 0.015629089911502185 0 -0.010276425548970474 0.015482625030202103 0 -0.010506516949371004 0.015968003339830155 0 -0.011196101705471207 0.016266923651143038 0 -0.010944869053256055 0.015629089911502185 0 -0.011196101705471207 0.016266923651143038 0 -0.011545014127341465 0.015739660976134939 0 -0.010944869053256055 0.015629089911502185 0 -0.012201964909887394 0.0135424129320638 0 -0.011500849392146973 0.013682507887450226 0 -0.012133111217737812 0.016023230903008796 0 -0.011196101705471207 0.016266923651143038 0 -0.011545014127341465 0.015739660976134939 0 -0.011953228294499312 0.015486705862535239 0 -0.011545014127341465 0.015739660976134939 0 -0.01145696414456149 0.015282488535728937 0 -0.012012571039697726 0.014999322752811807 0 -0.0111260958423049 0.015597279213345996 0 -0.0097762184294279703 0.015000091100068743 0 -0.011545014127341465 0.015739660976134939 0 -0.01145696414456149 0.015282488535728937 0 -0.010944869053256055 0.015629089911502185 0 -0.011896658389840003 0.015128550927406951 0 -0.011953228294499312 0.015486705862535239 0 -0.01145696414456149 0.015282488535728937 0 -0.01145696414456149 0.015282488535728937 0 -0.010896439723786193 0.015188486576131185 0 -0.010944869053256055 0.015629089911502185 0 -0.011467738968793099 0.014939345485194905 0 -0.010412773256506594 0.014900793196736369 0 -0.010896439723786193 0.015188486576131185 0 -0.01140171263861669 0.0147591917380109 0 -0.010390221617134479 0.014781916595998781 0 -0.01145696414456149 0.015282488535728937 0 -0.010896439723786193 0.015188486576131185 0 -0.01140171263861669 0.0147591917380109 0 -0.011896658389840003 0.015128550927406951 0 -0.01145696414456149 0.015282488535728937 0 -0.01140171263861669 0.0147591917380109 0 -0.01244615399968698 0.015152431786779483 0 -0.011529652003388954 0.015115473967170683 0 -0.01175516864602893 0.014699864559005195 0 -0.0111260958423049 0.015597279213345996 0 -0.010379336414123589 0.015587282315497239 0 -0.0097762184294279703 0.015000091100068743 0 -0.011529652003388954 0.015115473967170683 0 -0.01175516864602893 0.014699864559005195 0 -0.010865784298408371 0.014523221016900836 0 -0.011529652003388954 0.015115473967170683 0 -0.010865784298408371 0.014523221016900836 0 -0.010439285823768059 0.01501768820408537 0 -0.011426181193839714 0.015146399502365602 0 -0.010617785858091762 0.015058417801549727 0 -0.0097762184294279703 0.015000091100068743 0 -0.0096374754383369583 0.01555646827273321 0 -0.0089466108218931653 0.015438546021460926 0 -0.010379336414123589 0.015587282315497239 0 -0.0097762184294279703 0.015000091100068743 0 -0.0096374754383369583 0.01555646827273321 0 -0.010617785858091762 0.015058417801549727 0 -0.0097909007707181264 0.014952882913265511 0 -0.010865784298408371 0.014523221016900836 0 -0.0099558556021520379 0.014393082063588051 0 -0.010439285823768059 0.01501768820408537 0 -0.0099558556021520379 0.014393082063588051 0 -0.010439285823768059 0.01501768820408537 0 -0.0093885397439007982 0.014878744193731691 0 -0.010412773256506594 0.014900793196736369 0 -0.00944877473861549 0.014879543964503389 0 -0.0097475648344158908 0.015237508102072451 0 -0.010390221617134479 0.014781916595998781 0 -0.010276425548970474 0.015482625030202103 0 -0.0097475648344158908 0.015237508102072451 0 -0.010390221617134479 0.014781916595998781 0 -0.0093885397439007982 0.014878744193731691 0 -0.010896439723786193 0.015188486576131185 0 -0.010390221617134479 0.014781916595998781 0 -0.010276425548970474 0.015482625030202103 0 -0.010896439723786193 0.015188486576131185 0 -0.010944869053256055 0.015629089911502185 0 -0.010276425548970474 0.015482625030202103 0 -0.0097475648344158908 0.015237508102072451 0 -0.010276425548970474 0.015482625030202103 0 -0.0095845482953630223 0.015671843336843232 0 -0.0099124432130703235 0.016033288042582652 0 -0.010276425548970474 0.015482625030202103 0 -0.0095845482953630223 0.015671843336843232 0 -0.0097475648344158908 0.015237508102072451 0 -0.0095845482953630223 0.015671843336843232 0 -0.0091123405959654437 0.01532684439619352 0 -0.0095845482953630223 0.015671843336843232 0 -0.0091123405959654437 0.01532684439619352 0 -0.0091225718701330883 0.016046426642209302 0 -0.0091123405959654437 0.01532684439619352 0 -0.0084882742512428864 0.015744011834516777 0 -0.0091225718701330883 0.016046426642209302 0 -0.0091123405959654437 0.01532684439619352 0 -0.0089934443921612078 0.014780211106883103 0 -0.0084537551488561898 0.014876735310152846 0 -0.0091123405959654437 0.01532684439619352 0 -0.0084537551488561898 0.014876735310152846 0 -0.0084882742512428864 0.015744011834516777 0 -0.0097475648344158908 0.015237508102072451 0 -0.0091123405959654437 0.01532684439619352 0 -0.0093885397439007982 0.014878744193731691 0 -0.0091123405959654437 0.01532684439619352 0 -0.0093885397439007982 0.014878744193731691 0 -0.0089934443921612078 0.014780211106883103 0 -0.0099558556021520379 0.014393082063588051 0 -0.0093885397439007982 0.014878744193731691 0 -0.0092944028267319956 0.01459722426739493 0 -0.0097909007707181264 0.014952882913265511 0 -0.009010494725211057 0.015108724227393674 0 -0.0096374754383369583 0.01555646827273321 0 -0.0088918775271355534 0.015485559836677256 0 -0.0089466108218931653 0.015438546021460926 0 -0.0099558556021520379 0.014393082063588051 0 -0.0091082662744970382 0.014299202046557605 0 -0.0092944028267319956 0.01459722426739493 0 -0.0097762184294279703 0.015000091100068743 0 -0.0089466108218931653 0.015438546021460926 0 -0.008117374272552786 0.014999894206428699 0 -0.009010494725211057 0.015108724227393674 0 -0.0089759351196350319 0.015153620794819741 0 -0.0091082662744970382 0.014299202046557605 0 -0.0092944028267319956 0.01459722426739493 0 -0.0089934443921612078 0.014780211106883103 0 -0.0093885397439007982 0.014878744193731691 0 -0.0092944028267319956 0.01459722426739493 0 -0.0089934443921612078 0.014780211106883103 0 -0.009010494725211057 0.015108724227393674 0 -0.0083683799607576284 0.015331673484887813 0 -0.008716577993950066 0.015462370507879077 0 -0.0081934518517091503 0.015458260217250818 0 -0.008248216053996742 0.015869685126124976 0 -0.0091082662744970382 0.014299202046557605 0 -0.0089934443921612078 0.014780211106883103 0 -0.0084537551488561898 0.014876735310152846 0 -0.0088864045882606334 0.015483880825004221 0 -0.008716577993950066 0.015462370507879077 0 -0.008248216053996742 0.015869685126124976 0 -0.0088911973833456313 0.015483708251003144 0 -0.008716577993950066 0.015462370507879077 0 -0.0089466108218931653 0.015438546021460926 0 -0.009010494725211057 0.015108724227393674 0 -0.0088618941882829313 0.015194927296012231 0 -0.008716577993950066 0.015462370507879077 0 -0.0089466108218931653 0.015438546021460926 0 -0.008117374272552786 0.014999894206428699 0 -0.0073986694225680024 0.015405839322963097 0 -0.008117374272552786 0.014999894206428699 0 -0.0077491297091926269 0.015588259806462631 0 -0.008716577993950066 0.015462370507879077 0 -0.008117374272552786 0.014999894206428699 0 -0.0081934518517091503 0.015458260217250818 0 -0.008117374272552786 0.014999894206428699 0 -0.0081934518517091503 0.015458260217250818 0 -0.0077491297091926269 0.015588259806462631 0 -0.0081934518517091503 0.015458260217250818 0 -0.0077491297091926269 0.015588259806462631 0 -0.008248216053996742 0.015869685126124976 0 -0.0073986694225680024 0.015405839322963097 0 -0.0074000592914321029 0.01581555824802976 0 -0.0077491297091926269 0.015588259806462631 0 -0.0074000592914321029 0.01581555824802976 0 -0.0077491297091926269 0.015588259806462631 0 -0.007642337149475974 0.016145646063315214 0 -0.0077491297091926269 0.015588259806462631 0 -0.008248216053996742 0.015869685126124976 0 -0.007642337149475974 0.016145646063315214 0 -0.0083683799607576284 0.015331673484887813 0 -0.0077325438025219262 0.01582197698907517 0 -0.0084537551488561898 0.014876735310152846 0 -0.0084882742512428864 0.015744011834516777 0 -0.0078084451884927238 0.015500436801724544 0 -0.0084882742512428864 0.015744011834516777 0 -0.0078084451884927238 0.015500436801724544 0 -0.0079449596319748593 0.016255355638134142 0 -0.0072500094202705926 0.016178274255924 0 -0.0078084451884927238 0.015500436801724544 0 -0.0079449596319748593 0.016255355638134142 0 -0.0072500094202705926 0.016178274255924 0 -0.007476985778854037 0.016872356183830622 0 -0.0079449596319748593 0.016255355638134142 0 -0.0054876392975542676 0.015212118868395207 0 -0.0066997933409983484 0.015106161779863713 0 -0.007476985778854037 0.016872356183830622 0 -0.0079449596319748593 0.016255355638134142 0 -0.0083086098413723396 0.016803813079869813 0 -0.0079449596319748593 0.016255355638134142 0 -0.0083086098413723396 0.016803813079869813 0 -0.0086128188425330897 0.016307756158889825 0 -0.0084882742512428864 0.015744011834516777 0 -0.0079449596319748593 0.016255355638134142 0 -0.0086128188425330897 0.016307756158889825 0 -0.0084882742512428864 0.015744011834516777 0 -0.0086128188425330897 0.016307756158889825 0 -0.0091225718701330883 0.016046426642209302 0 -0.0086128188425330897 0.016307756158889825 0 -0.0091225718701330883 0.016046426642209302 0 -0.0092292637568453743 0.01669058296820395 0 -0.0098570351314581865 0.016134517043855098 0 -0.0095845482953630223 0.015671843336843232 0 -0.0091225718701330883 0.016046426642209302 0 -0.0098570351314581865 0.016134517043855098 0 -0.0091225718701330883 0.016046426642209302 0 -0.0092292637568453743 0.01669058296820395 0 -0.0083086098413723396 0.016803813079869813 0 -0.0086128188425330897 0.016307756158889825 0 -0.0092292637568453743 0.01669058296820395 0 -0.0066997933409983484 0.015106161779863713 0 -0.006908850353367268 0.015245355478837323 0 -0.0048092331643214995 0.013459145910116772 0 -0.0051567172045128545 0.013506422404149553 0 -0.0051092394597038876 0.013665144560461657 0 -0.0048092331643214995 0.013459145910116772 0 -0.0051092394597038876 0.013665144560461657 0 -0.0047758508198844614 0.01378621522730256 0 -0.0051998065662773076 0.01358332804566725 0 -0.0051567172045128545 0.013506422404149553 0 -0.0051092394597038876 0.013665144560461657 0 -0.005215826442231941 0.013531347729356703 0 -0.0051092394597038876 0.013665144560461657 0 -0.0051865941361724345 0.013692389636544051 0 -0.005215826442231941 0.013531347729356703 0 -0.0051998065662773076 0.01358332804566725 0 -0.0051092394597038876 0.013665144560461657 0 -0.0051092394597038876 0.013665144560461657 0 -0.0047758508198844614 0.01378621522730256 0 -0.0049144246820974945 0.013984483436322061 0 -0.0051092394597038876 0.013665144560461657 0 -0.0049144246820974945 0.013984483436322061 0 -0.0051865941361724345 0.013692389636544051 0 -0.0047758508198844614 0.01378621522730256 0 -0.0045194554625922288 0.014274883905152054 0 -0.0049144246820974945 0.013984483436322061 0 -0.0047758508198844614 0.01378621522730256 0 -0.0044098704466876372 0.013799659349905834 0 -0.0045194554625922288 0.014274883905152054 0 -0.0042533236546573394 0.014091082668325391 0 -0.004540603312326013 0.01441169824958129 0 -0.0044236794839552741 0.014583248096706664 0 -0.0043186948639792914 0.01480935406720626 0 -0.0045194554625922288 0.014274883905152054 0 -0.0044162058043558973 0.014815402430953601 0 -0.0044236794839552741 0.014583248096706664 0 -0.0043186948639792914 0.01480935406720626 0 -0.0042762828419186348 0.013510289250935012 0 -0.0048092331643214995 0.013459145910116772 0 -0.0044098704466876372 0.013799659349905834 0 -0.0054876392975542676 0.015212118868395207 0 -0.0042533236546573394 0.014091082668325391 0 -0.0048092331643214995 0.013459145910116772 0 -0.0047758508198844614 0.01378621522730256 0 -0.0044098704466876372 0.013799659349905834 0 -0.0055758205567317757 0.011041651148609635 0 -0.0055465925173044063 0.011343426551086892 0 -0.0055804277179294431 0.010990061575254166 0 -0.0050549357287689714 0.012754981723973021 0 -0.0052604096289394497 0.012689317352897836 0 -0.0044248450324472256 0.014622114776308114 0 -0.0043982925362369314 0.014680603382590852 0 -0.0045790736854514694 0.01447750232767305 0 -0.0055494249927088117 0.010841837629006134 0 -0.0055758205567317757 0.011041651148609635 0 -0.0055635294662217854 0.010903634739399738 0 -0.0049575900557840939 0.012768494904104019 0 -0.0050549357287689714 0.012754981723973021 0 -0.0055758205567317757 0.011041651148609635 0 -0.0055804277179294431 0.010990061575254166 0 -0.0055635294662217854 0.010903634739399738 0 -0.0045790736854514694 0.01447750232767305 0 -0.0044276579853244815 0.014547702982363166 0 -0.0045194554625922288 0.014274883905152054 0 -0.0044248450324472256 0.014622114776308114 0 -0.0045790736854514694 0.01447750232767305 0 -0.0044276579853244815 0.014547702982363166 0 -0.0044274233137079986 0.014736865185455628 0 -0.0044236794839552741 0.014583248096706664 0 -0.0044276579853244815 0.014547702982363166 0 -0.0044236794839552741 0.014583248096706664 0 -0.0044276579853244815 0.014547702982363166 0 -0.0045194554625922288 0.014274883905152054 0 -0.0045790736854514694 0.01447750232767305 0 -0.0045194554625922288 0.014274883905152054 0 -0.0049144246820974945 0.013984483436322061 0 -0.0049144246820974945 0.013984483436322061 0 -0.0051865941361724345 0.013692389636544051 0 -0.0050652007551066558 0.01404022999811628 0 -0.0045790736854514694 0.01447750232767305 0 -0.0049144246820974945 0.013984483436322061 0 -0.0050652007551066558 0.01404022999811628 0 -0.0051865941361724345 0.013692389636544051 0 -0.0050652007551066558 0.01404022999811628 0 -0.0052769823537358916 0.013384404598990544 0 -0.0052604096289394497 0.012689317352897836 0 -0.0052576561829156187 0.012596315315794549 0 -0.0055465925173044063 0.011343426551086892 0 -0.0055053822113286166 0.011276678533418853 0 -0.0054090888602409326 0.011784006733997708 0 -0.0055465925173044063 0.011343426551086892 0 -0.0055634543840753928 0.011051161187112706 0 -0.0055804277179294431 0.010990061575254166 0 -0.0055465925173044063 0.011343426551086892 0 -0.0055634543840753928 0.011051161187112706 0 -0.0055053822113286166 0.011276678533418853 0 -0.0055053822113286166 0.011276678533418853 0 -0.0054713225526654922 0.010969067215565526 0 -0.0053558918432305468 0.011357386620878242 0 -0.0055634543840753928 0.011051161187112706 0 -0.0055053822113286166 0.011276678533418853 0 -0.0054713225526654922 0.010969067215565526 0 -0.0055634543840753928 0.011051161187112706 0 -0.0054713225526654922 0.010969067215565526 0 -0.0055695503931880988 0.010822023605705914 0 -0.0055634543840753928 0.011051161187112706 0 -0.0055840106790717853 0.010876810157363132 0 -0.0055695503931880988 0.010822023605705914 0 -0.0055634543840753928 0.011051161187112706 0 -0.0055840106790717853 0.010876810157363132 0 -0.0055804277179294431 0.010990061575254166 0 -0.0055804277179294431 0.010990061575254166 0 -0.0055635294662217854 0.010903634739399738 0 -0.0055553198655885379 0.010798621454882581 0 -0.0055482529268663242 0.010826686103726661 0 -0.0055635294662217854 0.010903634739399738 0 -0.0055553198655885379 0.010798621454882581 0 -0.0055840106790717853 0.010876810157363132 0 -0.0055553198655885379 0.010798621454882581 0 -0.0056013344909698198 0.010715897955564263 0 -0.0055840106790717853 0.010876810157363132 0 -0.0055804277179294431 0.010990061575254166 0 -0.0055553198655885379 0.010798621454882581 0 -0.0054063605362687618 0.010472810074329557 0 -0.005499967275268379 0.010627972408763262 0 -0.0056013344909698198 0.010715897955564263 0 -0.005499967275268379 0.010627972408763262 0 -0.0055553198655885379 0.010798621454882581 0 -0.0056013344909698198 0.010715897955564263 0 -0.0055840106790717853 0.010876810157363132 0 -0.0056013344909698198 0.010715897955564263 0 -0.0055695503931880988 0.010822023605705914 0 -0.0056013344909698198 0.010715897955564263 0 -0.0055695503931880988 0.010822023605705914 0 -0.0056197520833201073 0.01061773376267941 0 -0.0056781223735535898 0.010535990633644151 0 -0.0055954030399224253 0.010675725366711276 0 -0.0058412630514344541 0.010581938153585794 0 -0.0056013344909698198 0.010715897955564263 0 -0.0056197520833201073 0.01061773376267941 0 -0.0058412630514344541 0.010581938153585794 0 -0.0056197520833201073 0.01061773376267941 0 -0.0056891324451668482 0.010424334364136078 0 -0.0058412630514344541 0.010581938153585794 0 -0.0058444191010535544 0.010404543204329111 0 -0.0056891324451668482 0.010424334364136078 0 -0.0056197520833201073 0.01061773376267941 0 -0.0056891324451668482 0.010424334364136078 0 -0.0055504492347782089 0.010435244407843242 0 -0.0056891324451668482 0.010424334364136078 0 -0.0055504492347782089 0.010435244407843242 0 -0.005614049694080846 0.010183068175630179 0 -0.0056891324451668482 0.010424334364136078 0 -0.0057644665271809475 0.01025350596795847 0 -0.005614049694080846 0.010183068175630179 0 -0.0058444191010535544 0.010404543204329111 0 -0.0056891324451668482 0.010424334364136078 0 -0.0057644665271809475 0.01025350596795847 0 -0.0058444191010535544 0.010404543204329111 0 -0.0057644665271809475 0.01025350596795847 0 -0.0059036170684914312 0.010227179737195009 0 -0.0054399567379683732 0.010322375344358975 0 -0.0055504492347782089 0.010435244407843242 0 -0.005614049694080846 0.010183068175630179 0 -0.0056197520833201073 0.01061773376267941 0 -0.0055504492347782089 0.010435244407843242 0 -0.0055046270141360879 0.010674361798883043 0 -0.0055504492347782089 0.010435244407843242 0 -0.0054108614709819742 0.010512236118845306 0 -0.0055046270141360879 0.010674361798883043 0 -0.0054399567379683732 0.010322375344358975 0 -0.0054108614709819742 0.010512236118845306 0 -0.0052307933620101442 0.010448929863394799 0 -0.0054399567379683732 0.010322375344358975 0 -0.0055504492347782089 0.010435244407843242 0 -0.0054108614709819742 0.010512236118845306 0 -0.0054108614709819742 0.010512236118845306 0 -0.0055046270141360879 0.010674361798883043 0 -0.0053362579687272465 0.010702381626161167 0 -0.0055695503931880988 0.010822023605705914 0 -0.0056197520833201073 0.01061773376267941 0 -0.0055046270141360879 0.010674361798883043 0 -0.0054713225526654922 0.010969067215565526 0 -0.0055695503931880988 0.010822023605705914 0 -0.0055046270141360879 0.010674361798883043 0 -0.0054713225526654922 0.010969067215565526 0 -0.0055046270141360879 0.010674361798883043 0 -0.0053362579687272465 0.010702381626161167 0 -0.0054713225526654922 0.010969067215565526 0 -0.0052034028520974275 0.010983475102341404 0 -0.0053362579687272465 0.010702381626161167 0 -0.0052034028520974275 0.010983475102341404 0 -0.0051339348169725735 0.010700722330613381 0 -0.0053362579687272465 0.010702381626161167 0 -0.0052034028520974275 0.010983475102341404 0 -0.0049547432475808536 0.010796871168867834 0 -0.0048862368508982117 0.011120225590442819 0 -0.0052034028520974275 0.010983475102341404 0 -0.0051339348169725735 0.010700722330613381 0 -0.0049547432475808536 0.010796871168867834 0 -0.0051339348169725735 0.010700722330613381 0 -0.0049666937794910649 0.010631924328950883 0 -0.0049547432475808536 0.010796871168867834 0 -0.0051339348169725735 0.010700722330613381 0 -0.0052307933620101442 0.010448929863394799 0 -0.0049666937794910649 0.010631924328950883 0 -0.0051339348169725735 0.010700722330613381 0 -0.0053362579687272465 0.010702381626161167 0 -0.0052307933620101442 0.010448929863394799 0 -0.0054108614709819742 0.010512236118845306 0 -0.0053362579687272465 0.010702381626161167 0 -0.0052307933620101442 0.010448929863394799 0 -0.010522094991458529 0.0047610260569072556 0 -0.01109087242553488 0.0049291039703671337 0 -0.010983330635297899 0.0041953668518443952 0 -0.0078441368528627646 0.007643438135023127 0 -0.0081355463406984456 0.0071364396878488999 0 -0.010522094991458529 0.0047610260569072556 0 -0.010702077163750868 0.0051187615944232141 0 -0.01109087242553488 0.0049291039703671337 0 -0.0078729563900509694 0.007652142548480928 0 -0.0078441368528627646 0.007643438135023127 0 -0.010302837261880315 0.0050251409184596686 0 -0.010522094991458529 0.0047610260569072556 0 -0.010702077163750868 0.0051187615944232141 0 -0.012008645619900376 0.0051558316075230358 0 -0.01109087242553488 0.0049291039703671337 0 -0.011840988456404404 0.0045845468512884496 0 -0.012008645619900376 0.0051558316075230358 0 -0.01109087242553488 0.0049291039703671337 0 -0.011444863047499252 0.0055571454933277141 0 -0.011360655133679646 0.004471266748664644 0 -0.011664305825329409 0.0041205292798589298 0 -0.010983330635297899 0.0041953668518443952 0 -0.01109087242553488 0.0049291039703671337 0 -0.011360655133679646 0.004471266748664644 0 -0.011840988456404404 0.0045845468512884496 0 -0.01109087242553488 0.0049291039703671337 0 -0.011360655133679646 0.004471266748664644 0 -0.010983330635297899 0.0041953668518443952 0 -0.011360655133679646 0.004471266748664644 0 -0.011840988456404404 0.0045845468512884496 0 -0.011664305825329409 0.0041205292798589298 0 -0.011840988456404404 0.0045845468512884496 0 -0.011664305825329409 0.0041205292798589298 0 -0.012482588690393332 0.0041083044348785101 0 -0.011664305825329409 0.0041205292798589298 0 -0.010983330635297899 0.0041953668518443952 0 -0.011873018580341099 0.0033861068467252054 0 -0.011664305825329409 0.0041205292798589298 0 -0.011873018580341099 0.0033861068467252054 0 -0.012482588690393332 0.0041083044348785101 0 -0.0081355463406984456 0.0071364396878488999 0 -0.0080504755466395423 0.008724366854252685 0 -0.0049666937794910649 0.010631924328950883 0 -0.0049547432475808536 0.010796871168867834 0 -0.0048841139719395035 0.01071972441439519 0 -0.0049547432475808536 0.010796871168867834 0 -0.0045934702031462781 0.011014841887197164 0 -0.0043329500336695415 0.010767154446473328 0 -0.0035291791344427442 0.011198536525704421 0 -0.0080504755466395423 0.008724366854252685 0 -0.0049547432475808536 0.010796871168867834 0 -0.0045934702031462781 0.011014841887197164 0 -0.0048862368508982117 0.011120225590442819 0 -0.0045934702031462781 0.011014841887197164 0 -0.0043329500336695415 0.010767154446473328 0 -0.0043236649790984964 0.011093501544423297 0 -0.0043329500336695415 0.010767154446473328 0 -0.0043236649790984964 0.011093501544423297 0 -0.0040365579283531796 0.010992871632545528 0 -0.0043236649790984964 0.011093501544423297 0 -0.0044886218558721144 0.011296558512270065 0 -0.004143960328959335 0.011311312146801918 0 -0.0045934702031462781 0.011014841887197164 0 -0.0043236649790984964 0.011093501544423297 0 -0.0044886218558721144 0.011296558512270065 0 -0.0044886218558721144 0.011296558512270065 0 -0.004294232744453147 0.011667315736279363 0 -0.004143960328959335 0.011311312146801918 0 -0.004294232744453147 0.011667315736279363 0 -0.0042165237245412844 0.012086670485027984 0 -0.0039934979017864783 0.011624911531406526 0 -0.0044886218558721144 0.011296558512270065 0 -0.004294232744453147 0.011667315736279363 0 -0.0046294652837667975 0.011583197748244701 0 -0.004294232744453147 0.011667315736279363 0 -0.0046294652837667975 0.011583197748244701 0 -0.0043494154756951531 0.011968066380382371 0 -0.0046294652837667975 0.011583197748244701 0 -0.0043494154756951531 0.011968066380382371 0 -0.004765004787750945 0.011923275884306573 0 -0.0046294652837667975 0.011583197748244701 0 -0.0050106910134360494 0.011431169747918224 0 -0.004765004787750945 0.011923275884306573 0 -0.0044886218558721144 0.011296558512270065 0 -0.0046294652837667975 0.011583197748244701 0 -0.0048862368508982117 0.011120225590442819 0 -0.0045934702031462781 0.011014841887197164 0 -0.0044886218558721144 0.011296558512270065 0 -0.0048862368508982117 0.011120225590442819 0 -0.0046294652837667975 0.011583197748244701 0 -0.0048862368508982117 0.011120225590442819 0 -0.0050106910134360494 0.011431169747918224 0 -0.0052034028520974275 0.010983475102341404 0 -0.0053558918432305468 0.011357386620878242 0 -0.0050106910134360494 0.011431169747918224 0 -0.0052034028520974275 0.010983475102341404 0 -0.0048862368508982117 0.011120225590442819 0 -0.0050106910134360494 0.011431169747918224 0 -0.0054713225526654922 0.010969067215565526 0 -0.0052034028520974275 0.010983475102341404 0 -0.0053558918432305468 0.011357386620878242 0 -0.0055053822113286166 0.011276678533418853 0 -0.0053558918432305468 0.011357386620878242 0 -0.0054090888602409326 0.011784006733997708 0 -0.0053558918432305468 0.011357386620878242 0 -0.0050106910134360494 0.011431169747918224 0 -0.0051546440905464262 0.011806489866764389 0 -0.0050106910134360494 0.011431169747918224 0 -0.0051546440905464262 0.011806489866764389 0 -0.004765004787750945 0.011923275884306573 0 -0.0051546440905464262 0.011806489866764389 0 -0.004765004787750945 0.011923275884306573 0 -0.0049224084983898915 0.012578893323095346 0 -0.0052576561829156187 0.012596315315794549 0 -0.0048702803043535704 0.012585377566301013 0 -0.0051546440905464262 0.011806489866764389 0 -0.0054090888602409326 0.011784006733997708 0 -0.0049224084983898915 0.012578893323095346 0 -0.0053558918432305468 0.011357386620878242 0 -0.0051546440905464262 0.011806489866764389 0 -0.0054090888602409326 0.011784006733997708 0 -0.005215826442231941 0.013531347729356703 0 -0.0051865941361724345 0.013692389636544051 0 -0.0052769823537358916 0.013384404598990544 0 -0.0050518086664379895 0.013282330026161535 0 -0.005215826442231941 0.013531347729356703 0 -0.0052769823537358916 0.013384404598990544 0 -0.0050518086664379895 0.013282330026161535 0 -0.0052769823537358916 0.013384404598990544 0 -0.0049224084983898915 0.012578893323095346 0 -0.0050518086664379895 0.013282330026161535 0 -0.0045344235764212242 0.013147047102279329 0 -0.0049224084983898915 0.012578893323095346 0 -0.0045344235764212242 0.013147047102279329 0 -0.0049224084983898915 0.012578893323095346 0 -0.0045000159069139411 0.012421736016856685 0 -0.0045344235764212242 0.013147047102279329 0 -0.0039771172407094329 0.012269185547431449 0 -0.0045000159069139411 0.012421736016856685 0 -0.011196451993194651 0.013033843205101897 0 -0.011889173014888087 0.013104490508584834 0 -0.011789311306461733 0.01390621827998101 0 -0.0078407738211712912 0.013207202080950069 0 -0.0086094139791946557 0.012588981761146693 0 -0.004294232744453147 0.011667315736279363 0 -0.0042165237245412844 0.012086670485027984 0 -0.0043494154756951531 0.011968066380382371 0 -0.0086094139791946557 0.012588981761146693 0 -0.0046432701703366264 0.013153919783372816 0 -0.0039771172407094329 0.012269185547431449 0 -0.0043494154756951531 0.011968066380382371 0 -0.0045000159069139411 0.012421736016856685 0 -0.0043494154756951531 0.011968066380382371 0 -0.004765004787750945 0.011923275884306573 0 -0.0045000159069139411 0.012421736016856685 0 -0.004765004787750945 0.011923275884306573 0 -0.0049224084983898915 0.012578893323095346 0 -0.0045000159069139411 0.012421736016856685 0 -0.013559888073770643 0.012912959379087065 0 -0.013118151386704482 0.012950429610227417 0 -0.013421650895910088 0.013288012690877109 0 -0.013559888073770643 0.012912959379087065 0 -0.013118151386704482 0.012950429610227417 0 -0.01320976117809268 0.012483441949399423 0 -0.012635164924995735 0.012853593884852996 0 -0.013118151386704482 0.012950429610227417 0 -0.012984280821282964 0.013328917264474931 0 -0.012635164924995735 0.012853593884852996 0 -0.013118151386704482 0.012950429610227417 0 -0.01320976117809268 0.012483441949399423 0 -0.0086094139791946557 0.012588981761146693 0 -0.013499340581852023 0.012798859080423591 0 -0.011889173014888087 0.013104490508584834 0 -0.011789311306461733 0.01390621827998101 0 -0.012641942574475647 0.013288163575539805 0 -0.013511331466088678 0.012444833097580058 0 -0.013499340581852023 0.012798859080423591 0 -0.013559888073770643 0.012912959379087065 0 -0.01320976117809268 0.012483441949399423 0 -0.013881723601265166 0.012592867038809918 0 -0.01376654250958731 0.012162187198188549 0 -0.01320976117809268 0.012483441949399423 0 -0.013881723601265166 0.012592867038809918 0 -0.01376654250958731 0.012162187198188549 0 -0.013881723601265166 0.012592867038809918 0 -0.014336005116628126 0.012350970984762889 0 -0.013881723601265166 0.012592867038809918 0 -0.014336005116628126 0.012350970984762889 0 -0.014321545036576672 0.012707818914084719 0 -0.013881723601265166 0.012592867038809918 0 -0.014321545036576672 0.012707818914084719 0 -0.013926933778082972 0.012883187157925099 0 -0.014321545036576672 0.012707818914084719 0 -0.014172736955397957 0.013027848335128194 0 -0.014784955495876587 0.012952648208508208 0 -0.014321545036576672 0.012707818914084719 0 -0.014172736955397957 0.013027848335128194 0 -0.013926933778082972 0.012883187157925099 0 -0.013559888073770643 0.012912959379087065 0 -0.013881723601265166 0.012592867038809918 0 -0.013926933778082972 0.012883187157925099 0 -0.014172736955397957 0.013027848335128194 0 -0.013926933778082972 0.012883187157925099 0 -0.013818145333139848 0.013185354740537577 0 -0.013559888073770643 0.012912959379087065 0 -0.013926933778082972 0.012883187157925099 0 -0.013818145333139848 0.013185354740537577 0 -0.013559888073770643 0.012912959379087065 0 -0.013818145333139848 0.013185354740537577 0 -0.013421650895910088 0.013288012690877109 0 -0.014276881748627433 0.010717540783746152 0 -0.013122711967496606 0.010885281213314422 0 -0.013818145333139848 0.013185354740537577 0 -0.014142988096185874 0.013311651448170708 0 -0.013732014819872566 0.013554585546401781 0 -0.013818145333139848 0.013185354740537577 0 -0.013732014819872566 0.013554585546401781 0 -0.013421650895910088 0.013288012690877109 0 -0.016350484343560005 0.009665650294184704 0 -0.016218878489955138 0.0094697265461168769 0 -0.016033709112216167 0.0095940655198141767 0 -0.014172736955397957 0.013027848335128194 0 -0.01415272403151926 0.013300291896124474 0 -0.014784955495876587 0.012952648208508208 0 -0.014120384793200982 0.013514613640153999 0 -0.014276881748627433 0.010717540783746152 0 -0.014172736955397957 0.013027848335128194 0 -0.013818145333139848 0.013185354740537577 0 -0.014142988096185874 0.013311651448170708 0 -0.014276881748627433 0.010717540783746152 0 -0.014658982682955946 0.0092282139404145421 0 -0.016350484343560005 0.009665650294184704 0 -0.016376031263853494 0.0093098158098368633 0 -0.016218878489955138 0.0094697265461168769 0 -0.016376031263853494 0.0093098158098368633 0 -0.016218878489955138 0.0094697265461168769 0 -0.01615506237852021 0.009163389959495942 0 -0.01221736817296399 0.0084073424472566518 0 -0.011391147080701441 0.0088599906822708994 0 -0.012238988871110038 0.0092776181929911765 0 -0.01291474634649546 0.0089422382756054169 0 -0.01221736817296399 0.0084073424472566518 0 -0.012238988871110038 0.0092776181929911765 0 -0.012985644389073918 0.0079598047708431107 0 -0.01291474634649546 0.0089422382756054169 0 -0.01221736817296399 0.0084073424472566518 0 -0.013732014819872566 0.013554585546401781 0 -0.013311888684246275 0.01378998353124394 0 -0.013421650895910088 0.013288012690877109 0 -0.013122711967496606 0.010885281213314422 0 -0.010475118501353031 0.011392535105958387 0 -0.013118151386704482 0.012950429610227417 0 -0.013421650895910088 0.013288012690877109 0 -0.012984280821282964 0.013328917264474931 0 -0.013311888684246275 0.01378998353124394 0 -0.013421650895910088 0.013288012690877109 0 -0.012984280821282964 0.013328917264474931 0 -0.0086094139791946557 0.012588981761146693 0 -0.0083098046100292481 0.01251343455563615 0 -0.004294232744453147 0.011667315736279363 0 -0.0039934979017864783 0.011624911531406526 0 -0.004143960328959335 0.011311312146801918 0 -0.0037757201716717382 0.011194671496681128 0 -0.004143960328959335 0.011311312146801918 0 -0.0040365579283531796 0.010992871632545528 0 -0.010475118501353031 0.011392535105958387 0 -0.0083098046100292481 0.01251343455563615 0 -0.0037757201716717382 0.011194671496681128 0 -0.0039934979017864783 0.011624911531406526 0 -0.004143960328959335 0.011311312146801918 0 -0.0043236649790984964 0.011093501544423297 0 -0.004143960328959335 0.011311312146801918 0 -0.0040365579283531796 0.010992871632545528 0 -0.0098026592384846001 0.0097875564295698131 0 -0.010603224928287962 0.0093050191971639391 0 -0.011313133870835452 0.0098869014177654264 0 -0.0080504755466395423 0.008724366854252685 0 -0.012836043288621918 0.0063437752679716738 0 -0.010475118501353031 0.011392535105958387 0 -0.0069257262718978819 0.010480863009802449 0 -0.0080504755466395423 0.008724366854252685 0 -0.0069257262718978819 0.010480863009802449 0 -0.011313133870835452 0.0098869014177654264 0 -0.011833995091923604 0.0095708349410970357 0 -0.012342430592834987 0.0098782648605081607 0 -0.011391147080701441 0.0088599906822708994 0 -0.011313133870835452 0.0098869014177654264 0 -0.011833995091923604 0.0095708349410970357 0 -0.011391147080701441 0.0088599906822708994 0 -0.010603224928287962 0.0093050191971639391 0 -0.011313133870835452 0.0098869014177654264 0 -0.011391147080701441 0.0088599906822708994 0 -0.011833995091923604 0.0095708349410970357 0 -0.012238988871110038 0.0092776181929911765 0 -0.01316856930411168 0.0033531461111058168 0 -0.012482588690393332 0.0041083044348785101 0 -0.013600053990096419 0.0042470854075020974 0 -0.011873018580341099 0.0033861068467252054 0 -0.01316856930411168 0.0033531461111058168 0 -0.012482588690393332 0.0041083044348785101 0 -0.011840988456404404 0.0045845468512884496 0 -0.012482588690393332 0.0041083044348785101 0 -0.01287692884510107 0.0049546928217230743 0 -0.013600053990096419 0.0042470854075020974 0 -0.01287692884510107 0.0049546928217230743 0 -0.01387023999012124 0.0051530064255645583 0 -0.012482588690393332 0.0041083044348785101 0 -0.013600053990096419 0.0042470854075020974 0 -0.01287692884510107 0.0049546928217230743 0 -0.01287692884510107 0.0049546928217230743 0 -0.01387023999012124 0.0051530064255645583 0 -0.013532573306027668 0.0059893295898540283 0 -0.012008645619900376 0.0051558316075230358 0 -0.01287692884510107 0.0049546928217230743 0 -0.012513717034308891 0.0060483480230767708 0 -0.012008645619900376 0.0051558316075230358 0 -0.011840988456404404 0.0045845468512884496 0 -0.01287692884510107 0.0049546928217230743 0 -0.01547712415192719 0.0058750979720862979 0 -0.014981703531468641 0.0052516009994153278 0 -0.01477256710359026 0.0060567726853339478 0 -0.014873179474512142 0.0042868166235402331 0 -0.014747715258993353 0.0062897179285139222 0 -0.01387023999012124 0.0051530064255645583 0 -0.01477256710359026 0.0060567726853339478 0 -0.013532573306027668 0.0059893295898540283 0 -0.01387023999012124 0.0051530064255645583 0 -0.014651963494652006 0.0046501137595851838 0 -0.01477256710359026 0.0060567726853339478 0 -0.013600053990096419 0.0042470854075020974 0 -0.01387023999012124 0.0051530064255645583 0 -0.014651963494652006 0.0046501137595851838 0 -0.013600053990096419 0.0042470854075020974 0 -0.014651963494652006 0.0046501137595851838 0 -0.014500399691218307 0.0034240054749218336 0 -0.01547712415192719 0.0058750979720862979 0 -0.014981703531468641 0.0052516009994153278 0 -0.015669670389053137 0.005103032746678335 0 -0.014981703531468641 0.0052516009994153278 0 -0.015367938969667955 0.0048225284337183282 0 -0.015669670389053137 0.005103032746678335 0 -0.015367938969667955 0.0048225284337183282 0 -0.015076516964898779 0.0044010042742065767 0 -0.015705029823707924 0.0045411387783474656 0 -0.014581699198251077 0.0069759047665209351 0 -0.016118803935545586 0.0067367217029260995 0 -0.014981703531468641 0.0052516009994153278 0 -0.015367938969667955 0.0048225284337183282 0 -0.015076516964898779 0.0044010042742065767 0 -0.014873179474512142 0.0042868166235402331 0 -0.014581699198251077 0.0069759047665209351 0 -0.014651963494652006 0.0046501137595851838 0 -0.014663964753367181 0.0034398783946476131 0 -0.014500399691218307 0.0034240054749218336 0 -0.014581699198251077 0.0069759047665209351 0 -0.013425123458541671 0.007356633855431078 0 -0.011313133870835452 0.0098869014177654264 0 -0.012702826799605136 0.0099368758159143842 0 -0.012342430592834987 0.0098782648605081607 0 -0.01316856930411168 0.0033531461111058168 0 -0.013600053990096419 0.0042470854075020974 0 -0.014500399691218307 0.0034240054749218336 0 -0.012836043288621918 0.0063437752679716738 0 -0.013425123458541671 0.007356633855431078 0 -0.013425123458541671 0.007356633855431078 0 -0.012900946860432029 0.0081849596199719526 0 -0.01291474634649546 0.0089422382756054169 0 -0.012682591787688928 0.0099407119824469134 0 -0.012238988871110038 0.0092776181929911765 0 -0.011833995091923604 0.0095708349410970357 0 -0.012342430592834987 0.0098782648605081607 0 -0.012238988871110038 0.0092776181929911765 0 -0.012682591787688928 0.0099407119824469134 0 -0.012342430592834987 0.0098782648605081607 0 -0.012238988871110038 0.0092776181929911765 0 -0.01291474634649546 0.0089422382756054169 0 -0.012852291918786332 0.0099509789321719569 0 -0.012682591787688928 0.0099407119824469134 0 -0.016376031263853494 0.0093098158098368633 0 -0.016392632250070278 0.0089530276026696162 0 -0.01615506237852021 0.009163389959495942 0 -0.016392632250070278 0.0089530276026696162 0 -0.01615506237852021 0.009163389959495942 0 -0.016104093014592064 0.0088901622433281667 0 -0.014658982682955946 0.0092282139404145421 0 -0.014581699198251077 0.0069759047665209351 0 -0.01615506237852021 0.009163389959495942 0 -0.015889508186327936 0.0092416317685809473 0 -0.016040340333282423 0.0093917464450207922 0 -0.01615506237852021 0.009163389959495942 0 -0.015923014555290761 0.0090204213922294354 0 -0.015889508186327936 0.0092416317685809473 0 -0.01615506237852021 0.009163389959495942 0 -0.015923014555290761 0.0090204213922294354 0 -0.016104093014592064 0.0088901622433281667 0 -0.015889508186327936 0.0092416317685809473 0 -0.015736542716986591 0.0090933367968747836 0 -0.01567979801128731 0.0093430280871111809 0 -0.015717681369277346 0.0092164293675626209 0 -0.015718685415127807 0.0092409612633165081 0 -0.015923014555290761 0.0090204213922294354 0 -0.015889508186327936 0.0092416317685809473 0 -0.015736542716986591 0.0090933367968747836 0 -0.015764400889814657 0.0074085073282004954 0 -0.015576402909780478 0.0083796363961548478 0 -0.015857595309815235 0.0089887271616950395 0 -0.015993967738867992 0.0086094217523505993 0 -0.015610060874482095 0.0089539201341666402 0 -0.015717681369277346 0.0092164293675626209 0 -0.015764400889814657 0.0074085073282004954 0 -0.015923014555290761 0.0090204213922294354 0 -0.015736542716986591 0.0090933367968747836 0 -0.015812219733212271 0.0088279661041069483 0 -0.015764400889814657 0.0074085073282004954 0 -0.016118803935545586 0.0067367217029260995 0 -0.016335185303439154 0.0046807277050190093 0 -0.015705029823707924 0.0045411387783474656 0 -0.015669670389053137 0.005103032746678335 0 -0.015923014555290761 0.0090204213922294354 0 -0.015812219733212271 0.0088279661041069483 0 -0.016104093014592064 0.0088901622433281667 0 -0.015367938969667955 0.0048225284337183282 0 -0.015705029823707924 0.0045411387783474656 0 -0.015669670389053137 0.005103032746678335 0 -0.016335185303439154 0.0046807277050190093 0 -0.015669670389053137 0.005103032746678335 0 -0.016097758675220362 0.005520598779639038 0 -0.015764400889814657 0.0074085073282004954 0 -0.016084520256078365 0.0063554617449016158 0 -0.015828007034272343 0.0082764161246567519 0 -0.015664884331221499 0.0078432815360896923 0 -0.015459981884277482 0.0082251936058983805 0 -0.015828007034272343 0.0082764161246567519 0 -0.015664884331221499 0.0078432815360896923 0 -0.015975176174698447 0.0075889276154920632 0 -0.015664884331221499 0.0078432815360896923 0 -0.015975176174698447 0.0075889276154920632 0 -0.015734600659416346 0.0071255637860796204 0 -0.015664884331221499 0.0078432815360896923 0 -0.015500907073255783 0.0071617918625142708 0 -0.015734600659416346 0.0071255637860796204 0 -0.01547712415192719 0.0058750979720862979 0 -0.016097758675220362 0.005520598779639038 0 -0.015829828714629755 0.006660391040732524 0 -0.016084520256078365 0.0063554617449016158 0 -0.015827800194942971 0.0067782337363220179 0 -0.015975176174698447 0.0075889276154920632 0 -0.015829828714629755 0.006660391040732524 0 -0.015734600659416346 0.0071255637860796204 0 -0.01547712415192719 0.0058750979720862979 0 -0.015669670389053137 0.005103032746678335 0 -0.016097758675220362 0.005520598779639038 0 -0.014999871579942928 0.0078798095262976285 0 -0.015343542729155545 0.0078239450069375795 0 -0.015226473653397821 0.0073273392559806165 0 -0.015343542729155545 0.0078239450069375795 0 -0.015500907073255783 0.0071617918625142708 0 -0.015226473653397821 0.0073273392559806165 0 -0.015664884331221499 0.0078432815360896923 0 -0.015343542729155545 0.0078239450069375795 0 -0.015500907073255783 0.0071617918625142708 0 -0.015664884331221499 0.0078432815360896923 0 -0.015343542729155545 0.0078239450069375795 0 -0.015459981884277482 0.0082251936058983805 0 -0.015343542729155545 0.0078239450069375795 0 -0.015174287662449489 0.0083381483683570342 0 -0.015459981884277482 0.0082251936058983805 0 -0.014999871579942928 0.0078798095262976285 0 -0.015343542729155545 0.0078239450069375795 0 -0.015174287662449489 0.0083381483683570342 0 -0.014999871579942928 0.0078798095262976285 0 -0.015174287662449489 0.0083381483683570342 0 -0.014999906518220772 0.0086930064726206298 0 -0.015174287662449489 0.0083381483683570342 0 -0.015374859884132805 0.0088082209136831763 0 -0.014999906518220772 0.0086930064726206298 0 -0.015374859884132805 0.0088082209136831763 0 -0.014999906518220772 0.0086930064726206298 0 -0.015132767675576466 0.0090015333712288245 0 -0.015374859884132805 0.0088082209136831763 0 -0.015603466829059135 0.0085169486530833009 0 -0.015610060874482095 0.0089539201341666402 0 -0.015174287662449489 0.0083381483683570342 0 -0.015374859884132805 0.0088082209136831763 0 -0.015603466829059135 0.0085169486530833009 0 -0.015993967738867992 0.0086094217523505993 0 -0.015603466829059135 0.0085169486530833009 0 -0.015610060874482095 0.0089539201341666402 0 -0.01517825543492133 0.0083246019663318713 0 -0.015576402909780478 0.0083796363961548478 0 -0.015857595309815235 0.0089887271616950395 0 -0.015610060874482095 0.0089539201341666402 0 -0.01567979801128731 0.0093430280871111809 0 -0.015610060874482095 0.0089539201341666402 0 -0.01543464237297415 0.0091610942057025729 0 -0.01567979801128731 0.0093430280871111809 0 -0.015374859884132805 0.0088082209136831763 0 -0.015610060874482095 0.0089539201341666402 0 -0.01543464237297415 0.0091610942057025729 0 -0.014999906518220772 0.0086930064726206298 0 -0.015132767675576466 0.0090015333712288245 0 -0.014999998948430045 0.009506187489251923 0 -0.01543464237297415 0.0091610942057025729 0 -0.015132767675576466 0.0090015333712288245 0 -0.015290548534982934 0.009437537717376725 0 -0.015145610254765731 0.0090312343656316976 0 -0.015317391113177779 0.009568726353561971 0 -0.015374859884132805 0.0088082209136831763 0 -0.01543464237297415 0.0091610942057025729 0 -0.015132767675576466 0.0090015333712288245 0 -0.015132767675576466 0.0090015333712288245 0 -0.014999998948430045 0.009506187489251923 0 -0.015345785232013881 0.0096643591088277896 0 -0.014999998948430045 0.009506187489251923 0 -0.015345785232013881 0.0096643591088277896 0 -0.015233507315149775 0.010001942122856097 0 -0.015317391113177779 0.009568726353561971 0 -0.015445144624170267 0.0099442151136072826 0 -0.015345785232013881 0.0096643591088277896 0 -0.015233507315149775 0.010001942122856097 0 -0.015506865660916554 0.010327729557165957 0 -0.015233507315149775 0.010001942122856097 0 -0.015506865660916554 0.010327729557165957 0 -0.014999968444262978 0.010319172278974749 0 -0.014999998948430045 0.009506187489251923 0 -0.015233507315149775 0.010001942122856097 0 -0.014999968444262978 0.010319172278974749 0 -0.015290548534982934 0.009437537717376725 0 -0.01541632646108765 0.0098327519137343441 0 -0.015540160933008099 0.0095830482464616795 0 -0.01541632646108765 0.0098327519137343441 0 -0.015540160933008099 0.0095830482464616795 0 -0.0156517479183108 0.0098773729965603348 0 -0.015540160933008099 0.0095830482464616795 0 -0.015483402603131909 0.0093708863049079012 0 -0.01567979801128731 0.0093430280871111809 0 -0.015290548534982934 0.009437537717376725 0 -0.015540160933008099 0.0095830482464616795 0 -0.015483402603131909 0.0093708863049079012 0 -0.01543464237297415 0.0091610942057025729 0 -0.015290548534982934 0.009437537717376725 0 -0.015483402603131909 0.0093708863049079012 0 -0.01543464237297415 0.0091610942057025729 0 -0.015483402603131909 0.0093708863049079012 0 -0.01567979801128731 0.0093430280871111809 0 -0.01567979801128731 0.0093430280871111809 0 -0.015862479462986075 0.009455889563828106 0 -0.015772778050846765 0.0096457054404582594 0 -0.015540160933008099 0.0095830482464616795 0 -0.01567979801128731 0.0093430280871111809 0 -0.015772778050846765 0.0096457054404582594 0 -0.015889508186327936 0.0092416317685809473 0 -0.01567979801128731 0.0093430280871111809 0 -0.015862479462986075 0.009455889563828106 0 -0.016218878489955138 0.0094697265461168769 0 -0.01615506237852021 0.009163389959495942 0 -0.016040340333282423 0.0093917464450207922 0 -0.015889508186327936 0.0092416317685809473 0 -0.015862479462986075 0.009455889563828106 0 -0.016040340333282423 0.0093917464450207922 0 -0.015862479462986075 0.009455889563828106 0 -0.016040340333282423 0.0093917464450207922 0 -0.016033709112216167 0.0095940655198141767 0 -0.016218878489955138 0.0094697265461168769 0 -0.016040340333282423 0.0093917464450207922 0 -0.016033709112216167 0.0095940655198141767 0 -0.016033709112216167 0.0095940655198141767 0 -0.015772778050846765 0.0096457054404582594 0 -0.01595517778555958 0.0099385493557281029 0 -0.014276881748627433 0.010717540783746152 0 -0.015550674610382505 0.011528075714617111 0 -0.016350484343560005 0.009665650294184704 0 -0.016033709112216167 0.0095940655198141767 0 -0.01595517778555958 0.0099385493557281029 0 -0.015862479462986075 0.009455889563828106 0 -0.016033709112216167 0.0095940655198141767 0 -0.015772778050846765 0.0096457054404582594 0 -0.015772778050846765 0.0096457054404582594 0 -0.0156517479183108 0.0098773729965603348 0 -0.01595517778555958 0.0099385493557281029 0 -0.015540160933008099 0.0095830482464616795 0 -0.015772778050846765 0.0096457054404582594 0 -0.0156517479183108 0.0098773729965603348 0 -0.015550674610382505 0.011528075714617111 0 -0.015385652045680534 0.011368346594894019 0 -0.0156517479183108 0.0098773729965603348 0 -0.01595517778555958 0.0099385493557281029 0 -0.015534605609607031 0.010225654057478962 0 -0.014336005116628126 0.012350970984762889 0 -0.014321545036576672 0.012707818914084719 0 -0.014839923051389446 0.012439598818063962 0 -0.014321545036576672 0.012707818914084719 0 -0.014784955495876587 0.012952648208508208 0 -0.014839923051389446 0.012439598818063962 0 -0.014784955495876587 0.012952648208508208 0 -0.014839923051389446 0.012439598818063962 0 -0.015459273820091249 0.012571101645903467 0 -0.015251506783588229 0.011796725211585535 0 -0.015533136234080076 0.011117061570876132 0 -0.015568165535055599 0.011096506929456944 0 -0.01525780164799476 0.01161201474078883 0 -0.015533136234080076 0.011117061570876132 0 -0.015249328328137003 0.011148361914388897 0 -0.015411949367027271 0.011346542142608742 0 -0.015385652045680534 0.011368346594894019 0 -0.015533136234080076 0.011117061570876132 0 -0.015417592698188883 0.010889044349945353 0 -0.015249328328137003 0.011148361914388897 0 -0.015533136234080076 0.011117061570876132 0 -0.01559900867016145 0.011069291678451082 0 -0.015417592698188883 0.010889044349945353 0 -0.01525780164799476 0.01161201474078883 0 -0.015249328328137003 0.011148361914388897 0 -0.014999741671603914 0.011132774380021167 0 -0.015249328328137003 0.011148361914388897 0 -0.014999741671603914 0.011132774380021167 0 -0.015222964342617742 0.010767826735906859 0 -0.015417592698188883 0.010889044349945353 0 -0.015249328328137003 0.011148361914388897 0 -0.015222964342617742 0.010767826735906859 0 -0.015506865660916554 0.010327729557165957 0 -0.015417592698188883 0.010889044349945353 0 -0.015222964342617742 0.010767826735906859 0 -0.014999741671603914 0.011132774380021167 0 -0.015222964342617742 0.010767826735906859 0 -0.014999968444262978 0.010319172278974749 0 -0.015506865660916554 0.010327729557165957 0 -0.015222964342617742 0.010767826735906859 0 -0.014999968444262978 0.010319172278974749 0 -0.015506865660916554 0.010327729557165957 0 -0.01559900867016145 0.011069291678451082 0 -0.015417592698188883 0.010889044349945353 0 -0.01541632646108765 0.0098327519137343441 0 -0.0156517479183108 0.0098773729965603348 0 -0.015534605609607031 0.010225654057478962 0 -0.015445144624170267 0.0099442151136072826 0 -0.015385652045680534 0.011368346594894019 0 -0.015424268470757072 0.0047171673907180764 0 -0.015230195185716444 0.0048926419850449229 0 -0.015442960722850584 0.0050502251094381567 0 -0.015424268470757072 0.0047171673907180764 0 -0.015637728049490814 0.0049414353998255495 0 -0.015442960722850584 0.0050502251094381567 0 -0.015650990851823896 0.0046256659036509771 0 -0.015241204585018962 0.0047177671666575691 0 -0.015412814325237773 0.004166234448867932 0 -0.015522886371685427 0.0041622651964932081 0 -0.015278698830337705 0.004534224353626215 0 -0.015552409099800681 0.0045564269325250942 0 -0.015650990851823896 0.0046256659036509771 0 -0.015278698830337705 0.004534224353626215 0 -0.014999864037668561 0.0042740102938688389 0 -0.015000038109540294 0.0048987169552800651 0 -0.015278698830337705 0.004534224353626215 0 -0.014999864037668561 0.0042740102938688389 0 -0.015220898261978878 0.0042283432655262415 0 -0.015412814325237773 0.004166234448867932 0 -0.015278698830337705 0.004534224353626215 0 -0.015220898261978878 0.0042283432655262415 0 -0.014999864037668561 0.0042740102938688389 0 -0.015189644192877052 0.0039555961279118769 0 -0.015000198546002975 0.0036501682791325917 0 -0.015189644192877052 0.0039555961279118769 0 -0.015402316543027763 0.0037187370392329205 0 -0.015000198546002975 0.0036501682791325917 0 -0.015412814325237773 0.004166234448867932 0 -0.015189644192877052 0.0039555961279118769 0 -0.015402316543027763 0.0037187370392329205 0 -0.015412814325237773 0.004166234448867932 0 -0.015220898261978878 0.0042283432655262415 0 -0.015189644192877052 0.0039555961279118769 0 -0.014999864037668561 0.0042740102938688389 0 -0.015220898261978878 0.0042283432655262415 0 -0.015189644192877052 0.0039555961279118769 0 -0.015412814325237773 0.004166234448867932 0 -0.01547984508182907 0.0041499078082289928 0 -0.015402316543027763 0.0037187370392329205 0 -0.01547984508182907 0.0041499078082289928 0 -0.015725680654374886 0.0036827736969238687 0 -0.015402316543027763 0.0037187370392329205 0 -0.016105296896909215 0.0050422456773692934 0 -0.015962439179392388 0.005045613821434417 0 -0.015965009905800142 0.0052021733523422049 0 -0.015650990851823896 0.0046256659036509771 0 -0.015877206712370865 0.0044277224032235572 0 -0.01584401312235105 0.0051686417334765944 0 -0.015962439179392388 0.005045613821434417 0 -0.015965009905800142 0.0052021733523422049 0 -0.01584401312235105 0.0051686417334765944 0 -0.01581148941135432 0.005046839479587382 0 -0.015962439179392388 0.005045613821434417 0 -0.015853073436031744 0.0064570384188890381 0 -0.015903966145557447 0.0061117254099798375 0 -0.01581905352807542 0.0064591800098549052 0 -0.015903966145557447 0.0061117254099798375 0 -0.015907570672021077 0.0059614273767977857 0 -0.01581905352807542 0.0064591800098549052 0 -0.015907570672021077 0.0059614273767977857 0 -0.015769419219436431 0.0061572594140760183 0 -0.015820343922781532 0.0063462404606137888 0 -0.016357901593823793 0.0047272210366492567 0 -0.016092779053456834 0.0049045394011552283 0 -0.016203520319306743 0.0051600803088465482 0 -0.015880277080131424 0.0061538614887601175 0 -0.015845288600657707 0.0059822607627297289 0 -0.016357901593823793 0.0047272210366492567 0 -0.016092779053456834 0.0049045394011552283 0 -0.015854458297025992 0.0047228062584962491 0 -0.015871413020266605 0.0055591909057919296 0 -0.016052069944216207 0.0056389346580523574 0 -0.015871413020266605 0.0055591909057919296 0 -0.015971154464882727 0.0048624479032655177 0 -0.016092779053456834 0.0049045394011552283 0 -0.015887951244929182 0.0050472927921606809 0 -0.016203520319306743 0.0051600803088465482 0 -0.015650990851823896 0.0046256659036509771 0 -0.015971154464882727 0.0048624479032655177 0 -0.015424268470757072 0.0047171673907180764 0 -0.015854458297025992 0.0047228062584962491 0 -0.015637728049490814 0.0049414353998255495 0 -0.016092779053456834 0.0049045394011552283 0 -0.015854458297025992 0.0047228062584962491 0 -0.015887951244929182 0.0050472927921606809 0 -0.015854458297025992 0.0047228062584962491 0 -0.015887951244929182 0.0050472927921606809 0 -0.015637728049490814 0.0049414353998255495 0 -0.015887951244929182 0.0050472927921606809 0 -0.015637728049490814 0.0049414353998255495 0 -0.015681751039003978 0.0052495235789846171 0 -0.015887951244929182 0.0050472927921606809 0 -0.015681751039003978 0.0052495235789846171 0 -0.015861877895198842 0.0053554561305049321 0 -0.015681751039003978 0.0052495235789846171 0 -0.015723072426597179 0.0055340026801649492 0 -0.015513048276879158 0.0054399258079370792 0 -0.015681751039003978 0.0052495235789846171 0 -0.015861877895198842 0.0053554561305049321 0 -0.015723072426597179 0.0055340026801649492 0 -0.016052069944216207 0.0056389346580523574 0 -0.015954316435743559 0.0057458091741538165 0 -0.015903966145557447 0.0061117254099798375 0 -0.015907570672021077 0.0059614273767977857 0 -0.015930897526447253 0.0057457081510970528 0 -0.015861877895198842 0.0053554561305049321 0 -0.016203520319306743 0.0051600803088465482 0 -0.015930897526447253 0.0057457081510970528 0 -0.015907570672021077 0.0059614273767977857 0 -0.015782377654306852 0.0060055419908247266 0 -0.015769419219436431 0.0061572594140760183 0 -0.015887951244929182 0.0050472927921606809 0 -0.015861877895198842 0.0053554561305049321 0 -0.016203520319306743 0.0051600803088465482 0 -0.015907570672021077 0.0059614273767977857 0 -0.015814254775217119 0.0058985246301656883 0 -0.015782377654306852 0.0060055419908247266 0 -0.015814254775217119 0.0058985246301656883 0 -0.015930897526447253 0.0057457081510970528 0 -0.015768778831800698 0.0059210292990467149 0 -0.015907570672021077 0.0059614273767977857 0 -0.015814254775217119 0.0058985246301656883 0 -0.015930897526447253 0.0057457081510970528 0 -0.015723072426597179 0.0055340026801649492 0 -0.01574449761161939 0.0057685414354992559 0 -0.015513048276879158 0.0054399258079370792 0 -0.015930897526447253 0.0057457081510970528 0 -0.015723072426597179 0.0055340026801649492 0 -0.01574449761161939 0.0057685414354992559 0 -0.015861877895198842 0.0053554561305049321 0 -0.015930897526447253 0.0057457081510970528 0 -0.015723072426597179 0.0055340026801649492 0 -0.015513048276879158 0.0054399258079370792 0 -0.015267177801438402 0.0054036006333933618 0 -0.015471756049588769 0.0058743896926316133 0 -0.01574449761161939 0.0057685414354992559 0 -0.015513048276879158 0.0054399258079370792 0 -0.015471756049588769 0.0058743896926316133 0 -0.015513048276879158 0.0054399258079370792 0 -0.01529379727163591 0.0051324372559240754 0 -0.015267177801438402 0.0054036006333933618 0 -0.015513048276879158 0.0054399258079370792 0 -0.015442960722850584 0.0050502251094381567 0 -0.01529379727163591 0.0051324372559240754 0 -0.015681751039003978 0.0052495235789846171 0 -0.015513048276879158 0.0054399258079370792 0 -0.015442960722850584 0.0050502251094381567 0 -0.015637728049490814 0.0049414353998255495 0 -0.015681751039003978 0.0052495235789846171 0 -0.015442960722850584 0.0050502251094381567 0 -0.015241204585018962 0.0047177671666575691 0 -0.015000063000453954 0.0048986747460208861 0 -0.015230195185716444 0.0048926419850449229 0 -0.015442960722850584 0.0050502251094381567 0 -0.01529379727163591 0.0051324372559240754 0 -0.015230195185716444 0.0048926419850449229 0 -0.015000029925199722 0.004899383293205454 0 -0.01529379727163591 0.0051324372559240754 0 -0.015000029925199722 0.004899383293205454 0 -0.01529379727163591 0.0051324372559240754 0 -0.015267177801438402 0.0054036006333933618 0 -0.015000029925199722 0.004899383293205454 0 -0.014999918133931926 0.0056214742341208568 0 -0.015267177801438402 0.0054036006333933618 0 -0.014999918133931926 0.0056214742341208568 0 -0.015267177801438402 0.0054036006333933618 0 -0.015471756049588769 0.0058743896926316133 0 -0.014999918133931926 0.0056214742341208568 0 -0.015471756049588769 0.0058743896926316133 0 -0.014999966242491921 0.0063442280835855304 0 -0.015471756049588769 0.0058743896926316133 0 -0.015544849439966231 0.0064856462170178302 0 -0.01590479736082721 0.0059808411957216678 0 -0.015471756049588769 0.0058743896926316133 0 -0.014999966242491921 0.0063442280835855304 0 -0.015544849439966231 0.0064856462170178302 0 -0.014999966242491921 0.0063442280835855304 0 -0.015544849439966231 0.0064856462170178302 0 -0.014999983947100564 0.0070669762429048585 0 -0.015340959280309647 0.0066050159517583897 0 -0.015226473653397821 0.0073273392559806165 0 -0.014999779079342739 0.0070671241971856031 0 -0.015439164983883502 0.0065475000788826447 0 -0.015000073645703773 0.0070669610305614042 0 -0.015340959280309647 0.0066050159517583897 0 -0.015500907073255783 0.0071617918625142708 0 -0.015226473653397821 0.0073273392559806165 0 -0.014999871579942928 0.0078798095262976285 0 -0.015226473653397821 0.0073273392559806165 0 -0.014999779079342739 0.0070671241971856031 0 -0.015829828714629755 0.006660391040732524 0 -0.015734600659416346 0.0071255637860796204 0 -0.015662911028080127 0.0066417173639864305 0 -0.015500907073255783 0.0071617918625142708 0 -0.015734600659416346 0.0071255637860796204 0 -0.015662911028080127 0.0066417173639864305 0 -0.015340959280309647 0.0066050159517583897 0 -0.015500907073255783 0.0071617918625142708 0 -0.015662911028080127 0.0066417173639864305 0 -0.015829828714629755 0.006660391040732524 0 -0.015662911028080127 0.0066417173639864305 0 -0.015673599727992218 0.0065739947815995833 0 -0.015662911028080127 0.0066417173639864305 0 -0.015673599727992218 0.0065739947815995833 0 -0.015679959074902494 0.0063461126765503176 0 -0.015829828714629755 0.006660391040732524 0 -0.015673599727992218 0.0065739947815995833 0 -0.015507058970618808 0.0065807775962735838 0 -0.015662911028080127 0.0066417173639864305 0 -0.015679959074902494 0.0063461126765503176 0 -0.015543280082749425 0.006285587476912771 0 -0.015340959280309647 0.0066050159517583897 0 -0.015662911028080127 0.0066417173639864305 0 -0.015543280082749425 0.006285587476912771 0 -0.015439164983883502 0.0065475000788826447 0 -0.015718000044928907 0.006136135894781701 0 -0.01574449761161939 0.0057685414354992559 0 -0.015471756049588769 0.0058743896926316133 0 -0.01590479736082721 0.0059808411957216678 0 -0.015930897526447253 0.0057457081510970528 0 -0.01574449761161939 0.0057685414354992559 0 -0.01590479736082721 0.0059808411957216678 0 -0.015930897526447253 0.0057457081510970528 0 -0.01590479736082721 0.0059808411957216678 0 -0.015768778831800698 0.0059210292990467149 0 -0.015679959074902494 0.0063461126765503176 0 -0.015543280082749425 0.006285587476912771 0 -0.015768778831800698 0.0059210292990467149 0 -0.015718000044928907 0.006136135894781701 0 -0.015780940269279974 0.0059422560270588533 0 -0.015679959074902494 0.0063461126765503176 0 -0.015760453159004369 0.0061138217160276913 0 -0.015768778831800698 0.0059210292990467149 0 -0.015760453159004369 0.0061138217160276913 0 -0.015712441472781884 0.0059211302374325798 0 -0.015768778831800698 0.0059210292990467149 0 -0.015760453159004369 0.0061138217160276913 0 -0.015712441472781884 0.0059211302374325798 0 -0.0158382246929639 0.0061411450167732562 0 -0.015760453159004369 0.0061138217160276913 0 -0.0158382246929639 0.0061411450167732562 0 -0.015793294071262905 0.0064292224170695803 0 -0.013962029638138616 0.008272686897906955 0 -0.014684918347026349 0.0073983610056503361 0 -0.013861353551170057 0.007491455852178387 0 -0.014867756182525449 0.0073446199238329825 0 -0.015251511820713366 0.0068742092550574127 0 -0.015679959074902494 0.0063461126765503176 0 -0.015760453159004369 0.0061138217160276913 0 -0.015793294071262905 0.0064292224170695803 0 -0.015673599727992218 0.0065739947815995833 0 -0.015793294071262905 0.0064292224170695803 0 -0.015507058970618808 0.0065807775962735838 0 -0.015673599727992218 0.0065739947815995833 0 -0.015679959074902494 0.0063461126765503176 0 -0.015793294071262905 0.0064292224170695803 0 -0.014684918347026349 0.0073983610056503361 0 -0.014722057696165008 0.0067059939473526472 0 -0.015507058970618808 0.0065807775962735838 0 -0.015251511820713366 0.0068742092550574127 0 -0.015491449979369361 0.0065964191936527198 0 -0.014684918347026349 0.0073983610056503361 0 -0.013990000877773828 0.0067783819952803989 0 -0.013861353551170057 0.007491455852178387 0 -0.014684918347026349 0.0073983610056503361 0 -0.013990000877773828 0.0067783819952803989 0 -0.014722057696165008 0.0067059939473526472 0 -0.013990000877773828 0.0067783819952803989 0 -0.01477256710359026 0.0060567726853339478 0 -0.013532573306027668 0.0059893295898540283 0 -0.013990000877773828 0.0067783819952803989 0 -0.014722057696165008 0.0067059939473526472 0 -0.01477256710359026 0.0060567726853339478 0 -0.01547712415192719 0.0058750979720862979 0 -0.01477256710359026 0.0060567726853339478 0 -0.015507058970618808 0.0065807775962735838 0 -0.01547712415192719 0.0058750979720862979 0 -0.015829828714629755 0.006660391040732524 0 -0.015507058970618808 0.0065807775962735838 0 -0.014722057696165008 0.0067059939473526472 0 -0.01477256710359026 0.0060567726853339478 0 -0.015507058970618808 0.0065807775962735838 0 -0.01287692884510107 0.0049546928217230743 0 -0.012513717034308891 0.0060483480230767708 0 -0.013532573306027668 0.0059893295898540283 0 -0.012513717034308891 0.0060483480230767708 0 -0.013532573306027668 0.0059893295898540283 0 -0.013179756892410147 0.0069715959177774189 0 -0.013990000877773828 0.0067783819952803989 0 -0.013532573306027668 0.0059893295898540283 0 -0.013179756892410147 0.0069715959177774189 0 -0.013990000877773828 0.0067783819952803989 0 -0.013179756892410147 0.0069715959177774189 0 -0.013861353551170057 0.007491455852178387 0 -0.012513717034308891 0.0060483480230767708 0 -0.013179756892410147 0.0069715959177774189 0 -0.01242705634227434 0.0074242554778075412 0 -0.012513717034308891 0.0060483480230767708 0 -0.01242705634227434 0.0074242554778075412 0 -0.0115759556141846 0.0070177976776225727 0 -0.01242705634227434 0.0074242554778075412 0 -0.012918817173665274 0.0081464480410158632 0 -0.011737554999320653 0.0082091225414350853 0 -0.013179756892410147 0.0069715959177774189 0 -0.01242705634227434 0.0074242554778075412 0 -0.012918817173665274 0.0081464480410158632 0 -0.013179756892410147 0.0069715959177774189 0 -0.012918817173665274 0.0081464480410158632 0 -0.013861353551170057 0.007491455852178387 0 -0.013962029638138616 0.008272686897906955 0 -0.012918817173665274 0.0081464480410158632 0 -0.013861353551170057 0.007491455852178387 0 -0.013962029638138616 0.008272686897906955 0 -0.012918817173665274 0.0081464480410158632 0 -0.013256483317575063 0.0091921630564030347 0 -0.014867756182525449 0.0073446199238329825 0 -0.014337750006510717 0.0065849581875425727 0 -0.015712441472781884 0.0059211302374325798 0 -0.0158382246929639 0.0061411450167732562 0 -0.015946135162508802 0.0058929184378652723 0 -0.012918817173665274 0.0081464480410158632 0 -0.01252076965701448 0.0088321291173038274 0 -0.013256483317575063 0.0091921630564030347 0 -0.012918817173665274 0.0081464480410158632 0 -0.01252076965701448 0.0088321291173038274 0 -0.011737554999320653 0.0082091225414350853 0 -0.01252076965701448 0.0088321291173038274 0 -0.01238030830739416 0.0093196924238275417 0 -0.013256483317575063 0.0091921630564030347 0 -0.013124126685674376 0.0060926225450155767 0 -0.013154084347822411 0.0063220732055613927 0 -0.013427291618246471 0.0058885744220309203 0 -0.013154084347822411 0.0063220732055613927 0 -0.013519977537862824 0.0058386389986569854 0 -0.013427291618246471 0.0058885744220309203 0 -0.01252076965701448 0.0088321291173038274 0 -0.01238030830739416 0.0093196924238275417 0 -0.01186188332168144 0.0093210416700780074 0 -0.013161873113699599 0.0058845337875605211 0 -0.013124126685674376 0.0060926225450155767 0 -0.013427291618246471 0.0058885744220309203 0 -0.014149380082302392 0.0061176865857258036 0 -0.014337750006510717 0.0065849581875425727 0 -0.013161873113699599 0.0058845337875605211 0 -0.013124126685674376 0.0060926225450155767 0 -0.012948613537439587 0.0058820391328634498 0 -0.01275502109177947 0.0068564801284824849 0 -0.014337750006510717 0.0065849581875425727 0 -0.01275502109177947 0.0068564801284824849 0 -0.013442927576665147 0.0061710992899056604 0 -0.013165921164004354 0.0059000480516471932 0 -0.013519977537862824 0.0058386389986569854 0 -0.013427291618246471 0.0058885744220309203 0 -0.014998337128721012 0.0060934978961693512 0 -0.015316217047231868 0.0061036920037524471 0 -0.015020001915946416 0.006302261696421999 0 -0.014998337128721012 0.0060934978961693512 0 -0.015316217047231868 0.0061036920037524471 0 -0.01534728776752642 0.0058327714292824399 0 -0.013124126685674376 0.0060926225450155767 0 -0.013154084347822411 0.0063220732055613927 0 -0.012974576471969536 0.0064600434057878976 0 -0.015316217047231868 0.0061036920037524471 0 -0.015505175652680548 0.0059622762037015867 0 -0.015599612681312694 0.0060006832119576985 0 -0.016127648262404377 0.005852698456169576 0 -0.014337750006510717 0.0065849581875425727 0 -0.015712441472781884 0.0059211302374325798 0 -0.015505175652680548 0.0059622762037015867 0 -0.01534728776752642 0.0058327714292824399 0 -0.015316217047231868 0.0061036920037524471 0 -0.015505175652680548 0.0059622762037015867 0 -0.01534728776752642 0.0058327714292824399 0 -0.015712441472781884 0.0059211302374325798 0 -0.015505175652680548 0.0059622762037015867 0 -0.015599612681312694 0.0060006832119576985 0 -0.015712441472781884 0.0059211302374325798 0 -0.015721164705043669 0.0059488812104380425 0 -0.015599612681312694 0.0060006832119576985 0 -0.015712441472781884 0.0059211302374325798 0 -0.015768778831800698 0.0059210292990467149 0 -0.015721164705043669 0.0059488812104380425 0 -0.015814254775217119 0.0058985246301656883 0 -0.015768778831800698 0.0059210292990467149 0 -0.015721164705043669 0.0059488812104380425 0 -0.015814254775217119 0.0058985246301656883 0 -0.015721164705043669 0.0059488812104380425 0 -0.015782377654306852 0.0060055419908247266 0 -0.015721164705043669 0.0059488812104380425 0 -0.015782377654306852 0.0060055419908247266 0 -0.015679373386445768 0.0060903895788066474 0 -0.015782377654306852 0.0060055419908247266 0 -0.015679373386445768 0.0060903895788066474 0 -0.015769419219436431 0.0061572594140760183 0 -0.015316217047231868 0.0061036920037524471 0 -0.015599612681312694 0.0060006832119576985 0 -0.015487209161032961 0.0061798387035307085 0 -0.015721164705043669 0.0059488812104380425 0 -0.015679373386445768 0.0060903895788066474 0 -0.015599612681312694 0.0060006832119576985 0 -0.015679373386445768 0.0060903895788066474 0 -0.015599612681312694 0.0060006832119576985 0 -0.015487209161032961 0.0061798387035307085 0 -0.015487209161032961 0.0061798387035307085 0 -0.01555026075525375 0.0063765184097859242 0 -0.015153640615050161 0.0063796268164807391 0 -0.015679373386445768 0.0060903895788066474 0 -0.015487209161032961 0.0061798387035307085 0 -0.01555026075525375 0.0063765184097859242 0 -0.015513673099246077 0.0063610821375685994 0 -0.015845288600657707 0.0059822607627297289 0 -0.015679373386445768 0.0060903895788066474 0 -0.01555026075525375 0.0063765184097859242 0 -0.015769419219436431 0.0061572594140760183 0 -0.01555026075525375 0.0063765184097859242 0 -0.015769419219436431 0.0061572594140760183 0 -0.015820343922781532 0.0063462404606137888 0 -0.015871413020266605 0.0055591909057919296 0 -0.015845288600657707 0.0059822607627297289 0 -0.015645109865595579 0.0055618504769705882 0 -0.015652507137477786 0.0055621449323485757 0 -0.015678085715487535 0.0054814701349064623 0 -0.015871413020266605 0.0055591909057919296 0 -0.015693218867181891 0.0053047929623019074 0 -0.015845288600657707 0.0059822607627297289 0 -0.015701894563662947 0.0061343600844897391 0 -0.015472569291678439 0.0063061415248645012 0 -0.015934190065963513 0.0063007500338304037 0 -0.015742741342405372 0.0067647217055095445 0 -0.015645109865595579 0.0055618504769705882 0 -0.015678085715487535 0.0054814701349064623 0 -0.015672125309529304 0.0054686638418430678 0 -0.01584401312235105 0.0051686417334765944 0 -0.01581148941135432 0.005046839479587382 0 -0.015735721790324102 0.005240619154458153 0 -0.015472569291678439 0.0063061415248645012 0 -0.015292683880084777 0.0065779134702298875 0 -0.015742741342405372 0.0067647217055095445 0 -0.015472569291678439 0.0063061415248645012 0 -0.015292683880084777 0.0065779134702298875 0 -0.015153640615050161 0.0063796268164807391 0 -0.015292683880084777 0.0065779134702298875 0 -0.015153640615050161 0.0063796268164807391 0 -0.014975613074751671 0.0066394932142677682 0 -0.014668348271000086 0.0063919254965317538 0 -0.014920695488424271 0.0065889266569703559 0 -0.014930840673622029 0.0065124123382748903 0 -0.015153640615050161 0.0063796268164807391 0 -0.014975613074751671 0.0066394932142677682 0 -0.014930840673622029 0.0065124123382748903 0 -0.015020001915946416 0.006302261696421999 0 -0.015153640615050161 0.0063796268164807391 0 -0.015316217047231868 0.0061036920037524471 0 -0.015487209161032961 0.0061798387035307085 0 -0.015153640615050161 0.0063796268164807391 0 -0.015316217047231868 0.0061036920037524471 0 -0.015020001915946416 0.006302261696421999 0 -0.015153640615050161 0.0063796268164807391 0 -0.015513673099246077 0.0063610821375685994 0 -0.015188936089826214 0.0063667134886610096 0 -0.01259508891061265 0.0065381143771471245 0 -0.012725709555697646 0.0068943732871451901 0 -0.012107016959111892 0.0065372963630211138 0 -0.013474030253892306 0.0063427123719432569 0 -0.012305472705878165 0.0059647463979793144 0 -0.013406145427624791 0.005992729905953024 0 -0.012897509645430096 0.0061392519409010048 0 -0.012639729462675216 0.0054188344080025527 0 -0.01352538440763093 0.0058290582100123936 0 -0.013406145427624791 0.005992729905953024 0 -0.012639729462675216 0.0054188344080025527 0 -0.014149380082302392 0.0061176865857258036 0 -0.013474030253892306 0.0063427123719432569 0 -0.014930840673622029 0.0065124123382748903 0 -0.015020001915946416 0.006302261696421999 0 -0.014731635839453873 0.0063891620598968768 0 -0.013154084347822411 0.0063220732055613927 0 -0.012725709555697646 0.0068943732871451901 0 -0.012974576471969536 0.0064600434057878976 0 -0.014998337128721012 0.0060934978961693512 0 -0.015020001915946416 0.006302261696421999 0 -0.014731635839453873 0.0063891620598968768 0 -0.01259508891061265 0.0065381143771471245 0 -0.012725709555697646 0.0068943732871451901 0 -0.012974576471969536 0.0064600434057878976 0 -0.013555463754266719 0.0057922449805839459 0 -0.013406145427624791 0.005992729905953024 0 -0.013758790404525715 0.0063316161923528715 0 -0.014247991492939387 0.0061734016251035377 0 -0.013758790404525715 0.0063316161923528715 0 -0.014153235270456506 0.0068833563216267801 0 -0.013474030253892306 0.0063427123719432569 0 -0.013547331816470515 0.0061276514526346481 0 -0.014668348271000086 0.0063919254965317538 0 -0.013474030253892306 0.0063427123719432569 0 -0.014247991492939387 0.0061734016251035377 0 -0.013555463754266719 0.0057922449805839459 0 -0.013758790404525715 0.0063316161923528715 0 -0.013406145427624791 0.005992729905953024 0 -0.013758790404525715 0.0063316161923528715 0 -0.013337095319357313 0.0062611872279841677 0 -0.013758790404525715 0.0063316161923528715 0 -0.013337095319357313 0.0062611872279841677 0 -0.013299562830197691 0.0065839663135197918 0 -0.013337095319357313 0.0062611872279841677 0 -0.012897509645430096 0.0061392519409010048 0 -0.013299562830197691 0.0065839663135197918 0 -0.012897509645430096 0.0061392519409010048 0 -0.012637074504869084 0.0066063178391605739 0 -0.013299562830197691 0.0065839663135197918 0 -0.013406145427624791 0.005992729905953024 0 -0.013337095319357313 0.0062611872279841677 0 -0.012897509645430096 0.0061392519409010048 0 -0.012143458101749174 0.0060165830993612274 0 -0.012102959617761259 0.0066023578282265105 0 -0.012637074504869084 0.0066063178391605739 0 -0.012897509645430096 0.0061392519409010048 0 -0.012143458101749174 0.0060165830993612274 0 -0.012637074504869084 0.0066063178391605739 0 -0.012143458101749174 0.0060165830993612274 0 -0.01139118006553295 0.0065056134963130023 0 -0.012102959617761259 0.0066023578282265105 0 -0.012143458101749174 0.0060165830993612274 0 -0.011332260768539456 0.0059194527649389563 0 -0.01139118006553295 0.0065056134963130023 0 -0.012143458101749174 0.0060165830993612274 0 -0.011807026585568968 0.0050825627141395172 0 -0.011332260768539456 0.0059194527649389563 0 -0.012897509645430096 0.0061392519409010048 0 -0.012143458101749174 0.0060165830993612274 0 -0.012639729462675216 0.0054188344080025527 0 -0.012143458101749174 0.0060165830993612274 0 -0.012639729462675216 0.0054188344080025527 0 -0.011807026585568968 0.0050825627141395172 0 -0.012107016959111892 0.0065372963630211138 0 -0.01185659798044769 0.0061553643330076232 0 -0.01221129398096841 0.0062037264157711047 0 -0.01185659798044769 0.0061553643330076232 0 -0.011369601163939983 0.0060102377965229907 0 -0.0119743744215252 0.0060498716024296757 0 -0.012305472705878165 0.0059647463979793144 0 -0.011713833296942333 0.0056262037654999314 0 -0.012107016959111892 0.0065372963630211138 0 -0.01185659798044769 0.0061553643330076232 0 -0.011468816940401165 0.0061412058626811594 0 -0.0119743744215252 0.0060498716024296757 0 -0.012207973727014472 0.0060535018338649434 0 -0.01221129398096841 0.0062037264157711047 0 -0.01185659798044769 0.0061553643330076232 0 -0.0119743744215252 0.0060498716024296757 0 -0.01221129398096841 0.0062037264157711047 0 -0.01185659798044769 0.0061553643330076232 0 -0.011468816940401165 0.0061412058626811594 0 -0.011369601163939983 0.0060102377965229907 0 -0.011500065993216855 0.005811528993607617 0 -0.011369601163939983 0.0060102377965229907 0 -0.011915668208731483 0.0059147185282605935 0 -0.011500065993216855 0.005811528993607617 0 -0.011369601163939983 0.0060102377965229907 0 -0.010921045991002576 0.0057803446956107415 0 -0.011500065993216855 0.005811528993607617 0 -0.011915668208731483 0.0059147185282605935 0 -0.011971101850058261 0.0058192613241020022 0 -0.011374296090877232 0.0060281953244931625 0 -0.012091994611851236 0.0058107196138011746 0 -0.011369601163939983 0.0060102377965229907 0 -0.0119743744215252 0.0060498716024296757 0 -0.012151893105828156 0.0058870258564506532 0 -0.011102896907845021 0.0057635786632934897 0 -0.011317284493970023 0.0057162220459637614 0 -0.0119743744215252 0.0060498716024296757 0 -0.012151893105828156 0.0058870258564506532 0 -0.012207973727014472 0.0060535018338649434 0 -0.012151893105828156 0.0058870258564506532 0 -0.012410420017286813 0.0060509466731374674 0 -0.012916235516235459 0.0057437167430201665 0 -0.011915668208731483 0.0059147185282605935 0 -0.011971101850058261 0.0058192613241020022 0 -0.012409550976890633 0.0058314522346895143 0 -0.012091994611851236 0.0058107196138011746 0 -0.012432831994054157 0.0064439371085700465 0 -0.010933733642042838 0.0057390119011199994 0 -0.011154298573446251 0.0057602461899468431 0 -0.011040892832017458 0.0056648639674836514 0 -0.011317284493970023 0.0057162220459637614 0 -0.012432831994054157 0.0064439371085700465 0 -0.012151893105828156 0.0058870258564506532 0 -0.012410420017286813 0.0060509466731374674 0 -0.012207973727014472 0.0060535018338649434 0 -0.012410420017286813 0.0060509466731374674 0 -0.01221129398096841 0.0062037264157711047 0 -0.012444373926370808 0.0062983539209485817 0 -0.01259508891061265 0.0065381143771471245 0 -0.012107016959111892 0.0065372963630211138 0 -0.012444373926370808 0.0062983539209485817 0 -0.012410420017286813 0.0060509466731374674 0 -0.012207973727014472 0.0060535018338649434 0 -0.01221129398096841 0.0062037264157711047 0 -0.012410420017286813 0.0060509466731374674 0 -0.012596288046564359 0.0061389969288953659 0 -0.012444373926370808 0.0062983539209485817 0 -0.012596288046564359 0.0061389969288953659 0 -0.012444373926370808 0.0062983539209485817 0 -0.012736660916682706 0.0063226286908963283 0 -0.01259508891061265 0.0065381143771471245 0 -0.012444373926370808 0.0062983539209485817 0 -0.012736660916682706 0.0063226286908963283 0 -0.012107016959111892 0.0065372963630211138 0 -0.01221129398096841 0.0062037264157711047 0 -0.012444373926370808 0.0062983539209485817 0 -0.0130683327138862 0.0061723011210036011 0 -0.012432831994054157 0.0064439371085700465 0 -0.012974576471969536 0.0064600434057878976 0 -0.012736660916682706 0.0063226286908963283 0 -0.012916235516235459 0.0057437167430201665 0 -0.01259508891061265 0.0065381143771471245 0 -0.012974576471969536 0.0064600434057878976 0 -0.012736660916682706 0.0063226286908963283 0 -0.012410420017286813 0.0060509466731374674 0 -0.012596288046564359 0.0061389969288953659 0 -0.012916235516235459 0.0057437167430201665 0 -0.012596288046564359 0.0061389969288953659 0 -0.012736660916682706 0.0063226286908963283 0 -0.012916235516235459 0.0057437167430201665 0 -0.013124126685674376 0.0060926225450155767 0 -0.012974576471969536 0.0064600434057878976 0 -0.012948613537439587 0.0058820391328634498 0 -0.01275502109177947 0.0068564801284824849 0 -0.012432831994054157 0.0064439371085700465 0 -0.01252076965701448 0.0088321291173038274 0 -0.01186188332168144 0.0093210416700780074 0 -0.011737554999320653 0.0082091225414350853 0 -0.012432831994054157 0.0064439371085700465 0 -0.011399558587613925 0.0071073964930749205 0 -0.011154298573446251 0.0057602461899468431 0 -0.011040892832017458 0.0056648639674836514 0 -0.011134489230424274 0.005600312044318257 0 -0.011040892832017458 0.0056648639674836514 0 -0.010927556538220595 0.0055285588846757418 0 -0.011134489230424274 0.005600312044318257 0 -0.010933733642042838 0.0057390119011199994 0 -0.011040892832017458 0.0056648639674836514 0 -0.010927556538220595 0.0055285588846757418 0 -0.010927556538220595 0.0055285588846757418 0 -0.011134489230424274 0.005600312044318257 0 -0.011166253908053135 0.0055234317579382752 0 -0.011399558587613925 0.0071073964930749205 0 -0.011389212797615117 0.0062013067359461618 0 -0.01242705634227434 0.0074242554778075412 0 -0.011737554999320653 0.0082091225414350853 0 -0.0115759556141846 0.0070177976776225727 0 -0.010927556538220595 0.0055285588846757418 0 -0.01109252854528194 0.005485538960740324 0 -0.010810646865681567 0.005382255628481835 0 -0.010927556538220595 0.0055285588846757418 0 -0.011166253908053135 0.0055234317579382752 0 -0.01109252854528194 0.005485538960740324 0 -0.010702077163750868 0.0051187615944232141 0 -0.01109087242553488 0.0049291039703671337 0 -0.01109252854528194 0.005485538960740324 0 -0.01109087242553488 0.0049291039703671337 0 -0.01109252854528194 0.005485538960740324 0 -0.011444863047499252 0.0055571454933277141 0 -0.011389212797615117 0.0062013067359461618 0 -0.011412370343132586 0.0056196195563417706 0 -0.012513717034308891 0.0060483480230767708 0 -0.0115759556141846 0.0070177976776225727 0 -0.011444863047499252 0.0055571454933277141 0 -0.011166253908053135 0.0055234317579382752 0 -0.01109252854528194 0.005485538960740324 0 -0.011444863047499252 0.0055571454933277141 0 -0.012008645619900376 0.0051558316075230358 0 -0.012513717034308891 0.0060483480230767708 0 -0.011444863047499252 0.0055571454933277141 0 -0.010302837261880315 0.0050251409184596686 0 -0.010702077163750868 0.0051187615944232141 0 -0.010527957302744638 0.0052470649386045561 0 -0.010702077163750868 0.0051187615944232141 0 -0.01109252854528194 0.005485538960740324 0 -0.010810646865681567 0.005382255628481835 0 -0.010702077163750868 0.0051187615944232141 0 -0.010810646865681567 0.005382255628481835 0 -0.010527957302744638 0.0052470649386045561 0 -0.010927556538220595 0.0055285588846757418 0 -0.010810646865681567 0.005382255628481835 0 -0.010684559875301055 0.0053995482180451016 0 -0.010527957302744638 0.0052470649386045561 0 -0.010684559875301055 0.0053995482180451016 0 -0.010454758724385466 0.005317787568902433 0 -0.010810646865681567 0.005382255628481835 0 -0.010527957302744638 0.0052470649386045561 0 -0.010684559875301055 0.0053995482180451016 0 -0.010684559875301055 0.0053995482180451016 0 -0.010678379942211531 0.0055006833595091179 0 -0.010454758724385466 0.005317787568902433 0 -0.010678379942211531 0.0055006833595091179 0 -0.010431913426662604 0.0054089288866475795 0 -0.010454758724385466 0.005317787568902433 0 -0.010927556538220595 0.0055285588846757418 0 -0.010684559875301055 0.0053995482180451016 0 -0.010678379942211531 0.0055006833595091179 0 -0.010933733642042838 0.0057390119011199994 0 -0.010927556538220595 0.0055285588846757418 0 -0.010678379942211531 0.0055006833595091179 0 -0.010654016517663475 0.0056659930546771771 0 -0.010933733642042838 0.0057390119011199994 0 -0.010678379942211531 0.0055006833595091179 0 -0.010654016517663475 0.0056659930546771771 0 -0.010678379942211531 0.0055006833595091179 0 -0.010431913426662604 0.0054089288866475795 0 -0.010431913426662604 0.0054089288866475795 0 -0.010234789952664684 0.0052765692416868173 0 -0.010373384639400053 0.0055271970532519256 0 -0.010654016517663475 0.0056659930546771771 0 -0.010431913426662604 0.0054089288866475795 0 -0.010373384639400053 0.0055271970532519256 0 -0.010431913426662604 0.0054089288866475795 0 -0.010234789952664684 0.0052765692416868173 0 -0.010255014113245279 0.0052088282592372172 0 -0.010234789952664684 0.0052765692416868173 0 -0.010255014113245279 0.0052088282592372172 0 -0.010201211371142067 0.0051505838199208658 0 -0.010431913426662604 0.0054089288866475795 0 -0.010255014113245279 0.0052088282592372172 0 -0.010454758724385466 0.005317787568902433 0 -0.010255014113245279 0.0052088282592372172 0 -0.010454758724385466 0.005317787568902433 0 -0.01030086138895484 0.0051998262369209198 0 -0.010527957302744638 0.0052470649386045561 0 -0.010454758724385466 0.005317787568902433 0 -0.01030086138895484 0.0051998262369209198 0 -0.010255014113245279 0.0052088282592372172 0 -0.01030086138895484 0.0051998262369209198 0 -0.010190815093941138 0.0051520920237903617 0 -0.01030086138895484 0.0051998262369209198 0 -0.010182371673311326 0.0051411465226121741 0 -0.010190815093941138 0.0051520920237903617 0 -0.0078729563900509694 0.007652142548480928 0 -0.0079655457088400015 0.0077298878961637642 0 -0.010302837261880315 0.0050251409184596686 0 -0.01030086138895484 0.0051998262369209198 0 -0.010182371673311326 0.0051411465226121741 0 -0.010302837261880315 0.0050251409184596686 0 -0.010527957302744638 0.0052470649386045561 0 -0.01030086138895484 0.0051998262369209198 0 -0.0057644665271809475 0.01025350596795847 0 -0.005614049694080846 0.010183068175630179 0 -0.0058058316507973041 0.010033175548402067 0 -0.007526157978011855 0.0069979460879326929 0 -0.0049029415364360181 0.0098297805953196909 0 -0.0057644665271809475 0.01025350596795847 0 -0.0058058316507973041 0.010033175548402067 0 -0.0059036170684914312 0.010227179737195009 0 -0.0079655457088400015 0.0077298878961637642 0 -0.007526157978011855 0.0069979460879326929 0 -0.010182371673311326 0.0051411465226121741 0 -0.010190815093941138 0.0051520920237903617 0 -0.010198271806752295 0.0051631902378738263 0 -0.010190815093941138 0.0051520920237903617 0 -0.010198271806752295 0.0051631902378738263 0 -0.010172131230066161 0.0050339942110489127 0 -0.0098598700301844085 0.004516620978854604 0 -0.0098216358120540789 0.0047993638102578054 0 -0.010172131230066161 0.0050339942110489127 0 -0.007526157978011855 0.0069979460879326929 0 -0.010552980830732854 0.0045859639744723676 0 -0.0098216358120540789 0.0047993638102578054 0 -0.010172131230066161 0.0050339942110489127 0 -0.0099875320180928574 0.0049871394634000213 0 -0.0098216358120540789 0.0047993638102578054 0 -0.0099875320180928574 0.0049871394634000213 0 -0.0096282975009472343 0.0047979450439601416 0 -0.010255014113245279 0.0052088282592372172 0 -0.010190815093941138 0.0051520920237903617 0 -0.010172131230066161 0.0050339942110489127 0 -0.010255014113245279 0.0052088282592372172 0 -0.010172131230066161 0.0050339942110489127 0 -0.010201211371142067 0.0051505838199208658 0 -0.010201211371142067 0.0051505838199208658 0 -0.0099761904208830153 0.0051067537887268142 0 -0.010233198822921433 0.0051318358759688465 0 -0.010172131230066161 0.0050339942110489127 0 -0.010201211371142067 0.0051505838199208658 0 -0.0099875320180928574 0.0049871394634000213 0 -0.010234789952664684 0.0052765692416868173 0 -0.010201211371142067 0.0051505838199208658 0 -0.010233198822921433 0.0051318358759688465 0 -0.010201211371142067 0.0051505838199208658 0 -0.0099875320180928574 0.0049871394634000213 0 -0.0099761904208830153 0.0051067537887268142 0 -0.0099875320180928574 0.0049871394634000213 0 -0.0099761904208830153 0.0051067537887268142 0 -0.0096282975009472343 0.0047979450439601416 0 -0.0099761904208830153 0.0051067537887268142 0 -0.010059332377690426 0.0052550154151938628 0 -0.0096928765545254633 0.0051857682936060825 0 -0.0099761904208830153 0.0051067537887268142 0 -0.010059332377690426 0.0052550154151938628 0 -0.010233198822921433 0.0051318358759688465 0 -0.010002951292418984 0.0054300334513460446 0 -0.010303989534994918 0.0054548464057526721 0 -0.010017859740533252 0.005639638469935958 0 -0.010059332377690426 0.0052550154151938628 0 -0.010002951292418984 0.0054300334513460446 0 -0.010303989534994918 0.0054548464057526721 0 -0.010303989534994918 0.0054548464057526721 0 -0.010233198822921433 0.0051318358759688465 0 -0.010603518156216102 0.0052163756698701078 0 -0.010059332377690426 0.0052550154151938628 0 -0.010303989534994918 0.0054548464057526721 0 -0.010233198822921433 0.0051318358759688465 0 -0.010234789952664684 0.0052765692416868173 0 -0.010233198822921433 0.0051318358759688465 0 -0.010215960612890236 0.0052946539291244274 0 -0.010233198822921433 0.0051318358759688465 0 -0.011042190532674792 0.004811027604800849 0 -0.010603518156216102 0.0052163756698701078 0 -0.010262572324059503 0.0050322012092419302 0 -0.010674303391118939 0.0053892936567820262 0 -0.010180341413902481 0.0052537745386466101 0 -0.010674303391118939 0.0053892936567820262 0 -0.011102896907845021 0.0057635786632934897 0 -0.010674303391118939 0.0053892936567820262 0 -0.011713833296942333 0.0056262037654999314 0 -0.010674303391118939 0.0053892936567820262 0 -0.011468816940401165 0.0061412058626811594 0 -0.011369601163939983 0.0060102377965229907 0 -0.010921045991002576 0.0057803446956107415 0 -0.011807026585568968 0.0050825627141395172 0 -0.010925520055598095 0.0054213671968113414 0 -0.011332260768539456 0.0059194527649389563 0 -0.011807026585568968 0.0050825627141395172 0 -0.011042190532674792 0.004811027604800849 0 -0.010925520055598095 0.0054213671968113414 0 -0.011042190532674792 0.004811027604800849 0 -0.010603518156216102 0.0052163756698701078 0 -0.010925520055598095 0.0054213671968113414 0 -0.010303989534994918 0.0054548464057526721 0 -0.010603518156216102 0.0052163756698701078 0 -0.010925520055598095 0.0054213671968113414 0 -0.010303989534994918 0.0054548464057526721 0 -0.010925520055598095 0.0054213671968113414 0 -0.010632396173439005 0.0057910222013461557 0 -0.010925610900729176 0.0054273744767199461 0 -0.010713326744912776 0.0059116371513146847 0 -0.010925520055598095 0.0054213671968113414 0 -0.010858801221704217 0.0060013105925813062 0 -0.011332260768539456 0.0059194527649389563 0 -0.011332260768539456 0.0059194527649389563 0 -0.011050891520441501 0.0063634580775585843 0 -0.01139118006553295 0.0065056134963130023 0 -0.010858801221704217 0.0060013105925813062 0 -0.011332260768539456 0.0059194527649389563 0 -0.011050891520441501 0.0063634580775585843 0 -0.010713326744912776 0.0059116371513146847 0 -0.011067678835366126 0.0061461822829050215 0 -0.010858801221704217 0.0060013105925813062 0 -0.011050891520441501 0.0063634580775585843 0 -0.010776851391463159 0.0064959127492490096 0 -0.010632396173439005 0.0057910222013461557 0 -0.010300734763657917 0.0059357835132190099 0 -0.010442037258160819 0.0060199751691924347 0 -0.010632396173439005 0.0057910222013461557 0 -0.010233326387634608 0.0057824252771036585 0 -0.010300734763657917 0.0059357835132190099 0 -0.010233326387634608 0.0057824252771036585 0 -0.010141851315500723 0.0059471115766049458 0 -0.0099939286361538995 0.0058284708918226406 0 -0.010233326387634608 0.0057824252771036585 0 -0.010017859740533252 0.005639638469935958 0 -0.0099939286361538995 0.0058284708918226406 0 -0.010233326387634608 0.0057824252771036585 0 -0.010300734763657917 0.0059357835132190099 0 -0.010141851315500723 0.0059471115766049458 0 -0.010141851315500723 0.0059471115766049458 0 -0.0099939286361538995 0.0058284708918226406 0 -0.0099498355607330145 0.0059881297550342105 0 -0.010303989534994918 0.0054548464057526721 0 -0.010233326387634608 0.0057824252771036585 0 -0.010017859740533252 0.005639638469935958 0 -0.010303989534994918 0.0054548464057526721 0 -0.010632396173439005 0.0057910222013461557 0 -0.010233326387634608 0.0057824252771036585 0 -0.010316287564553599 0.0062533167039873997 0 -0.010215263970184961 0.0061903034645085699 0 -0.010252533430074743 0.0060581331812201294 0 -0.011349381679714174 0.0038015457186604778 0 -0.011067678835366126 0.0061461822829050215 0 -0.011349381679714174 0.0038015457186604778 0 -0.010595877865196545 0.0053559696286164622 0 -0.010595877865196545 0.0053559696286164622 0 -0.0099464894234106427 0.0061661457991995811 0 -0.01011902529474726 0.0062024702361010778 0 -0.01013364375280895 0.0061545660811954585 0 -0.0099232105619205327 0.0060875960269017853 0 -0.010974323473061876 0.003024323592281399 0 -0.011373501934213676 0.0030850985747729854 0 -0.01131572726074709 0.0032520191727295144 0 -0.011076340925606649 0.0025863326246246417 0 -0.010595877865196545 0.0053559696286164622 0 -0.010595877865196545 0.0053559696286164622 0 -0.010157556127392258 0.0063515662840776029 0 -0.010166858199248336 0.0062684637900852595 0 -0.010080360596834126 0.0060681956899049259 0 -0.0099232105619205327 0.0060875960269017853 0 -0.010166858199248336 0.0062684637900852595 0 -0.010252533430074743 0.0060581331812201294 0 -0.010080360596834126 0.0060681956899049259 0 -0.010141851315500723 0.0059471115766049458 0 -0.010080360596834126 0.0060681956899049259 0 -0.0099498355607330145 0.0059881297550342105 0 -0.010300734763657917 0.0059357835132190099 0 -0.010141851315500723 0.0059471115766049458 0 -0.010252533430074743 0.0060581331812201294 0 -0.010141851315500723 0.0059471115766049458 0 -0.010252533430074743 0.0060581331812201294 0 -0.010080360596834126 0.0060681956899049259 0 -0.010300734763657917 0.0059357835132190099 0 -0.010252533430074743 0.0060581331812201294 0 -0.010344483272305119 0.0060417580918264947 0 -0.010316287564553599 0.0062533167039873997 0 -0.010252533430074743 0.0060581331812201294 0 -0.010344483272305119 0.0060417580918264947 0 -0.010316287564553599 0.0062533167039873997 0 -0.010344483272305119 0.0060417580918264947 0 -0.010442037258160819 0.0060199751691924347 0 -0.010300734763657917 0.0059357835132190099 0 -0.010344483272305119 0.0060417580918264947 0 -0.010442037258160819 0.0060199751691924347 0 -0.011067678835366126 0.0061461822829050215 0 -0.011247523183076228 0.0060198264799174407 0 -0.011050891520441501 0.0063634580775585843 0 -0.010776851391463159 0.0064959127492490096 0 -0.011167272037864936 0.0068891069063077735 0 -0.011050891520441501 0.0063634580775585843 0 -0.01139118006553295 0.0065056134963130023 0 -0.011167272037864936 0.0068891069063077735 0 -0.011454923338141224 0.0067884460297079948 0 -0.011167272037864936 0.0068891069063077735 0 -0.011545437994608975 0.0069645655850735086 0 -0.01139118006553295 0.0065056134963130023 0 -0.011454923338141224 0.0067884460297079948 0 -0.011167272037864936 0.0068891069063077735 0 -0.012238636238032665 0.0043634443658196759 0 -0.011904233414853844 0.0052736956231760413 0 -0.011387314725713908 0.0045028236254704883 0 -0.012466496511385275 0.00012679556643187189 0 -0.012408502310517168 0.00023113873923659057 0 -0.012235580556895475 0.00010379177109286077 0 -0.012238636238032665 0.0043634443658196759 0 -0.011387314725713908 0.0045028236254704883 0 -0.011532732084663244 0.0039021165178743052 0 -0.011167272037864936 0.0068891069063077735 0 -0.011448490577984369 0.0071629717922355261 0 -0.011545437994608975 0.0069645655850735086 0 -0.011247523183076228 0.0060198264799174407 0 -0.012200997518600473 0.0031975701675838108 0 -0.012211383925254402 0.0011663587921408782 0 -0.012200997518600473 0.0031975701675838108 0 -0.011387314725713908 0.0045028236254704883 0 -0.011532732084663244 0.0039021165178743052 0 -0.010888629822826399 0.0037410042467802295 0 -0.012520805044038444 0.00018044047852984371 0 -0.012781380366935713 0.00021392978087054942 0 -0.012775991959611493 0.00030940054638387829 0 -0.012466496511385275 0.00012679556643187189 0 -0.012775991959611493 0.00030940054638387829 0 -0.012563866185332411 0.00027636429824142014 0 -0.012211383925254402 0.0011663587921408782 0 -0.012732835842948598 0.00010708493105874484 0 -0.012636114175823212 0.00038469799988351494 0 -0.012775991959611493 0.00030940054638387829 0 -0.012563866185332411 0.00027636429824142014 0 -0.012636114175823212 0.00038469799988351494 0 -0.012775991959611493 0.00030940054638387829 0 -0.012751582291661998 0.00047162905822497155 0 -0.012466496511385275 0.00012679556643187189 0 -0.012408502310517168 0.00023113873923659057 0 -0.012563866185332411 0.00027636429824142014 0 -0.012408502310517168 0.00023113873923659057 0 -0.012563866185332411 0.00027636429824142014 0 -0.012468235205885693 0.00036001387976866624 0 -0.012636114175823212 0.00038469799988351494 0 -0.012563866185332411 0.00027636429824142014 0 -0.012468235205885693 0.00036001387976866624 0 -0.012408502310517168 0.00023113873923659057 0 -0.012468235205885693 0.00036001387976866624 0 -0.012276412369148941 0.00030254923778502533 0 -0.012276412369148941 0.00030254923778502533 0 -0.012052685944155064 0.00030012284091492753 0 -0.012176250273680248 0.00014148618320715455 0 -0.012276412369148941 0.00030254923778502533 0 -0.012052685944155064 0.00030012284091492753 0 -0.012311336900915675 0.00046115493771145766 0 -0.012052685944155064 0.00030012284091492753 0 -0.012176250273680248 0.00014148618320715455 0 -0.011981015407573773 0.00013445870670619658 0 -0.012176250273680248 0.00014148618320715455 0 -0.012055462875830068 4.4105022087407172e-05 0 -0.011981015407573773 0.00013445870670619658 0 -0.012408502310517168 0.00023113873923659057 0 -0.012276412369148941 0.00030254923778502533 0 -0.012176250273680248 0.00014148618320715455 0 -0.011349381679714174 0.0038015457186604778 0 -0.012211383925254402 0.0011663587921408782 0 -0.012256947942652157 5.076829549105951e-05 0 -0.012466496511385275 0.00012679556643187189 0 -0.012235580556895475 0.00010379177109286077 0 -0.012456018851442957 4.853447892434485e-05 0 -0.011699880533127632 0.00070377808798641368 0 -0.012408502310517168 0.00023113873923659057 0 -0.012176250273680248 0.00014148618320715455 0 -0.012040728344002284 -0.00011880022441996497 0 -0.012055462875830068 4.4105022087407172e-05 0 -0.012010175425123875 -3.5285788464073035e-05 0 -0.011981015407573773 0.00013445870670619658 0 -0.012176250273680248 0.00014148618320715455 0 -0.012055462875830068 4.4105022087407172e-05 0 -0.012040728344002284 -0.00011880022441996497 0 -0.012055462875830068 4.4105022087407172e-05 0 -0.012010175425123875 -3.5285788464073035e-05 0 -0.012040728344002284 -0.00011880022441996497 0 -0.010974323473061876 0.003024323592281399 0 -0.011373501934213676 0.0030850985747729854 0 -0.011061948488713159 0.0027855254575726773 0 -0.011844266796841344 0.00032924731518880459 0 -0.011699880533127632 0.00070377808798641368 0 -0.011349381679714174 0.0038015457186604778 0 -0.011699880533127632 0.00070377808798641368 0 -0.010460138853980869 0.002001244552117329 0 -0.010448427437841057 0.001908743752901015 0 -0.01048560246791979 0.0019739379386795619 0 -0.011879168228673924 -0.00021745747494020547 0 -0.012010175425123875 -3.5285788464073035e-05 0 -0.011723951445628536 0.00012842149182250678 0 -0.011076340925606649 0.0025863326246246417 0 -0.011153115654797751 0.00066545768434893044 0 -0.011076340925606649 0.0025863326246246417 0 -0.011699880533127632 0.00070377808798641368 0 -0.011879168228673924 -0.00021745747494020547 0 -0.012010175425123875 -3.5285788464073035e-05 0 -0.012029822727688579 -9.2082140677500143e-05 0 -0.012010175425123875 -3.5285788464073035e-05 0 -0.011723951445628536 0.00012842149182250678 0 -0.011981015407573773 0.00013445870670619658 0 -0.012052685944155064 0.00030012284091492753 0 -0.011723951445628536 0.00012842149182250678 0 -0.011906719527203595 0.00052362497195438979 0 -0.012052685944155064 0.00030012284091492753 0 -0.011723951445628536 0.00012842149182250678 0 -0.011981015407573773 0.00013445870670619658 0 -0.011723951445628536 0.00012842149182250678 0 -0.011906719527203595 0.00052362497195438979 0 -0.011472462481009388 0.00049411590992077224 0 -0.012052685944155064 0.00030012284091492753 0 -0.011906719527203595 0.00052362497195438979 0 -0.012311336900915675 0.00046115493771145766 0 -0.011906719527203595 0.00052362497195438979 0 -0.012311336900915675 0.00046115493771145766 0 -0.01235302348443079 0.00071846686324328064 0 -0.011906719527203595 0.00052362497195438979 0 -0.012127316042032175 0.00086926175385491065 0 -0.01235302348443079 0.00071846686324328064 0 -0.012127316042032175 0.00086926175385491065 0 -0.012455275865232675 0.00097068506430815439 0 -0.01235302348443079 0.00071846686324328064 0 -0.011906719527203595 0.00052362497195438979 0 -0.012127316042032175 0.00086926175385491065 0 -0.01174019133934006 0.00095932302108671852 0 -0.011906719527203595 0.00052362497195438979 0 -0.01174019133934006 0.00095932302108671852 0 -0.011472462481009388 0.00049411590992077224 0 -0.01174019133934006 0.00095932302108671852 0 -0.01216260678855666 0.0010664523948342676 0 -0.011743928762876556 0.0013731318014512423 0 -0.012127316042032175 0.00086926175385491065 0 -0.01174019133934006 0.00095932302108671852 0 -0.01216260678855666 0.0010664523948342676 0 -0.01216260678855666 0.0010664523948342676 0 -0.012504098185229023 0.0011685114186286178 0 -0.012455275865232675 0.00097068506430815439 0 -0.012127316042032175 0.00086926175385491065 0 -0.01216260678855666 0.0010664523948342676 0 -0.012455275865232675 0.00097068506430815439 0 -0.01216260678855666 0.0010664523948342676 0 -0.012504098185229023 0.0011685114186286178 0 -0.011743928762876556 0.0013731318014512423 0 -0.012504098185229023 0.0011685114186286178 0 -0.011743928762876556 0.0013731318014512423 0 -0.012263171887996051 0.0013884984817269313 0 -0.012802454371867413 0.0011667076648447904 0 -0.012923381109867193 0.001233507119492455 0 -0.012723097073005729 0.0012919429209348912 0 -0.012656746668039294 0.0011066821850078308 0 -0.012802454371867413 0.0011667076648447904 0 -0.012723097073005729 0.0012919429209348912 0 -0.012656746668039294 0.0011066821850078308 0 -0.012802454371867413 0.0011667076648447904 0 -0.01284319329512741 0.0010176902884311842 0 -0.012504098185229023 0.0011685114186286178 0 -0.012656746668039294 0.0011066821850078308 0 -0.012455275865232675 0.00097068506430815439 0 -0.012504098185229023 0.0011685114186286178 0 -0.012656746668039294 0.0011066821850078308 0 -0.012723097073005729 0.0012919429209348912 0 -0.012656746668039294 0.0011066821850078308 0 -0.012455275865232675 0.00097068506430815439 0 -0.012711957228107891 0.00091628230719353453 0 -0.012656746668039294 0.0011066821850078308 0 -0.012711957228107891 0.00091628230719353453 0 -0.01284319329512741 0.0010176902884311842 0 -0.012711957228107891 0.00091628230719353453 0 -0.012872924521482164 0.00085504223120214703 0 -0.01284319329512741 0.0010176902884311842 0 -0.012711957228107891 0.00091628230719353453 0 -0.012775171375606992 0.00068473977009885509 0 -0.012582547392737918 0.00075721729477736715 0 -0.012711957228107891 0.00091628230719353453 0 -0.012775171375606992 0.00068473977009885509 0 -0.012872924521482164 0.00085504223120214703 0 -0.012455275865232675 0.00097068506430815439 0 -0.012711957228107891 0.00091628230719353453 0 -0.012582547392737918 0.00075721729477736715 0 -0.012455275865232675 0.00097068506430815439 0 -0.012582547392737918 0.00075721729477736715 0 -0.01235302348443079 0.00071846686324328064 0 -0.012582547392737918 0.00075721729477736715 0 -0.01235302348443079 0.00071846686324328064 0 -0.012581597894002853 0.00051319544089889664 0 -0.012311336900915675 0.00046115493771145766 0 -0.01235302348443079 0.00071846686324328064 0 -0.012581597894002853 0.00051319544089889664 0 -0.012468235205885693 0.00036001387976866624 0 -0.012311336900915675 0.00046115493771145766 0 -0.012581597894002853 0.00051319544089889664 0 -0.012636114175823212 0.00038469799988351494 0 -0.012468235205885693 0.00036001387976866624 0 -0.012581597894002853 0.00051319544089889664 0 -0.012468235205885693 0.00036001387976866624 0 -0.012276412369148941 0.00030254923778502533 0 -0.012311336900915675 0.00046115493771145766 0 -0.012775171375606992 0.00068473977009885509 0 -0.012581597894002853 0.00051319544089889664 0 -0.012751582291661998 0.00047162905822497155 0 -0.012775171375606992 0.00068473977009885509 0 -0.012582547392737918 0.00075721729477736715 0 -0.012581597894002853 0.00051319544089889664 0 -0.012636114175823212 0.00038469799988351494 0 -0.012581597894002853 0.00051319544089889664 0 -0.012751582291661998 0.00047162905822497155 0 -0.012775171375606992 0.00068473977009885509 0 -0.012970149807423489 0.00046765417469026705 0 -0.012959017853328106 0.00075504191994492842 0 -0.012970149807423489 0.00046765417469026705 0 -0.013138405994950883 0.00079973269004988555 0 -0.012959017853328106 0.00075504191994492842 0 -0.012775171375606992 0.00068473977009885509 0 -0.012751582291661998 0.00047162905822497155 0 -0.012970149807423489 0.00046765417469026705 0 -0.01332421403979875 0.0010118341269388618 0 -0.013180527861552016 0.00096799861646359715 0 -0.013138405994950883 0.00079973269004988555 0 -0.013180527861552016 0.00096799861646359715 0 -0.013120556650112697 0.00082156494381639721 0 -0.013132820543021107 0.0011715723901985595 0 -0.013694179344606766 0.0015096277759019294 0 -0.012779417541907995 0.0044777214746287092 0 -0.013078504965026999 0.00041773006600247578 0 -0.013197677087573615 0.00089424482965756952 0 -0.01332421403979875 0.0010118341269388618 0 -0.013180527861552016 0.00096799861646359715 0 -0.013235957461173715 0.0010819256164810182 0 -0.013180527861552016 0.00096799861646359715 0 -0.013138405994950883 0.00079973269004988555 0 -0.013120556650112697 0.00082156494381639721 0 -0.013138405994950883 0.00079973269004988555 0 -0.013157415894482641 0.00088501808021751265 0 -0.013120556650112697 0.00082156494381639721 0 -0.013138405994950883 0.00079973269004988555 0 -0.013157415894482641 0.00088501808021751265 0 -0.013030016496383834 0.00090667796028465501 0 -0.013138405994950883 0.00079973269004988555 0 -0.012959017853328106 0.00075504191994492842 0 -0.013030016496383834 0.00090667796028465501 0 -0.012775171375606992 0.00068473977009885509 0 -0.012959017853328106 0.00075504191994492842 0 -0.012872924521482164 0.00085504223120214703 0 -0.012959017853328106 0.00075504191994492842 0 -0.012872924521482164 0.00085504223120214703 0 -0.013030016496383834 0.00090667796028465501 0 -0.01284319329512741 0.0010176902884311842 0 -0.013030016496383834 0.00090667796028465501 0 -0.012998917325127259 0.0010870385786053466 0 -0.012872924521482164 0.00085504223120214703 0 -0.01284319329512741 0.0010176902884311842 0 -0.013030016496383834 0.00090667796028465501 0 -0.013124483039961799 0.00097033671781601987 0 -0.012998917325127259 0.0010870385786053466 0 -0.013182712516245748 0.0010848499386361642 0 -0.013030016496383834 0.00090667796028465501 0 -0.013124483039961799 0.00097033671781601987 0 -0.012998917325127259 0.0010870385786053466 0 -0.013157415894482641 0.00088501808021751265 0 -0.013124483039961799 0.00097033671781601987 0 -0.013192524563100468 0.00098328646602509253 0 -0.013157415894482641 0.00088501808021751265 0 -0.013030016496383834 0.00090667796028465501 0 -0.013124483039961799 0.00097033671781601987 0 -0.013124483039961799 0.00097033671781601987 0 -0.013182712516245748 0.0010848499386361642 0 -0.013192524563100468 0.00098328646602509253 0 -0.013063235005549742 0.0012136245899000435 0 -0.012998917325127259 0.0010870385786053466 0 -0.013182712516245748 0.0010848499386361642 0 -0.013063235005549742 0.0012136245899000435 0 -0.013194167628798621 0.001221534431685676 0 -0.013182712516245748 0.0010848499386361642 0 -0.012802454371867413 0.0011667076648447904 0 -0.01284319329512741 0.0010176902884311842 0 -0.012998917325127259 0.0010870385786053466 0 -0.013063235005549742 0.0012136245899000435 0 -0.012923381109867193 0.001233507119492455 0 -0.012998917325127259 0.0010870385786053466 0 -0.012802454371867413 0.0011667076648447904 0 -0.012923381109867193 0.001233507119492455 0 -0.012998917325127259 0.0010870385786053466 0 -0.01344048716920988 0.0017441882059079281 0 -0.013297964897970334 0.001413072419501456 0 -0.013391345286078014 0.001342277323755901 0 -0.013530456810067088 0.0015922098329109564 0 -0.013405300659684425 0.001314576737373493 0 -0.013297964897970334 0.001413072419501456 0 -0.013278934810754104 0.0019140523411072658 0 -0.013042282145928967 0.0019171760146723862 0 -0.01344048716920988 0.0017441882059079281 0 -0.013297964897970334 0.001413072419501456 0 -0.013278934810754104 0.0019140523411072658 0 -0.01344048716920988 0.0017441882059079281 0 -0.013767781761618093 0.0019974541893491636 0 -0.013391345286078014 0.001342277323755901 0 -0.013274932188484584 0.0011877369575809032 0 -0.013305703893804784 0.0010030982650209134 0 -0.013391345286078014 0.001342277323755901 0 -0.013274932188484584 0.0011877369575809032 0 -0.013194167628798621 0.001221534431685676 0 -0.013297680246290371 0.0012884031865294453 0 -0.013274932188484584 0.0011877369575809032 0 -0.013194167628798621 0.001221534431685676 0 -0.013182712516245748 0.0010848499386361642 0 -0.013274932188484584 0.0011877369575809032 0 -0.013182712516245748 0.0010848499386361642 0 -0.013305703893804784 0.0010030982650209134 0 -0.013767781761618093 0.0019974541893491636 0 -0.013604137424247856 0.0024481543400845418 0 -0.013761765817134375 0.0026759825320636201 0 -0.013182712516245748 0.0010848499386361642 0 -0.013305703893804784 0.0010030982650209134 0 -0.013192524563100468 0.00098328646602509253 0 -0.013157415894482641 0.00088501808021751265 0 -0.013305703893804784 0.0010030982650209134 0 -0.013192524563100468 0.00098328646602509253 0 -0.013767781761618093 0.0019974541893491636 0 -0.013417809637776166 0.0021263416427548137 0 -0.013604137424247856 0.0024481543400845418 0 -0.013417809637776166 0.0021263416427548137 0 -0.013420684885473455 0.0024610381012422585 0 -0.013604137424247856 0.0024481543400845418 0 -0.01344048716920988 0.0017441882059079281 0 -0.013767781761618093 0.0019974541893491636 0 -0.013417809637776166 0.0021263416427548137 0 -0.013278934810754104 0.0019140523411072658 0 -0.013190709621934331 0.0023675959893193271 0 -0.013042282145928967 0.0019171760146723862 0 -0.01344048716920988 0.0017441882059079281 0 -0.013417809637776166 0.0021263416427548137 0 -0.013278934810754104 0.0019140523411072658 0 -0.013417809637776166 0.0021263416427548137 0 -0.013278934810754104 0.0019140523411072658 0 -0.013190709621934331 0.0023675959893193271 0 -0.01342229786395688 0.0022786476078934591 0 -0.013484120771345285 0.0025833297598229039 0 -0.013417809637776166 0.0021263416427548137 0 -0.013098809356340585 0.0024429066782804812 0 -0.013420684885473455 0.0024610381012422585 0 -0.013484120771345285 0.0025833297598229039 0 -0.01339911635198864 0.0034901776714727018 0 -0.013098809356340585 0.0024429066782804812 0 -0.013420684885473455 0.0024610381012422585 0 -0.013563723300793976 0.0028287518521862951 0 -0.013098809356340585 0.0024429066782804812 0 -0.013476748844921498 0.0029726311692558163 0 -0.013481821721129232 0.0034539239042940908 0 -0.013325840772073426 0.0031057644547853851 0 -0.013358876004875888 0.0033184881842027569 0 -0.013308043666068685 0.003249922852549519 0 -0.013604137424247856 0.0024481543400845418 0 -0.013563723300793976 0.0028287518521862951 0 -0.013761765817134375 0.0026759825320636201 0 -0.013420684885473455 0.0024610381012422585 0 -0.013604137424247856 0.0024481543400845418 0 -0.013563723300793976 0.0028287518521862951 0 -0.013098809356340585 0.0024429066782804812 0 -0.013563723300793976 0.0028287518521862951 0 -0.013476748844921498 0.0029726311692558163 0 -0.013157415894482641 0.00088501808021751265 0 -0.013305703893804784 0.0010030982650209134 0 -0.013120556650112697 0.00082156494381639721 0 -0.013767781761618093 0.0019974541893491636 0 -0.013761765817134375 0.0026759825320636201 0 -0.014123784528993058 0.0029448032057135492 0 -0.013530456810067088 0.0015922098329109564 0 -0.013694179344606766 0.0015096277759019294 0 -0.013761765817134375 0.0026759825320636201 0 -0.014123784528993058 0.0029448032057135492 0 -0.013746031616008143 0.0031601401072196573 0 -0.013563723300793976 0.0028287518521862951 0 -0.013761765817134375 0.0026759825320636201 0 -0.013746031616008143 0.0031601401072196573 0 -0.014123784528993058 0.0029448032057135492 0 -0.013796424278838012 0.00367612571160511 0 -0.014420150925145737 0.0038287751856887022 0 -0.014123784528993058 0.0029448032057135492 0 -0.013746031616008143 0.0031601401072196573 0 -0.013796424278838012 0.00367612571160511 0 -0.013746031616008143 0.0031601401072196573 0 -0.013481821721129232 0.0034539239042940908 0 -0.013796424278838012 0.00367612571160511 0 -0.013325840772073426 0.0031057644547853851 0 -0.013358876004875888 0.0033184881842027569 0 -0.013481821721129232 0.0034539239042940908 0 -0.013358876004875888 0.0033184881842027569 0 -0.013341873701943202 0.0034165766879359748 0 -0.013295954338908789 0.0033454278024285461 0 -0.013746031616008143 0.0031601401072196573 0 -0.013476748844921498 0.0029726311692558163 0 -0.013481821721129232 0.0034539239042940908 0 -0.013563723300793976 0.0028287518521862951 0 -0.013746031616008143 0.0031601401072196573 0 -0.013476748844921498 0.0029726311692558163 0 -0.013358876004875888 0.0033184881842027569 0 -0.013481821721129232 0.0034539239042940908 0 -0.013341873701943202 0.0034165766879359748 0 -0.013481821721129232 0.0034539239042940908 0 -0.013341873701943202 0.0034165766879359748 0 -0.013312401864588179 0.003524043429153655 0 -0.013424793119099795 0.0070883151138413794 0 -0.013255933720936607 0.006983390467505012 0 -0.014105116200516936 0.0086924699714440098 0 -0.014031099047032421 0.0086839075973090384 0 -0.014123606337827126 0.0086101296004965633 0 -0.014093129660571899 0.0084449901230805747 0 -0.014101300926122707 0.0081263220317887574 0 -0.013173157662046889 0.0080552648783788101 0 -0.013255933720936607 0.006983390467505012 0 -0.012973394974699249 0.0054882233081381751 0 -0.014031099047032421 0.0086839075973090384 0 -0.014093129660571899 0.0084449901230805747 0 -0.014123606337827126 0.0086101296004965633 0 -0.014031099047032421 0.0086839075973090384 0 -0.014093129660571899 0.0084449901230805747 0 -0.013173157662046889 0.0080552648783788101 0 -0.013255933720936607 0.006983390467505012 0 -0.012680210734267014 0.0077576855939369563 0 -0.013481821721129232 0.0034539239042940908 0 -0.013312401864588179 0.003524043429153655 0 -0.013796424278838012 0.00367612571160511 0 -0.013895152825861547 0.0077287622307827715 0 -0.013173157662046889 0.0080552648783788101 0 -0.013440160433873478 0.007490289288224693 0 -0.014101300926122707 0.0081263220317887574 0 -0.013895152825861547 0.0077287622307827715 0 -0.013173157662046889 0.0080552648783788101 0 -0.013173157662046889 0.0080552648783788101 0 -0.013440160433873478 0.007490289288224693 0 -0.012964293869087021 0.0074250228735253127 0 -0.012973394974699249 0.0054882233081381751 0 -0.012779417541907995 0.0044777214746287092 0 -0.012094040027842394 0.0070729661496896851 0 -0.012167687168774331 0.0073340840809130239 0 -0.01194502540200414 0.0071327810978412346 0 -0.012167687168774331 0.0073340840809130239 0 -0.011852004730933634 0.0072564182007371488 0 -0.01194502540200414 0.0071327810978412346 0 -0.012503513809351691 0.0074010937431410306 0 -0.012094040027842394 0.0070729661496896851 0 -0.012167687168774331 0.0073340840809130239 0 -0.013180527861552016 0.00096799861646359715 0 -0.013235957461173715 0.0010819256164810182 0 -0.013132820543021107 0.0011715723901985595 0 -0.012779417541907995 0.0044777214746287092 0 -0.012660379483497516 0.006899868682387446 0 -0.011852004730933634 0.0072564182007371488 0 -0.01194502540200414 0.0071327810978412346 0 -0.011796893110766173 0.0071254699569051139 0 -0.012781380366935713 0.00021392978087054942 0 -0.012775991959611493 0.00030940054638387829 0 -0.012970149807423489 0.00046765417469026705 0 -0.012200997518600473 0.0031975701675838108 0 -0.012779417541907995 0.0044777214746287092 0 -0.011448490577984369 0.0071629717922355261 0 -0.011849744466176445 0.0072384977432064799 0 -0.011796893110766173 0.0071254699569051139 0 -0.012200997518600473 0.0031975701675838108 0 -0.013078504965026999 0.00041773006600247578 0 -0.013489948443003892 0.0012915497486230226 0 -0.013235957461173715 0.0010819256164810182 0 -0.013132820543021107 0.0011715723901985595 0 -0.013489948443003892 0.0012915497486230226 0 -0.01332421403979875 0.0010118341269388618 0 -0.013235957461173715 0.0010819256164810182 0 -0.012775991959611493 0.00030940054638387829 0 -0.012751582291661998 0.00047162905822497155 0 -0.012970149807423489 0.00046765417469026705 0 -0.011545437994608975 0.0069645655850735086 0 -0.011796893110766173 0.0071254699569051139 0 -0.011724477843978058 0.0067988304892404421 0 -0.011448490577984369 0.0071629717922355261 0 -0.011545437994608975 0.0069645655850735086 0 -0.011796893110766173 0.0071254699569051139 0 -0.012680210734267014 0.0077576855939369563 0 -0.011964363359550553 0.0070140330041054142 0 -0.012094040027842394 0.0070729661496896851 0 -0.01194502540200414 0.0071327810978412346 0 -0.011724477843978058 0.0067988304892404421 0 -0.01194502540200414 0.0071327810978412346 0 -0.011796893110766173 0.0071254699569051139 0 -0.011724477843978058 0.0067988304892404421 0 -0.013173157662046889 0.0080552648783788101 0 -0.012246075038646982 0.0073285929110169668 0 -0.012964293869087021 0.0074250228735253127 0 -0.012246075038646982 0.0073285929110169668 0 -0.013084892984428708 0.0069292610142310408 0 -0.012964293869087021 0.0074250228735253127 0 -0.011454923338141224 0.0067884460297079948 0 -0.011545437994608975 0.0069645655850735086 0 -0.011724477843978058 0.0067988304892404421 0 -0.01139118006553295 0.0065056134963130023 0 -0.011454923338141224 0.0067884460297079948 0 -0.011724477843978058 0.0067988304892404421 0 -0.01139118006553295 0.0065056134963130023 0 -0.012246075038646982 0.0073285929110169668 0 -0.012102959617761259 0.0066023578282265105 0 -0.011428222790188396 0.0065498536677779792 0 -0.011964363359550553 0.0070140330041054142 0 -0.012246075038646982 0.0073285929110169668 0 -0.012637074504869084 0.0066063178391605739 0 -0.013084892984428708 0.0069292610142310408 0 -0.012246075038646982 0.0073285929110169668 0 -0.012102959617761259 0.0066023578282265105 0 -0.012637074504869084 0.0066063178391605739 0 -0.012637074504869084 0.0066063178391605739 0 -0.013084892984428708 0.0069292610142310408 0 -0.013299562830197691 0.0065839663135197918 0 -0.013084892984428708 0.0069292610142310408 0 -0.013299562830197691 0.0065839663135197918 0 -0.013559151716829091 0.0070806612200211396 0 -0.013758790404525715 0.0063316161923528715 0 -0.013299562830197691 0.0065839663135197918 0 -0.013691568869580404 0.006721611871192786 0 -0.013758790404525715 0.0063316161923528715 0 -0.013691568869580404 0.006721611871192786 0 -0.014153235270456506 0.0068833563216267801 0 -0.013691568869580404 0.006721611871192786 0 -0.013559151716829091 0.0070806612200211396 0 -0.014153235270456506 0.0068833563216267801 0 -0.013299562830197691 0.0065839663135197918 0 -0.013691568869580404 0.006721611871192786 0 -0.013559151716829091 0.0070806612200211396 0 -0.013559151716829091 0.0070806612200211396 0 -0.013888845041109869 0.0073659235662267824 0 -0.013440160433873478 0.007490289288224693 0 -0.013559151716829091 0.0070806612200211396 0 -0.013888845041109869 0.0073659235662267824 0 -0.014153235270456506 0.0068833563216267801 0 -0.013895152825861547 0.0077287622307827715 0 -0.013888845041109869 0.0073659235662267824 0 -0.014346314617998351 0.0074474221549119075 0 -0.013895152825861547 0.0077287622307827715 0 -0.013888845041109869 0.0073659235662267824 0 -0.013440160433873478 0.007490289288224693 0 -0.013084892984428708 0.0069292610142310408 0 -0.013440160433873478 0.007490289288224693 0 -0.012964293869087021 0.0074250228735253127 0 -0.013084892984428708 0.0069292610142310408 0 -0.013559151716829091 0.0070806612200211396 0 -0.013440160433873478 0.007490289288224693 0 -0.014895985410159532 0.0075750097190378689 0 -0.015229819364376949 0.0069851998257070263 0 -0.015531899940510137 0.0073898888736060563 0 -0.014752143181413579 0.0071120091062909794 0 -0.014895985410159532 0.0075750097190378689 0 -0.015229819364376949 0.0069851998257070263 0 -0.014752143181413579 0.0071120091062909794 0 -0.014346314617998351 0.0074474221549119075 0 -0.014153235270456506 0.0068833563216267801 0 -0.014752143181413579 0.0071120091062909794 0 -0.014895985410159532 0.0075750097190378689 0 -0.014346314617998351 0.0074474221549119075 0 -0.013888845041109869 0.0073659235662267824 0 -0.014346314617998351 0.0074474221549119075 0 -0.014153235270456506 0.0068833563216267801 0 -0.014752143181413579 0.0071120091062909794 0 -0.014153235270456506 0.0068833563216267801 0 -0.014975613074751671 0.0066394932142677682 0 -0.014247991492939387 0.0061734016251035377 0 -0.014153235270456506 0.0068833563216267801 0 -0.014975613074751671 0.0066394932142677682 0 -0.015292683880084777 0.0065779134702298875 0 -0.014975613074751671 0.0066394932142677682 0 -0.015229819364376949 0.0069851998257070263 0 -0.014752143181413579 0.0071120091062909794 0 -0.014975613074751671 0.0066394932142677682 0 -0.015229819364376949 0.0069851998257070263 0 -0.015229819364376949 0.0069851998257070263 0 -0.015742741342405372 0.0067647217055095445 0 -0.015531899940510137 0.0073898888736060563 0 -0.015701894563662947 0.0061343600844897391 0 -0.015620614246543913 0.006360068241761818 0 -0.015292683880084777 0.0065779134702298875 0 -0.015229819364376949 0.0069851998257070263 0 -0.015742741342405372 0.0067647217055095445 0 -0.015678085715487535 0.0054814701349064623 0 -0.015672125309529304 0.0054686638418430678 0 -0.015677871640060521 0.0054398405920760102 0 -0.01584401312235105 0.0051686417334765944 0 -0.015735721790324102 0.005240619154458153 0 -0.015812122115310613 0.0053735235603773902 0 -0.015693218867181891 0.0053047929623019074 0 -0.015676677468007813 0.0054538657102524441 0 -0.015735721790324102 0.005240619154458153 0 -0.015675411832485397 0.0054402376681099577 0 -0.015812122115310613 0.0053735235603773902 0 -0.015672125309529304 0.0054686638418430678 0 -0.015677871640060521 0.0054398405920760102 0 -0.015675411832485397 0.0054402376681099577 0 -0.015620614246543913 0.006360068241761818 0 -0.015307647108527883 0.0070894780269226965 0 -0.014895985410159532 0.0075750097190378689 0 -0.015531899940510137 0.0073898888736060563 0 -0.015170564228503649 0.0081095767365406326 0 -0.015677871640060521 0.0054398405920760102 0 -0.015675411832485397 0.0054402376681099577 0 -0.015628724631753695 0.0054950192348122125 0 -0.015675411832485397 0.0054402376681099577 0 -0.015628724631753695 0.0054950192348122125 0 -0.015675477998456002 0.0054997360473615425 0 -0.015992704202482468 0.0040759531282563996 0 -0.015817516866146596 0.0044404589243249529 0 -0.015675411832485397 0.0054402376681099577 0 -0.015675477998456002 0.0054997360473615425 0 -0.015812122115310613 0.0053735235603773902 0 -0.016047792505991199 0.0031690003325476218 0 -0.015836164722699483 0.0031756444539963358 0 -0.015908361459961395 0.0033898182653618772 0 -0.016047792505991199 0.0031690003325476218 0 -0.015889680495605428 0.0030115865182030617 0 -0.015989783154864864 0.0029965028635261389 0 -0.016047792505991199 0.0031690003325476218 0 -0.015889680495605428 0.0030115865182030617 0 -0.015836164722699483 0.0031756444539963358 0 -0.015992704202482468 0.0040759531282563996 0 -0.015466892800051875 0.0055888943312332618 0 -0.015628724631753695 0.0054950192348122125 0 -0.015675477998456002 0.0054997360473615425 0 -0.015581455351884434 0.0055801878264671563 0 -0.015307647108527883 0.0070894780269226965 0 -0.015466892800051875 0.0055888943312332618 0 -0.015170564228503649 0.0081095767365406326 0 -0.014717209734697111 0.0081130504877938922 0 -0.014876508469065963 0.0085834853483068609 0 -0.014895985410159532 0.0075750097190378689 0 -0.015170564228503649 0.0081095767365406326 0 -0.014717209734697111 0.0081130504877938922 0 -0.014895985410159532 0.0075750097190378689 0 -0.014717209734697111 0.0081130504877938922 0 -0.014400953698239806 0.0078353790446992772 0 -0.014101300926122707 0.0081263220317887574 0 -0.014717209734697111 0.0081130504877938922 0 -0.014400953698239806 0.0078353790446992772 0 -0.013895152825861547 0.0077287622307827715 0 -0.014346314617998351 0.0074474221549119075 0 -0.014400953698239806 0.0078353790446992772 0 -0.014895985410159532 0.0075750097190378689 0 -0.014346314617998351 0.0074474221549119075 0 -0.014400953698239806 0.0078353790446992772 0 -0.014101300926122707 0.0081263220317887574 0 -0.013895152825861547 0.0077287622307827715 0 -0.014400953698239806 0.0078353790446992772 0 -0.014717209734697111 0.0081130504877938922 0 -0.014337495662074897 0.0084104575214673342 0 -0.014402289254929737 0.0086696897585069703 0 -0.01468529002934137 0.0092902484896031229 0 -0.014627343463776549 0.0063453960098955736 0 -0.014093129660571899 0.0084449901230805747 0 -0.014101300926122707 0.0081263220317887574 0 -0.014337495662074897 0.0084104575214673342 0 -0.014717209734697111 0.0081130504877938922 0 -0.014402289254929737 0.0086696897585069703 0 -0.01456893120458432 0.0091599220698513582 0 -0.014101300926122707 0.0081263220317887574 0 -0.014717209734697111 0.0081130504877938922 0 -0.014337495662074897 0.0084104575214673342 0 -0.014337495662074897 0.0084104575214673342 0 -0.014254023138841632 0.0086167376500469149 0 -0.014402289254929737 0.0086696897585069703 0 -0.014093129660571899 0.0084449901230805747 0 -0.014337495662074897 0.0084104575214673342 0 -0.014254023138841632 0.0086167376500469149 0 -0.014093129660571899 0.0084449901230805747 0 -0.014254023138841632 0.0086167376500469149 0 -0.014123606337827126 0.0086101296004965633 0 -0.014105116200516936 0.0086924699714440098 0 -0.014254023138841632 0.0086167376500469149 0 -0.014123606337827126 0.0086101296004965633 0 -0.014105116200516936 0.0086924699714440098 0 -0.014254023138841632 0.0086167376500469149 0 -0.01422753063155948 0.0087769410694284837 0 -0.01422753063155948 0.0087769410694284837 0 -0.014402289254929737 0.0086696897585069703 0 -0.0143394637986414 0.0089408635991580949 0 -0.014105116200516936 0.0086924699714440098 0 -0.01404000108051856 0.0086799971139973273 0 -0.01422753063155948 0.0087769410694284837 0 -0.013255933720936607 0.006983390467505012 0 -0.014147612732927308 0.0065638381357094712 0 -0.01404000108051856 0.0086799971139973273 0 -0.01422753063155948 0.0087769410694284837 0 -0.014333993322495363 0.0089101271642775658 0 -0.013341873701943202 0.0034165766879359748 0 -0.013312401864588179 0.003524043429153655 0 -0.013238310865367168 0.0033950574112446312 0 -0.01464911214749025 0.0078804327393709808 0 -0.014147612732927308 0.0065638381357094712 0 -0.014254023138841632 0.0086167376500469149 0 -0.01422753063155948 0.0087769410694284837 0 -0.014402289254929737 0.0086696897585069703 0 -0.014402289254929737 0.0086696897585069703 0 -0.01456893120458432 0.0091599220698513582 0 -0.0143394637986414 0.0089408635991580949 0 -0.014627343463776549 0.0063453960098955736 0 -0.014147612732927308 0.0065638381357094712 0 -0.014384502599403588 0.0062254805426254188 0 -0.014276018819593308 0.0061342097120675688 0 -0.014361134964310152 0.0062490364920188219 0 -0.013244908893724618 0.0033099567993023428 0 -0.013238310865367168 0.0033950574112446312 0 -0.013179679875822744 0.00329305360439754 0 -0.014147612732927308 0.0065638381357094712 0 -0.014631690762073752 0.0045183871484443371 0 -0.014627343463776549 0.0063453960098955736 0 -0.014631690762073752 0.0045183871484443371 0 -0.013341873701943202 0.0034165766879359748 0 -0.013295954338908789 0.0033454278024285461 0 -0.013238310865367168 0.0033950574112446312 0 -0.013358876004875888 0.0033184881842027569 0 -0.013295954338908789 0.0033454278024285461 0 -0.013308043666068685 0.003249922852549519 0 -0.013244908893724618 0.0033099567993023428 0 -0.013295954338908789 0.0033454278024285461 0 -0.013308043666068685 0.003249922852549519 0 -0.013244908893724618 0.0033099567993023428 0 -0.013295954338908789 0.0033454278024285461 0 -0.013238310865367168 0.0033950574112446312 0 -0.014717209734697111 0.0081130504877938922 0 -0.014713441380213807 0.0087519681575923478 0 -0.014876508469065963 0.0085834853483068609 0 -0.015236113876766074 0.0055404855160701245 0 -0.015333627972673671 0.0054467044726385803 0 -0.015270754939002014 0.0055705317180659037 0 -0.016148657313844239 0.0030252103538441215 0 -0.016122240263937358 0.0029765277285643391 0 -0.016166310258249682 0.0029649144141491069 0 -0.014627343463776549 0.0063453960098955736 0 -0.015466892800051875 0.0055888943312332618 0 -0.015466892800051875 0.0055888943312332618 0 -0.015154695174483873 0.0038267195580634988 0 -0.016148657313844239 0.0030252103538441215 0 -0.016122240263937358 0.0029765277285643391 0 -0.016079945617319649 0.0029831271086136753 0 -0.01625041515049952 0.0022064348108440371 0 -0.016011863984861343 0.0019701094432640833 0 -0.015908058437846959 0.0021923779649913122 0 -0.016122240263937358 0.0029765277285643391 0 -0.016157644622288875 0.0029559743742048877 0 -0.016049333402931618 0.0029426042323639993 0 -0.015177513746492391 0.002730948051251608 0 -0.015559954798776678 0.0013990402371118931 0 -0.015576247144321587 0.0018656186483176854 0 -0.015659765025417459 0.0016816237377278176 0 -0.015260060571860162 0.0013666318489677822 0 -0.016135047764160942 0.0020811277924904135 0 -0.016223367544459775 0.0020355795021651983 0 -0.015893746170094415 0.0015071899499626837 0 -0.015607967146222562 0.0031035933662823365 0 -0.015848235085963981 0.0017798316549747519 0 -0.015607967146222562 0.0031035933662823365 0 -0.016113114381649911 0.0025134299197965386 0 -0.016135047764160942 0.0020811277924904135 0 -0.015893746170094415 0.0015071899499626837 0 -0.015727624922776181 0.0016782037162596573 0 -0.016122240263937358 0.0029765277285643391 0 -0.016157644622288875 0.0029559743742048877 0 -0.016166310258249682 0.0029649144141491069 0 -0.015498087374452534 0.0031428596694865079 0 -0.015064410135386756 0.0027444149879544666 0 -0.014888812978252872 0.0031306669504419403 0 -0.015607967146222562 0.0031035933662823365 0 -0.015232850355910568 0.0031836355220438242 0 -0.015154695174483873 0.0038267195580634988 0 -0.015232850355910568 0.0031836355220438242 0 -0.015349997222087739 0.0039563982334353447 0 -0.015174570139423129 0.0043419203565435516 0 -0.014901568421637213 0.0039380497216315201 0 -0.015607967146222562 0.0031035933662823365 0 -0.015154695174483873 0.0038267195580634988 0 -0.016135047764160942 0.0020811277924904135 0 -0.016201598772208597 0.0020831453359116026 0 -0.016223367544459775 0.0020355795021651983 0 -0.013244908893724618 0.0033099567993023428 0 -0.013308043666068685 0.003249922852549519 0 -0.013208630730571927 0.0032595997206959419 0 -0.013298500484480521 0.0033997879277205007 0 -0.014154424953920339 0.0035494946400213708 0 -0.013325840772073426 0.0031057644547853851 0 -0.013308043666068685 0.003249922852549519 0 -0.013208065788078913 0.0032490591318151013 0 -0.013244908893724618 0.0033099567993023428 0 -0.013208630730571927 0.0032595997206959419 0 -0.013179679875822744 0.00329305360439754 0 -0.01476098510077656 0.0029698246522912052 0 -0.014589404652902703 0.0028343810407418252 0 -0.014825689653769661 0.0023105914265195396 0 -0.013977214731332054 0.0028469701098599266 0 -0.013860909876190966 0.0028448136679209584 0 -0.013890989709900775 0.0025197171059417639 0 -0.014154424953920339 0.0035494946400213708 0 -0.014631690762073752 0.0045183871484443371 0 -0.014490837830252113 0.0035890805636245257 0 -0.014827284703304119 0.0032429174438358037 0 -0.014920847338388114 0.0035978368450878448 0 -0.014154424953920339 0.0035494946400213708 0 -0.014740315924142785 0.0032528796946747619 0 -0.014627343463776549 0.0063453960098955736 0 -0.015154695174483873 0.0038267195580634988 0 -0.014625833742749951 0.0032926526048387152 0 -0.015349997222087739 0.0039563982334353447 0 -0.014901568421637213 0.0039380497216315201 0 -0.014625833742749951 0.0032926526048387152 0 -0.014901568421637213 0.0039380497216315201 0 -0.014250338750156908 0.0036803116483018965 0 -0.014901568421637213 0.0039380497216315201 0 -0.014250338750156908 0.0036803116483018965 0 -0.014421126401916364 0.0043269604241496992 0 -0.014631690762073752 0.0045183871484443371 0 -0.014740315924142785 0.0032528796946747619 0 -0.015174570139423129 0.0043419203565435516 0 -0.014901568421637213 0.0039380497216315201 0 -0.014421126401916364 0.0043269604241496992 0 -0.015232850355910568 0.0031836355220438242 0 -0.014740315924142785 0.0032528796946747619 0 -0.014740315924142785 0.0032528796946747619 0 -0.015177513746492391 0.002730948051251608 0 -0.015299580018820782 0.0032581433919426275 0 -0.014948193802606305 0.0032511737324352895 0 -0.015209612836626623 0.0034558165141237922 0 -0.015232850355910568 0.0031836355220438242 0 -0.015177513746492391 0.002730948051251608 0 -0.014740315924142785 0.0032528796946747619 0 -0.014771154799697615 0.0021825417400034163 0 -0.015177513746492391 0.002730948051251608 0 -0.014771154799697615 0.0021825417400034163 0 -0.013484120771345285 0.0025833297598229039 0 -0.014154424953920339 0.0035494946400213708 0 -0.014344088258415235 0.0024590274384050253 0 -0.013977214731332054 0.0028469701098599266 0 -0.013890989709900775 0.0025197171059417639 0 -0.014771154799697615 0.0021825417400034163 0 -0.013860372622443152 0.0016278131040944376 0 -0.01444358126838439 0.002003759559089126 0 -0.014649147969964174 0.0015334922452846038 0 -0.01448073936791361 0.0015777611364913675 0 -0.013484120771345285 0.0025833297598229039 0 -0.013860372622443152 0.0016278131040944376 0 -0.014344088258415235 0.0024590274384050253 0 -0.013890989709900775 0.0025197171059417639 0 -0.014159879516198234 0.0019131452202928044 0 -0.014771154799697615 0.0021825417400034163 0 -0.015053206541286522 0.001354780074280389 0 -0.015697775518701714 0.0012919640809651754 0 -0.015260060571860162 0.0013666318489677822 0 -0.015339186558913191 0.00096631572961176709 0 -0.015659765025417459 0.0016816237377278176 0 -0.015697775518701714 0.0012919640809651754 0 -0.015260060571860162 0.0013666318489677822 0 -0.015339186558913191 0.00096631572961176709 0 -0.015732135279737911 0.00091248824727472525 0 -0.015228103177758698 0.00055000975005384538 0 -0.013411077220035263 0.0012664134273920385 0 -0.013860372622443152 0.0016278131040944376 0 -0.01355319447444246 0.0010899585525067758 0 -0.013661525547638057 0.00087988961633121091 0 -0.013721001508134139 0.0010512850393068556 0 -0.015697775518701714 0.0012919640809651754 0 -0.015339186558913191 0.00096631572961176709 0 -0.015732135279737911 0.00091248824727472525 0 -0.013860372622443152 0.0016278131040944376 0 -0.014360172926624721 0.0011144778859960591 0 -0.014649147969964174 0.0015334922452846038 0 -0.01448073936791361 0.0015777611364913675 0 -0.014519508070767927 0.0011540441850657109 0 -0.015053206541286522 0.001354780074280389 0 -0.014360172926624721 0.0011144778859960591 0 -0.016114433264962345 0.00091430304654528444 0 -0.016198558328998407 -0.00034902450897816818 0 -0.016482555351207653 0.00073400074304067397 0 -0.016028446689108872 0.00062404895408209738 0 -0.015901628765785783 0.00018772221052850403 0 -0.016628641908046384 -9.3100509354273318e-05 0 -0.016593341485719046 -0.0003131316652139317 0 -0.016254931940031664 -0.00045531222599726857 0 -0.016628641908046384 -9.3100509354273318e-05 0 -0.016593341485719046 -0.0003131316652139317 0 -0.01680081368265619 -0.00030043961547681323 0 -0.015260060571860162 0.0013666318489677822 0 -0.015339186558913191 0.00096631572961176709 0 -0.014954193957652398 0.00088269169878803786 0 -0.015559954798776678 0.0013990402371118931 0 -0.0160224059953347 0.00037222518864534631 0 -0.015893746170094415 0.0015071899499626837 0 -0.015317170119474085 0.0012825774120131023 0 -0.015560523188734717 0.00098694303373753783 0 -0.016114433264962345 0.00091430304654528444 0 -0.0160224059953347 0.00037222518864534631 0 -0.016114433264962345 0.00091430304654528444 0 -0.015848235085963981 0.0017798316549747519 0 -0.015893746170094415 0.0015071899499626837 0 -0.015317170119474085 0.0012825774120131023 0 -0.015727624922776181 0.0016782037162596573 0 -0.015769077873422223 0.0017322303719545403 0 -0.016011863984861343 0.0019701094432640833 0 -0.015662283412846683 0.0018631196160835434 0 -0.016482555351207653 0.00073400074304067397 0 -0.016290425303907893 0.00096712030797490981 0 -0.016028446689108872 0.00062404895408209738 0 -0.016114433264962345 0.00091430304654528444 0 -0.016119608755481754 0.0014358049947302369 0 -0.016119608755481754 0.0014358049947302369 0 -0.016130311611809802 0.00072821462224866961 0 -0.016042696030319537 0.0019006312391877844 0 -0.016038581442163295 0.002213316787427819 0 -0.015790512529875581 0.0022083387893688275 0 -0.016042696030319537 0.0019006312391877844 0 -0.016038581442163295 0.002213316787427819 0 -0.016286540157589215 0.0022195622406545245 0 -0.015970353038830667 0.0025496418501461194 0 -0.016113114381649911 0.0025134299197965386 0 -0.016119608755481754 0.0014358049947302369 0 -0.016113114381649911 0.0025134299197965386 0 -0.016011863984861343 0.0019701094432640833 0 -0.015662283412846683 0.0018631196160835434 0 -0.015908058437846959 0.0021923779649913122 0 -0.016047792505991199 0.0031690003325476218 0 -0.016079945617319649 0.0029831271086136753 0 -0.015989783154864864 0.0029965028635261389 0 -0.016047792505991199 0.0031690003325476218 0 -0.016148657313844239 0.0030252103538441215 0 -0.016079945617319649 0.0029831271086136753 0 -0.016122240263937358 0.0029765277285643391 0 -0.016049333402931618 0.0029426042323639993 0 -0.016079945617319649 0.0029831271086136753 0 -0.016113114381649911 0.0025134299197965386 0 -0.016181988763313813 0.0029212564331351229 0 -0.016038181660604327 0.0029136106597719294 0 -0.016079945617319649 0.0029831271086136753 0 -0.015989783154864864 0.0029965028635261389 0 -0.015922476807491058 0.0028984776795497758 0 -0.015889680495605428 0.0030115865182030617 0 -0.015989783154864864 0.0029965028635261389 0 -0.015922476807491058 0.0028984776795497758 0 -0.016038181660604327 0.0029136106597719294 0 -0.015989783154864864 0.0029965028635261389 0 -0.015922476807491058 0.0028984776795497758 0 -0.015889680495605428 0.0030115865182030617 0 -0.015843214357207851 0.0029387872616004509 0 -0.015877646240607359 0.0030605846747696519 0 -0.01568915306614144 0.0027344392766434941 0 -0.015843214357207851 0.0029387872616004509 0 -0.015690981540382433 0.0029431884272849819 0 -0.015793045730019356 0.0029017631357357333 0 -0.015889680495605428 0.0030115865182030617 0 -0.01563658295670655 0.0029112658701646379 0 -0.015753184246684614 0.0030472467652804375 0 -0.015889680495605428 0.0030115865182030617 0 -0.015843214357207851 0.0029387872616004509 0 -0.015690981540382433 0.0029431884272849819 0 -0.015622122520423522 0.0027673453831922349 0 -0.015502485378375456 0.0029240404507497029 0 -0.015642732194019151 0.0030994981267682079 0 -0.01568915306614144 0.0027344392766434941 0 -0.015636008249702637 0.0031218323722950079 0 -0.015484021564253238 0.0017873438539687352 0 -0.016002594174717364 0.0017981155358946285 0 -0.015802253973474793 0.0012820992350792632 0 -0.015566098095170495 0.0020250498363245228 0 -0.015912531631116549 0.0023147349223156082 0 -0.015684548809316013 0.002877442980310849 0 -0.015793045730019356 0.0029017631357357333 0 -0.015806982965674576 0.0028846291621266108 0 -0.01568915306614144 0.0027344392766434941 0 -0.015566098095170495 0.0020250498363245228 0 -0.015690981540382433 0.0029431884272849819 0 -0.015684548809316013 0.002877442980310849 0 -0.015793045730019356 0.0029017631357357333 0 -0.016119608755481754 0.0014358049947302369 0 -0.015912531631116549 0.0023147349223156082 0 -0.015922476807491058 0.0028984776795497758 0 -0.015843214357207851 0.0029387872616004509 0 -0.015806754617653265 0.002886181479210229 0 -0.015970353038830667 0.0025496418501461194 0 -0.015912531631116549 0.0023147349223156082 0 -0.015843214357207851 0.0029387872616004509 0 -0.015793045730019356 0.0029017631357357333 0 -0.015806754617653265 0.002886181479210229 0 -0.015835479127192527 0.0024446882064262372 0 -0.015912531631116549 0.0023147349223156082 0 -0.016508944421134434 0.0011837521020723371 0 -0.016002594174717364 0.0017981155358946285 0 -0.016102903946584899 0.0011793348296565117 0 -0.016002594174717364 0.0017981155358946285 0 -0.016102903946584899 0.0011793348296565117 0 -0.015802253973474793 0.0012820992350792632 0 -0.016508944421134434 0.0011837521020723371 0 -0.016102903946584899 0.0011793348296565117 0 -0.016221981762158371 0.00080994477486353135 0 -0.016102903946584899 0.0011793348296565117 0 -0.015802253973474793 0.0012820992350792632 0 -0.015830902531608456 0.00089144632773578497 0 -0.015484021564253238 0.0017873438539687352 0 -0.015802253973474793 0.0012820992350792632 0 -0.015406052559630345 0.00090079656873911455 0 -0.015566098095170495 0.0020250498363245228 0 -0.015707251054103619 0.00056995911869323751 0 -0.015802253973474793 0.0012820992350792632 0 -0.015830902531608456 0.00089144632773578497 0 -0.015406052559630345 0.00090079656873911455 0 -0.015915065705020447 0.00018002590403875369 0 -0.015876734857406954 0.00020651245473444821 0 -0.015841400203017744 -0.00020212231570603025 0 -0.015761118861479299 0.00030269991555133865 0 -0.016029254769233486 -2.6798735754362966e-05 0 -0.0157753260689029 0.00033095762869684057 0 -0.015841425277806128 -0.00016333754100873634 0 -0.015761118861479299 0.00030269991555133865 0 -0.016036429420765077 -0.00045321949748406841 0 -0.015830902531608456 0.00089144632773578497 0 -0.015443518256736793 0.00077533347751185819 0 -0.015934336794520162 0.00043549908596292249 0 -0.015830902531608456 0.00089144632773578497 0 -0.015406052559630345 0.00090079656873911455 0 -0.015443518256736793 0.00077533347751185819 0 -0.015707251054103619 0.00056995911869323751 0 -0.0157753260689029 0.00033095762869684057 0 -0.015707251054103619 0.00056995911869323751 0 -0.015761118861479299 0.00030269991555133865 0 -0.015724036398100428 0.00044795038352049175 0 -0.015755007030007009 0.00034308047197679885 0 -0.015716955473347304 0.00036951970751502775 0 -0.015761118861479299 0.00030269991555133865 0 -0.0157753260689029 0.00033095762869684057 0 -0.015830902531608456 0.00089144632773578497 0 -0.016221981762158371 0.00080994477486353135 0 -0.015934336794520162 0.00043549908596292249 0 -0.016028446689108872 0.00062404895408209738 0 -0.015901628765785783 0.00018772221052850403 0 -0.015766694167545361 0.00028093885124117027 0 -0.016130311611809802 0.00072821462224866961 0 -0.016029254769233486 -2.6798735754362966e-05 0 -0.016102903946584899 0.0011793348296565117 0 -0.015830902531608456 0.00089144632773578497 0 -0.016221981762158371 0.00080994477486353135 0 -0.014999968766916288 0.00020098165522742411 0 -0.015461359007794918 9.5484656618941954e-05 0 -0.015455369601836426 0.00062568974317446003 0 -0.015860243901360621 0.00048482738462646773 0 -0.015853071382393058 0.00040551007074325559 0 -0.01543378171145247 0.00069497401045462523 0 -0.015910034233677355 0.00028368770355249293 0 -0.015461359007794918 9.5484656618941954e-05 0 -0.015455369601836426 0.00062568974317446003 0 -0.015910034233677355 0.00028368770355249293 0 -0.015701297648171613 -7.7398883588500328e-07 0 -0.015841400203017744 -0.00020212231570603025 0 -0.015910034233677355 0.00028368770355249293 0 -0.015461359007794918 9.5484656618941954e-05 0 -0.015701297648171613 -7.7398883588500328e-07 0 -0.0157753260689029 0.00033095762869684057 0 -0.01545489245850705 0.00065542850006279445 0 -0.015860243901360621 0.00048482738462646773 0 -0.01543378171145247 0.00069497401045462523 0 -0.015439203008341342 0.00098554593011517086 0 -0.015860243901360621 0.00048482738462646773 0 -0.015439203008341342 0.00098554593011517086 0 -0.01564039622602725 0.0012341084075894091 0 -0.015707251054103619 0.00056995911869323751 0 -0.015511149950756951 0.0015929214642750305 0 -0.01543378171145247 0.00069497401045462523 0 -0.014999995877222736 0.00097450558406593957 0 -0.015217109265185403 0.0010123861549574322 0 -0.01545489245850705 0.00065542850006279445 0 -0.015000094238022451 0.00097436143120354453 0 -0.01543378171145247 0.00069497401045462523 0 -0.015217109265185403 0.0010123861549574322 0 -0.015439203008341342 0.00098554593011517086 0 -0.014999968766916288 0.00020098165522742411 0 -0.015455369601836426 0.00062568974317446003 0 -0.014999998240321789 0.00097440404285981726 0 -0.015217109265185403 0.0010123861549574322 0 -0.014999999776689464 0.0011988808893620714 0 -0.015197304369102646 0.001249524675437288 0 -0.014999995877222736 0.00097450558406593957 0 -0.015217109265185403 0.0010123861549574322 0 -0.014999999776689464 0.0011988808893620714 0 -0.015226108310860863 0.0013834125865223371 0 -0.015511149950756951 0.0015929214642750305 0 -0.015217109265185403 0.0010123861549574322 0 -0.015197304369102646 0.001249524675437288 0 -0.015439203008341342 0.00098554593011517086 0 -0.015226108310860863 0.0013834125865223371 0 -0.015429749363050136 0.0019627046309690119 0 -0.01499999836606539 0.0011989609369311648 0 -0.015214231780391519 0.0012668525268834051 0 -0.015240697715683819 0.0016095034781254008 0 -0.015000107727984137 0.001199106369453667 0 -0.015226108310860863 0.0013834125865223371 0 -0.015245662957642554 0.0015886979390898222 0 -0.015414914575218465 0.0016419645254574062 0 -0.015431495067984028 0.0015863835026244599 0 -0.015753140348239179 0.0017286892405584437 0 -0.015660140116072408 0.00068565618663492505 0 -0.015352624774179891 0.0017199868348227599 0 -0.015197304369102646 0.001249524675437288 0 -0.015439203008341342 0.00098554593011517086 0 -0.01564039622602725 0.0012341084075894091 0 -0.015429749363050136 0.0019627046309690119 0 -0.015511149950756951 0.0015929214642750305 0 -0.015629586620475647 0.0020718507970212546 0 -0.015461683192027566 0.0021345917428744394 0 -0.015481665872580314 0.0020674380113652234 0 -0.015640357919748733 0.0021913462653927918 0 -0.015629586620475647 0.0020718507970212546 0 -0.015461683192027566 0.0021345917428744394 0 -0.015566098095170495 0.0020250498363245228 0 -0.015511149950756951 0.0015929214642750305 0 -0.015434278837168851 0.0027130005253171332 0 -0.015502485378375456 0.0029240404507497029 0 -0.015337167893052929 0.0030536372414890316 0 -0.015429749363050136 0.0019627046309690119 0 -0.015401632597468861 0.0026196487923618133 0 -0.015622122520423522 0.0027673453831922349 0 -0.015434278837168851 0.0027130005253171332 0 -0.015502485378375456 0.0029240404507497029 0 -0.01568915306614144 0.0027344392766434941 0 -0.015429749363050136 0.0019627046309690119 0 -0.015664558682225358 0.0014081342977196503 0 -0.015240697715683819 0.0016095034781254008 0 -0.015444266263675463 0.0021530031269985641 0 -0.01499999836606539 0.0011989609369311648 0 -0.015240697715683819 0.0016095034781254008 0 -0.014999997704124156 0.0020158815855111979 0 -0.015214231780391519 0.0012668525268834051 0 -0.015664558682225358 0.0014081342977196503 0 -0.015240697715683819 0.0016095034781254008 0 -0.015240697715683819 0.0016095034781254008 0 -0.014999997704124156 0.0020158815855111979 0 -0.015444266263675463 0.0021530031269985641 0 -0.014999997704124156 0.0020158815855111979 0 -0.015444266263675463 0.0021530031269985641 0 -0.014999998894378107 0.0028328088332262593 0 -0.015401632597468861 0.0026196487923618133 0 -0.015212186881664527 0.0031235432981100105 0 -0.015444266263675463 0.0021530031269985641 0 -0.014999998894378107 0.0028328088332262593 0 -0.015222577461831532 0.00290092281746224 0 -0.015337167893052929 0.0030536372414890316 0 -0.015601559078348145 0.0033376119457829605 0 -0.01521409662018749 0.0033430459635540111 0 -0.015337167893052929 0.0030536372414890316 0 -0.015642732194019151 0.0030994981267682079 0 -0.015601559078348145 0.0033376119457829605 0 -0.015502485378375456 0.0029240404507497029 0 -0.015337167893052929 0.0030536372414890316 0 -0.015642732194019151 0.0030994981267682079 0 -0.01563658295670655 0.0029112658701646379 0 -0.015642732194019151 0.0030994981267682079 0 -0.015753184246684614 0.0030472467652804375 0 -0.015889680495605428 0.0030115865182030617 0 -0.015753184246684614 0.0030472467652804375 0 -0.015836164722699483 0.0031756444539963358 0 -0.015642732194019151 0.0030994981267682079 0 -0.015753184246684614 0.0030472467652804375 0 -0.015836164722699483 0.0031756444539963358 0 -0.015836164722699483 0.0031756444539963358 0 -0.015601559078348145 0.0033376119457829605 0 -0.015908361459961395 0.0033898182653618772 0 -0.015642732194019151 0.0030994981267682079 0 -0.015836164722699483 0.0031756444539963358 0 -0.015601559078348145 0.0033376119457829605 0 -0.015601559078348145 0.0033376119457829605 0 -0.015908361459961395 0.0033898182653618772 0 -0.015725680654374886 0.0036827736969238687 0 -0.015817516866146596 0.0044404589243249529 0 -0.015877206712370865 0.0044277224032235572 0 -0.01584401312235105 0.0051686417334765944 0 -0.015812122115310613 0.0053735235603773902 0 -0.015965009905800142 0.0052021733523422049 0 -0.015601559078348145 0.0033376119457829605 0 -0.015725680654374886 0.0036827736969238687 0 -0.015402316543027763 0.0037187370392329205 0 -0.015402316543027763 0.0037187370392329205 0 -0.015000198546002975 0.0036501682791325917 0 -0.01521409662018749 0.0033430459635540111 0 -0.014999999376615435 0.0036497351115644099 0 -0.014999998894378107 0.0028328088332262593 0 -0.015222577461831532 0.00290092281746224 0 -0.015000048089005978 0.0036496628331609032 0 -0.015212186881664527 0.0031235432981100105 0 -0.015601559078348145 0.0033376119457829605 0 -0.015402316543027763 0.0037187370392329205 0 -0.01521409662018749 0.0033430459635540111 0 -0.0069836418911592207 0.0024510492831729112 0 -0.0069358363246066288 0.0027757874631383051 0 -0.0068553395181505279 0.0024054131826620872 0 -0.0066580824079845082 0.0023319005172644279 0 -0.0079951883707213359 0.002997746628320357 0 -0.0069836418911592207 0.0024510492831729112 0 -0.007017662254324381 0.0024034011509782888 0 -0.0070434084418466878 0.0022706744099881613 0 -0.0069836418911592207 0.0024510492831729112 0 -0.007017662254324381 0.0024034011509782888 0 -0.0071492672141200159 0.0026192438507856596 0 -0.007017662254324381 0.0024034011509782888 0 -0.0071492672141200159 0.0026192438507856596 0 -0.0066849901887968176 0.002244802096191623 0 -0.007017662254324381 0.0024034011509782888 0 -0.0070434084418466878 0.0022706744099881613 0 -0.0066849901887968176 0.002244802096191623 0 -0.0061924544087008822 0.0023761471155411391 0 -0.0066849901887968176 0.002244802096191623 0 -0.006297618906826649 0.0025060071882309996 0 -0.0066364475373170348 0.0025384064993750439 0 -0.0066716567590067609 0.0023008565588336677 0 -0.0069836418911592207 0.0024510492831729112 0 -0.0071492672141200159 0.0026192438507856596 0 -0.0069358363246066288 0.0027757874631383051 0 -0.0071492672141200159 0.0026192438507856596 0 -0.0069358363246066288 0.0027757874631383051 0 -0.0070393928564197071 0.0033792955773533457 0 -0.0066364475373170348 0.0025384064993750439 0 -0.0064945048188852121 0.0028708724742429613 0 -0.0069358363246066288 0.0027757874631383051 0 -0.0066797393958064125 0.0034109859844969966 0 -0.0070393928564197071 0.0033792955773533457 0 -0.0069358363246066288 0.0027757874631383051 0 -0.0066136448225480688 0.0026527812474355485 0 -0.0066797393958064125 0.0034109859844969966 0 -0.0062267133064745897 0.0030392111746667424 0 -0.0066136448225480688 0.0026527812474355485 0 -0.0066797393958064125 0.0034109859844969966 0 -0.0085911903678401336 0.0052833268326907849 0 -0.0081735372696898553 0.0040136550543878888 0 -0.0092779901366153768 0.0057451288929255802 0 -0.0097487279508589753 0.0053502781266957563 0 -0.0098778287084546213 0.0048540334678288085 0 -0.0085911903678401336 0.0052833268326907849 0 -0.010030961722012136 0.0050934163852995066 0 -0.0090944264311386257 0.0052259945722198976 0 -0.0098778287084546213 0.0048540334678288085 0 -0.0093809185522641617 0.0048144463122296952 0 -0.0092686504053564236 0.0060185138745758029 0 -0.0090944264311386257 0.0052259945722198976 0 -0.0098778287084546213 0.0048540334678288085 0 -0.0069358363246066288 0.0027757874631383051 0 -0.0066136448225480688 0.0026527812474355485 0 -0.0068553395181505279 0.0024054131826620872 0 -0.0081735372696898553 0.0040136550543878888 0 -0.0079951883707213359 0.002997746628320357 0 -0.0097487279508589753 0.0053502781266957563 0 -0.010221692200622193 0.0049504721023879211 0 -0.0098778287084546213 0.0048540334678288085 0 -0.0080960534360484341 0.0010279921771654983 0 -0.0081171180963966871 0.0014073339433707597 0 -0.008502364827751463 0.0012342393612424017 0 -0.0081171180963966871 0.0014073339433707597 0 -0.008502364827751463 0.0012342393612424017 0 -0.0082886917387642763 0.0017314835820228002 0 -0.010221692200622193 0.0049504721023879211 0 -0.0098778287084546213 0.0048540334678288085 0 -0.0096698649780255167 0.0047185823891478631 0 -0.0079951883707213359 0.002997746628320357 0 -0.0091822113077902646 0.0030057980925652784 0 -0.008502364827751463 0.0012342393612424017 0 -0.0082886917387642763 0.0017314835820228002 0 -0.0088590865736297483 0.0013921178521026914 0 -0.0090944264311386257 0.0052259945722198976 0 -0.0093809185522641617 0.0048144463122296952 0 -0.0090494812577309649 0.004434546041601658 0 -0.0093809185522641617 0.0048144463122296952 0 -0.0096698649780255167 0.0047185823891478631 0 -0.0090494812577309649 0.004434546041601658 0 -0.0098778287084546213 0.0048540334678288085 0 -0.0093809185522641617 0.0048144463122296952 0 -0.0096698649780255167 0.0047185823891478631 0 -0.0091822113077902646 0.0030057980925652784 0 -0.0096142036670208118 0.0023521794363356809 0 -0.0081610377699490779 0.0014176716466377352 0 -0.0096142036670208118 0.0023521794363356809 0 -0.0082886917387642763 0.0017314835820228002 0 -0.0090923478813363014 0.0011429713728543533 0 -0.0092949862902362828 0.0015957384898113611 0 -0.0081171180963966871 0.0014073339433707597 0 -0.0082886917387642763 0.0017314835820228002 0 -0.007826404285214748 0.0016884087017539282 0 -0.0082886917387642763 0.0017314835820228002 0 -0.007826404285214748 0.0016884087017539282 0 -0.0076775888083382426 0.0019862199021617932 0 -0.007826404285214748 0.0016884087017539282 0 -0.0072037954428458171 0.0019150437446573533 0 -0.0076775888083382426 0.0019862199021617932 0 -0.007826404285214748 0.0016884087017539282 0 -0.0077130282458111547 0.0013133119823212744 0 -0.0072037954428458171 0.0019150437446573533 0 -0.0081171180963966871 0.0014073339433707597 0 -0.007826404285214748 0.0016884087017539282 0 -0.0077130282458111547 0.0013133119823212744 0 -0.0074175448842289009 0.0017545523092300016 0 -0.0072113965254343056 0.0018908756676632877 0 -0.0069836418911592207 0.0024510492831729112 0 -0.0069321636507530312 0.0021701519632263779 0 -0.0070434084418466878 0.0022706744099881613 0 -0.0069836418911592207 0.0024510492831729112 0 -0.0067607169702980155 0.0023580844863872919 0 -0.0069321636507530312 0.0021701519632263779 0 -0.0079951883707213359 0.002997746628320357 0 -0.0074175448842289009 0.0017545523092300016 0 -0.0080960534360484341 0.0010279921771654983 0 -0.0081171180963966871 0.0014073339433707597 0 -0.0077130282458111547 0.0013133119823212744 0 -0.0069321636507530312 0.0021701519632263779 0 -0.0070434084418466878 0.0022706744099881613 0 -0.0072037954428458171 0.0019150437446573533 0 -0.0070434084418466878 0.0022706744099881613 0 -0.0072037954428458171 0.0019150437446573533 0 -0.006945574981428013 0.0021553224146449138 0 -0.0072037954428458171 0.0019150437446573533 0 -0.0070560304099968555 0.0021007205983739311 0 -0.006945574981428013 0.0021553224146449138 0 -0.0072037954428458171 0.0019150437446573533 0 -0.0072692631681014145 0.0020819542618998313 0 -0.0076775888083382426 0.0019862199021617932 0 -0.0072037954428458171 0.0019150437446573533 0 -0.0070560304099968555 0.0021007205983739311 0 -0.0072692631681014145 0.0020819542618998313 0 -0.0070560304099968555 0.0021007205983739311 0 -0.0068227010391362008 0.0021994214640976653 0 -0.0070861935282358311 0.0022365871091251373 0 -0.0070560304099968555 0.0021007205983739311 0 -0.0068227010391362008 0.0021994214640976653 0 -0.006945574981428013 0.0021553224146449138 0 -0.0068227010391362008 0.0021994214640976653 0 -0.0066321811326375399 0.0022345355633237229 0 -0.0066949319067166847 0.0021927002666710508 0 -0.0068227010391362008 0.0021994214640976653 0 -0.0066321811326375399 0.0022345355633237229 0 -0.0066547323072372929 0.0023058987290692006 0 -0.0066949319067166847 0.0021927002666710508 0 -0.0065138400360075415 0.0022200524437331554 0 -0.0065210725137612108 0.0022430563488312575 0 -0.0066321811326375399 0.0022345355633237229 0 -0.0066949319067166847 0.0021927002666710508 0 -0.0065138400360075415 0.0022200524437331554 0 -0.0068227010391362008 0.0021994214640976653 0 -0.0066949319067166847 0.0021927002666710508 0 -0.006945574981428013 0.0021553224146449138 0 -0.0070434084418466878 0.0022706744099881613 0 -0.006945574981428013 0.0021553224146449138 0 -0.0066849901887968176 0.002244802096191623 0 -0.0066949319067166847 0.0021927002666710508 0 -0.006945574981428013 0.0021553224146449138 0 -0.0066849901887968176 0.002244802096191623 0 -0.0062827601465696888 0.0023067248185912243 0 -0.0064628234282689007 0.0023025107987097583 0 -0.006344700695747542 0.002241151625922152 0 -0.0061957334533164522 0.0022496930943206443 0 -0.0062827601465696888 0.0023067248185912243 0 -0.006344700695747542 0.002241151625922152 0 -0.0066321811326375399 0.0022345355633237229 0 -0.0064628234282689007 0.0023025107987097583 0 -0.0065138400360075415 0.0022200524437331554 0 -0.0064628234282689007 0.0023025107987097583 0 -0.0065138400360075415 0.0022200524437331554 0 -0.006344700695747542 0.002241151625922152 0 -0.0066321811326375399 0.0022345355633237229 0 -0.0064628234282689007 0.0023025107987097583 0 -0.0066547323072372929 0.0023058987290692006 0 -0.0065138400360075415 0.0022200524437331554 0 -0.006344700695747542 0.002241151625922152 0 -0.0063610282903608564 0.0022459798343005418 0 -0.0062544781774735098 0.0022371192243298118 0 -0.006344700695747542 0.002241151625922152 0 -0.0063610282903608564 0.0022459798343005418 0 -0.0061957334533164522 0.0022496930943206443 0 -0.0062544781774735098 0.0022371192243298118 0 -0.006344700695747542 0.002241151625922152 0 -0.0062544781774735098 0.0022371192243298118 0 -0.0062282922173911804 0.002294200445365149 0 -0.0063610282903608564 0.0022459798343005418 0 -0.0063610282903608564 0.0022459798343005418 0 -0.0063617944768222601 0.0023406881583452541 0 -0.0065210725137612108 0.0022430563488312575 0 -0.0065138400360075415 0.0022200524437331554 0 -0.0063610282903608564 0.0022459798343005418 0 -0.0065210725137612108 0.0022430563488312575 0 -0.0062282922173911804 0.002294200445365149 0 -0.0063610282903608564 0.0022459798343005418 0 -0.0063617944768222601 0.0023406881583452541 0 -0.0062282922173911804 0.002294200445365149 0 -0.0063617944768222601 0.0023406881583452541 0 -0.0062492024789950387 0.0024563215499021109 0 -0.0066849901887968176 0.002244802096191623 0 -0.0065210725137612108 0.0022430563488312575 0 -0.0064105356209987578 0.0023872076872263454 0 -0.0066949319067166847 0.0021927002666710508 0 -0.0066849901887968176 0.002244802096191623 0 -0.0065210725137612108 0.0022430563488312575 0 -0.0063617944768222601 0.0023406881583452541 0 -0.0065210725137612108 0.0022430563488312575 0 -0.0064105356209987578 0.0023872076872263454 0 -0.0066849901887968176 0.002244802096191623 0 -0.0064105356209987578 0.0023872076872263454 0 -0.006297618906826649 0.0025060071882309996 0 -0.0064105356209987578 0.0023872076872263454 0 -0.006297618906826649 0.0025060071882309996 0 -0.006263157007638671 0.0025984165675250271 0 -0.0063617944768222601 0.0023406881583452541 0 -0.0064105356209987578 0.0023872076872263454 0 -0.0062818266721379251 0.0025149159356074265 0 -0.0064105356209987578 0.0023872076872263454 0 -0.006263157007638671 0.0025984165675250271 0 -0.0062818266721379251 0.0025149159356074265 0 -0.006263157007638671 0.0025984165675250271 0 -0.0062818266721379251 0.0025149159356074265 0 -0.0062075878710808451 0.002696577713832905 0 -0.006263157007638671 0.0025984165675250271 0 -0.0061882565008283021 0.0027517810978827557 0 -0.0062075878710808451 0.002696577713832905 0 -0.006263157007638671 0.0025984165675250271 0 -0.0061882565008283021 0.0027517810978827557 0 -0.0061854381718069503 0.0026701267418165193 0 -0.006297618906826649 0.0025060071882309996 0 -0.006263157007638671 0.0025984165675250271 0 -0.0061854381718069503 0.0026701267418165193 0 -0.0062282922173911804 0.002294200445365149 0 -0.006184250111274386 0.0025507552895467096 0 -0.0062492024789950387 0.0024563215499021109 0 -0.0063617944768222601 0.0023406881583452541 0 -0.0062492024789950387 0.0024563215499021109 0 -0.0062818266721379251 0.0025149159356074265 0 -0.0062818266721379251 0.0025149159356074265 0 -0.0061828705205092824 0.0026592082760708165 0 -0.0062075878710808451 0.002696577713832905 0 -0.0062492024789950387 0.0024563215499021109 0 -0.0062818266721379251 0.0025149159356074265 0 -0.0061828705205092824 0.0026592082760708165 0 -0.006184250111274386 0.0025507552895467096 0 -0.0062492024789950387 0.0024563215499021109 0 -0.0061828705205092824 0.0026592082760708165 0 -0.006184250111274386 0.0025507552895467096 0 -0.0061828705205092824 0.0026592082760708165 0 -0.0061116125370992277 0.002840819008280863 0 -0.0061828705205092824 0.0026592082760708165 0 -0.0061116125370992277 0.002840819008280863 0 -0.0061368865470072453 0.0028452366892272552 0 -0.0061368865470072453 0.0028452366892272552 0 -0.0062075878710808451 0.002696577713832905 0 -0.0061670666433089336 0.0028223083055619151 0 -0.0061828705205092824 0.0026592082760708165 0 -0.0061368865470072453 0.0028452366892272552 0 -0.0062075878710808451 0.002696577713832905 0 -0.006057747086957329 0.0030188141944124968 0 -0.0061236649077390749 0.0029548280358078567 0 -0.0061368865470072453 0.0028452366892272552 0 -0.0061236649077390749 0.0029548280358078567 0 -0.0061368865470072453 0.0028452366892272552 0 -0.0061670666433089336 0.0028223083055619151 0 -0.006057747086957329 0.0030188141944124968 0 -0.0061116125370992277 0.002840819008280863 0 -0.0061368865470072453 0.0028452366892272552 0 -0.0061882565008283021 0.0027517810978827557 0 -0.0061315220934691581 0.0028213991186799301 0 -0.0061854381718069503 0.0026701267418165193 0 -0.0061882565008283021 0.0027517810978827557 0 -0.0062075878710808451 0.002696577713832905 0 -0.0061670666433089336 0.0028223083055619151 0 -0.0061236649077390749 0.0029548280358078567 0 -0.0061670666433089336 0.0028223083055619151 0 -0.0061549135759991006 0.0028774001594573154 0 -0.0061882565008283021 0.0027517810978827557 0 -0.0061670666433089336 0.0028223083055619151 0 -0.0061549135759991006 0.0028774001594573154 0 -0.0061198890845708068 0.0029531150391540638 0 -0.0061549135759991006 0.0028774001594573154 0 -0.0061315220934691581 0.0028213991186799301 0 -0.0061882565008283021 0.0027517810978827557 0 -0.0061549135759991006 0.0028774001594573154 0 -0.0061315220934691581 0.0028213991186799301 0 -0.0061198890845708068 0.0029531150391540638 0 -0.0060605545125760069 0.0028830159339779228 0 -0.0061315220934691581 0.0028213991186799301 0 -0.0067892040433782238 0.0053165853172460146 0 -0.0064792839331551094 0.0048301720237127069 0 -0.0060605545125760069 0.0028830159339779228 0 -0.006076387912494003 0.0027456678926993053 0 -0.0059698722919192971 0.0027852071397452861 0 -0.006076387912494003 0.0027456678926993053 0 -0.0059742673891251376 0.0026673974181558517 0 -0.0059698722919192971 0.0027852071397452861 0 -0.0060605545125760069 0.0028830159339779228 0 -0.006076387912494003 0.0027456678926993053 0 -0.0061315220934691581 0.0028213991186799301 0 -0.006076387912494003 0.0027456678926993053 0 -0.0061315220934691581 0.0028213991186799301 0 -0.0061854381718069503 0.0026701267418165193 0 -0.006076387912494003 0.0027456678926993053 0 -0.0061854381718069503 0.0026701267418165193 0 -0.006131873185125856 0.0025621173098683962 0 -0.006076387912494003 0.0027456678926993053 0 -0.006131873185125856 0.0025621173098683962 0 -0.0059742673891251376 0.0026673974181558517 0 -0.0061924544087008822 0.0023761471155411391 0 -0.006131873185125856 0.0025621173098683962 0 -0.0059961420046287786 0.002533550338376911 0 -0.006131873185125856 0.0025621173098683962 0 -0.0059961420046287786 0.002533550338376911 0 -0.0059742673891251376 0.0026673974181558517 0 -0.006297618906826649 0.0025060071882309996 0 -0.0061854381718069503 0.0026701267418165193 0 -0.006131873185125856 0.0025621173098683962 0 -0.0061924544087008822 0.0023761471155411391 0 -0.006297618906826649 0.0025060071882309996 0 -0.006131873185125856 0.0025621173098683962 0 -0.0064327218392919707 0.0041335453833627302 0 -0.0066797393958064125 0.0034109859844969966 0 -0.0065881648662004331 0.0042729290099813083 0 -0.0062267133064745897 0.0030392111746667424 0 -0.0064327218392919707 0.0041335453833627302 0 -0.0066797393958064125 0.0034109859844969966 0 -0.0064945048188852121 0.0028708724742429613 0 -0.0064532726106703983 0.0043004728519666488 0 -0.0066797393958064125 0.0034109859844969966 0 -0.0070393928564197071 0.0033792955773533457 0 -0.0065881648662004331 0.0042729290099813083 0 -0.0059961420046287786 0.002533550338376911 0 -0.0059742673891251376 0.0026673974181558517 0 -0.0058606285940234204 0.0026643606837202559 0 -0.0064532726106703983 0.0043004728519666488 0 -0.0064792839331551094 0.0048301720237127069 0 -0.0059742673891251376 0.0026673974181558517 0 -0.0058606285940234204 0.0026643606837202559 0 -0.0059698722919192971 0.0027852071397452861 0 -0.0065204646106564422 0.0060795745216049796 0 -0.0063148159829836594 0.0067987380329222503 0 -0.0055272680567839119 0.0065830759661027289 0 -0.0064327218392919707 0.0041335453833627302 0 -0.0069627678003039428 0.0047548495770146689 0 -0.0054425295824968257 0.0044323636726804824 0 -0.0065112679367518318 0.0042886053350314219 0 -0.0064532726106703983 0.0043004728519666488 0 -0.0065204646106564422 0.0060795745216049796 0 -0.0063148159829836594 0.0067987380329222503 0 -0.007072247464952071 0.006895936130272594 0 -0.0063148159829836594 0.0067987380329222503 0 -0.0063087069497946404 0.0075124727581399415 0 -0.0059083835454725071 0.0073083827367990562 0 -0.0063148159829836594 0.0067987380329222503 0 -0.007072247464952071 0.006895936130272594 0 -0.0068423856234052982 0.0074852265593061346 0 -0.0075219966049927672 0.0077337810707044669 0 -0.007072247464952071 0.006895936130272594 0 -0.0068423856234052982 0.0074852265593061346 0 -0.0067348806318635627 0.0081142065385489907 0 -0.0075219966049927672 0.0077337810707044669 0 -0.0068423856234052982 0.0074852265593061346 0 -0.0059138849976129873 0.0080125504559262414 0 -0.0067348806318635627 0.0081142065385489907 0 -0.0063087069497946404 0.0075124727581399415 0 -0.0063148159829836594 0.0067987380329222503 0 -0.0068423856234052982 0.0074852265593061346 0 -0.0063087069497946404 0.0075124727581399415 0 -0.0067348806318635627 0.0081142065385489907 0 -0.0068423856234052982 0.0074852265593061346 0 -0.0063087069497946404 0.0075124727581399415 0 -0.0059138849976129873 0.0080125504559262414 0 -0.0063087069497946404 0.0075124727581399415 0 -0.0059083835454725071 0.0073083827367990562 0 -0.0059138849976129873 0.0080125504559262414 0 -0.0053887174825441291 0.00753988415662656 0 -0.0059083835454725071 0.0073083827367990562 0 -0.0053887174825441291 0.00753988415662656 0 -0.0059083835454725071 0.0073083827367990562 0 -0.0055272680567839119 0.0065830759661027289 0 -0.0063148159829836594 0.0067987380329222503 0 -0.0059083835454725071 0.0073083827367990562 0 -0.0055272680567839119 0.0065830759661027289 0 -0.0053887174825441291 0.00753988415662656 0 -0.0055272680567839119 0.0065830759661027289 0 -0.0048203689877244901 0.0066664739993826608 0 -0.008021493084960753 0.0080934763625973571 0 -0.0074761297826452123 0.0082621804183776598 0 -0.0075511105995187894 0.0077713980542654399 0 -0.0053887174825441291 0.00753988415662656 0 -0.0048203689877244901 0.0066664739993826608 0 -0.0046916391388077804 0.0079290412119595675 0 -0.0064474343522899413 0.0073454058108929892 0 -0.0060340016223244166 0.0084503757723424795 0 -0.005536504559688145 0.0084915715835785187 0 -0.0053887174825441291 0.00753988415662656 0 -0.0046916391388077804 0.0079290412119595675 0 -0.0073547434810245461 0.0090322207806088489 0 -0.0064641235555909903 0.0089139936304447071 0 -0.0069842115628491542 0.0081366267335409703 0 -0.0064641235555909903 0.0089139936304447071 0 -0.0064156100326411359 0.0081081138464888149 0 -0.0069842115628491542 0.0081366267335409703 0 -0.0064641235555909903 0.0089139936304447071 0 -0.0064156100326411359 0.0081081138464888149 0 -0.0060707330461545524 0.0084626838428516257 0 -0.0064156100326411359 0.0081081138464888149 0 -0.0069842115628491542 0.0081366267335409703 0 -0.00670580904017486 0.0074754358054540913 0 -0.0073547434810245461 0.0090322207806088489 0 -0.0074761297826452123 0.0082621804183776598 0 -0.0069842115628491542 0.0081366267335409703 0 -0.008021493084960753 0.0080934763625973571 0 -0.0073547434810245461 0.0090322207806088489 0 -0.0074761297826452123 0.0082621804183776598 0 -0.0074761297826452123 0.0082621804183776598 0 -0.0069842115628491542 0.0081366267335409703 0 -0.0075511105995187894 0.0077713980542654399 0 -0.0075511105995187894 0.0077713980542654399 0 -0.0071679323364072867 0.0075548076922448502 0 -0.0076394155321735978 0.0073418547375891869 0 -0.0069842115628491542 0.0081366267335409703 0 -0.0075511105995187894 0.0077713980542654399 0 -0.0071679323364072867 0.0075548076922448502 0 -0.0071679323364072867 0.0075548076922448502 0 -0.00670580904017486 0.0074754358054540913 0 -0.0073067733047905079 0.0070789906154542712 0 -0.0071679323364072867 0.0075548076922448502 0 -0.0076394155321735978 0.0073418547375891869 0 -0.0073067733047905079 0.0070789906154542712 0 -0.0076394155321735978 0.0073418547375891869 0 -0.0073067733047905079 0.0070789906154542712 0 -0.0077220026854437716 0.0069959933286967181 0 -0.0069842115628491542 0.0081366267335409703 0 -0.0071679323364072867 0.0075548076922448502 0 -0.00670580904017486 0.0074754358054540913 0 -0.0068258858432565092 0.0068276287773365888 0 -0.0071923250323203455 0.006546735826790777 0 -0.0067170909835031975 0.0059406768142476161 0 -0.0068258858432565092 0.0068276287773365888 0 -0.0062067014306456635 0.0069288080480457833 0 -0.0067170909835031975 0.0059406768142476161 0 -0.0063450927521755416 0.0070731054919466237 0 -0.0086983613022005961 0.0048708329920694356 0 -0.00670580904017486 0.0074754358054540913 0 -0.0068258858432565092 0.0068276287773365888 0 -0.0062067014306456635 0.0069288080480457833 0 -0.00670580904017486 0.0074754358054540913 0 -0.0068258858432565092 0.0068276287773365888 0 -0.0073067733047905079 0.0070789906154542712 0 -0.0073067733047905079 0.0070789906154542712 0 -0.0075716735348078041 0.0066484807772099856 0 -0.0077220026854437716 0.0069959933286967181 0 -0.0068258858432565092 0.0068276287773365888 0 -0.0073067733047905079 0.0070789906154542712 0 -0.0071923250323203455 0.006546735826790777 0 -0.0073067733047905079 0.0070789906154542712 0 -0.0071923250323203455 0.006546735826790777 0 -0.0075716735348078041 0.0066484807772099856 0 -0.0071923250323203455 0.006546735826790777 0 -0.0075716735348078041 0.0066484807772099856 0 -0.0073997503023191299 0.0062450918531515159 0 -0.0075716735348078041 0.0066484807772099856 0 -0.0080240580956154588 0.0067443374444762271 0 -0.0077623945624057285 0.006289360672759166 0 -0.0080240580956154588 0.0067443374444762271 0 -0.0082091879363386001 0.0063619112452187095 0 -0.0077623945624057285 0.006289360672759166 0 -0.0080240580956154588 0.0067443374444762271 0 -0.0077220026854437716 0.0069959933286967181 0 -0.007937641305814756 0.0071619607306045727 0 -0.0075716735348078041 0.0066484807772099856 0 -0.0080240580956154588 0.0067443374444762271 0 -0.0077220026854437716 0.0069959933286967181 0 -0.0080240580956154588 0.0067443374444762271 0 -0.0082241228922813464 0.0070804735146455747 0 -0.0085089108590420508 0.0067578451851530831 0 -0.0080240580956154588 0.0067443374444762271 0 -0.0082241228922813464 0.0070804735146455747 0 -0.007937641305814756 0.0071619607306045727 0 -0.0080240580956154588 0.0067443374444762271 0 -0.0085089108590420508 0.0067578451851530831 0 -0.0082091879363386001 0.0063619112452187095 0 -0.0085911903678401336 0.0052833268326907849 0 -0.0070000625165279303 0.0056564524513242655 0 -0.0062267133064745897 0.0030392111746667424 0 -0.0064327218392919707 0.0041335453833627302 0 -0.0054425295824968257 0.0044323636726804824 0 -0.009282546927978504 0.0060146816917590494 0 -0.0085089108590420508 0.0067578451851530831 0 -0.0086717962073270486 0.0070666433767377877 0 -0.0085911903678401336 0.0052833268326907849 0 -0.0086706808177112096 0.0068205777024247802 0 -0.0082241228922813464 0.0070804735146455747 0 -0.0085089108590420508 0.0067578451851530831 0 -0.0086717962073270486 0.0070666433767377877 0 -0.0069627678003039428 0.0047548495770146689 0 -0.0055272680567839119 0.0065830759661027289 0 -0.0054425295824968257 0.0044323636726804824 0 -0.0064532726106703983 0.0043004728519666488 0 -0.0055397995644115338 0.0068663269586447936 0 -0.0055272680567839119 0.0065830759661027289 0 -0.0048203689877244901 0.0066664739993826608 0 -0.0054425295824968257 0.0044323636726804824 0 -0.0064474343522899413 0.0073454058108929892 0 -0.0070000625165279303 0.0056564524513242655 0 -0.008021493084960753 0.0080934763625973571 0 -0.0086717962073270486 0.0070666433767377877 0 -0.0080098243441638402 0.0074214585017619468 0 -0.008021493084960753 0.0080934763625973571 0 -0.0075511105995187894 0.0077713980542654399 0 -0.0080098243441638402 0.0074214585017619468 0 -0.0075511105995187894 0.0077713980542654399 0 -0.0076394155321735978 0.0073418547375891869 0 -0.0080098243441638402 0.0074214585017619468 0 -0.0076394155321735978 0.0073418547375891869 0 -0.0080098243441638402 0.0074214585017619468 0 -0.007937641305814756 0.0071619607306045727 0 -0.0076394155321735978 0.0073418547375891869 0 -0.0077220026854437716 0.0069959933286967181 0 -0.007937641305814756 0.0071619607306045727 0 -0.0082241228922813464 0.0070804735146455747 0 -0.0086717962073270486 0.0070666433767377877 0 -0.0080098243441638402 0.0074214585017619468 0 -0.0082241228922813464 0.0070804735146455747 0 -0.0080098243441638402 0.0074214585017619468 0 -0.007937641305814756 0.0071619607306045727 0 -0.007526157978011855 0.0069979460879326929 0 -0.006972969882299394 0.0061623170614580692 0 -0.0038144569104310408 0.0082298837861475779 0 -0.0044187728497472002 0.0082594839431154796 0 -0.0043444447226520955 0.0090026376250954068 0 -0.0038144569104310408 0.0082298837861475779 0 -0.0044187728497472002 0.0082594839431154796 0 -0.0045574109977968595 0.0077031787195768874 0 -0.0044187728497472002 0.0082594839431154796 0 -0.0049678061750291786 0.0080161202067686541 0 -0.0045574109977968595 0.0077031787195768874 0 -0.0044187728497472002 0.0082594839431154796 0 -0.0043444447226520955 0.0090026376250954068 0 -0.0048469400873663478 0.0084599258363589249 0 -0.004894879901712201 0.009219151935547433 0 -0.0043444447226520955 0.0090026376250954068 0 -0.0051210281190088259 0.0088544991065278803 0 -0.0043444447226520955 0.0090026376250954068 0 -0.0051210281190088259 0.0088544991065278803 0 -0.0048469400873663478 0.0084599258363589249 0 -0.0053214212828910611 0.0092388802479627507 0 -0.004894879901712201 0.009219151935547433 0 -0.0051210281190088259 0.0088544991065278803 0 -0.0051210281190088259 0.0088544991065278803 0 -0.0052020821481175107 0.0084588521633107306 0 -0.0048469400873663478 0.0084599258363589249 0 -0.0052020821481175107 0.0084588521633107306 0 -0.0048469400873663478 0.0084599258363589249 0 -0.0049678061750291786 0.0080161202067686541 0 -0.0044187728497472002 0.0082594839431154796 0 -0.0048469400873663478 0.0084599258363589249 0 -0.0049678061750291786 0.0080161202067686541 0 -0.0052020821481175107 0.0084588521633107306 0 -0.0049678061750291786 0.0080161202067686541 0 -0.0054576282083255382 0.0080401627802620355 0 -0.0054576282083255382 0.0080401627802620355 0 -0.0055151173912631971 0.008745828887001263 0 -0.0062230760165100461 0.0078286064786919664 0 -0.0055420445488028854 0.008691151820520257 0 -0.0060404588502511189 0.0078078604304140141 0 -0.0052020821481175107 0.0084588521633107306 0 -0.0054576282083255382 0.0080401627802620355 0 -0.0055151173912631971 0.008745828887001263 0 -0.0055151173912631971 0.008745828887001263 0 -0.0056834211804149964 0.008821596869940846 0 -0.0057710673689819122 0.0079103680030052376 0 -0.0051210281190088259 0.0088544991065278803 0 -0.0052020821481175107 0.0084588521633107306 0 -0.0055151173912631971 0.008745828887001263 0 -0.0053266575059941531 0.0093239778962945791 0 -0.0056620517379261451 0.0088834790997323991 0 -0.0053214212828910611 0.0092388802479627507 0 -0.0055151173912631971 0.008745828887001263 0 -0.0056834211804149964 0.008821596869940846 0 -0.0053214212828910611 0.0092388802479627507 0 -0.0051210281190088259 0.0088544991065278803 0 -0.0055151173912631971 0.008745828887001263 0 -0.005700322035834606 0.0093518158409372897 0 -0.0053185351681351413 0.0094295045018761691 0 -0.0056834211804149964 0.008821596869940846 0 -0.0060119004869582954 0.0095459688027021566 0 -0.0064641235555909903 0.0089139936304447071 0 -0.005984572220042692 0.0090230272050221393 0 -0.0056834211804149964 0.008821596869940846 0 -0.005984572220042692 0.0090230272050221393 0 -0.0060707330461545524 0.0084626838428516257 0 -0.005700322035834606 0.0093518158409372897 0 -0.0056834211804149964 0.008821596869940846 0 -0.005984572220042692 0.0090230272050221393 0 -0.0064641235555909903 0.0089139936304447071 0 -0.005984572220042692 0.0090230272050221393 0 -0.0060707330461545524 0.0084626838428516257 0 -0.0056834211804149964 0.008821596869940846 0 -0.0060707330461545524 0.0084626838428516257 0 -0.0057710673689819122 0.0079103680030052376 0 -0.0064156100326411359 0.0081081138464888149 0 -0.0060707330461545524 0.0084626838428516257 0 -0.0057710673689819122 0.0079103680030052376 0 -0.0060404588502511189 0.0078078604304140141 0 -0.0063450927521755416 0.0070731054919466237 0 -0.0064156100326411359 0.0081081138464888149 0 -0.00670580904017486 0.0074754358054540913 0 -0.0057710673689819122 0.0079103680030052376 0 -0.00670580904017486 0.0074754358054540913 0 -0.0057710673689819122 0.0079103680030052376 0 -0.0062067014306456635 0.0069288080480457833 0 -0.0062230760165100461 0.0078286064786919664 0 -0.0061669539512070413 0.0070829118698356548 0 -0.0069216456800888114 0.0067653131321984451 0 -0.0069216456800888114 0.0067653131321984451 0 -0.006433486013916156 0.0063072161785893768 0 -0.0076404501106773683 0.0055280915401434523 0 -0.0061669539512070413 0.0070829118698356548 0 -0.0069216456800888114 0.0067653131321984451 0 -0.006433486013916156 0.0063072161785893768 0 -0.010154084514095631 0.0041163932115801834 0 -0.0097837442462671634 0.0041296717371666564 0 -0.0097297735316012861 0.0045309507739417724 0 -0.0083792715001184855 0.0051602203348103748 0 -0.0075604580310026448 0.0058006742047394845 0 -0.0061669539512070413 0.0070829118698356548 0 -0.006433486013916156 0.0063072161785893768 0 -0.0053938730169331098 0.0070536596956788204 0 -0.0054576282083255382 0.0080401627802620355 0 -0.0062230760165100461 0.0078286064786919664 0 -0.0053938730169331098 0.0070536596956788204 0 -0.0062230760165100461 0.0078286064786919664 0 -0.0061669539512070413 0.0070829118698356548 0 -0.0053938730169331098 0.0070536596956788204 0 -0.0097297735316012861 0.0045309507739417724 0 -0.009562745217626718 0.0045118744798110112 0 -0.0095387956002872011 0.0047359330303377934 0 -0.0049678061750291786 0.0080161202067686541 0 -0.0054576282083255382 0.0080401627802620355 0 -0.0053938730169331098 0.0070536596956788204 0 -0.0049678061750291786 0.0080161202067686541 0 -0.0053938730169331098 0.0070536596956788204 0 -0.0045574109977968595 0.0077031787195768874 0 -0.0075604580310026448 0.0058006742047394845 0 -0.006972969882299394 0.0061623170614580692 0 -0.0097837442462671634 0.0041296717371666564 0 -0.0097297735316012861 0.0045309507739417724 0 -0.009562745217626718 0.0045118744798110112 0 -0.0097837442462671634 0.0041296717371666564 0 -0.009562745217626718 0.0045118744798110112 0 -0.0093230682581489123 0.0040685849724615931 0 -0.0099761904208830153 0.0051067537887268142 0 -0.0096282975009472343 0.0047979450439601416 0 -0.0096928765545254633 0.0051857682936060825 0 -0.0096072938773052452 0.0047509820641377402 0 -0.0095468527628355272 0.0045720625194360176 0 -0.009562745217626718 0.0045118744798110112 0 -0.0096282975009472343 0.0047979450439601416 0 -0.0093230682581489123 0.0040685849724615931 0 -0.0098216358120540789 0.0047993638102578054 0 -0.0096282975009472343 0.0047979450439601416 0 -0.0095387956002872011 0.0047359330303377934 0 -0.009562745217626718 0.0045118744798110112 0 -0.0096282975009472343 0.0047979450439601416 0 -0.0095387956002872011 0.0047359330303377934 0 -0.0098598700301844085 0.004516620978854604 0 -0.0098216358120540789 0.0047993638102578054 0 -0.0095387956002872011 0.0047359330303377934 0 -0.010002951292418984 0.0054300334513460446 0 -0.0096928765545254633 0.0051857682936060825 0 -0.0098235176592262712 0.0055234310951964953 0 -0.010059332377690426 0.0052550154151938628 0 -0.010002951292418984 0.0054300334513460446 0 -0.0096928765545254633 0.0051857682936060825 0 -0.0097837442462671634 0.0041296717371666564 0 -0.0093230682581489123 0.0040685849724615931 0 -0.0097544721208248676 0.0036335441156765619 0 -0.0095468527628355272 0.0045720625194360176 0 -0.009453065069627814 0.0044963644784886299 0 -0.0096928765545254633 0.0051857682936060825 0 -0.0096320390667737014 0.0054641374195540139 0 -0.0098235176592262712 0.0055234310951964953 0 -0.0093230682581489123 0.0040685849724615931 0 -0.0094161385090002162 0.0032630927429057321 0 -0.0097544721208248676 0.0036335441156765619 0 -0.0094161385090002162 0.0032630927429057321 0 -0.009824457529289031 0.0032161789740691891 0 -0.0097544721208248676 0.0036335441156765619 0 -0.009824457529289031 0.0032161789740691891 0 -0.010034576088233462 0.0033845478272374425 0 -0.010037383537500486 0.0030151050102176745 0 -0.0097544721208248676 0.0036335441156765619 0 -0.0099999077994040123 0.0037646584440568778 0 -0.010034576088233462 0.0033845478272374425 0 -0.009824457529289031 0.0032161789740691891 0 -0.0097544721208248676 0.0036335441156765619 0 -0.010034576088233462 0.0033845478272374425 0 -0.0097837442462671634 0.0041296717371666564 0 -0.0097544721208248676 0.0036335441156765619 0 -0.0099999077994040123 0.0037646584440568778 0 -0.010154084514095631 0.0041163932115801834 0 -0.0097837442462671634 0.0041296717371666564 0 -0.0099999077994040123 0.0037646584440568778 0 -0.010154084514095631 0.0041163932115801834 0 -0.01026893713597093 0.0035420307570114473 0 -0.010604879030159614 0.0036728665524573567 0 -0.010154084514095631 0.0041163932115801834 0 -0.0099999077994040123 0.0037646584440568778 0 -0.01026893713597093 0.0035420307570114473 0 -0.0083792715001184855 0.0051602203348103748 0 -0.0086983613022005961 0.0048708329920694356 0 -0.01026893713597093 0.0035420307570114473 0 -0.010034576088233462 0.0033845478272374425 0 -0.010222415340677507 0.0031183985798941861 0 -0.0099999077994040123 0.0037646584440568778 0 -0.01026893713597093 0.0035420307570114473 0 -0.010034576088233462 0.0033845478272374425 0 -0.010034576088233462 0.0033845478272374425 0 -0.010222415340677507 0.0031183985798941861 0 -0.010037383537500486 0.0030151050102176745 0 -0.01026893713597093 0.0035420307570114473 0 -0.010222415340677507 0.0031183985798941861 0 -0.010467544440709702 0.0031895449107585093 0 -0.010222415340677507 0.0031183985798941861 0 -0.010037383537500486 0.0030151050102176745 0 -0.010245175359298307 0.0027945448311962003 0 -0.010222415340677507 0.0031183985798941861 0 -0.010245175359298307 0.0027945448311962003 0 -0.010364515788806244 0.0029651673823007838 0 -0.010037383537500486 0.0030151050102176745 0 -0.010057246524340998 0.0027305331480910124 0 -0.010245175359298307 0.0027945448311962003 0 -0.010245175359298307 0.0027945448311962003 0 -0.010251042022599769 0.0024055656494147782 0 -0.010430443504394015 0.0027194364284063998 0 -0.010057246524340998 0.0027305331480910124 0 -0.010245175359298307 0.0027945448311962003 0 -0.010251042022599769 0.0024055656494147782 0 -0.010251042022599769 0.0024055656494147782 0 -0.0099684405739513919 0.0023708734894902083 0 -0.010192642740544029 0.0022155770401018188 0 -0.010251042022599769 0.0024055656494147782 0 -0.00999544497917439 0.0025526118882458104 0 -0.0099684405739513919 0.0023708734894902083 0 -0.010057246524340998 0.0027305331480910124 0 -0.010251042022599769 0.0024055656494147782 0 -0.00999544497917439 0.0025526118882458104 0 -0.00999544497917439 0.0025526118882458104 0 -0.0097608637538725354 0.0025852334730937293 0 -0.0099159123871130645 0.0026957957629017322 0 -0.010470525950400057 0.0019803054817472019 0 -0.010481260763063474 0.0019888184002906212 0 -0.010454915733683703 0.0019769445223747533 0 -0.0099684405739513919 0.0023708734894902083 0 -0.009713052138260226 0.0025266747826406949 0 -0.010038637543665229 0.0021602251860048547 0 -0.00999544497917439 0.0025526118882458104 0 -0.0099684405739513919 0.0023708734894902083 0 -0.0097608637538725354 0.0025852334730937293 0 -0.010045990715576929 0.0035534130003963961 0 -0.010321678869383134 0.0018696286076773335 0 -0.0099684405739513919 0.0023708734894902083 0 -0.009713052138260226 0.0025266747826406949 0 -0.0097608637538725354 0.0025852334730937293 0 -0.010045990715576929 0.0035534130003963961 0 -0.0098817206558743046 0.0033405250323506773 0 -0.0094161385090002162 0.0032630927429057321 0 -0.0096893485882811117 0.0025209014105718802 0 -0.0097608637538725354 0.0025852334730937293 0 -0.0094161385090002162 0.0032630927429057321 0 -0.0097608637538725354 0.0025852334730937293 0 -0.0098359183577296106 0.0029104679022464793 0 -0.0097608637538725354 0.0025852334730937293 0 -0.0099159123871130645 0.0026957957629017322 0 -0.0098359183577296106 0.0029104679022464793 0 -0.010057246524340998 0.0027305331480910124 0 -0.0099159123871130645 0.0026957957629017322 0 -0.0098359183577296106 0.0029104679022464793 0 -0.010057246524340998 0.0027305331480910124 0 -0.00999544497917439 0.0025526118882458104 0 -0.0099159123871130645 0.0026957957629017322 0 -0.009824457529289031 0.0032161789740691891 0 -0.010037383537500486 0.0030151050102176745 0 -0.0098359183577296106 0.0029104679022464793 0 -0.010037383537500486 0.0030151050102176745 0 -0.010057246524340998 0.0027305331480910124 0 -0.0098359183577296106 0.0029104679022464793 0 -0.0094161385090002162 0.0032630927429057321 0 -0.009824457529289031 0.0032161789740691891 0 -0.0098359183577296106 0.0029104679022464793 0 -0.0096320390667737014 0.0054641374195540139 0 -0.0097142937741911354 0.0057727909743513564 0 -0.009824419958820392 0.0057011703934423587 0 -0.0096320390667737014 0.0054641374195540139 0 -0.0095099659618180562 0.0057598202371652984 0 -0.0097142937741911354 0.0057727909743513564 0 -0.009453065069627814 0.0044963644784886299 0 -0.010045990715576929 0.0035534130003963961 0 -0.0095099659618180562 0.0057598202371652984 0 -0.0097142937741911354 0.0057727909743513564 0 -0.0098293161577223745 0.0060508758674883076 0 -0.010045990715576929 0.0035534130003963961 0 -0.010082097057966873 0.0043095023386528026 0 -0.0097142937741911354 0.0057727909743513564 0 -0.0098518407362772481 0.0058732357900519779 0 -0.0098293161577223745 0.0060508758674883076 0 -0.0097142937741911354 0.0057727909743513564 0 -0.0098518407362772481 0.0058732357900519779 0 -0.009824419958820392 0.0057011703934423587 0 -0.0098518407362772481 0.0058732357900519779 0 -0.0099939286361538995 0.0058284708918226406 0 -0.0099498355607330145 0.0059881297550342105 0 -0.0098518407362772481 0.0058732357900519779 0 -0.0099939286361538995 0.0058284708918226406 0 -0.009824419958820392 0.0057011703934423587 0 -0.010017859740533252 0.005639638469935958 0 -0.0099939286361538995 0.0058284708918226406 0 -0.009824419958820392 0.0057011703934423587 0 -0.0096320390667737014 0.0054641374195540139 0 -0.009824419958820392 0.0057011703934423587 0 -0.0098235176592262712 0.0055234310951964953 0 -0.010017859740533252 0.005639638469935958 0 -0.009824419958820392 0.0057011703934423587 0 -0.0098235176592262712 0.0055234310951964953 0 -0.010002951292418984 0.0054300334513460446 0 -0.010017859740533252 0.005639638469935958 0 -0.0098235176592262712 0.0055234310951964953 0 -0.0083866991977178465 0.0054265841043999105 0 -0.0079689745441043815 0.0057424091320821035 0 -0.0075104913196194891 0.0054205118451096492 0 -0.0083866991977178465 0.0054265841043999105 0 -0.0075104913196194891 0.0054205118451096492 0 -0.0082940868822176678 0.0049165969041066763 0 -0.010745513401024382 0.0036090967927537286 0 -0.010897320004629752 0.0031015346268976687 0 -0.011412753703649286 0.003113768981313022 0 -0.0090465480036125354 0.0045548350926594844 0 -0.0099223673985029195 0.0040660497049446066 0 -0.0090944264311386257 0.0052259945722198976 0 -0.0083866991977178465 0.0054265841043999105 0 -0.0085148830023887186 0.0059408020303221842 0 -0.0090944264311386257 0.0052259945722198976 0 -0.0083866991977178465 0.0054265841043999105 0 -0.0082940868822176678 0.0049165969041066763 0 -0.0092686504053564236 0.0060185138745758029 0 -0.0090944264311386257 0.0052259945722198976 0 -0.0085148830023887186 0.0059408020303221842 0 -0.0085089108590420508 0.0067578451851530831 0 -0.0085148830023887186 0.0059408020303221842 0 -0.0082091879363386001 0.0063619112452187095 0 -0.0092686504053564236 0.0060185138745758029 0 -0.0085089108590420508 0.0067578451851530831 0 -0.0085148830023887186 0.0059408020303221842 0 -0.0085148830023887186 0.0059408020303221842 0 -0.0082091879363386001 0.0063619112452187095 0 -0.0080647000226813127 0.0060890808882542212 0 -0.0083866991977178465 0.0054265841043999105 0 -0.0085148830023887186 0.0059408020303221842 0 -0.0079689745441043815 0.0057424091320821035 0 -0.0085148830023887186 0.0059408020303221842 0 -0.0080647000226813127 0.0060890808882542212 0 -0.0079689745441043815 0.0057424091320821035 0 -0.0080647000226813127 0.0060890808882542212 0 -0.0079689745441043815 0.0057424091320821035 0 -0.0075344769057485517 0.0058897395524255955 0 -0.0080647000226813127 0.0060890808882542212 0 -0.0077623945624057285 0.006289360672759166 0 -0.0075344769057485517 0.0058897395524255955 0 -0.0082091879363386001 0.0063619112452187095 0 -0.0080647000226813127 0.0060890808882542212 0 -0.0077623945624057285 0.006289360672759166 0 -0.0086983613022005961 0.0048708329920694356 0 -0.0090465480036125354 0.0045548350926594844 0 -0.0075716735348078041 0.0066484807772099856 0 -0.0077623945624057285 0.006289360672759166 0 -0.0073997503023191299 0.0062450918531515159 0 -0.0075344769057485517 0.0058897395524255955 0 -0.0067170909835031975 0.0059406768142476161 0 -0.0075104913196194891 0.0054205118451096492 0 -0.0077623945624057285 0.006289360672759166 0 -0.0073997503023191299 0.0062450918531515159 0 -0.0075344769057485517 0.0058897395524255955 0 -0.0073997503023191299 0.0062450918531515159 0 -0.0075344769057485517 0.0058897395524255955 0 -0.0067170909835031975 0.0059406768142476161 0 -0.0071923250323203455 0.006546735826790777 0 -0.0073997503023191299 0.0062450918531515159 0 -0.0067170909835031975 0.0059406768142476161 0 -0.0079689745441043815 0.0057424091320821035 0 -0.0075344769057485517 0.0058897395524255955 0 -0.0075104913196194891 0.0054205118451096492 0 -0.01026893713597093 0.0035420307570114473 0 -0.010604879030159614 0.0036728665524573567 0 -0.010467544440709702 0.0031895449107585093 0 -0.0086983613022005961 0.0048708329920694356 0 -0.010777822145952843 0.0029656995701783113 0 -0.010604879030159614 0.0036728665524573567 0 -0.010467544440709702 0.0031895449107585093 0 -0.010770189475412585 0.0031212406644119156 0 -0.010467544440709702 0.0031895449107585093 0 -0.010770189475412585 0.0031212406644119156 0 -0.010556495506730644 0.0029617832968815228 0 -0.010467544440709702 0.0031895449107585093 0 -0.010364515788806244 0.0029651673823007838 0 -0.010556495506730644 0.0029617832968815228 0 -0.010222415340677507 0.0031183985798941861 0 -0.010467544440709702 0.0031895449107585093 0 -0.010364515788806244 0.0029651673823007838 0 -0.0099131427775771934 0.0041510821164040274 0 -0.010745513401024382 0.0036090967927537286 0 -0.010405636437988574 0.0033118587334490393 0 -0.010745513401024382 0.0036090967927537286 0 -0.010405636437988574 0.0033118587334490393 0 -0.010897320004629752 0.0031015346268976687 0 -0.010405636437988574 0.0033118587334490393 0 -0.010897320004629752 0.0031015346268976687 0 -0.010890064872022232 0.0026221698345631154 0 -0.010777822145952843 0.0029656995701783113 0 -0.010799205983477785 0.0027917413698493225 0 -0.010770189475412585 0.0031212406644119156 0 -0.010631101138268992 0.0027778886364286286 0 -0.010890064872022232 0.0026221698345631154 0 -0.010770189475412585 0.0031212406644119156 0 -0.010631101138268992 0.0027778886364286286 0 -0.010556495506730644 0.0029617832968815228 0 -0.010631101138268992 0.0027778886364286286 0 -0.010890064872022232 0.0026221698345631154 0 -0.010491950074079754 0.0024639009727518871 0 -0.010245175359298307 0.0027945448311962003 0 -0.010364515788806244 0.0029651673823007838 0 -0.010430443504394015 0.0027194364284063998 0 -0.010364515788806244 0.0029651673823007838 0 -0.010556495506730644 0.0029617832968815228 0 -0.010430443504394015 0.0027194364284063998 0 -0.010631101138268992 0.0027778886364286286 0 -0.010556495506730644 0.0029617832968815228 0 -0.010430443504394015 0.0027194364284063998 0 -0.010631101138268992 0.0027778886364286286 0 -0.010430443504394015 0.0027194364284063998 0 -0.010491950074079754 0.0024639009727518871 0 -0.010251042022599769 0.0024055656494147782 0 -0.010491950074079754 0.0024639009727518871 0 -0.010437959404401757 0.002023986071302416 0 -0.010251042022599769 0.0024055656494147782 0 -0.010437959404401757 0.002023986071302416 0 -0.010346150154704848 0.002072032651259611 0 -0.010251042022599769 0.0024055656494147782 0 -0.010430443504394015 0.0027194364284063998 0 -0.010491950074079754 0.0024639009727518871 0 -0.010890064872022232 0.0026221698345631154 0 -0.010437959404401757 0.002023986071302416 0 -0.011255618504005572 0.0023720441497523583 0 -0.010377010782122491 0.0019784499881958374 0 -0.010666055049276365 0.0019242789243629379 0 -0.010890064872022232 0.0026221698345631154 0 -0.010491950074079754 0.0024639009727518871 0 -0.010437959404401757 0.002023986071302416 0 -0.0097728687682675855 0.0014615835065860173 0 -0.0092949862902362828 0.0015957384898113611 0 -0.0098619825720210885 0.0019236091428202302 0 -0.010437959404401757 0.002023986071302416 0 -0.0097728687682675855 0.0014615835065860173 0 -0.0098619825720210885 0.0019236091428202302 0 -0.010897320004629752 0.0031015346268976687 0 -0.010890064872022232 0.0026221698345631154 0 -0.011270902875230842 0.0027677928858764939 0 -0.010890064872022232 0.0026221698345631154 0 -0.011255618504005572 0.0023720441497523583 0 -0.011270902875230842 0.0027677928858764939 0 -0.010897320004629752 0.0031015346268976687 0 -0.011270902875230842 0.0027677928858764939 0 -0.011412753703649286 0.003113768981313022 0 -0.0090944264311386257 0.0052259945722198976 0 -0.0082940868822176678 0.0049165969041066763 0 -0.0090494812577309649 0.004434546041601658 0 -0.011255618504005572 0.0023720441497523583 0 -0.011270902875230842 0.0027677928858764939 0 -0.011986248833577158 0.0027153230008454478 0 -0.0099223673985029195 0.0040660497049446066 0 -0.0096142036670208118 0.0023521794363356809 0 -0.011270902875230842 0.0027677928858764939 0 -0.011412753703649286 0.003113768981313022 0 -0.011986248833577158 0.0027153230008454478 0 -0.010666055049276365 0.0019242789243629379 0 -0.0096142036670208118 0.0023521794363356809 0 -0.0097728687682675855 0.0014615835065860173 0 -0.0090923478813363014 0.0011429713728543533 0 -0.0092949862902362828 0.0015957384898113611 0 -0.0092949862902362828 0.0015957384898113611 0 -0.0092243757509433717 0.0020041674150644215 0 -0.0098619825720210885 0.0019236091428202302 0 -0.0092243757509433717 0.0020041674150644215 0 -0.0099095474761877883 0.0021736931256938425 0 -0.0092410580328406589 0.0023104300470895432 0 -0.0092243757509433717 0.0020041674150644215 0 -0.0099095474761877883 0.0021736931256938425 0 -0.0098619825720210885 0.0019236091428202302 0 -0.0099095474761877883 0.0021736931256938425 0 -0.0098619825720210885 0.0019236091428202302 0 -0.01028409236674007 0.0020653962134904564 0 -0.010437959404401757 0.002023986071302416 0 -0.0098619825720210885 0.0019236091428202302 0 -0.01028409236674007 0.0020653962134904564 0 -0.010437959404401757 0.002023986071302416 0 -0.010346150154704848 0.002072032651259611 0 -0.01028409236674007 0.0020653962134904564 0 -0.010346150154704848 0.002072032651259611 0 -0.010381589099343122 0.0020496201892913619 0 -0.01028409236674007 0.0020653962134904564 0 -0.010381589099343122 0.0020496201892913619 0 -0.01028409236674007 0.0020653962134904564 0 -0.010364817692466211 0.0021371204937617582 0 -0.0099095474761877883 0.0021736931256938425 0 -0.01028409236674007 0.0020653962134904564 0 -0.010364817692466211 0.0021371204937617582 0 -0.0099350679467538547 0.0021483302556856965 0 -0.010204913409699158 0.0021766319941087077 0 -0.010075553841245305 0.0022347702719670119 0 -0.009929455843959106 0.0023658787186562878 0 -0.0095944420470892196 0.0024552237315003263 0 -0.0099095474761877883 0.0021736931256938425 0 -0.010075553841245305 0.0022347702719670119 0 -0.0095944420470892196 0.0024552237315003263 0 -0.010381589099343122 0.0020496201892913619 0 -0.010364817692466211 0.0021371204937617582 0 -0.01047037310690751 0.0020236788210841196 0 -0.010204913409699158 0.0021766319941087077 0 -0.010396308435371166 0.0020277293561219044 0 -0.010075553841245305 0.0022347702719670119 0 -0.010213358661128803 0.0020990509308627622 0 -0.010083697745237302 0.0022443357486000045 0 -0.010075553841245305 0.0022347702719670119 0 -0.009929455843959106 0.0023658787186562878 0 -0.010083697745237302 0.0022443357486000045 0 -0.0095944420470892196 0.0024552237315003263 0 -0.0092381666443753716 0.0028194807436931124 0 -0.0087496314574350663 0.0026462797647496725 0 -0.0095944420470892196 0.0024552237315003263 0 -0.0092410580328406589 0.0023104300470895432 0 -0.0087496314574350663 0.0026462797647496725 0 -0.0099095474761877883 0.0021736931256938425 0 -0.0095944420470892196 0.0024552237315003263 0 -0.0092410580328406589 0.0023104300470895432 0 -0.010489845502510763 0.0019967843607520529 0 -0.01049870878746762 0.0020057938410612489 0 -0.010499277227998703 0.0019982930503652007 0 -0.010460138853980869 0.002001244552117329 0 -0.010489845502510763 0.0019967843607520529 0 -0.01048560246791979 0.0019739379386795619 0 -0.010460138853980869 0.002001244552117329 0 -0.010489845502510763 0.0019967843607520529 0 -0.01049870878746762 0.0020057938410612489 0 -0.01011902529474726 0.0062024702361010778 0 -0.0099232105619205327 0.0060875960269017853 0 -0.0098293161577223745 0.0060508758674883076 0 -0.011076340925606649 0.0025863326246246417 0 -0.010082097057966873 0.0043095023386528026 0 -0.010489845502510763 0.0019967843607520529 0 -0.010510079536490562 0.0019880308409735911 0 -0.01048560246791979 0.0019739379386795619 0 -0.010489845502510763 0.0019967843607520529 0 -0.010499277227998703 0.0019982930503652007 0 -0.010510079536490562 0.0019880308409735911 0 -0.010080360596834126 0.0060681956899049259 0 -0.0099232105619205327 0.0060875960269017853 0 -0.0099498355607330145 0.0059881297550342105 0 -0.0099232105619205327 0.0060875960269017853 0 -0.0099498355607330145 0.0059881297550342105 0 -0.0098293161577223745 0.0060508758674883076 0 -0.0098518407362772481 0.0058732357900519779 0 -0.0099498355607330145 0.0059881297550342105 0 -0.0098293161577223745 0.0060508758674883076 0 -0.01049870878746762 0.0020057938410612489 0 -0.010492485760951499 0.001995004110564671 0 -0.010499277227998703 0.0019982930503652007 0 -0.010470525950400057 0.0019803054817472019 0 -0.01049870878746762 0.0020057938410612489 0 -0.010481260763063474 0.0019888184002906212 0 -0.01049870878746762 0.0020057938410612489 0 -0.010481260763063474 0.0019888184002906212 0 -0.010492485760951499 0.001995004110564671 0 -0.010481260763063474 0.0019888184002906212 0 -0.010492485760951499 0.001995004110564671 0 -0.010474681335337289 0.0019841606913534888 0 -0.010492485760951499 0.001995004110564671 0 -0.010500096362519896 0.001996142447025488 0 -0.010474681335337289 0.0019841606913534888 0 -0.010500096362519896 0.001996142447025488 0 -0.010519274752238543 0.0019951512908365828 0 -0.010510079536490562 0.0019880308409735911 0 -0.010492485760951499 0.001995004110564671 0 -0.010500096362519896 0.001996142447025488 0 -0.010499277227998703 0.0019982930503652007 0 -0.010500096362519896 0.001996142447025488 0 -0.010499277227998703 0.0019982930503652007 0 -0.010510079536490562 0.0019880308409735911 0 -0.010500096362519896 0.001996142447025488 0 -0.010382281537361015 0.0019998038822261039 0 -0.010519274752238543 0.0019951512908365828 0 -0.010500096362519896 0.001996142447025488 0 -0.010474681335337289 0.0019841606913534888 0 -0.010382281537361015 0.0019998038822261039 0 -0.010474681335337289 0.0019841606913534888 0 -0.010454915733683703 0.0019769445223747533 0 -0.010382281537361015 0.0019998038822261039 0 -0.010321678869383134 0.0018696286076773335 0 -0.010311363100343285 0.0020944109982501766 0 -0.010481260763063474 0.0019888184002906212 0 -0.010474681335337289 0.0019841606913534888 0 -0.010454915733683703 0.0019769445223747533 0 -0.0099684405739513919 0.0023708734894902083 0 -0.010038637543665229 0.0021602251860048547 0 -0.010192642740544029 0.0022155770401018188 0 -0.010038637543665229 0.0021602251860048547 0 -0.010192642740544029 0.0022155770401018188 0 -0.010382281537361015 0.0019998038822261039 0 -0.010251042022599769 0.0024055656494147782 0 -0.010346150154704848 0.002072032651259611 0 -0.010192642740544029 0.0022155770401018188 0 -0.010346150154704848 0.002072032651259611 0 -0.010192642740544029 0.0022155770401018188 0 -0.010382281537361015 0.0019998038822261039 0 -0.010346150154704848 0.002072032651259611 0 -0.010381589099343122 0.0020496201892913619 0 -0.010382281537361015 0.0019998038822261039 0 -0.010381589099343122 0.0020496201892913619 0 -0.010382281537361015 0.0019998038822261039 0 -0.01047037310690751 0.0020236788210841196 0 -0.01047037310690751 0.0020236788210841196 0 -0.010560271690899013 0.0019657056637097672 0 -0.01057546973489969 0.0019510464884295825 0 -0.010364817692466211 0.0021371204937617582 0 -0.01047037310690751 0.0020236788210841196 0 -0.010560271690899013 0.0019657056637097672 0 -0.01057546973489969 0.0019510464884295825 0 -0.010519274752238543 0.0019951512908365828 0 -0.010585574231520716 0.0018962121942028272 0 -0.01047037310690751 0.0020236788210841196 0 -0.01057546973489969 0.0019510464884295825 0 -0.010519274752238543 0.0019951512908365828 0 -0.010382281537361015 0.0019998038822261039 0 -0.01047037310690751 0.0020236788210841196 0 -0.010519274752238543 0.0019951512908365828 0 -0.010510079536490562 0.0019880308409735911 0 -0.010585574231520716 0.0018962121942028272 0 -0.010505418691774293 0.0019448061847901811 0 -0.010519274752238543 0.0019951512908365828 0 -0.010510079536490562 0.0019880308409735911 0 -0.010585574231520716 0.0018962121942028272 0 -0.010448427437841057 0.001908743752901015 0 -0.010585574231520716 0.0018962121942028272 0 -0.010505418691774293 0.0019448061847901811 0 -0.010448427437841057 0.001908743752901015 0 -0.010585574231520716 0.0018962121942028272 0 -0.010507245728318062 0.0016918096200992743 0 -0.010448427437841057 0.001908743752901015 0 -0.010505418691774293 0.0019448061847901811 0 -0.01048560246791979 0.0019739379386795619 0 -0.010510079536490562 0.0019880308409735911 0 -0.010505418691774293 0.0019448061847901811 0 -0.01048560246791979 0.0019739379386795619 0 -0.010972279199196106 0.001189843140494747 0 -0.010977323480713945 0.0011793441216025138 0 -0.01174019133934006 0.00095932302108671852 0 -0.011472462481009388 0.00049411590992077224 0 -0.01098194822409556 0.001190092041721913 0 -0.010507245728318062 0.0016918096200992743 0 -0.010763436788577363 0.0015578411478595477 0 -0.01098194822409556 0.001190092041721913 0 -0.011153115654797751 0.00066545768434893044 0 -0.010972279199196106 0.001189843140494747 0 -0.010585574231520716 0.0018962121942028272 0 -0.010507245728318062 0.0016918096200992743 0 -0.010763436788577363 0.0015578411478595477 0 -0.010585574231520716 0.0018962121942028272 0 -0.010763436788577363 0.0015578411478595477 0 -0.010751703217038241 0.0017055806103139874 0 -0.010618713764485593 0.0017531691373617422 0 -0.010973615481845736 0.0013821426145094052 0 -0.010477433736413092 0.0018223603823147093 0 -0.010744722280761915 0.0016738276856841329 0 -0.010944322985040942 0.0015369039073555987 0 -0.010763436788577363 0.0015578411478595477 0 -0.010751703217038241 0.0017055806103139874 0 -0.01093911379855734 0.0012054738288171411 0 -0.010763436788577363 0.0015578411478595477 0 -0.01093911379855734 0.0012054738288171411 0 -0.01098194822409556 0.001190092041721913 0 -0.010477433736413092 0.0018223603823147093 0 -0.010586980321078701 0.0017770521598247377 0 -0.010744722280761915 0.0016738276856841329 0 -0.010477433736413092 0.0018223603823147093 0 -0.010385437044844221 0.0019131513698103743 0 -0.010586980321078701 0.0017770521598247377 0 -0.010396308435371166 0.0020277293561219044 0 -0.010618713764485593 0.0017531691373617422 0 -0.010560271690899013 0.0019657056637097672 0 -0.01057546973489969 0.0019510464884295825 0 -0.010751703217038241 0.0017055806103139874 0 -0.01057546973489969 0.0019510464884295825 0 -0.010585574231520716 0.0018962121942028272 0 -0.010751703217038241 0.0017055806103139874 0 -0.010213358661128803 0.0020990509308627622 0 -0.010477433736413092 0.0018223603823147093 0 -0.010231323640376832 0.0020492108987712095 0 -0.010385437044844221 0.0019131513698103743 0 -0.010231323640376832 0.0020492108987712095 0 -0.010205674132140198 0.0020421509228440737 0 -0.010477433736413092 0.0018223603823147093 0 -0.010385437044844221 0.0019131513698103743 0 -0.010231323640376832 0.0020492108987712095 0 -0.010385437044844221 0.0019131513698103743 0 -0.010349174065718817 0.001955445959907771 0 -0.010205674132140198 0.0020421509228440737 0 -0.010385437044844221 0.0019131513698103743 0 -0.010484659062056307 0.0018689782432985611 0 -0.010349174065718817 0.001955445959907771 0 -0.010484659062056307 0.0018689782432985611 0 -0.010349174065718817 0.001955445959907771 0 -0.010419661068167376 0.0019374278689522381 0 -0.010349174065718817 0.001955445959907771 0 -0.010419661068167376 0.0019374278689522381 0 -0.010287467251069996 0.002014919873101601 0 -0.010398375504316461 0.0019817937864905111 0 -0.010419661068167376 0.0019374278689522381 0 -0.010287467251069996 0.002014919873101601 0 -0.010398375504316461 0.0019817937864905111 0 -0.010330750068236381 0.0020221108523324968 0 -0.010287467251069996 0.002014919873101601 0 -0.010398375504316461 0.0019817937864905111 0 -0.010485923626732325 0.0019735891404681918 0 -0.010387517727183994 0.0020243954716069115 0 -0.010398375504316461 0.0019817937864905111 0 -0.010330750068236381 0.0020221108523324968 0 -0.010387517727183994 0.0020243954716069115 0 -0.010485923626732325 0.0019735891404681918 0 -0.010485868871481122 0.001930647644114706 0 -0.01059343927343776 0.0018940451769718398 0 -0.010398375504316461 0.0019817937864905111 0 -0.010485923626732325 0.0019735891404681918 0 -0.010485868871481122 0.001930647644114706 0 -0.010398375504316461 0.0019817937864905111 0 -0.010485868871481122 0.001930647644114706 0 -0.010419661068167376 0.0019374278689522381 0 -0.010484659062056307 0.0018689782432985611 0 -0.010419661068167376 0.0019374278689522381 0 -0.010541174181192934 0.0018734956282923977 0 -0.010485868871481122 0.001930647644114706 0 -0.010419661068167376 0.0019374278689522381 0 -0.010541174181192934 0.0018734956282923977 0 -0.010484659062056307 0.0018689782432985611 0 -0.010541174181192934 0.0018734956282923977 0 -0.010630059130129389 0.0017980384022780026 0 -0.010634779562563656 0.0018340876324193251 0 -0.010541174181192934 0.0018734956282923977 0 -0.010630059130129389 0.0017980384022780026 0 -0.010634779562563656 0.0018340876324193251 0 -0.010541174181192934 0.0018734956282923977 0 -0.01059343927343776 0.0018940451769718398 0 -0.01059343927343776 0.0018940451769718398 0 -0.010745548677632485 0.001873381743375912 0 -0.010595041303671154 0.0019540186944298466 0 -0.010485868871481122 0.001930647644114706 0 -0.010541174181192934 0.0018734956282923977 0 -0.01059343927343776 0.0018940451769718398 0 -0.010634779562563656 0.0018340876324193251 0 -0.01059343927343776 0.0018940451769718398 0 -0.010710606199751727 0.0018264519795177291 0 -0.010485923626732325 0.0019735891404681918 0 -0.01059343927343776 0.0018940451769718398 0 -0.010595041303671154 0.0019540186944298466 0 -0.010828465539556652 0.0017770500457141992 0 -0.010918185161823064 0.0017975880459292872 0 -0.010745548677632485 0.001873381743375912 0 -0.010710606199751727 0.0018264519795177291 0 -0.010828465539556652 0.0017770500457141992 0 -0.010745548677632485 0.001873381743375912 0 -0.01059343927343776 0.0018940451769718398 0 -0.010710606199751727 0.0018264519795177291 0 -0.010745548677632485 0.001873381743375912 0 -0.010710606199751727 0.0018264519795177291 0 -0.010746693345197835 0.0017694543554083661 0 -0.010828465539556652 0.0017770500457141992 0 -0.010746693345197835 0.0017694543554083661 0 -0.010630059130129389 0.0017980384022780026 0 -0.010814741226149328 0.0016834118949857725 0 -0.010634779562563656 0.0018340876324193251 0 -0.010710606199751727 0.0018264519795177291 0 -0.010746693345197835 0.0017694543554083661 0 -0.010634779562563656 0.0018340876324193251 0 -0.010746693345197835 0.0017694543554083661 0 -0.010630059130129389 0.0017980384022780026 0 -0.010630059130129389 0.0017980384022780026 0 -0.010586980321078701 0.0017770521598247377 0 -0.010814741226149328 0.0016834118949857725 0 -0.010484659062056307 0.0018689782432985611 0 -0.010630059130129389 0.0017980384022780026 0 -0.010586980321078701 0.0017770521598247377 0 -0.010385437044844221 0.0019131513698103743 0 -0.010484659062056307 0.0018689782432985611 0 -0.010586980321078701 0.0017770521598247377 0 -0.010586980321078701 0.0017770521598247377 0 -0.010744722280761915 0.0016738276856841329 0 -0.010814741226149328 0.0016834118949857725 0 -0.010744722280761915 0.0016738276856841329 0 -0.010944322985040942 0.0015369039073555987 0 -0.010870194159562613 0.0016216464528029711 0 -0.010944322985040942 0.0015369039073555987 0 -0.01097736028589642 0.0016026318525282513 0 -0.011239977266058892 0.0015366085563654722 0 -0.010944322985040942 0.0015369039073555987 0 -0.01097736028589642 0.0016026318525282513 0 -0.010870194159562613 0.0016216464528029711 0 -0.01097736028589642 0.0016026318525282513 0 -0.010814741226149328 0.0016834118949857725 0 -0.010936923725593618 0.0016563435134280076 0 -0.01097736028589642 0.0016026318525282513 0 -0.010870194159562613 0.0016216464528029711 0 -0.010814741226149328 0.0016834118949857725 0 -0.010744722280761915 0.0016738276856841329 0 -0.010870194159562613 0.0016216464528029711 0 -0.010814741226149328 0.0016834118949857725 0 -0.010746693345197835 0.0017694543554083661 0 -0.010814741226149328 0.0016834118949857725 0 -0.010884191958717393 0.0017099266262103052 0 -0.010814741226149328 0.0016834118949857725 0 -0.010936923725593618 0.0016563435134280076 0 -0.010884191958717393 0.0017099266262103052 0 -0.010746693345197835 0.0017694543554083661 0 -0.010884191958717393 0.0017099266262103052 0 -0.010828465539556652 0.0017770500457141992 0 -0.010884191958717393 0.0017099266262103052 0 -0.010828465539556652 0.0017770500457141992 0 -0.010993627514514158 0.0017175670885032045 0 -0.010828465539556652 0.0017770500457141992 0 -0.010993627514514158 0.0017175670885032045 0 -0.010918185161823064 0.0017975880459292872 0 -0.010993627514514158 0.0017175670885032045 0 -0.011172330050664236 0.0017119449405872075 0 -0.010918185161823064 0.0017975880459292872 0 -0.010993627514514158 0.0017175670885032045 0 -0.011077244872593957 0.0016360210591210352 0 -0.011172330050664236 0.0017119449405872075 0 -0.01097736028589642 0.0016026318525282513 0 -0.011077244872593957 0.0016360210591210352 0 -0.011239977266058892 0.0015366085563654722 0 -0.010884191958717393 0.0017099266262103052 0 -0.010993627514514158 0.0017175670885032045 0 -0.011077244872593957 0.0016360210591210352 0 -0.01097736028589642 0.0016026318525282513 0 -0.010936923725593618 0.0016563435134280076 0 -0.011077244872593957 0.0016360210591210352 0 -0.010936923725593618 0.0016563435134280076 0 -0.010884191958717393 0.0017099266262103052 0 -0.011077244872593957 0.0016360210591210352 0 -0.011077244872593957 0.0016360210591210352 0 -0.011427104264527045 0.0015779501226734335 0 -0.011172330050664236 0.0017119449405872075 0 -0.011077244872593957 0.0016360210591210352 0 -0.011239977266058892 0.0015366085563654722 0 -0.011427104264527045 0.0015779501226734335 0 -0.011743928762876556 0.0013731318014512423 0 -0.011239977266058892 0.0015366085563654722 0 -0.011427104264527045 0.0015779501226734335 0 -0.011743928762876556 0.0013731318014512423 0 -0.010944322985040942 0.0015369039073555987 0 -0.011239977266058892 0.0015366085563654722 0 -0.01174019133934006 0.00095932302108671852 0 -0.011743928762876556 0.0013731318014512423 0 -0.01098194822409556 0.001190092041721913 0 -0.011743928762876556 0.0013731318014512423 0 -0.01093911379855734 0.0012054738288171411 0 -0.01098194822409556 0.001190092041721913 0 -0.01165788173229613 0.0014261145563586096 0 -0.010973615481845736 0.0013821426145094052 0 -0.0098906220723048669 0.0025549345408127895 0 -0.010015430251940296 0.002205622267371924 0 -0.0099341515445215377 0.0022472523979717549 0 -0.0099779950354087262 0.0022764046323580263 0 -0.0098906220723048669 0.0025549345408127895 0 -0.0099341515445215377 0.0022472523979717549 0 -0.0096154552020162615 0.0028710265103927932 0 -0.0098527076311195286 0.0025957457434865089 0 -0.0092890034583072677 0.0033662940750762236 0 -0.0092381666443753716 0.0028194807436931124 0 -0.0098906220723048669 0.0025549345408127895 0 -0.0092890034583072677 0.0033662940750762236 0 -0.0092381666443753716 0.0028194807436931124 0 -0.0088736442036915584 0.0033144740870784278 0 -0.0095944420470892196 0.0024552237315003263 0 -0.0092381666443753716 0.0028194807436931124 0 -0.0098906220723048669 0.0025549345408127895 0 -0.009929455843959106 0.0023658787186562878 0 -0.0095944420470892196 0.0024552237315003263 0 -0.0098906220723048669 0.0025549345408127895 0 -0.009929455843959106 0.0023658787186562878 0 -0.0098906220723048669 0.0025549345408127895 0 -0.010083697745237302 0.0022443357486000045 0 -0.010213358661128803 0.0020990509308627622 0 -0.010083697745237302 0.0022443357486000045 0 -0.010231323640376832 0.0020492108987712095 0 -0.010231323640376832 0.0020492108987712095 0 -0.010015430251940296 0.002205622267371924 0 -0.010205674132140198 0.0020421509228440737 0 -0.010083697745237302 0.0022443357486000045 0 -0.010231323640376832 0.0020492108987712095 0 -0.010015430251940296 0.002205622267371924 0 -0.0098906220723048669 0.0025549345408127895 0 -0.010083697745237302 0.0022443357486000045 0 -0.010015430251940296 0.002205622267371924 0 -0.010015430251940296 0.002205622267371924 0 -0.010073209441181848 0.0021212362729807858 0 -0.010205674132140198 0.0020421509228440737 0 -0.010015430251940296 0.002205622267371924 0 -0.010073209441181848 0.0021212362729807858 0 -0.0099843906473621666 0.0021402121998260163 0 -0.010015430251940296 0.002205622267371924 0 -0.0099843906473621666 0.0021402121998260163 0 -0.0099341515445215377 0.0022472523979717549 0 -0.010073209441181848 0.0021212362729807858 0 -0.010205674132140198 0.0020421509228440737 0 -0.010174726721088304 0.0020746118390284119 0 -0.010349174065718817 0.001955445959907771 0 -0.010205674132140198 0.0020421509228440737 0 -0.010287467251069996 0.002014919873101601 0 -0.010205674132140198 0.0020421509228440737 0 -0.010287467251069996 0.002014919873101601 0 -0.010174726721088304 0.0020746118390284119 0 -0.010287467251069996 0.002014919873101601 0 -0.010174726721088304 0.0020746118390284119 0 -0.010209854086693138 0.0020706650713618298 0 -0.010174726721088304 0.0020746118390284119 0 -0.010209854086693138 0.0020706650713618298 0 -0.01013577936592683 0.0021040437807144062 0 -0.010209854086693138 0.0020706650713618298 0 -0.01013577936592683 0.0021040437807144062 0 -0.010214293422317998 0.0020936052463315594 0 -0.010209854086693138 0.0020706650713618298 0 -0.010270545250102526 0.002063499056617638 0 -0.010214293422317998 0.0020936052463315594 0 -0.010287467251069996 0.002014919873101601 0 -0.010209854086693138 0.0020706650713618298 0 -0.010270545250102526 0.002063499056617638 0 -0.010330750068236381 0.0020221108523324968 0 -0.010287467251069996 0.002014919873101601 0 -0.010270545250102526 0.002063499056617638 0 -0.010073209441181848 0.0021212362729807858 0 -0.0099843906473621666 0.0021402121998260163 0 -0.01013577936592683 0.0021040437807144062 0 -0.010073209441181848 0.0021212362729807858 0 -0.010174726721088304 0.0020746118390284119 0 -0.01013577936592683 0.0021040437807144062 0 -0.0099843906473621666 0.0021402121998260163 0 -0.0099927559472011828 0.0021918784980005891 0 -0.009951228505981553 0.0022088464730599428 0 -0.0099887141657911196 0.0021026940936661786 0 -0.010085994899633561 0.0022053624463379993 0 -0.0097898027245786699 0.002091005058636419 0 -0.0095692552882534841 0.0019998969869176437 0 -0.0099843906473621666 0.0021402121998260163 0 -0.0097917009435028804 0.0020867115617102128 0 -0.009951228505981553 0.0022088464730599428 0 -0.0099843906473621666 0.0021402121998260163 0 -0.0099341515445215377 0.0022472523979717549 0 -0.0098979740272304457 0.0021800249902621314 0 -0.0099843906473621666 0.0021402121998260163 0 -0.0098979740272304457 0.0021800249902621314 0 -0.0097917009435028804 0.0020867115617102128 0 -0.0099779950354087262 0.0022764046323580263 0 -0.0099341515445215377 0.0022472523979717549 0 -0.0098979740272304457 0.0021800249902621314 0 -0.0099779950354087262 0.0022764046323580263 0 -0.0098979740272304457 0.0021800249902621314 0 -0.0099926674181553925 0.002184877981571414 0 -0.0098979740272304457 0.0021800249902621314 0 -0.0099718034435008207 0.0021047252419246995 0 -0.0099926674181553925 0.002184877981571414 0 -0.0098979740272304457 0.0021800249902621314 0 -0.0097917009435028804 0.0020867115617102128 0 -0.0099718034435008207 0.0021047252419246995 0 -0.0097917009435028804 0.0020867115617102128 0 -0.0099718034435008207 0.0021047252419246995 0 -0.0098465132692571421 0.0018617345054770475 0 -0.0099718034435008207 0.0021047252419246995 0 -0.010067177872117129 0.0020082959074805428 0 -0.0098465132692571421 0.0018617345054770475 0 -0.010067177872117129 0.0020082959074805428 0 -0.01013116750159827 0.0018884199479854865 0 -0.0098465132692571421 0.0018617345054770475 0 -0.0099718034435008207 0.0021047252419246995 0 -0.010089732550414692 0.0020785759247732762 0 -0.010050993818955469 0.0021449090667712977 0 -0.0099718034435008207 0.0021047252419246995 0 -0.010089732550414692 0.0020785759247732762 0 -0.010067177872117129 0.0020082959074805428 0 -0.010089732550414692 0.0020785759247732762 0 -0.010067177872117129 0.0020082959074805428 0 -0.010142008361496009 0.0020197415687524681 0 -0.010067177872117129 0.0020082959074805428 0 -0.010142008361496009 0.0020197415687524681 0 -0.01013116750159827 0.0018884199479854865 0 -0.008868398994024064 0.00075737102824374194 0 -0.0094806142697008312 0.0011474887824910898 0 -0.0094953822864845428 0.0010326878769287083 0 -0.009062892179304104 0.00064825616412427965 0 -0.008868398994024064 0.00075737102824374194 0 -0.0094953822864845428 0.0010326878769287083 0 -0.0068383591703680283 0.00044096927273384347 0 -0.010299177108315389 0.0013997062210618953 0 -0.0084259675660358028 0.0015392072504103729 0 -0.0099736913210324071 0.0015182728567341081 0 -0.010142008361496009 0.0020197415687524681 0 -0.010276349391041899 0.0021244480783935188 0 -0.01013116750159827 0.0018884199479854865 0 -0.0090902437016957185 0.0007854737386652458 0 -0.009245320156144203 0.0010403428885743941 0 -0.0094806142697008312 0.0011474887824910898 0 -0.010142008361496009 0.0020197415687524681 0 -0.010158785905797489 0.0020858013735430259 0 -0.010276349391041899 0.0021244480783935188 0 -0.010089732550414692 0.0020785759247732762 0 -0.010142008361496009 0.0020197415687524681 0 -0.010158785905797489 0.0020858013735430259 0 -0.010089732550414692 0.0020785759247732762 0 -0.010158785905797489 0.0020858013735430259 0 -0.010124852447554285 0.0021438377550143761 0 -0.010124852447554285 0.0021438377550143761 0 -0.010276349391041899 0.0021244480783935188 0 -0.010102033538124087 0.0022115979650261406 0 -0.010158785905797489 0.0020858013735430259 0 -0.010124852447554285 0.0021438377550143761 0 -0.010276349391041899 0.0021244480783935188 0 -0.0092487693373339026 0.0025110957354916798 0 -0.0079900825316372836 0.0027009415859850358 0 -0.0080064783740338204 0.0026206805365492042 0 -0.0089837834853417845 0.0020799828347264709 0 -0.0076544048649455519 0.0015421003663457827 0 -0.0084259675660358028 0.0015392072504103729 0 -0.0092487693373339026 0.0025110957354916798 0 -0.0099779950354087262 0.0022764046323580263 0 -0.010081941072687456 0.0022036933779064714 0 -0.010071886099877705 0.0021995042447349807 0 -0.0099779950354087262 0.0022764046323580263 0 -0.0099926674181553925 0.002184877981571414 0 -0.010071886099877705 0.0021995042447349807 0 -0.0096154552020162615 0.0028710265103927932 0 -0.0092487693373339026 0.0025110957354916798 0 -0.0092487693373339026 0.0025110957354916798 0 -0.009359745486977147 0.0025268588652117559 0 -0.0099718034435008207 0.0021047252419246995 0 -0.0099926674181553925 0.002184877981571414 0 -0.010050993818955469 0.0021449090667712977 0 -0.0099926674181553925 0.002184877981571414 0 -0.010050993818955469 0.0021449090667712977 0 -0.010071886099877705 0.0021995042447349807 0 -0.010089732550414692 0.0020785759247732762 0 -0.010124852447554285 0.0021438377550143761 0 -0.010050993818955469 0.0021449090667712977 0 -0.010124852447554285 0.0021438377550143761 0 -0.010102033538124087 0.0022115979650261406 0 -0.010071886099877705 0.0021995042447349807 0 -0.010124852447554285 0.0021438377550143761 0 -0.010050993818955469 0.0021449090667712977 0 -0.010071886099877705 0.0021995042447349807 0 -0.0030806113335210329 -0.00070825839976167116 0 -0.0031719131256126866 -0.00073412339802975167 0 -0.003214487070301599 -0.00087436149706018862 0 -0.0031020337863056024 -0.00067255176805062729 0 -0.0031099325930507267 -0.00063297724678031857 0 -0.0030504464134864765 -0.00066526257967728015 0 -0.0031452475245709178 -0.00068275962631427704 0 -0.0031585851055510963 -0.00062371431227234582 0 -0.0032067143342997722 -0.00063442967942783013 0 -0.0031452475245709178 -0.00068275962631427704 0 -0.0031099325930507267 -0.00063297724678031857 0 -0.0031585851055510963 -0.00062371431227234582 0 -0.0031452475245709178 -0.00068275962631427704 0 -0.0031020337863056024 -0.00067255176805062729 0 -0.0031099325930507267 -0.00063297724678031857 0 -0.0031452475245709178 -0.00068275962631427704 0 -0.0030806113335210329 -0.00070825839976167116 0 -0.0031719131256126866 -0.00073412339802975167 0 -0.004202508369456486 -0.00032532657181222015 0 -0.0037912537901450736 -0.00070456963117402661 0 -0.0031452475245709178 -0.00068275962631427704 0 -0.0030806113335210329 -0.00070825839976167116 0 -0.0031020337863056024 -0.00067255176805062729 0 -0.004202508369456486 -0.00032532657181222015 0 -0.0068383591703680283 0.00044096927273384347 0 -0.0030968517426013696 -0.00068954548089005289 0 -0.0031020337863056024 -0.00067255176805062729 0 -0.0030504464134864765 -0.00066526257967728015 0 -0.0088422220129160279 0.00090685494416450235 0 -0.0090902437016957185 0.0007854737386652458 0 -0.0090762656008869947 0.0010077140450544331 0 -0.0090902437016957185 0.0007854737386652458 0 -0.0090762656008869947 0.0010077140450544331 0 -0.009245320156144203 0.0010403428885743941 0 -0.0084259675660358028 0.0015392072504103729 0 -0.0068383591703680283 0.00044096927273384347 0 -0.0053930293422243614 0.0012963936302499285 0 -0.0051377522213039229 0.00049595545405676437 0 -0.0043540653575717264 0.00052800543650985865 0 -0.0057802530356214814 0.0010879815483764497 0 -0.0053930293422243614 0.0012963936302499285 0 -0.0051377522213039229 0.00049595545405676437 0 -0.0080064783740338204 0.0026206805365492042 0 -0.007164728670732555 0.0018135183837868242 0 -0.0076544048649455519 0.0015421003663457827 0 -0.0084259675660358028 0.0015392072504103729 0 -0.0058876853507631209 0.00091518209377181286 0 -0.0031099325930507267 -0.00063297724678031857 0 -0.0030504464134864765 -0.00066526257967728015 0 -0.0031182779367646724 -0.00052037605323707167 0 -0.0068383591703680283 0.00044096927273384347 0 -0.0032366607523297013 -0.00015277007232254822 0 -0.0031182779367646724 -0.00052037605323707167 0 -0.0031585851055510963 -0.00062371431227234582 0 -0.0031904953242435463 -0.00058870090046811983 0 -0.0031099325930507267 -0.00063297724678031857 0 -0.0031182779367646724 -0.00052037605323707167 0 -0.0031585851055510963 -0.00062371431227234582 0 -0.0043540653575717264 0.00052800543650985865 0 -0.0045285833433180373 -5.3460105953734693e-06 0 -0.0037843348141649766 -0.00024740890698972769 0 -0.0051377522213039229 0.00049595545405676437 0 -0.0043540653575717264 0.00052800543650985865 0 -0.0045285833433180373 -5.3460105953734693e-06 0 -0.0075841228914494893 0.0034783149523729584 0 -0.0076294627712378315 0.003257859232562374 0 -0.0074273851901983162 0.0033140883294287583 0 -0.0058876853507631209 0.00091518209377181286 0 -0.0062233304630558038 0.0014800135501359039 0 -0.0062233304630558038 0.0014800135501359039 0 -0.0079900825316372836 0.0027009415859850358 0 -0.007164728670732555 0.0018135183837868242 0 -0.0063243021617526412 0.001014469740649143 0 -0.0076544048649455519 0.0015421003663457827 0 -0.0081155974181921116 0.0036229389926720826 0 -0.0078714370753015031 0.0031886034497605395 0 -0.0082807293918746531 0.0030645913711320125 0 -0.0075841228914494893 0.0034783149523729584 0 -0.0081155974181921116 0.0036229389926720826 0 -0.0078714370753015031 0.0031886034497605395 0 -0.0078714370753015031 0.0031886034497605395 0 -0.0082807293918746531 0.0030645913711320125 0 -0.0080159571055061791 0.0028097172599440565 0 -0.0078714370753015031 0.0031886034497605395 0 -0.0080159571055061791 0.0028097172599440565 0 -0.0075296816244586773 0.0030228671317398333 0 -0.0075841228914494893 0.0034783149523729584 0 -0.0078714370753015031 0.0031886034497605395 0 -0.0076294627712378315 0.003257859232562374 0 -0.0078714370753015031 0.0031886034497605395 0 -0.0076294627712378315 0.003257859232562374 0 -0.0075296816244586773 0.0030228671317398333 0 -0.0076294627712378315 0.003257859232562374 0 -0.0074046243982773966 0.0032137222299713913 0 -0.0075296816244586773 0.0030228671317398333 0 -0.0074046243982773966 0.0032137222299713913 0 -0.0075296816244586773 0.0030228671317398333 0 -0.0072900418803651928 0.0031371901669530571 0 -0.0076294627712378315 0.003257859232562374 0 -0.0074046243982773966 0.0032137222299713913 0 -0.0074273851901983162 0.0033140883294287583 0 -0.0086822867433065734 0.0038073347587071174 0 -0.0088736442036915584 0.0033144740870784278 0 -0.0085194374453547283 0.0033572283584226564 0 -0.0092890034583072677 0.0033662940750762236 0 -0.0086822867433065734 0.0038073347587071174 0 -0.0088736442036915584 0.0033144740870784278 0 -0.0088736442036915584 0.0033144740870784278 0 -0.0085194374453547283 0.0033572283584226564 0 -0.0087151492178278497 0.0030483623178012252 0 -0.0081155974181921116 0.0036229389926720826 0 -0.0085194374453547283 0.0033572283584226564 0 -0.0082807293918746531 0.0030645913711320125 0 -0.0086822867433065734 0.0038073347587071174 0 -0.0081155974181921116 0.0036229389926720826 0 -0.0085194374453547283 0.0033572283584226564 0 -0.0082807293918746531 0.0030645913711320125 0 -0.0087151492178278497 0.0030483623178012252 0 -0.0087496314574350663 0.0026462797647496725 0 -0.0085194374453547283 0.0033572283584226564 0 -0.0082807293918746531 0.0030645913711320125 0 -0.0087151492178278497 0.0030483623178012252 0 -0.0092381666443753716 0.0028194807436931124 0 -0.0088736442036915584 0.0033144740870784278 0 -0.0087151492178278497 0.0030483623178012252 0 -0.0092381666443753716 0.0028194807436931124 0 -0.0087151492178278497 0.0030483623178012252 0 -0.0087496314574350663 0.0026462797647496725 0 -0.0092410580328406589 0.0023104300470895432 0 -0.0087496314574350663 0.0026462797647496725 0 -0.0086201607332008316 0.0022630469388945579 0 -0.0087496314574350663 0.0026462797647496725 0 -0.0082918267740684833 0.002523950526456055 0 -0.0086201607332008316 0.0022630469388945579 0 -0.0087496314574350663 0.0026462797647496725 0 -0.0082918267740684833 0.002523950526456055 0 -0.0080159571055061791 0.0028097172599440565 0 -0.0082807293918746531 0.0030645913711320125 0 -0.0087496314574350663 0.0026462797647496725 0 -0.0080159571055061791 0.0028097172599440565 0 -0.0080159571055061791 0.0028097172599440565 0 -0.0075296816244586773 0.0030228671317398333 0 -0.0075578820275221349 0.0027570563102556002 0 -0.0075296816244586773 0.0030228671317398333 0 -0.0075578820275221349 0.0027570563102556002 0 -0.007262239913931246 0.0029199153766740382 0 -0.0075578820275221349 0.0027570563102556002 0 -0.0072953379428921643 0.0027112591297054709 0 -0.007262239913931246 0.0029199153766740382 0 -0.0075578820275221349 0.0027570563102556002 0 -0.0074316482286242852 0.0025610905282526203 0 -0.0072953379428921643 0.0027112591297054709 0 -0.0075578820275221349 0.0027570563102556002 0 -0.0074316482286242852 0.0025610905282526203 0 -0.0078184212360310774 0.0025112858214829353 0 -0.0080159571055061791 0.0028097172599440565 0 -0.0075578820275221349 0.0027570563102556002 0 -0.0078184212360310774 0.0025112858214829353 0 -0.0082918267740684833 0.002523950526456055 0 -0.0080159571055061791 0.0028097172599440565 0 -0.0078184212360310774 0.0025112858214829353 0 -0.0082918267740684833 0.002523950526456055 0 -0.0078184212360310774 0.0025112858214829353 0 -0.0079114659417359907 0.0022431831903126469 0 -0.0078184212360310774 0.0025112858214829353 0 -0.0079114659417359907 0.0022431831903126469 0 -0.0075602259185701976 0.0023882363355498511 0 -0.0079114659417359907 0.0022431831903126469 0 -0.0075602259185701976 0.0023882363355498511 0 -0.0074140392429256213 0.002223519151692872 0 -0.0074316482286242852 0.0025610905282526203 0 -0.0075602259185701976 0.0023882363355498511 0 -0.0072653802250225536 0.0023992657012445765 0 -0.0074316482286242852 0.0025610905282526203 0 -0.0078184212360310774 0.0025112858214829353 0 -0.0075602259185701976 0.0023882363355498511 0 -0.0075602259185701976 0.0023882363355498511 0 -0.0074140392429256213 0.002223519151692872 0 -0.0072653802250225536 0.0023992657012445765 0 -0.0074140392429256213 0.002223519151692872 0 -0.0070861935282358311 0.0022365871091251373 0 -0.0072653802250225536 0.0023992657012445765 0 -0.0074140392429256213 0.002223519151692872 0 -0.0072692631681014145 0.0020819542618998313 0 -0.0076775888083382426 0.0019862199021617932 0 -0.0074140392429256213 0.002223519151692872 0 -0.0072692631681014145 0.0020819542618998313 0 -0.0070861935282358311 0.0022365871091251373 0 -0.0079114659417359907 0.0022431831903126469 0 -0.0074140392429256213 0.002223519151692872 0 -0.0076775888083382426 0.0019862199021617932 0 -0.0082886917387642763 0.0017314835820228002 0 -0.0079114659417359907 0.0022431831903126469 0 -0.0076775888083382426 0.0019862199021617932 0 -0.0082886917387642763 0.0017314835820228002 0 -0.0079114659417359907 0.0022431831903126469 0 -0.0086201607332008316 0.0022630469388945579 0 -0.0082886917387642763 0.0017314835820228002 0 -0.0092243757509433717 0.0020041674150644215 0 -0.0086201607332008316 0.0022630469388945579 0 -0.0082886917387642763 0.0017314835820228002 0 -0.0092949862902362828 0.0015957384898113611 0 -0.0092243757509433717 0.0020041674150644215 0 -0.0092243757509433717 0.0020041674150644215 0 -0.0092410580328406589 0.0023104300470895432 0 -0.0086201607332008316 0.0022630469388945579 0 -0.0082918267740684833 0.002523950526456055 0 -0.0079114659417359907 0.0022431831903126469 0 -0.0086201607332008316 0.0022630469388945579 0 -0.006654592781341874 0.002443127761912342 0 -0.0065023816236247488 0.0025928895355959605 0 -0.0064010089881800297 0.0024339773678187663 0 -0.006654592781341874 0.002443127761912342 0 -0.0066907344453314265 0.0025735802129570767 0 -0.0065023816236247488 0.0025928895355959605 0 -0.0065023816236247488 0.0025928895355959605 0 -0.0063024936610782236 0.002565772389154061 0 -0.0064010089881800297 0.0024339773678187663 0 -0.0063024936610782236 0.002565772389154061 0 -0.0062591972919968037 0.0024773618315626772 0 -0.0064010089881800297 0.0024339773678187663 0 -0.0061962765139581084 0.0023934401422286023 0 -0.0062827601465696888 0.0023067248185912243 0 -0.0064010089881800297 0.0024339773678187663 0 -0.0061962765139581084 0.0023934401422286023 0 -0.0062591972919968037 0.0024773618315626772 0 -0.0064010089881800297 0.0024339773678187663 0 -0.0062827601465696888 0.0023067248185912243 0 -0.0064628234282689007 0.0023025107987097583 0 -0.0064010089881800297 0.0024339773678187663 0 -0.0064628234282689007 0.0023025107987097583 0 -0.0064010089881800297 0.0024339773678187663 0 -0.0065422189063568548 0.0023695176989342714 0 -0.0064628234282689007 0.0023025107987097583 0 -0.0065422189063568548 0.0023695176989342714 0 -0.0066547323072372929 0.0023058987290692006 0 -0.006654592781341874 0.002443127761912342 0 -0.0064010089881800297 0.0024339773678187663 0 -0.0065422189063568548 0.0023695176989342714 0 -0.006654592781341874 0.002443127761912342 0 -0.0065422189063568548 0.0023695176989342714 0 -0.0066547323072372929 0.0023058987290692006 0 -0.0068227010391362008 0.0021994214640976653 0 -0.0066547323072372929 0.0023058987290692006 0 -0.0068432167570993737 0.002344907419210385 0 -0.006654592781341874 0.002443127761912342 0 -0.0066547323072372929 0.0023058987290692006 0 -0.0068432167570993737 0.002344907419210385 0 -0.0068227010391362008 0.0021994214640976653 0 -0.0068432167570993737 0.002344907419210385 0 -0.0070861935282358311 0.0022365871091251373 0 -0.0070560304099968555 0.0021007205983739311 0 -0.0072692631681014145 0.0020819542618998313 0 -0.0070861935282358311 0.0022365871091251373 0 -0.0068432167570993737 0.002344907419210385 0 -0.0070861935282358311 0.0022365871091251373 0 -0.0070185483307296688 0.002439543512420777 0 -0.0070861935282358311 0.0022365871091251373 0 -0.0072653802250225536 0.0023992657012445765 0 -0.0070185483307296688 0.002439543512420777 0 -0.0070185483307296688 0.002439543512420777 0 -0.0068796090638869548 0.0026060234251832847 0 -0.0071588600297612685 0.002579473502391033 0 -0.0072653802250225536 0.0023992657012445765 0 -0.0070185483307296688 0.002439543512420777 0 -0.0071588600297612685 0.002579473502391033 0 -0.0074316482286242852 0.0025610905282526203 0 -0.0072653802250225536 0.0023992657012445765 0 -0.0071588600297612685 0.002579473502391033 0 -0.006654592781341874 0.002443127761912342 0 -0.0068432167570993737 0.002344907419210385 0 -0.00682943675828871 0.0024732569560193237 0 -0.0068432167570993737 0.002344907419210385 0 -0.0070185483307296688 0.002439543512420777 0 -0.00682943675828871 0.0024732569560193237 0 -0.0070185483307296688 0.002439543512420777 0 -0.00682943675828871 0.0024732569560193237 0 -0.0068796090638869548 0.0026060234251832847 0 -0.006654592781341874 0.002443127761912342 0 -0.0066907344453314265 0.0025735802129570767 0 -0.00682943675828871 0.0024732569560193237 0 -0.0066907344453314265 0.0025735802129570767 0 -0.00682943675828871 0.0024732569560193237 0 -0.0068796090638869548 0.0026060234251832847 0 -0.0066907344453314265 0.0025735802129570767 0 -0.0068796090638869548 0.0026060234251832847 0 -0.0066646000170645829 0.0027315960333991816 0 -0.0068796090638869548 0.0026060234251832847 0 -0.0068510233008273027 0.0027737043264101382 0 -0.0070764219260797904 0.0027571113160564514 0 -0.0068796090638869548 0.0026060234251832847 0 -0.0068510233008273027 0.0027737043264101382 0 -0.0066646000170645829 0.0027315960333991816 0 -0.0068510233008273027 0.0027737043264101382 0 -0.0067417393241291168 0.002859551293633801 0 -0.0066646000170645829 0.0027315960333991816 0 -0.0074316482286242852 0.0025610905282526203 0 -0.0071588600297612685 0.002579473502391033 0 -0.0072953379428921643 0.0027112591297054709 0 -0.0068796090638869548 0.0026060234251832847 0 -0.0071588600297612685 0.002579473502391033 0 -0.0070764219260797904 0.0027571113160564514 0 -0.0071588600297612685 0.002579473502391033 0 -0.0070764219260797904 0.0027571113160564514 0 -0.0072953379428921643 0.0027112591297054709 0 -0.0070764219260797904 0.0027571113160564514 0 -0.007262239913931246 0.0029199153766740382 0 -0.0068729035043568814 0.0029591209615552781 0 -0.007262239913931246 0.0029199153766740382 0 -0.0068729035043568814 0.0029591209615552781 0 -0.0071067761251216591 0.0031542970052928429 0 -0.0075296816244586773 0.0030228671317398333 0 -0.007262239913931246 0.0029199153766740382 0 -0.0071067761251216591 0.0031542970052928429 0 -0.0070764219260797904 0.0027571113160564514 0 -0.0072953379428921643 0.0027112591297054709 0 -0.007262239913931246 0.0029199153766740382 0 -0.0068729035043568814 0.0029591209615552781 0 -0.0065837802168900207 0.0029740662791542653 0 -0.0067506099131309826 0.0031993229431191402 0 -0.0067417393241291168 0.002859551293633801 0 -0.0068729035043568814 0.0029591209615552781 0 -0.0065837802168900207 0.0029740662791542653 0 -0.0068510233008273027 0.0027737043264101382 0 -0.0067417393241291168 0.002859551293633801 0 -0.0068729035043568814 0.0029591209615552781 0 -0.0068510233008273027 0.0027737043264101382 0 -0.0070764219260797904 0.0027571113160564514 0 -0.0068729035043568814 0.0029591209615552781 0 -0.0065837802168900207 0.0029740662791542653 0 -0.0063227846941713356 0.0029856820351381454 0 -0.0067506099131309826 0.0031993229431191402 0 -0.0065837802168900207 0.0029740662791542653 0 -0.0066646000170645829 0.0027315960333991816 0 -0.0064650491847376701 0.0027878618608593339 0 -0.0065837802168900207 0.0029740662791542653 0 -0.0064650491847376701 0.0027878618608593339 0 -0.0064300771418193499 0.0028948558775290911 0 -0.0067417393241291168 0.002859551293633801 0 -0.0065837802168900207 0.0029740662791542653 0 -0.0066646000170645829 0.0027315960333991816 0 -0.0065023816236247488 0.0025928895355959605 0 -0.0066646000170645829 0.0027315960333991816 0 -0.0064650491847376701 0.0027878618608593339 0 -0.0066907344453314265 0.0025735802129570767 0 -0.0065023816236247488 0.0025928895355959605 0 -0.0066646000170645829 0.0027315960333991816 0 -0.0061907990971882794 0.0026649098500768436 0 -0.0063024936610782236 0.002565772389154061 0 -0.0063250862749657756 0.002706720132987919 0 -0.0065023816236247488 0.0025928895355959605 0 -0.0064650491847376701 0.0027878618608593339 0 -0.0063250862749657756 0.002706720132987919 0 -0.0065023816236247488 0.0025928895355959605 0 -0.0063024936610782236 0.002565772389154061 0 -0.0063250862749657756 0.002706720132987919 0 -0.0064650491847376701 0.0027878618608593339 0 -0.0063250862749657756 0.002706720132987919 0 -0.0063526390761503545 0.0028339914798092302 0 -0.0062236940314226502 0.0027894836197863452 0 -0.0063250862749657756 0.002706720132987919 0 -0.0063526390761503545 0.0028339914798092302 0 -0.0062236940314226502 0.0027894836197863452 0 -0.0061907990971882794 0.0026649098500768436 0 -0.0063250862749657756 0.002706720132987919 0 -0.0062236940314226502 0.0027894836197863452 0 -0.0063526390761503545 0.0028339914798092302 0 -0.0063227846941713356 0.0029856820351381454 0 -0.0065837802168900207 0.0029740662791542653 0 -0.0064300771418193499 0.0028948558775290911 0 -0.0063227846941713356 0.0029856820351381454 0 -0.0063526390761503545 0.0028339914798092302 0 -0.0064300771418193499 0.0028948558775290911 0 -0.0063227846941713356 0.0029856820351381454 0 -0.0064650491847376701 0.0027878618608593339 0 -0.0063526390761503545 0.0028339914798092302 0 -0.0064300771418193499 0.0028948558775290911 0 -0.0029427296309801352 -1.8347027656612588e-05 0 -0.0029610979033837343 0.00039492521943109896 0 -0.0024381533840466844 9.1002647586891006e-05 0 -0.0035517173581129692 0.00078760327981069588 0 -0.0036586861479895238 0.00073227222254788091 0 -0.0037380822410589673 0.0009452565024377945 0 -0.0032670313002536623 0.000609762878001369 0 -0.0032976327608381711 8.7141354489804316e-05 0 -0.0031961811343553027 -0.00014034960959746233 0 -0.0032976327608381711 8.7141354489804316e-05 0 -0.0037150335643196019 -0.00014690490348495241 0 -0.0036727847925898637 -0.00016248806929885002 0 -0.0036698440974868183 -0.00015933523067459957 0 -0.0050394745925812414 0.0019078062938997112 0 -0.0052576914740677695 0.0017908903943385022 0 -0.0036586861479895238 0.00073227222254788091 0 -0.0037380822410589673 0.0009452565024377945 0 -0.0040952731097495523 0.00088606620819576425 0 -0.0032976327608381711 8.7141354489804316e-05 0 -0.0052576914740677695 0.0017908903943385022 0 -0.0034420277557196729 -0.00033643310334672709 0 -0.0034136317463402009 -0.00046311366137795877 0 -0.0033213058726075553 -0.00047361112803411275 0 -0.0034136317463402009 -0.00046311366137795877 0 -0.0033213058726075553 -0.00047361112803411275 0 -0.0033749779711315154 -0.00057073543877999601 0 -0.0032976327608381711 8.7141354489804316e-05 0 -0.0035531729357372839 -0.00038213952182955004 0 -0.0037150335643196019 -0.00014690490348495241 0 -0.0036698440974868183 -0.00015933523067459957 0 -0.0037161622672116017 -0.00020497885914301094 0 -0.0034420277557196729 -0.00033643310334672709 0 -0.0034136317463402009 -0.00046311366137795877 0 -0.0034833317786379801 -0.00040278728251739776 0 -0.0034136317463402009 -0.00046311366137795877 0 -0.0034833317786379801 -0.00040278728251739776 0 -0.0034637256787041952 -0.00055267134228503877 0 -0.0035069341562586768 -0.00031481309715516911 0 -0.0034420277557196729 -0.00033643310334672709 0 -0.0034833317786379801 -0.00040278728251739776 0 -0.0074040993590800972 0.0030416080353048327 0 -0.0072988160140251904 0.0030623452030629217 0 -0.0075296816244586773 0.0030228671317398333 0 -0.0072900418803651928 0.0031371901669530571 0 -0.0070919479831979488 0.0030259775579449815 0 -0.0074046243982773966 0.0032137222299713913 0 -0.0074273851901983162 0.0033140883294287583 0 -0.0071099038644529761 0.0033296903445707545 0 -0.0074046243982773966 0.0032137222299713913 0 -0.0072900418803651928 0.0031371901669530571 0 -0.0071099038644529761 0.0033296903445707545 0 -0.0072900418803651928 0.0031371901669530571 0 -0.0070919479831979488 0.0030259775579449815 0 -0.0071099038644529761 0.0033296903445707545 0 -0.0068729035043568814 0.0029591209615552781 0 -0.0071067761251216591 0.0031542970052928429 0 -0.0067506099131309826 0.0031993229431191402 0 -0.0037843348141649766 -0.00024740890698972769 0 -0.0036727847925898637 -0.00016248806929885002 0 -0.0036698440974868183 -0.00015933523067459957 0 -0.0070919479831979488 0.0030259775579449815 0 -0.0071099038644529761 0.0033296903445707545 0 -0.0065585156563271402 0.0031119424282527891 0 -0.0054106610737564929 0.0015311764207846868 0 -0.0052576914740677695 0.0017908903943385022 0 -0.0072988160140251904 0.0030623452030629217 0 -0.0052576914740677695 0.0017908903943385022 0 -0.0035531729357372839 -0.00038213952182955004 0 -0.0032592773276928517 -0.0005293287004611031 0 -0.0037843348141649766 -0.00024740890698972769 0 -0.0036698440974868183 -0.00015933523067459957 0 -0.0036204106708515971 -0.00014012205721507443 0 -0.0037161622672116017 -0.00020497885914301094 0 -0.0036204106708515971 -0.00014012205721507443 0 -0.0032624812943932192 -0.00055503218121472314 0 -0.0036698440974868183 -0.00015933523067459957 0 -0.0037161622672116017 -0.00020497885914301094 0 -0.0036204106708515971 -0.00014012205721507443 0 -0.0043540653575717264 0.00052800543650985865 0 -0.0037843348141649766 -0.00024740890698972769 0 -0.0036204106708515971 -0.00014012205721507443 0 -0.0075841228914494893 0.0034783149523729584 0 -0.0074273851901983162 0.0033140883294287583 0 -0.0071099038644529761 0.0033296903445707545 0 -0.0062233304630558038 0.0014800135501359039 0 -0.0054106610737564929 0.0015311764207846868 0 -0.0032366607523297013 -0.00015277007232254822 0 -0.0038227957486552588 -3.1521733093298284e-05 0 -0.0031182779367646724 -0.00052037605323707167 0 -0.0036204106708515971 -0.00014012205721507443 0 -0.0032624812943932192 -0.00055503218121472314 0 -0.0032067143342997722 -0.00063442967942783013 0 -0.0032624812943932192 -0.00055503218121472314 0 -0.0032596967419739834 -0.00060177777732988889 0 -0.0032067143342997722 -0.00063442967942783013 0 -0.0031904953242435463 -0.00058870090046811983 0 -0.0032624812943932192 -0.00055503218121472314 0 -0.0031585851055510963 -0.00062371431227234582 0 -0.0032067143342997722 -0.00063442967942783013 0 -0.0031904953242435463 -0.00058870090046811983 0 -0.0031182779367646724 -0.00052037605323707167 0 -0.0031904953242435463 -0.00058870090046811983 0 -0.0032624812943932192 -0.00055503218121472314 0 -0.0032624812943932192 -0.00055503218121472314 0 -0.0032596967419739834 -0.00060177777732988889 0 -0.003298324323289842 -0.00055489598877525679 0 -0.0032596967419739834 -0.00060177777732988889 0 -0.003298324323289842 -0.00055489598877525679 0 -0.0032604410656570967 -0.00067799220866986674 0 -0.0033213058726075553 -0.00047361112803411275 0 -0.0032624812943932192 -0.00055503218121472314 0 -0.003298324323289842 -0.00055489598877525679 0 -0.0033213058726075553 -0.00047361112803411275 0 -0.003298324323289842 -0.00055489598877525679 0 -0.0033749779711315154 -0.00057073543877999601 0 -0.003298324323289842 -0.00055489598877525679 0 -0.0033361595524341401 -0.00067199764251291475 0 -0.0033749779711315154 -0.00057073543877999601 0 -0.003298324323289842 -0.00055489598877525679 0 -0.0033361595524341401 -0.00067199764251291475 0 -0.0032604410656570967 -0.00067799220866986674 0 -0.0033361595524341401 -0.00067199764251291475 0 -0.0032604410656570967 -0.00067799220866986674 0 -0.0033350444804008264 -0.00084358660767625329 0 -0.0032604410656570967 -0.00067799220866986674 0 -0.0031719131256126866 -0.00073412339802975167 0 -0.003214487070301599 -0.00087436149706018862 0 -0.0032067143342997722 -0.00063442967942783013 0 -0.0032596967419739834 -0.00060177777732988889 0 -0.0032604410656570967 -0.00067799220866986674 0 -0.0032067143342997722 -0.00063442967942783013 0 -0.0032604410656570967 -0.00067799220866986674 0 -0.0031719131256126866 -0.00073412339802975167 0 -0.0031452475245709178 -0.00068275962631427704 0 -0.0032067143342997722 -0.00063442967942783013 0 -0.0031719131256126866 -0.00073412339802975167 0 -0.003543682236672121 -0.00049259403537046324 0 -0.0034833317786379801 -0.00040278728251739776 0 -0.0034637256787041952 -0.00055267134228503877 0 -0.003543682236672121 -0.00049259403537046324 0 -0.0034637256787041952 -0.00055267134228503877 0 -0.0035386218223390328 -0.00068941027447256902 0 -0.0034637256787041952 -0.00055267134228503877 0 -0.0033749779711315154 -0.00057073543877999601 0 -0.003453390802516291 -0.00076667022418648654 0 -0.0034136317463402009 -0.00046311366137795877 0 -0.0034637256787041952 -0.00055267134228503877 0 -0.0033749779711315154 -0.00057073543877999601 0 -0.0033361595524341401 -0.00067199764251291475 0 -0.0033749779711315154 -0.00057073543877999601 0 -0.003453390802516291 -0.00076667022418648654 0 -0.0033361595524341401 -0.00067199764251291475 0 -0.003453390802516291 -0.00076667022418648654 0 -0.0033350444804008264 -0.00084358660767625329 0 -0.0034637256787041952 -0.00055267134228503877 0 -0.003453390802516291 -0.00076667022418648654 0 -0.0035386218223390328 -0.00068941027447256902 0 -0.003453390802516291 -0.00076667022418648654 0 -0.0035386218223390328 -0.00068941027447256902 0 -0.0036008203434763721 -0.00087152468347559734 0 -0.003453390802516291 -0.00076667022418648654 0 -0.0035772520389342737 -0.001048240326434054 0 -0.0036008203434763721 -0.00087152468347559734 0 -0.003453390802516291 -0.00076667022418648654 0 -0.003447830774282362 -0.0010269928952479463 0 -0.0035772520389342737 -0.001048240326434054 0 -0.003453390802516291 -0.00076667022418648654 0 -0.003447830774282362 -0.0010269928952479463 0 -0.0033350444804008264 -0.00084358660767625329 0 -0.003447830774282362 -0.0010269928952479463 0 -0.0035772520389342737 -0.001048240326434054 0 -0.0035470485344264984 -0.0012762282450287802 0 -0.003447830774282362 -0.0010269928952479463 0 -0.0032382321924505383 -0.001057888380756307 0 -0.0035470485344264984 -0.0012762282450287802 0 -0.003214487070301599 -0.00087436149706018862 0 -0.0032382321924505383 -0.001057888380756307 0 -0.0030947467472171694 -0.0009125549470093056 0 -0.0032604410656570967 -0.00067799220866986674 0 -0.003214487070301599 -0.00087436149706018862 0 -0.0033350444804008264 -0.00084358660767625329 0 -0.003214487070301599 -0.00087436149706018862 0 -0.0033350444804008264 -0.00084358660767625329 0 -0.0032382321924505383 -0.001057888380756307 0 -0.003447830774282362 -0.0010269928952479463 0 -0.0033350444804008264 -0.00084358660767625329 0 -0.0032382321924505383 -0.001057888380756307 0 -0.0032382321924505383 -0.001057888380756307 0 -0.0032686526809835707 -0.001361677502909482 0 -0.003074255726158122 -0.001184561283352185 0 -0.0037593185458810697 -0.001671517469818481 0 -0.0034186841683332136 -0.0018041788510403983 0 -0.0032382321924505383 -0.001057888380756307 0 -0.0032686526809835707 -0.001361677502909482 0 -0.0035470485344264984 -0.0012762282450287802 0 -0.0040703816837767137 -0.0019918765336558891 0 -0.0036220134329287505 -0.0016093689740437837 0 -0.0039701059139612572 -0.0016671496516309596 0 -0.0037593185458810697 -0.001671517469818481 0 -0.0036035243055148698 -0.0016199734292110276 0 -0.0040703816837767137 -0.0019918765336558891 0 -0.0039701059139612572 -0.0016671496516309596 0 -0.0043660743453962508 -0.0017746107612898801 0 -0.0040703816837767137 -0.0019918765336558891 0 -0.0043660743453962508 -0.0017746107612898801 0 -0.0045346773368862732 -0.0021844318252877849 0 -0.0035772520389342737 -0.001048240326434054 0 -0.0035470485344264984 -0.0012762282450287802 0 -0.0037056613153568668 -0.0012891233961862126 0 -0.0035470485344264984 -0.0012762282450287802 0 -0.0036785805125288925 -0.0014548221560829839 0 -0.0037056613153568668 -0.0012891233961862126 0 -0.0032686526809835707 -0.001361677502909482 0 -0.0035470485344264984 -0.0012762282450287802 0 -0.0036220134329287505 -0.0016093689740437837 0 -0.0035470485344264984 -0.0012762282450287802 0 -0.0036220134329287505 -0.0016093689740437837 0 -0.0036785805125288925 -0.0014548221560829839 0 -0.0036220134329287505 -0.0016093689740437837 0 -0.0036785805125288925 -0.0014548221560829839 0 -0.0037055987318683928 -0.0015571638304623537 0 -0.0036220134329287505 -0.0016093689740437837 0 -0.0037055987318683928 -0.0015571638304623537 0 -0.0037107331188046514 -0.0016316960263747168 0 -0.0037055987318683928 -0.0015571638304623537 0 -0.0037107331188046514 -0.0016316960263747168 0 -0.0037519368960402966 -0.0015742321658020525 0 -0.0037107331188046514 -0.0016316960263747168 0 -0.003774403767804994 -0.0016177703259533109 0 -0.0037407886857209454 -0.0016282833964412736 0 -0.0037107331188046514 -0.0016316960263747168 0 -0.003774403767804994 -0.0016177703259533109 0 -0.0039402433897918077 -0.0016518686498605268 0 -0.0037435496890308138 -0.0016352843870486571 0 -0.003950324515846362 -0.0016359998373557706 0 -0.0037107331188046514 -0.0016316960263747168 0 -0.0040273196618020746 -0.0018217964191051151 0 -0.0039402433897918077 -0.0016518686498605268 0 -0.0036220134329287505 -0.0016093689740437837 0 -0.0037107331188046514 -0.0016316960263747168 0 -0.0038313103648986045 -0.0014582076413510914 0 -0.0036220134329287505 -0.0016093689740437837 0 -0.0039701059139612572 -0.0016671496516309596 0 -0.0038313103648986045 -0.0014582076413510914 0 -0.0039701059139612572 -0.0016671496516309596 0 -0.0041551533263615428 -0.0015613184095632626 0 -0.0038313103648986045 -0.0014582076413510914 0 -0.0039701059139612572 -0.0016671496516309596 0 -0.0043660743453962508 -0.0017746107612898801 0 -0.0041551533263615428 -0.0015613184095632626 0 -0.0043660743453962508 -0.0017746107612898801 0 -0.0041551533263615428 -0.0015613184095632626 0 -0.0044380190451059082 -0.0015549746709345453 0 -0.0041551533263615428 -0.0015613184095632626 0 -0.0043166644928621187 -0.0013393938794847842 0 -0.0044380190451059082 -0.0015549746709345453 0 -0.0044266429407697873 -0.001608986950501186 0 -0.003950324515846362 -0.0016359998373557706 0 -0.0041551533263615428 -0.0015613184095632626 0 -0.0043166644928621187 -0.0013393938794847842 0 -0.0038313103648986045 -0.0014582076413510914 0 -0.0045332216186355963 -0.0018755439337585142 0 -0.0040273196618020746 -0.0018217964191051151 0 -0.0042349911521609943 -0.0017114356007809147 0 -0.0040273196618020746 -0.0018217964191051151 0 -0.0042349911521609943 -0.0017114356007809147 0 -0.0039402433897918077 -0.0016518686498605268 0 -0.0042349911521609943 -0.0017114356007809147 0 -0.0041916491181847393 -0.0015729547555955051 0 -0.0039402433897918077 -0.0016518686498605268 0 -0.0042349911521609943 -0.0017114356007809147 0 -0.0041916491181847393 -0.0015729547555955051 0 -0.0044282695354331001 -0.001623516955392833 0 -0.0041916491181847393 -0.0015729547555955051 0 -0.0040402717099712847 -0.0014852174494322805 0 -0.0039402433897918077 -0.0016518686498605268 0 -0.0044282695354331001 -0.001623516955392833 0 -0.0045068875259534217 -0.0013901555053249946 0 -0.0047515923112329897 -0.0017723153976998895 0 -0.0045332216186355963 -0.0018755439337585142 0 -0.0044282695354331001 -0.001623516955392833 0 -0.0047515923112329897 -0.0017723153976998895 0 -0.0045332216186355963 -0.0018755439337585142 0 -0.0042349911521609943 -0.0017114356007809147 0 -0.0044282695354331001 -0.001623516955392833 0 -0.0041916491181847393 -0.0015729547555955051 0 -0.0044282695354331001 -0.001623516955392833 0 -0.004340179063777155 -0.0014740878585156145 0 -0.004340179063777155 -0.0014740878585156145 0 -0.0045068875259534217 -0.0013901555053249946 0 -0.0042463570407097837 -0.0013484906087539751 0 -0.0044282695354331001 -0.001623516955392833 0 -0.004340179063777155 -0.0014740878585156145 0 -0.0045068875259534217 -0.0013901555053249946 0 -0.0041916491181847393 -0.0015729547555955051 0 -0.0042463570407097837 -0.0013484906087539751 0 -0.0040402717099712847 -0.0014852174494322805 0 -0.0042463570407097837 -0.0013484906087539751 0 -0.0040402717099712847 -0.0014852174494322805 0 -0.0040020993702340885 -0.0012871217999484502 0 -0.0041916491181847393 -0.0015729547555955051 0 -0.004340179063777155 -0.0014740878585156145 0 -0.0042463570407097837 -0.0013484906087539751 0 -0.0040402717099712847 -0.0014852174494322805 0 -0.0038514916009554662 -0.0015415727869575804 0 -0.0040020993702340885 -0.0012871217999484502 0 -0.0020346454443745526 -0.0045286672052285946 0 -0.0033669299190754172 -0.0037456057897665438 0 -0.0038514916009554662 -0.0015415727869575804 0 -0.0037213272905013174 -0.0015205613736581493 0 -0.0040020993702340885 -0.0012871217999484502 0 -0.0023155998002845814 -0.0062957487015480301 0 -0.0023686742971493983 -0.0063001516916054287 0 -0.0023049635499082346 -0.006286677665563044 0 -0.0020346454443745526 -0.0045286672052285946 0 -0.00049929288719104386 -0.0059743603610485866 0 -0.0037213272905013174 -0.0015205613736581493 0 -0.0037410231207461921 -0.0015571567356248155 0 -0.0037367593049168813 -0.0015817653911882621 0 -0.0037213272905013174 -0.0015205613736581493 0 -0.0037410231207461921 -0.0015571567356248155 0 -0.003772954612455374 -0.0015645948183765461 0 -0.0037410231207461921 -0.0015571567356248155 0 -0.0037513935585583072 -0.0015888786549131649 0 -0.0037367593049168813 -0.0015817653911882621 0 -0.0037410231207461921 -0.0015571567356248155 0 -0.003772954612455374 -0.0015645948183765461 0 -0.0037513935585583072 -0.0015888786549131649 0 -0.0038514916009554662 -0.0015415727869575804 0 -0.0037213272905013174 -0.0015205613736581493 0 -0.003772954612455374 -0.0015645948183765461 0 -0.0038514916009554662 -0.0015415727869575804 0 -0.003772954612455374 -0.0015645948183765461 0 -0.003774403767804994 -0.0016177703259533109 0 -0.0037513935585583072 -0.0015888786549131649 0 -0.003774403767804994 -0.0016177703259533109 0 -0.0037399135539491093 -0.0016122261751828734 0 -0.003772954612455374 -0.0015645948183765461 0 -0.0037513935585583072 -0.0015888786549131649 0 -0.003774403767804994 -0.0016177703259533109 0 -0.003774403767804994 -0.0016177703259533109 0 -0.0037399135539491093 -0.0016122261751828734 0 -0.0037407886857209454 -0.0016282833964412736 0 -0.0038514916009554662 -0.0015415727869575804 0 -0.003774403767804994 -0.0016177703259533109 0 -0.0039402433897918077 -0.0016518686498605268 0 -0.0040402717099712847 -0.0014852174494322805 0 -0.0038514916009554662 -0.0015415727869575804 0 -0.0039402433897918077 -0.0016518686498605268 0 -0.0050999877880000223 -0.0016287596645624524 0 -0.0050827097802106569 -0.0016196516877901102 0 -0.0051305058187244767 -0.0016333346866617248 0 -0.0050999877880000223 -0.0016287596645624524 0 -0.0051181510339313799 -0.001722264253514443 0 -0.0051305058187244767 -0.0016333346866617248 0 -0.0050999877880000223 -0.0016287596645624524 0 -0.0051181510339313799 -0.001722264253514443 0 -0.0051031048137223627 -0.0017225447902916736 0 -0.0051181510339313799 -0.001722264253514443 0 -0.0051031048137223627 -0.0017225447902916736 0 -0.0051091255003729115 -0.001788719707971569 0 -0.0050999877880000223 -0.0016287596645624524 0 -0.0051031048137223627 -0.0017225447902916736 0 -0.0050723253870925775 -0.0017035898675632842 0 -0.0051031048137223627 -0.0017225447902916736 0 -0.0050853231448629013 -0.001722716799361846 0 -0.0050723253870925775 -0.0017035898675632842 0 -0.0050853231448629013 -0.001722716799361846 0 -0.0050593531364134603 -0.0017132058018945169 0 -0.0050723253870925775 -0.0017035898675632842 0 -0.0050593531364134603 -0.0017132058018945169 0 -0.0050723253870925775 -0.0017035898675632842 0 -0.0049421403491996417 -0.0017118140201592786 0 -0.0048969457286980964 -0.001842553682400489 0 -0.0049109540493813171 -0.0017514729442998204 0 -0.0048097568403070098 -0.0019258436490357292 0 -0.0049109540493813171 -0.0017514729442998204 0 -0.0049421403491996417 -0.0017118140201592786 0 -0.0048097568403070098 -0.0019258436490357292 0 -0.0049611963543840553 -0.0017551133615866671 0 -0.0049109540493813171 -0.0017514729442998204 0 -0.0047515923112329897 -0.0017723153976998895 0 -0.0050593531364134603 -0.0017132058018945169 0 -0.0049421403491996417 -0.0017118140201592786 0 -0.0051171477674781182 -0.0017362202706670657 0 -0.0049563330606586051 -0.0017955216784499653 0 -0.0049356954040916034 -0.0017038072738463793 0 -0.0049611963543840553 -0.0017551133615866671 0 -0.0048969457286980964 -0.001842553682400489 0 -0.0049109540493813171 -0.0017514729442998204 0 -0.0045332216186355963 -0.0018755439337585142 0 -0.0047515923112329897 -0.0017723153976998895 0 -0.0050219204567901422 -0.0017948930651214431 0 -0.0047867611153697498 -0.0012801986159472493 0 -0.0047700611735562726 -0.0018922598174226553 0 -0.0049109540493813171 -0.0017514729442998204 0 -0.0049421403491996417 -0.0017118140201592786 0 -0.0047515923112329897 -0.0017723153976998895 0 -0.0049421403491996417 -0.0017118140201592786 0 -0.0047515923112329897 -0.0017723153976998895 0 -0.0050219204567901422 -0.0017948930651214431 0 -0.0050664139508935441 -0.001621884404379623 0 -0.0048920461718354111 -0.0015995921984610772 0 -0.0050999877880000223 -0.0016287596645624524 0 -0.0048068333950342717 -0.001396036134306232 0 -0.004890293650003763 -0.0015323437831110196 0 -0.0050999877880000223 -0.0016287596645624524 0 -0.0050723253870925775 -0.0017035898675632842 0 -0.0050219204567901422 -0.0017948930651214431 0 -0.0050723253870925775 -0.0017035898675632842 0 -0.0049421403491996417 -0.0017118140201592786 0 -0.0050219204567901422 -0.0017948930651214431 0 -0.0048068333950342717 -0.001396036134306232 0 -0.004890293650003763 -0.0015323437831110196 0 -0.0046396561126616888 -0.0014881522767490984 0 -0.004890293650003763 -0.0015323437831110196 0 -0.0046396561126616888 -0.0014881522767490984 0 -0.0047408653862985326 -0.0016177562893984363 0 -0.004890293650003763 -0.0015323437831110196 0 -0.0049914510786713594 -0.0017647060068391326 0 -0.0050262124641003419 -0.0016000586768092758 0 -0.0046396561126616888 -0.0014881522767490984 0 -0.0044380190451059082 -0.0015549746709345453 0 -0.0047408653862985326 -0.0016177562893984363 0 -0.0044266429407697873 -0.001608986950501186 0 -0.0048920461718354111 -0.0015995921984610772 0 -0.0043166644928621187 -0.0013393938794847842 0 -0.0048068333950342717 -0.001396036134306232 0 -0.0046396561126616888 -0.0014881522767490984 0 -0.0043166644928621187 -0.0013393938794847842 0 -0.0046396561126616888 -0.0014881522767490984 0 -0.0044380190451059082 -0.0015549746709345453 0 -0.0043660743453962508 -0.0017746107612898801 0 -0.0047408653862985326 -0.0016177562893984363 0 -0.004746680996236141 -0.0018701179464253933 0 -0.0043660743453962508 -0.0017746107612898801 0 -0.0044380190451059082 -0.0015549746709345453 0 -0.0047408653862985326 -0.0016177562893984363 0 -0.0047408653862985326 -0.0016177562893984363 0 -0.0049858876354178941 -0.0016835906333737801 0 -0.004746680996236141 -0.0018701179464253933 0 -0.004890293650003763 -0.0015323437831110196 0 -0.0047408653862985326 -0.0016177562893984363 0 -0.0049914510786713594 -0.0017647060068391326 0 -0.0048505596318480096 -0.0016647490191535909 0 -0.0047678820249310245 -0.001609547426470902 0 -0.0049858876354178941 -0.0016835906333737801 0 -0.0052636577326993662 -0.0017750573853370485 0 -0.0049635128951020071 -0.0018922045715300464 0 -0.0049914510786713594 -0.0017647060068391326 0 -0.0051741180831870034 -0.0017144609869643342 0 -0.0052651298720138079 -0.001888477854191912 0 -0.0047678820249310245 -0.001609547426470902 0 -0.0075059477759186043 -0.00028054341736474114 0 -0.0049914510786713594 -0.0017647060068391326 0 -0.0051741180831870034 -0.0017144609869643342 0 -0.0050262124641003419 -0.0016000586768092758 0 -0.0050999877880000223 -0.0016287596645624524 0 -0.0050827097802106569 -0.0016196516877901102 0 -0.0050262124641003419 -0.0016000586768092758 0 -0.0050999877880000223 -0.0016287596645624524 0 -0.004890293650003763 -0.0015323437831110196 0 -0.0050262124641003419 -0.0016000586768092758 0 -0.0051741180831870034 -0.0017144609869643342 0 -0.0050262124641003419 -0.0016000586768092758 0 -0.0054283362101459863 -0.0015754246748377152 0 -0.0045705009223049372 -0.0016979915368594903 0 -0.0065174280780758683 -0.00085444543638111528 0 -0.0050827097802106569 -0.0016196516877901102 0 -0.0050262124641003419 -0.0016000586768092758 0 -0.0051161935878430596 -0.0016445881591578707 0 -0.0065174280780758683 -0.00085444543638111528 0 -0.0048747291923520288 -0.0020064180954343512 0 -0.0050827097802106569 -0.0016196516877901102 0 -0.0051161935878430596 -0.0016445881591578707 0 -0.0051305058187244767 -0.0016333346866617248 0 -0.0094681739332618808 0.00080429474057825507 0 -0.0095370837251658406 0.00094046330913257891 0 -0.0094172370666502202 0.00091247001141981537 0 -0.0065174280780758683 -0.00085444543638111528 0 -0.0075059477759186043 -0.00028054341736474114 0 -0.0051741180831870034 -0.0017144609869643342 0 -0.0054283362101459863 -0.0015754246748377152 0 -0.0052651298720138079 -0.001888477854191912 0 -0.009469705943572394 0.0012971307891562289 0 -0.0094801870562673043 0.0013214953760086437 0 -0.0094502989968095058 0.0013415892522097433 0 -0.009469705943572394 0.0012971307891562289 0 -0.0094801870562673043 0.0013214953760086437 0 -0.0094675315413733068 0.0012549859571595852 0 -0.0095370837251658406 0.00094046330913257891 0 -0.0094175740413572472 0.0010396786078066276 0 -0.0094172370666502202 0.00091247001141981537 0 -0.0075059477759186043 -0.00028054341736474114 0 -0.0097293074040295715 0.0011744135246085641 0 -0.0052636577326993662 -0.0017750573853370485 0 -0.0051139071314758658 -0.0020561191194531842 0 -0.0049635128951020071 -0.0018922045715300464 0 -0.0075059477759186043 -0.00028054341736474114 0 -0.0073178299403539281 -0.00034110146046207706 0 -0.0051139071314758658 -0.0020561191194531842 0 -0.0049635128951020071 -0.0018922045715300464 0 -0.0048636045298914568 -0.002080542444515597 0 -0.0094502989968095058 0.0013415892522097433 0 -0.0093464726636661982 0.0013672257163192584 0 -0.009349054006798925 0.0013714752046945686 0 -0.0073178299403539281 -0.00034110146046207706 0 -0.0061058024814138849 -0.00021061296332400045 0 -0.0051139071314758658 -0.0020561191194531842 0 -0.0048636045298914568 -0.002080542444515597 0 -0.004966807329248462 -0.0023372932261846282 0 -0.0094502989968095058 0.0013415892522097433 0 -0.0094581787725099252 0.0013607246126385742 0 -0.009349054006798925 0.0013714752046945686 0 -0.0094801870562673043 0.0013214953760086437 0 -0.0094502989968095058 0.0013415892522097433 0 -0.0094581787725099252 0.0013607246126385742 0 -0.0094581787725099252 0.0013607246126385742 0 -0.0095114216595528194 0.0013642945808546841 0 -0.0095236736612324575 0.0013403948478828767 0 -0.0094801870562673043 0.0013214953760086437 0 -0.0094675315413733068 0.0012549859571595852 0 -0.0095236736612324575 0.0013403948478828767 0 -0.0094801870562673043 0.0013214953760086437 0 -0.0094581787725099252 0.0013607246126385742 0 -0.0095236736612324575 0.0013403948478828767 0 -0.0043660743453962508 -0.0017746107612898801 0 -0.004746680996236141 -0.0018701179464253933 0 -0.0045346773368862732 -0.0021844318252877849 0 -0.004746680996236141 -0.0018701179464253933 0 -0.0048636045298914568 -0.002080542444515597 0 -0.0045346773368862732 -0.0021844318252877849 0 -0.0049858876354178941 -0.0016835906333737801 0 -0.004746680996236141 -0.0018701179464253933 0 -0.0049635128951020071 -0.0018922045715300464 0 -0.004746680996236141 -0.0018701179464253933 0 -0.0049635128951020071 -0.0018922045715300464 0 -0.0048636045298914568 -0.002080542444515597 0 -0.003074255726158122 -0.001184561283352185 0 -0.0030419209648210035 -0.0010447902900031247 0 -0.0029309151659595405 -0.0010627120589347828 0 -0.0048636045298914568 -0.002080542444515597 0 -0.0045346773368862732 -0.0021844318252877849 0 -0.004966807329248462 -0.0023372932261846282 0 -0.0034186841683332136 -0.0018041788510403983 0 -0.0061058024814138849 -0.00021061296332400045 0 -0.0032382321924505383 -0.001057888380756307 0 -0.003074255726158122 -0.001184561283352185 0 -0.0030419209648210035 -0.0010447902900031247 0 -0.0030419209648210035 -0.0010447902900031247 0 -0.0029830638919204973 -0.00092831489272057744 0 -0.0030947467472171694 -0.0009125549470093056 0 -0.0032382321924505383 -0.001057888380756307 0 -0.0030419209648210035 -0.0010447902900031247 0 -0.0030947467472171694 -0.0009125549470093056 0 -0.0061058024814138849 -0.00021061296332400045 0 -0.0061757356847276018 0.00034892352441231062 0 -0.0092674265406480008 0.0014063407788520626 0 -0.0090549405872753595 0.0012048878213322403 0 -0.0092867355473745129 0.0012934750251298948 0 -0.0030419209648210035 -0.0010447902900031247 0 -0.0029309151659595405 -0.0010627120589347828 0 -0.0029830638919204973 -0.00092831489272057744 0 -0.004202508369456486 -0.00032532657181222015 0 -0.0061757356847276018 0.00034892352441231062 0 -0.0088422220129160279 0.00090685494416450235 0 -0.0090762656008869947 0.0010077140450544331 0 -0.0090549405872753595 0.0012048878213322403 0 -0.0090549405872753595 0.0012048878213322403 0 -0.0092867355473745129 0.0012934750251298948 0 -0.0092345380751928281 0.0011673211023313316 0 -0.0090762656008869947 0.0010077140450544331 0 -0.0092345380751928281 0.0011673211023313316 0 -0.009245320156144203 0.0010403428885743941 0 -0.0090762656008869947 0.0010077140450544331 0 -0.0090549405872753595 0.0012048878213322403 0 -0.0092345380751928281 0.0011673211023313316 0 -0.004202508369456486 -0.00032532657181222015 0 -0.0028232596449655422 -0.00088794327089728787 0 -0.0030470962212884338 -0.00079130347496388553 0 -0.0029830638919204973 -0.00092831489272057744 0 -0.0030947467472171694 -0.0009125549470093056 0 -0.0030470962212884338 -0.00079130347496388553 0 -0.003214487070301599 -0.00087436149706018862 0 -0.0030947467472171694 -0.0009125549470093056 0 -0.0095114216595528194 0.0013642945808546841 0 -0.0096680377322506533 0.0014432894825287276 0 -0.0095236736612324575 0.0013403948478828767 0 -0.0095114216595528194 0.0013642945808546841 0 -0.0094149423264621376 0.0013432693597478906 0 -0.0094560216790253414 0.0013019247132073977 0 -0.0095114216595528194 0.0013642945808546841 0 -0.0094560216790253414 0.0013019247132073977 0 -0.009541833756485962 0.0013073097389968997 0 -0.0095114216595528194 0.0013642945808546841 0 -0.009541833756485962 0.0013073097389968997 0 -0.0096680377322506533 0.0014432894825287276 0 -0.0094581787725099252 0.0013607246126385742 0 -0.009349054006798925 0.0013714752046945686 0 -0.0094149423264621376 0.0013432693597478906 0 -0.0094581787725099252 0.0013607246126385742 0 -0.0095114216595528194 0.0013642945808546841 0 -0.0094149423264621376 0.0013432693597478906 0 -0.0092674265406480008 0.0014063407788520626 0 -0.009349054006798925 0.0013714752046945686 0 -0.0092867355473745129 0.0012934750251298948 0 -0.009349054006798925 0.0013714752046945686 0 -0.0092867355473745129 0.0012934750251298948 0 -0.0094149423264621376 0.0013432693597478906 0 -0.0061058024814138849 -0.00021061296332400045 0 -0.007460540881211869 -0.00024618231611781634 0 -0.0092867355473745129 0.0012934750251298948 0 -0.0094149423264621376 0.0013432693597478906 0 -0.0093654255717554227 0.0012553961782827822 0 -0.0094149423264621376 0.0013432693597478906 0 -0.0094560216790253414 0.0013019247132073977 0 -0.0093654255717554227 0.0012553961782827822 0 -0.0093484970728993991 0.0011703537674919249 0 -0.0094296053571395928 0.0012269235452138289 0 -0.0094806142697008312 0.0011474887824910898 0 -0.0094560216790253414 0.0013019247132073977 0 -0.0093654255717554227 0.0012553961782827822 0 -0.0094296053571395928 0.0012269235452138289 0 -0.0093654255717554227 0.0012553961782827822 0 -0.0093484970728993991 0.0011703537674919249 0 -0.0094296053571395928 0.0012269235452138289 0 -0.0092867355473745129 0.0012934750251298948 0 -0.0093654255717554227 0.0012553961782827822 0 -0.0092345380751928281 0.0011673211023313316 0 -0.0093654255717554227 0.0012553961782827822 0 -0.0093484970728993991 0.0011703537674919249 0 -0.0092345380751928281 0.0011673211023313316 0 -0.0093484970728993991 0.0011703537674919249 0 -0.0092345380751928281 0.0011673211023313316 0 -0.009245320156144203 0.0010403428885743941 0 -0.0093484970728993991 0.0011703537674919249 0 -0.009245320156144203 0.0010403428885743941 0 -0.0094806142697008312 0.0011474887824910898 0 -0.0094806142697008312 0.0011474887824910898 0 -0.0094953822864845428 0.0010326878769287083 0 -0.009541833756485962 0.0013073097389968997 0 -0.0099736913210324071 0.0015182728567341081 0 -0.009624055018910168 0.0013910072273193353 0 -0.0094953822864845428 0.0010326878769287083 0 -0.009541833756485962 0.0013073097389968997 0 -0.0096680377322506533 0.0014432894825287276 0 -0.01013116750159827 0.0018884199479854865 0 -0.0098465132692571421 0.0018617345054770475 0 -0.0096680377322506533 0.0014432894825287276 0 -0.0094296053571395928 0.0012269235452138289 0 -0.0094806142697008312 0.0011474887824910898 0 -0.009541833756485962 0.0013073097389968997 0 -0.0094560216790253414 0.0013019247132073977 0 -0.0094296053571395928 0.0012269235452138289 0 -0.009541833756485962 0.0013073097389968997 0 -0.0097917009435028804 0.0020867115617102128 0 -0.0098465132692571421 0.0018617345054770475 0 -0.0094425012439100838 0.0015714406297247653 0 -0.0098465132692571421 0.0018617345054770475 0 -0.0096680377322506533 0.0014432894825287276 0 -0.0094425012439100838 0.0015714406297247653 0 -0.0096680377322506533 0.0014432894825287276 0 -0.009410150321160736 0.0013614295969342316 0 -0.0095236736612324575 0.0013403948478828767 0 -0.0096680377322506533 0.0014432894825287276 0 -0.009410150321160736 0.0013614295969342316 0 -0.0094425012439100838 0.0015714406297247653 0 -0.009410150321160736 0.0013614295969342316 0 -0.0094425012439100838 0.0015714406297247653 0 -0.0092239612623345978 0.0014102276933107662 0 -0.0094425012439100838 0.0015714406297247653 0 -0.0091950238584763127 0.0015644327234624969 0 -0.0092239612623345978 0.0014102276933107662 0 -0.0094425012439100838 0.0015714406297247653 0 -0.0092427015269914911 0.0018172464395045163 0 -0.0091950238584763127 0.0015644327234624969 0 -0.0097917009435028804 0.0020867115617102128 0 -0.0094425012439100838 0.0015714406297247653 0 -0.0092427015269914911 0.0018172464395045163 0 -0.0095692552882534841 0.0019998969869176437 0 -0.009700844700323303 0.001932809767529549 0 -0.0092427015269914911 0.0018172464395045163 0 -0.0091137630158510639 0.001621255831241428 0 -0.0089732096874435025 0.0016287649913414438 0 -0.0099927559472011828 0.0021918784980005891 0 -0.009951228505981553 0.0022088464730599428 0 -0.010016108839671451 0.0022321139614082785 0 -0.010085994899633561 0.0022053624463379993 0 -0.009700844700323303 0.001932809767529549 0 -0.0091137630158510639 0.001621255831241428 0 -0.0089732096874435025 0.0016287649913414438 0 -0.0090505192092133306 0.0014952096411723667 0 -0.0092427015269914911 0.0018172464395045163 0 -0.0091137630158510639 0.001621255831241428 0 -0.0091950238584763127 0.0015644327234624969 0 -0.010304534677108108 0.0020884749635996453 0 -0.010332278118684696 0.0020545917430924237 0 -0.010370888617695143 0.0020751923584738569 0 -0.010304534677108108 0.0020884749635996453 0 -0.010332278118684696 0.0020545917430924237 0 -0.010270545250102526 0.002063499056617638 0 -0.010330750068236381 0.0020221108523324968 0 -0.010332278118684696 0.0020545917430924237 0 -0.010270545250102526 0.002063499056617638 0 -0.010304534677108108 0.0020884749635996453 0 -0.010270545250102526 0.002063499056617638 0 -0.010250943968138592 0.0021075679755247598 0 -0.01013577936592683 0.0021040437807144062 0 -0.010214293422317998 0.0020936052463315594 0 -0.01021951056112174 0.0021272046679391026 0 -0.010214293422317998 0.0020936052463315594 0 -0.01021951056112174 0.0021272046679391026 0 -0.010250943968138592 0.0021075679755247598 0 -0.010270545250102526 0.002063499056617638 0 -0.010214293422317998 0.0020936052463315594 0 -0.010250943968138592 0.0021075679755247598 0 -0.0097667356949517458 0.0019691532917108304 0 -0.0096436245334797083 0.0019103136311975724 0 -0.0096090732197756986 0.0017031844575101619 0 -0.009700844700323303 0.001932809767529549 0 -0.0098927204802943675 0.0019436917569479928 0 -0.01021951056112174 0.0021272046679391026 0 -0.010252204751766213 0.0021427876232168845 0 -0.010250943968138592 0.0021075679755247598 0 -0.010252204751766213 0.0021427876232168845 0 -0.010324455972571105 0.0021142803342400658 0 -0.010426216061251653 0.0021470461364234018 0 -0.010304534677108108 0.0020884749635996453 0 -0.010250943968138592 0.0021075679755247598 0 -0.010324455972571105 0.0021142803342400658 0 -0.010252204751766213 0.0021427876232168845 0 -0.010250943968138592 0.0021075679755247598 0 -0.010324455972571105 0.0021142803342400658 0 -0.010304534677108108 0.0020884749635996453 0 -0.010324455972571105 0.0021142803342400658 0 -0.010370888617695143 0.0020751923584738569 0 -0.0095191701211145546 0.0016390133453014302 0 -0.0091771819101597735 0.0013823110595519504 0 -0.0098749814747374192 0.0018126519310263044 0 -0.0098802909676923151 0.0018440926316627756 0 -0.0099477171322240633 0.0018486821620063456 0 -0.0098927204802943675 0.0019436917569479928 0 -0.0095191701211145546 0.0016390133453014302 0 -0.009700844700323303 0.001932809767529549 0 -0.0095191701211145546 0.0016390133453014302 0 -0.0089732096874435025 0.0016287649913414438 0 -0.0089041722918212583 0.0014919929168060585 0 -0.0090505192092133306 0.0014952096411723667 0 -0.0089041722918212583 0.0014919929168060585 0 -0.0090505192092133306 0.0014952096411723667 0 -0.0090376791120737095 0.0013227012007427036 0 -0.0095191701211145546 0.0016390133453014302 0 -0.0097144641534762984 0.0017501500267483366 0 -0.0091137630158510639 0.001621255831241428 0 -0.0091950238584763127 0.0015644327234624969 0 -0.0090505192092133306 0.0014952096411723667 0 -0.0091950238584763127 0.0015644327234624969 0 -0.0090505192092133306 0.0014952096411723667 0 -0.0092239612623345978 0.0014102276933107662 0 -0.0090505192092133306 0.0014952096411723667 0 -0.0092239612623345978 0.0014102276933107662 0 -0.0090376791120737095 0.0013227012007427036 0 -0.0092239612623345978 0.0014102276933107662 0 -0.0090376791120737095 0.0013227012007427036 0 -0.0092922149202851675 0.0011930798813582376 0 -0.0090376791120737095 0.0013227012007427036 0 -0.009041116931128251 0.0011384008185115172 0 -0.0092922149202851675 0.0011930798813582376 0 -0.0095105496379675383 0.001595889772861895 0 -0.0095031031415524214 0.0015462762386210173 0 -0.0094874905344654228 0.0015537295380692276 0 -0.0089041722918212583 0.0014919929168060585 0 -0.0090376791120737095 0.0013227012007427036 0 -0.0088719022413523418 0.0012616647725757564 0 -0.0090376791120737095 0.0013227012007427036 0 -0.0088719022413523418 0.0012616647725757564 0 -0.009041116931128251 0.0011384008185115172 0 -0.0088719022413523418 0.0012616647725757564 0 -0.008837258184672573 0.0010503094413391372 0 -0.009041116931128251 0.0011384008185115172 0 -0.009205419698656887 0.0012599853571169013 0 -0.0089056717489363613 0.00094786832106076178 0 -0.0091771819101597735 0.0013823110595519504 0 -0.009205419698656887 0.0012599853571169013 0 -0.0095031031415524214 0.0015462762386210173 0 -0.0094948392532902756 0.00149973570840668 0 -0.0094869994970458085 0.0015281066233214697 0 -0.008837258184672573 0.0010503094413391372 0 -0.009041116931128251 0.0011384008185115172 0 -0.0090629880520164737 0.00093930302120915743 0 -0.0091651156789044359 0.0010560675541153629 0 -0.009041116931128251 0.0011384008185115172 0 -0.0090629880520164737 0.00093930302120915743 0 -0.0091651156789044359 0.0010560675541153629 0 -0.009041116931128251 0.0011384008185115172 0 -0.0092922149202851675 0.0011930798813582376 0 -0.0091651156789044359 0.0010560675541153629 0 -0.0092922149202851675 0.0011930798813582376 0 -0.0092657489210139846 0.00096334965844773943 0 -0.0094175740413572472 0.0010396786078066276 0 -0.0092922149202851675 0.0011930798813582376 0 -0.0092657489210139846 0.00096334965844773943 0 -0.0097293074040295715 0.0011744135246085641 0 -0.0091912618043813489 0.0012212401062726211 0 -0.0094675315413733068 0.0012549859571595852 0 -0.0095236736612324575 0.0013403948478828767 0 -0.0092922149202851675 0.0011930798813582376 0 -0.009410150321160736 0.0013614295969342316 0 -0.0095236736612324575 0.0013403948478828767 0 -0.0092922149202851675 0.0011930798813582376 0 -0.009410150321160736 0.0013614295969342316 0 -0.0092239612623345978 0.0014102276933107662 0 -0.0092922149202851675 0.0011930798813582376 0 -0.011439187633166736 0.0019408149155692089 0 -0.011845239422534071 0.0016174402753307577 0 -0.011860243436729751 0.0020293631626565971 0 -0.011439187633166736 0.0019408149155692089 0 -0.011469834138639355 0.002218787565292151 0 -0.011860243436729751 0.0020293631626565971 0 -0.011439187633166736 0.0019408149155692089 0 -0.011179630705311788 0.0021910446412087307 0 -0.011469834138639355 0.002218787565292151 0 -0.011743928762876556 0.0013731318014512423 0 -0.011427104264527045 0.0015779501226734335 0 -0.011845239422534071 0.0016174402753307577 0 -0.011439187633166736 0.0019408149155692089 0 -0.011407616037091462 0.00172685918946911 0 -0.011845239422534071 0.0016174402753307577 0 -0.011427104264527045 0.0015779501226734335 0 -0.011407616037091462 0.00172685918946911 0 -0.011845239422534071 0.0016174402753307577 0 -0.011427104264527045 0.0015779501226734335 0 -0.011407616037091462 0.00172685918946911 0 -0.011172330050664236 0.0017119449405872075 0 -0.011439187633166736 0.0019408149155692089 0 -0.011407616037091462 0.00172685918946911 0 -0.011157788236161193 0.0018538246882585331 0 -0.011407616037091462 0.00172685918946911 0 -0.011157788236161193 0.0018538246882585331 0 -0.011172330050664236 0.0017119449405872075 0 -0.011157788236161193 0.0018538246882585331 0 -0.011172330050664236 0.0017119449405872075 0 -0.010905270524194656 0.0019117217574684067 0 -0.011172330050664236 0.0017119449405872075 0 -0.010918185161823064 0.0017975880459292872 0 -0.010905270524194656 0.0019117217574684067 0 -0.011157788236161193 0.0018538246882585331 0 -0.010905270524194656 0.0019117217574684067 0 -0.011002113047044668 0.0019875450845266594 0 -0.010905270524194656 0.0019117217574684067 0 -0.011002113047044668 0.0019875450845266594 0 -0.01081509125324092 0.0020350057042261577 0 -0.011002113047044668 0.0019875450845266594 0 -0.011183419765502052 0.0020195410588966338 0 -0.010968955120859577 0.0021298769714840175 0 -0.011002113047044668 0.0019875450845266594 0 -0.010968955120859577 0.0021298769714840175 0 -0.01081509125324092 0.0020350057042261577 0 -0.011157788236161193 0.0018538246882585331 0 -0.011002113047044668 0.0019875450845266594 0 -0.011183419765502052 0.0020195410588966338 0 -0.011439187633166736 0.0019408149155692089 0 -0.011157788236161193 0.0018538246882585331 0 -0.011183419765502052 0.0020195410588966338 0 -0.011183419765502052 0.0020195410588966338 0 -0.011179630705311788 0.0021910446412087307 0 -0.010968955120859577 0.0021298769714840175 0 -0.011439187633166736 0.0019408149155692089 0 -0.011183419765502052 0.0020195410588966338 0 -0.011179630705311788 0.0021910446412087307 0 -0.010968955120859577 0.0021298769714840175 0 -0.01082230456166062 0.0022169926218847586 0 -0.010948478693636165 0.0023128442798000899 0 -0.011179630705311788 0.0021910446412087307 0 -0.010968955120859577 0.0021298769714840175 0 -0.010948478693636165 0.0023128442798000899 0 -0.01082230456166062 0.0022169926218847586 0 -0.010528496116920683 0.0022056950447803415 0 -0.010948478693636165 0.0023128442798000899 0 -0.010441004074709924 0.0021110872138068409 0 -0.010918132707146522 0.0023088439814990275 0 -0.01082230456166062 0.0022169926218847586 0 -0.010662758195444488 0.0021855585569232074 0 -0.010805389164823169 0.0021389139844448981 0 -0.010968955120859577 0.0021298769714840175 0 -0.01082230456166062 0.0022169926218847586 0 -0.010805389164823169 0.0021389139844448981 0 -0.01082230456166062 0.0022169926218847586 0 -0.010662758195444488 0.0021855585569232074 0 -0.010528496116920683 0.0022056950447803415 0 -0.010710591757679281 0.0021038586731326175 0 -0.01081509125324092 0.0020350057042261577 0 -0.010654920618465865 0.0020435704893795887 0 -0.010662758195444488 0.0021855585569232074 0 -0.010710591757679281 0.0021038586731326175 0 -0.010805389164823169 0.0021389139844448981 0 -0.010662758195444488 0.0021855585569232074 0 -0.010587155742930615 0.0021675020036324866 0 -0.010528496116920683 0.0022056950447803415 0 -0.010662758195444488 0.0021855585569232074 0 -0.010608209046516621 0.0021224005467075421 0 -0.010587155742930615 0.0021675020036324866 0 -0.010662758195444488 0.0021855585569232074 0 -0.010608209046516621 0.0021224005467075421 0 -0.010710591757679281 0.0021038586731326175 0 -0.010608209046516621 0.0021224005467075421 0 -0.010710591757679281 0.0021038586731326175 0 -0.010654920618465865 0.0020435704893795887 0 -0.010968955120859577 0.0021298769714840175 0 -0.010805389164823169 0.0021389139844448981 0 -0.01081509125324092 0.0020350057042261577 0 -0.010710591757679281 0.0021038586731326175 0 -0.010805389164823169 0.0021389139844448981 0 -0.01081509125324092 0.0020350057042261577 0 -0.01081509125324092 0.0020350057042261577 0 -0.010712513649312434 0.0019691355914611512 0 -0.010654920618465865 0.0020435704893795887 0 -0.010905270524194656 0.0019117217574684067 0 -0.01081509125324092 0.0020350057042261577 0 -0.010712513649312434 0.0019691355914611512 0 -0.010918185161823064 0.0017975880459292872 0 -0.010905270524194656 0.0019117217574684067 0 -0.010745548677632485 0.001873381743375912 0 -0.010905270524194656 0.0019117217574684067 0 -0.010712513649312434 0.0019691355914611512 0 -0.010745548677632485 0.001873381743375912 0 -0.010712513649312434 0.0019691355914611512 0 -0.010745548677632485 0.001873381743375912 0 -0.010595041303671154 0.0019540186944298466 0 -0.010712513649312434 0.0019691355914611512 0 -0.010595041303671154 0.0019540186944298466 0 -0.010585264572311964 0.0020151945875524859 0 -0.010595041303671154 0.0019540186944298466 0 -0.010585264572311964 0.0020151945875524859 0 -0.010524017305217324 0.0020055039052634901 0 -0.010712513649312434 0.0019691355914611512 0 -0.010585264572311964 0.0020151945875524859 0 -0.010654920618465865 0.0020435704893795887 0 -0.010585264572311964 0.0020151945875524859 0 -0.010654920618465865 0.0020435704893795887 0 -0.010575100384342822 0.0020744180546410293 0 -0.010608209046516621 0.0021224005467075421 0 -0.010654920618465865 0.0020435704893795887 0 -0.010575100384342822 0.0020744180546410293 0 -0.010575100384342822 0.0020744180546410293 0 -0.010511293835644695 0.0020536592676343888 0 -0.010511358909326911 0.0021174294683018232 0 -0.010511293835644695 0.0020536592676343888 0 -0.010440648799649477 0.0020900492413209962 0 -0.010511358909326911 0.0021174294683018232 0 -0.010511293835644695 0.0020536592676343888 0 -0.010449023066510112 0.0020364487516585424 0 -0.010440648799649477 0.0020900492413209962 0 -0.010585264572311964 0.0020151945875524859 0 -0.010511293835644695 0.0020536592676343888 0 -0.010524017305217324 0.0020055039052634901 0 -0.010585264572311964 0.0020151945875524859 0 -0.010575100384342822 0.0020744180546410293 0 -0.010511293835644695 0.0020536592676343888 0 -0.010511293835644695 0.0020536592676343888 0 -0.010524017305217324 0.0020055039052634901 0 -0.010449023066510112 0.0020364487516585424 0 -0.010485923626732325 0.0019735891404681918 0 -0.010524017305217324 0.0020055039052634901 0 -0.010449023066510112 0.0020364487516585424 0 -0.010485923626732325 0.0019735891404681918 0 -0.010595041303671154 0.0019540186944298466 0 -0.010524017305217324 0.0020055039052634901 0 -0.010330750068236381 0.0020221108523324968 0 -0.010332278118684696 0.0020545917430924237 0 -0.010387517727183994 0.0020243954716069115 0 -0.010485923626732325 0.0019735891404681918 0 -0.010449023066510112 0.0020364487516585424 0 -0.010387517727183994 0.0020243954716069115 0 -0.010449023066510112 0.0020364487516585424 0 -0.010387517727183994 0.0020243954716069115 0 -0.010370888617695143 0.0020751923584738569 0 -0.010332278118684696 0.0020545917430924237 0 -0.010387517727183994 0.0020243954716069115 0 -0.010370888617695143 0.0020751923584738569 0 -0.010370888617695143 0.0020751923584738569 0 -0.010440648799649477 0.0020900492413209962 0 -0.010388543564991344 0.0021098081511449493 0 -0.010324455972571105 0.0021142803342400658 0 -0.010370888617695143 0.0020751923584738569 0 -0.010388543564991344 0.0021098081511449493 0 -0.010449023066510112 0.0020364487516585424 0 -0.010370888617695143 0.0020751923584738569 0 -0.010440648799649477 0.0020900492413209962 0 -0.010440648799649477 0.0020900492413209962 0 -0.010388543564991344 0.0021098081511449493 0 -0.010426216061251653 0.0021470461364234018 0 -0.010440648799649477 0.0020900492413209962 0 -0.010426216061251653 0.0021470461364234018 0 -0.010511358909326911 0.0021174294683018232 0 -0.010324455972571105 0.0021142803342400658 0 -0.010388543564991344 0.0021098081511449493 0 -0.010426216061251653 0.0021470461364234018 0 -0.0098802909676923151 0.0018440926316627756 0 -0.0099477171322240633 0.0018486821620063456 0 -0.0099182529170376028 0.0019056304200358845 0 -0.0098927204802943675 0.0019436917569479928 0 -0.010261424344819118 0.0020305244964936237 0 -0.010252204751766213 0.0021427876232168845 0 -0.010426216061251653 0.0021470461364234018 0 -0.010480965507549615 0.0021953024542602541 0 -0.010426216061251653 0.0021470461364234018 0 -0.010503722269638546 0.0021571803250113215 0 -0.010511358909326911 0.0021174294683018232 0 -0.010503722269638546 0.0021571803250113215 0 -0.010511358909326911 0.0021174294683018232 0 -0.010550238542480979 0.0021581178993633999 0 -0.010608209046516621 0.0021224005467075421 0 -0.010511358909326911 0.0021174294683018232 0 -0.010550238542480979 0.0021581178993633999 0 -0.010608209046516621 0.0021224005467075421 0 -0.010575100384342822 0.0020744180546410293 0 -0.010511358909326911 0.0021174294683018232 0 -0.010503722269638546 0.0021571803250113215 0 -0.010550238542480979 0.0021581178993633999 0 -0.010528496116920683 0.0022056950447803415 0 -0.010608209046516621 0.0021224005467075421 0 -0.010550238542480979 0.0021581178993633999 0 -0.010587155742930615 0.0021675020036324866 0 -0.010550238542480979 0.0021581178993633999 0 -0.010587155742930615 0.0021675020036324866 0 -0.010528496116920683 0.0022056950447803415 0 -0.010426216061251653 0.0021470461364234018 0 -0.010480965507549615 0.0021953024542602541 0 -0.010528496116920683 0.0022056950447803415 0 -0.010426216061251653 0.0021470461364234018 0 -0.010503722269638546 0.0021571803250113215 0 -0.010528496116920683 0.0022056950447803415 0 -0.010261424344819118 0.0020305244964936237 0 -0.010441004074709924 0.0021110872138068409 0 -0.010317305978612879 0.0020000726548584516 0 -0.010402680410965329 0.0020426108443616525 0 -0.010573691916862003 0.0023548929668995456 0 -0.010317305978612879 0.0020000726548584516 0 -0.010446480723470717 0.0027400465930865641 0 -0.010573691916862003 0.0023548929668995456 0 -0.0099477171322240633 0.0018486821620063456 0 -0.0099182529170376028 0.0019056304200358845 0 -0.0099670921256487504 0.0019620741659958402 0 -0.010261424344819118 0.0020305244964936237 0 -0.010217912401279354 0.0021249414723285803 0 -0.0099182529170376028 0.0019056304200358845 0 -0.0099670921256487504 0.0019620741659958402 0 -0.0099553836250623456 0.0019667753247023497 0 -0.0097144641534762984 0.0017501500267483366 0 -0.009855263441675784 0.0016819277718822449 0 -0.0094874905344654228 0.0015537295380692276 0 -0.0094869994970458085 0.0015281066233214697 0 -0.0094662197467601412 0.00151442414100494 0 -0.0095031031415524214 0.0015462762386210173 0 -0.0094874905344654228 0.0015537295380692276 0 -0.0094869994970458085 0.0015281066233214697 0 -0.0094948392532902756 0.00149973570840668 0 -0.0094869994970458085 0.0015281066233214697 0 -0.0094662197467601412 0.00151442414100494 0 -0.009205419698656887 0.0012599853571169013 0 -0.009855263441675784 0.0016819277718822449 0 -0.0094785592827430157 0.0008699519922871499 0 -0.0093043814096148095 0.00087725088287621419 0 -0.0092793747996337012 0.00095911298935904621 0 -0.0094785592827430157 0.0008699519922871499 0 -0.0093632607104439294 0.00081591400142051328 0 -0.0093043814096148095 0.00087725088287621419 0 -0.0093632607104439294 0.00081591400142051328 0 -0.0093043814096148095 0.00087725088287621419 0 -0.0092247142135490432 0.00086426725423894831 0 -0.0093896644995891381 0.0011897900419233791 0 -0.010262734482301368 0.0013848094873455332 0 -0.0093632607104439294 0.00081591400142051328 0 -0.0092148282975560662 0.00086052127720025976 0 -0.0091977688361693354 0.00083221895344707565 0 -0.010262734482301368 0.0013848094873455332 0 -0.010334125585290954 0.0011312331035645403 0 -0.0093043814096148095 0.00087725088287621419 0 -0.0092247142135490432 0.00086426725423894831 0 -0.0092793747996337012 0.00095911298935904621 0 -0.010262734482301368 0.0013848094873455332 0 -0.009855263441675784 0.0016819277718822449 0 -0.010205914690371045 0.0015186600910109815 0 -0.010233854345934809 0.0018505351538704794 0 -0.010367247357057654 0.0017919481673552857 0 -0.010262734482301368 0.0013848094873455332 0 -0.010217912401279354 0.0021249414723285803 0 -0.010217912401279354 0.0021249414723285803 0 -0.009855263441675784 0.0016819277718822449 0 -0.01056801455206917 0.002603705719560995 0 -0.011000396482872345 0.0024272063891405847 0 -0.01096420878745466 0.0026613002996127007 0 -0.010581819186436223 0.0027599934617973903 0 -0.01056801455206917 0.002603705719560995 0 -0.01096420878745466 0.0026613002996127007 0 -0.010262734482301368 0.0013848094873455332 0 -0.01125024849635319 0.0018924285363885018 0 -0.011316096111834881 0.0011735003690357497 0 -0.011452430500454414 0.0012208113836105531 0 -0.011539685246394669 0.0011118224791176079 0 -0.011316096111834881 0.0011735003690357497 0 -0.011329491039074688 0.0011946417970527593 0 -0.011452430500454414 0.0012208113836105531 0 -0.011452430500454414 0.0012208113836105531 0 -0.011539685246394669 0.0011118224791176079 0 -0.011605699446994956 0.0012262153970534503 0 -0.010217912401279354 0.0021249414723285803 0 -0.011002070741950013 0.0024979566049398035 0 -0.010402680410965329 0.0020426108443616525 0 -0.010573691916862003 0.0023548929668995456 0 -0.010948478693636165 0.0023128442798000899 0 -0.010446480723470717 0.0027400465930865641 0 -0.010773540352332658 0.0024190969824029623 0 -0.010945864130859972 0.0025301786504657183 0 -0.010446480723470717 0.0027400465930865641 0 -0.010573691916862003 0.0023548929668995456 0 -0.010773540352332658 0.0024190969824029623 0 -0.010773540352332658 0.0024190969824029623 0 -0.010948478693636165 0.0023128442798000899 0 -0.010945864130859972 0.0025301786504657183 0 -0.010573691916862003 0.0023548929668995456 0 -0.010773540352332658 0.0024190969824029623 0 -0.010948478693636165 0.0023128442798000899 0 -0.011002070741950013 0.0024979566049398035 0 -0.011419885780928516 0.0022479165800261417 0 -0.011000396482872345 0.0024272063891405847 0 -0.011354050660398188 0.0025697796863661092 0 -0.011417382444976717 0.0024991164215390476 0 -0.011179630705311788 0.0021910446412087307 0 -0.010945864130859972 0.0025301786504657183 0 -0.011469834138639355 0.002218787565292151 0 -0.011000396482872345 0.0024272063891405847 0 -0.011417382444976717 0.0024991164215390476 0 -0.011469834138639355 0.002218787565292151 0 -0.011179630705311788 0.0021910446412087307 0 -0.010948478693636165 0.0023128442798000899 0 -0.010945864130859972 0.0025301786504657183 0 -0.01125024849635319 0.0018924285363885018 0 -0.012071712064249533 0.0016041667502992853 0 -0.011539685246394669 0.0011118224791176079 0 -0.011605699446994956 0.0012262153970534503 0 -0.011753145647483748 0.0010561659785386288 0 -0.013296619226164251 0.00096517076304911912 0 -0.013353280723355896 0.00091097311897775845 0 -0.013383949415762958 0.0009627727344755639 0 -0.011000396482872345 0.0024272063891405847 0 -0.01096420878745466 0.0026613002996127007 0 -0.011354050660398188 0.0025697796863661092 0 -0.012536892750696709 0.0010006185689709157 0 -0.012071712064249533 0.0016041667502992853 0 -0.013353280723355896 0.00091097311897775845 0 -0.013440711325553124 0.00094578496177063912 0 -0.013530790884043168 0.00094064235053854339 0 -0.013353280723355896 0.00091097311897775845 0 -0.013383949415762958 0.0009627727344755639 0 -0.013440711325553124 0.00094578496177063912 0 -0.013383949415762958 0.0009627727344755639 0 -0.013411797948204665 0.00099044349796165144 0 -0.013435064686555802 0.00096758707618972001 0 -0.013383949415762958 0.0009627727344755639 0 -0.013440711325553124 0.00094578496177063912 0 -0.013435064686555802 0.00096758707618972001 0 -0.012071712064249533 0.0016041667502992853 0 -0.012878047903208721 0.0016132871197399653 0 -0.011331625227296858 0.0026138814749628492 0 -0.011417382444976717 0.0024991164215390476 0 -0.01216300475545566 0.0023037913305544709 0 -0.012071712064249533 0.0016041667502992853 0 -0.011738394587150805 0.0020302765681756304 0 -0.011417382444976717 0.0024991164215390476 0 -0.011469834138639355 0.002218787565292151 0 -0.011860243436729751 0.0020293631626565971 0 -0.013381795608412832 0.001054636573001826 0 -0.013372629153811745 0.0010798717829228908 0 -0.013456099195873317 0.0010459202674420634 0 -0.013372629153811745 0.0010798717829228908 0 -0.013348688207742361 0.0011287899448753074 0 -0.013456099195873317 0.0010459202674420634 0 -0.013381795608412832 0.001054636573001826 0 -0.013372629153811745 0.0010798717829228908 0 -0.013316688159565465 0.001069935374881576 0 -0.013381795608412832 0.001054636573001826 0 -0.013389421910493419 0.0010152861332732416 0 -0.013319588735435333 0.0010136767148164125 0 -0.013381795608412832 0.001054636573001826 0 -0.013319588735435333 0.0010136767148164125 0 -0.013316688159565465 0.001069935374881576 0 -0.013381795608412832 0.001054636573001826 0 -0.013389421910493419 0.0010152861332732416 0 -0.01342309365138817 0.0010342892075724981 0 -0.013389421910493419 0.0010152861332732416 0 -0.013433950285386123 0.0010172799334180384 0 -0.01342309365138817 0.0010342892075724981 0 -0.013389421910493419 0.0010152861332732416 0 -0.013411797948204665 0.00099044349796165144 0 -0.013353988735227314 0.00099081092731329295 0 -0.013389421910493419 0.0010152861332732416 0 -0.013411797948204665 0.00099044349796165144 0 -0.013433950285386123 0.0010172799334180384 0 -0.013383949415762958 0.0009627727344755639 0 -0.013411797948204665 0.00099044349796165144 0 -0.013353988735227314 0.00099081092731329295 0 -0.013389421910493419 0.0010152861332732416 0 -0.013353988735227314 0.00099081092731329295 0 -0.013319588735435333 0.0010136767148164125 0 -0.013296619226164251 0.00096517076304911912 0 -0.013383949415762958 0.0009627727344755639 0 -0.013353988735227314 0.00099081092731329295 0 -0.013296619226164251 0.00096517076304911912 0 -0.013319588735435333 0.0010136767148164125 0 -0.013249874692435847 0.0010184186724448156 0 -0.013568758738583268 0.00099723158195001065 0 -0.012405422539936838 0.00088369367058464734 0 -0.013296619226164251 0.00096517076304911912 0 -0.013353988735227314 0.00099081092731329295 0 -0.013319588735435333 0.0010136767148164125 0 -0.013319588735435333 0.0010136767148164125 0 -0.013240246955955678 0.0010450102045641003 0 -0.013209075655784755 0.000996927903191052 0 -0.013319588735435333 0.0010136767148164125 0 -0.013316688159565465 0.001069935374881576 0 -0.013240246955955678 0.0010450102045641003 0 -0.013316688159565465 0.001069935374881576 0 -0.013240246955955678 0.0010450102045641003 0 -0.013254933927089343 0.0011150122558872752 0 -0.010263654500735129 0.00016460148426613328 0 -0.011172700685074257 0.00042649114347190079 0 -0.013143344738073432 0.0010104487938900589 0 -0.013185807003331107 0.0010143195539635645 0 -0.013175324883681267 0.0011187018062819188 0 -0.013240246955955678 0.0010450102045641003 0 -0.013185807003331107 0.0010143195539635645 0 -0.013175324883681267 0.0011187018062819188 0 -0.010263654500735129 0.00016460148426613328 0 -0.0098585041132274159 0.00027763263858939337 0 -0.010604860964705237 0.00049226045597064558 0 -0.010534394284748703 0.00058390274828940599 0 -0.010620989534812999 0.00058024455955902644 0 -0.013143344738073432 0.0010104487938900589 0 -0.013185807003331107 0.0010143195539635645 0 -0.013171698907305613 0.0009726510270943071 0 -0.010263654500735129 0.00016460148426613328 0 -0.011548135025476997 0.00060163320205342929 0 -0.013062159096633481 0.0011987062851752572 0 -0.012405422539936838 0.00088369367058464734 0 -0.013240246955955678 0.0010450102045641003 0 -0.013185807003331107 0.0010143195539635645 0 -0.013191597610718142 0.00097141521786410772 0 -0.013185807003331107 0.0010143195539635645 0 -0.013171698907305613 0.0009726510270943071 0 -0.013191597610718142 0.00097141521786410772 0 -0.010334125585290954 0.0011312331035645403 0 -0.0098585041132274159 0.00027763263858939337 0 -0.013296619226164251 0.00096517076304911912 0 -0.013249874692435847 0.0010184186724448156 0 -0.013245549664843754 0.0010121069439875275 0 -0.010334125585290954 0.0011312331035645403 0 -0.011861865890668693 0.00076038205809203854 0 -0.011329491039074688 0.0011946417970527593 0 -0.011452430500454414 0.0012208113836105531 0 -0.011461235601925968 0.0013990004439539861 0 -0.010713820559376103 0.00094421846204936419 0 -0.010493290019243168 0.00055812947868742139 0 -0.010641036836820399 0.00051148964656577483 0 -0.012113857896726584 0.00032714748172209024 0 -0.011482136815914919 0.00035002794537820729 0 -0.011742663755261819 0.00078798019312438159 0 -0.011548135025476997 0.00060163320205342929 0 -0.012405422539936838 0.00088369367058464734 0 -0.011548135025476997 0.00060163320205342929 0 -0.011861865890668693 0.00076038205809203854 0 -0.012405422539936838 0.00088369367058464734 0 -0.011861865890668693 0.00076038205809203854 0 -0.012536892750696709 0.0010006185689709157 0 -0.011861865890668693 0.00076038205809203854 0 -0.011452430500454414 0.0012208113836105531 0 -0.011605699446994956 0.0012262153970534503 0 -0.011461235601925968 0.0013990004439539861 0 -0.010526872405789832 0.00051570273888525034 0 -0.010493290019243168 0.00055812947868742139 0 -0.010641036836820399 0.00051148964656577483 0 -0.011548135025476997 0.00060163320205342929 0 -0.0098585041132274159 0.00027763263858939337 0 -0.0093632607104439294 0.00081591400142051328 0 -0.0092731089365059392 0.00066422458027272054 0 -0.0094123424335456566 0.00050546335336181761 0 -0.0091977688361693354 0.00083221895344707565 0 -0.0091386820845076547 0.0005166343970643691 0 -0.0092731089365059392 0.00066422458027272054 0 -0.0094785592827430157 0.0008699519922871499 0 -0.0093632607104439294 0.00081591400142051328 0 -0.0094123424335456566 0.00050546335336181761 0 -0.0091386820845076547 0.0005166343970643691 0 -0.0092731089365059392 0.00066422458027272054 0 -0.0094123424335456566 0.00050546335336181761 0 -0.009205419698656887 0.0012599853571169013 0 -0.0074884818910228371 -0.00029481270673225809 0 -0.0093632607104439294 0.00081591400142051328 0 -0.0091977688361693354 0.00083221895344707565 0 -0.0092731089365059392 0.00066422458027272054 0 -0.0098585041132274159 0.00027763263858939337 0 -0.0074884818910228371 -0.00029481270673225809 0 -0.0083664486023582799 -0.00047066510122646172 0 -0.0080005921037457333 -0.00055988668878021114 0 -0.0080673639905932785 -0.00012617383641813182 0 -0.0083664486023582799 -0.00047066510122646172 0 -0.0083495123754785475 -0.000569924727347107 0 -0.0080005921037457333 -0.00055988668878021114 0 -0.010263654500735129 0.00016460148426613328 0 -0.0065532404924010437 -0.0010728780151503818 0 -0.0074884818910228371 -0.00029481270673225809 0 -0.0065532404924010437 -0.0010728780151503818 0 -0.0065532404924010437 -0.0010728780151503818 0 -0.0047407426993259297 -0.0013842695056971608 0 -0.0047748556099786862 -0.0016710882468353382 0 -0.0045605820881709997 -0.0018527006087243247 0 -0.0046755974148318001 -0.0018290646974127211 0 -0.0065532404924010437 -0.0010728780151503818 0 -0.0071699473549457484 -0.001161860532041458 0 -0.0090414505397981137 -0.00047817873136638049 0 -0.0091495329399891665 -0.00039532838404832875 0 -0.0090589666483140204 -0.00035014394031900818 0 -0.0046711713547543674 -0.0015179752716169368 0 -0.0047748556099786862 -0.0016710882468353382 0 -0.0045605820881709997 -0.0018527006087243247 0 -0.011900699118138272 -0.00013657474665397024 0 -0.0071699473549457484 -0.001161860532041458 0 -0.011900699118138272 -0.00013657474665397024 0 -0.013070730523868227 -0.00096718195781569309 0 -0.011900699118138272 -0.00013657474665397024 0 -0.011172700685074257 0.00042649114347190079 0 -0.0090414505397981137 -0.00047817873136638049 0 -0.0091495329399891665 -0.00039532838404832875 0 -0.009133801023454997 -0.00047257235093151425 0 -0.0091220759896809226 -0.00054863518807895921 0 -0.0090414505397981137 -0.00047817873136638049 0 -0.009133801023454997 -0.00047257235093151425 0 -0.013191105448885056 0.0012134695355873054 0 -0.013175324883681267 0.0011187018062819188 0 -0.013254933927089343 0.0011150122558872752 0 -0.013240246955955678 0.0010450102045641003 0 -0.013175324883681267 0.0011187018062819188 0 -0.013254933927089343 0.0011150122558872752 0 -0.013191105448885056 0.0012134695355873054 0 -0.013254933927089343 0.0011150122558872752 0 -0.013348688207742361 0.0011287899448753074 0 -0.013316688159565465 0.001069935374881576 0 -0.013254933927089343 0.0011150122558872752 0 -0.013348688207742361 0.0011287899448753074 0 -0.015996657993648761 -0.00084063656491038428 0 -0.016005585516763648 -0.0010888610552670169 0 -0.016441693791595453 -0.0012485661424544718 0 -0.014183030122481283 0.00027737762993663582 0 -0.014507865768413637 0.00022765077526264415 0 -0.01449849966313666 0.00011912829915900841 0 -0.014183030122481283 0.00027737762993663582 0 -0.014507865768413637 0.00022765077526264415 0 -0.014209450391190523 0.00043643540114732509 0 -0.015655522732993993 -0.00030994201984268366 0 -0.013070730523868227 -0.00096718195781569309 0 -0.011900699118138272 -0.00013657474665397024 0 -0.014229373337200502 0.0006875655312288206 0 -0.015996657993648761 -0.00084063656491038428 0 -0.016005585516763648 -0.0010888610552670169 0 -0.015807042460164858 -0.00091158811564857336 0 -0.016005585516763648 -0.0010888610552670169 0 -0.015807042460164858 -0.00091158811564857336 0 -0.015783405748236064 -0.0011281052514567373 0 -0.015996657993648761 -0.00084063656491038428 0 -0.015807042460164858 -0.00091158811564857336 0 -0.015704543691077884 -0.00070987040906170902 0 -0.014507865768413637 0.00022765077526264415 0 -0.01449849966313666 0.00011912829915900841 0 -0.014766911324962134 7.1237661376570463e-05 0 -0.014229373337200502 0.0006875655312288206 0 -0.014058427522814382 0.0005522972115633494 0 -0.015655522732993993 -0.00030994201984268366 0 -0.015066482708914935 -0.0001390648797358452 0 -0.015996657993648761 -0.00084063656491038428 0 -0.015527734812511086 -0.00039488667686570937 0 -0.015704543691077884 -0.00070987040906170902 0 -0.013372629153811745 0.0010798717829228908 0 -0.013316688159565465 0.001069935374881576 0 -0.013348688207742361 0.0011287899448753074 0 -0.005083061199772569 -0.001506956541609766 0 -0.0049764995860954245 -0.0015688644919336777 0 -0.0050624383182831349 -0.0016127542168738399 0 -0.0073896298803006874 -0.00031378310514844034 0 -0.0067923044911835 -0.00035928419096039813 0 -0.005083061199772569 -0.001506956541609766 0 -0.0050624383182831349 -0.0016127542168738399 0 -0.0051305058187244767 -0.0016333346866617248 0 -0.0065174280780758683 -0.00085444543638111528 0 -0.0073896298803006874 -0.00031378310514844034 0 -0.0052153807918992184 -0.0015137802551629114 0 -0.005083061199772569 -0.001506956541609766 0 -0.0051305058187244767 -0.0016333346866617248 0 -0.0094175740413572472 0.0010396786078066276 0 -0.0094172370666502202 0.00091247001141981537 0 -0.0092657489210139846 0.00096334965844773943 0 -0.0094681739332618808 0.00080429474057825507 0 -0.0092960310059135021 0.00079757546335935579 0 -0.0094172370666502202 0.00091247001141981537 0 -0.0092960310059135021 0.00079757546335935579 0 -0.0094172370666502202 0.00091247001141981537 0 -0.0092657489210139846 0.00096334965844773943 0 -0.0092960310059135021 0.00079757546335935579 0 -0.0092657489210139846 0.00096334965844773943 0 -0.0090360767695585788 0.00076650776365148659 0 -0.0092657489210139846 0.00096334965844773943 0 -0.0090629880520164737 0.00093930302120915743 0 -0.0090360767695585788 0.00076650776365148659 0 -0.0091651156789044359 0.0010560675541153629 0 -0.0092657489210139846 0.00096334965844773943 0 -0.0090629880520164737 0.00093930302120915743 0 -0.0090629880520164737 0.00093930302120915743 0 -0.0088643744198781231 0.00087419496422168406 0 -0.0090360767695585788 0.00076650776365148659 0 -0.0086564501444049893 0.00074629326227999414 0 -0.0088643744198781231 0.00087419496422168406 0 -0.0090360767695585788 0.00076650776365148659 0 -0.0087200647466970198 0.001098599426160668 0 -0.0086564501444049893 0.00074629326227999414 0 -0.0088643744198781231 0.00087419496422168406 0 -0.0087200647466970198 0.001098599426160668 0 -0.0090629880520164737 0.00093930302120915743 0 -0.0088643744198781231 0.00087419496422168406 0 -0.0074884818910228371 -0.00029481270673225809 0 -0.0067923044911835 -0.00035928419096039813 0 -0.004802372887176231 -0.0014560249048339098 0 -0.0049477090860867469 -0.0014744367268484679 0 -0.0048608664256908039 -0.0015662559554643874 0 -0.004802372887176231 -0.0014560249048339098 0 -0.0047564184247939414 -0.0015960293436340567 0 -0.0048608664256908039 -0.0015662559554643874 0 -0.0049477090860867469 -0.0014744367268484679 0 -0.0049764995860954245 -0.0015688644919336777 0 -0.0048608664256908039 -0.0015662559554643874 0 -0.005083061199772569 -0.001506956541609766 0 -0.0049477090860867469 -0.0014744367268484679 0 -0.0049764995860954245 -0.0015688644919336777 0 -0.0049764995860954245 -0.0015688644919336777 0 -0.0049140276813035471 -0.0016400016448977488 0 -0.0048608664256908039 -0.0015662559554643874 0 -0.0049764995860954245 -0.0015688644919336777 0 -0.0049140276813035471 -0.0016400016448977488 0 -0.0050042980109064111 -0.0016649180828456039 0 -0.0049140276813035471 -0.0016400016448977488 0 -0.0048608664256908039 -0.0015662559554643874 0 -0.0047748556099786862 -0.0016710882468353382 0 -0.0047564184247939414 -0.0015960293436340567 0 -0.0048608664256908039 -0.0015662559554643874 0 -0.0047748556099786862 -0.0016710882468353382 0 -0.0049140276813035471 -0.0016400016448977488 0 -0.0047748556099786862 -0.0016710882468353382 0 -0.0049000638567005999 -0.0017346027159876028 0 -0.0047748556099786862 -0.0016710882468353382 0 -0.0049000638567005999 -0.0017346027159876028 0 -0.0047818634705236659 -0.001810649011033485 0 -0.0047748556099786862 -0.0016710882468353382 0 -0.0047818634705236659 -0.001810649011033485 0 -0.0046755974148318001 -0.0018290646974127211 0 -0.0050042980109064111 -0.0016649180828456039 0 -0.0049000638567005999 -0.0017346027159876028 0 -0.0050554024554949556 -0.0018059725191716114 0 -0.0049140276813035471 -0.0016400016448977488 0 -0.0050042980109064111 -0.0016649180828456039 0 -0.0049000638567005999 -0.0017346027159876028 0 -0.0050042980109064111 -0.0016649180828456039 0 -0.0050926682540925489 -0.0016887839411138912 0 -0.0050554024554949556 -0.0018059725191716114 0 -0.0050926682540925489 -0.0016887839411138912 0 -0.0051126338360539605 -0.0017815551129278355 0 -0.0050554024554949556 -0.0018059725191716114 0 -0.0050042980109064111 -0.0016649180828456039 0 -0.0050624383182831349 -0.0016127542168738399 0 -0.0050926682540925489 -0.0016887839411138912 0 -0.0049764995860954245 -0.0015688644919336777 0 -0.0050042980109064111 -0.0016649180828456039 0 -0.0050624383182831349 -0.0016127542168738399 0 -0.0050624383182831349 -0.0016127542168738399 0 -0.0050926682540925489 -0.0016887839411138912 0 -0.0051305058187244767 -0.0016333346866617248 0 -0.0051181510339313799 -0.001722264253514443 0 -0.0050926682540925489 -0.0016887839411138912 0 -0.0051305058187244767 -0.0016333346866617248 0 -0.0051181510339313799 -0.001722264253514443 0 -0.0050926682540925489 -0.0016887839411138912 0 -0.0051126338360539605 -0.0017815551129278355 0 -0.0051181510339313799 -0.001722264253514443 0 -0.0051126338360539605 -0.0017815551129278355 0 -0.0051168689214087697 -0.0018428214249529603 0 -0.0051126338360539605 -0.0017815551129278355 0 -0.0051168689214087697 -0.0018428214249529603 0 -0.0051686881923102349 -0.0019660665468284634 0 -0.0051168689214087697 -0.0018428214249529603 0 -0.0051686881923102349 -0.0019660665468284634 0 -0.0051181509470261 -0.0018542633803964935 0 -0.0053026643377655294 -0.0021413434106483361 0 -0.005210782808185075 -0.0016654599235989638 0 -0.0051126338360539605 -0.0017815551129278355 0 -0.0051686881923102349 -0.0019660665468284634 0 -0.0050554024554949556 -0.0018059725191716114 0 -0.0051686881923102349 -0.0019660665468284634 0 -0.0050554024554949556 -0.0018059725191716114 0 -0.0048769057355844353 -0.0019053601115939678 0 -0.0049000638567005999 -0.0017346027159876028 0 -0.0050554024554949556 -0.0018059725191716114 0 -0.0048769057355844353 -0.0019053601115939678 0 -0.0049000638567005999 -0.0017346027159876028 0 -0.0048769057355844353 -0.0019053601115939678 0 -0.0047818634705236659 -0.001810649011033485 0 -0.0047818634705236659 -0.001810649011033485 0 -0.0046929344145802332 -0.0019117581745676706 0 -0.0046755974148318001 -0.0018290646974127211 0 -0.0048769057355844353 -0.0019053601115939678 0 -0.0047818634705236659 -0.001810649011033485 0 -0.0046929344145802332 -0.0019117581745676706 0 -0.0048769057355844353 -0.0019053601115939678 0 -0.0046929344145802332 -0.0019117581745676706 0 -0.0046795121115792062 -0.0020499797098564457 0 -0.0048769057355844353 -0.0019053601115939678 0 -0.0046795121115792062 -0.0020499797098564457 0 -0.0048943827501115632 -0.0021478362258942362 0 -0.0046795121115792062 -0.0020499797098564457 0 -0.0048943827501115632 -0.0021478362258942362 0 -0.004675613688976522 -0.0024609673520047609 0 -0.0051686881923102349 -0.0019660665468284634 0 -0.0048943827501115632 -0.0021478362258942362 0 -0.005155663271545108 -0.002658797965395197 0 -0.0051686881923102349 -0.0019660665468284634 0 -0.0048769057355844353 -0.0019053601115939678 0 -0.0048943827501115632 -0.0021478362258942362 0 -0.0048943827501115632 -0.0021478362258942362 0 -0.005155663271545108 -0.002658797965395197 0 -0.004675613688976522 -0.0024609673520047609 0 -0.005155663271545108 -0.002658797965395197 0 -0.004675613688976522 -0.0024609673520047609 0 -0.0045224997971569682 -0.0030299841776001524 0 -0.005155663271545108 -0.002658797965395197 0 -0.0045224997971569682 -0.0030299841776001524 0 -0.0049615991414499348 -0.0034308041582667564 0 -0.005155663271545108 -0.002658797965395197 0 -0.0055274395923468706 -0.0031747928979137209 0 -0.0049615991414499348 -0.0034308041582667564 0 -0.005155663271545108 -0.002658797965395197 0 -0.0057066106265782849 -0.0024515186519357096 0 -0.0055274395923468706 -0.0031747928979137209 0 -0.0057029755174365614 -0.0079516824969456217 0 -0.0055825413102101804 -0.0055146886986890131 0 -0.0057066106265782849 -0.0024515186519357096 0 -0.0055274395923468706 -0.0031747928979137209 0 -0.0061439032753633155 -0.0029354110215744065 0 -0.0061084589703443515 -0.012412152572610082 0 -0.0057552427641868803 -0.012283809314497142 0 -0.0064223990462956362 -0.011959792133687612 0 -0.005210782808185075 -0.0016654599235989638 0 -0.0055825413102101804 -0.0055146886986890131 0 -0.0051686881923102349 -0.0019660665468284634 0 -0.005155663271545108 -0.002658797965395197 0 -0.0057066106265782849 -0.0024515186519357096 0 -0.015914816106333309 -0.0017050244325324559 0 -0.015991793436729903 -0.0013413178583089977 0 -0.01617530941706348 -0.0015452487494144929 0 -0.015914816106333309 -0.0017050244325324559 0 -0.015991793436729903 -0.0013413178583089977 0 -0.0155945084036273 -0.0014194692428199499 0 -0.015783405748236064 -0.0011281052514567373 0 -0.015991793436729903 -0.0013413178583089977 0 -0.0155945084036273 -0.0014194692428199499 0 -0.016005585516763648 -0.0010888610552670169 0 -0.015783405748236064 -0.0011281052514567373 0 -0.015991793436729903 -0.0013413178583089977 0 -0.016005585516763648 -0.0010888610552670169 0 -0.015991793436729903 -0.0013413178583089977 0 -0.016441693791595453 -0.0012485661424544718 0 -0.015991793436729903 -0.0013413178583089977 0 -0.01617530941706348 -0.0015452487494144929 0 -0.016441693791595453 -0.0012485661424544718 0 -0.01617530941706348 -0.0015452487494144929 0 -0.016441693791595453 -0.0012485661424544718 0 -0.016357640319814876 -0.0018942792907847986 0 -0.015914816106333309 -0.0017050244325324559 0 -0.01617530941706348 -0.0015452487494144929 0 -0.016357640319814876 -0.0018942792907847986 0 -0.013070730523868227 -0.00096718195781569309 0 -0.013150575025792173 -0.002237557049224609 0 -0.010220039932102017 -0.00077028213604214679 0 -0.011149551949448687 -0.0015968952199923296 0 -0.009882034672146307 -0.0025024363630128245 0 -0.010166062931355998 -0.0010156632195283454 0 -0.0091217670750935211 -0.0011736005719236891 0 -0.0092676760528866749 -0.00026289175828300845 0 -0.010030851552198685 -0.0017768511414792407 0 -0.010166062931355998 -0.0010156632195283454 0 -0.0091217670750935211 -0.0011736005719236891 0 -0.013070730523868227 -0.00096718195781569309 0 -0.0068890939485148064 -0.0015452348580664874 0 -0.0071699473549457484 -0.001161860532041458 0 -0.0068890939485148064 -0.0015452348580664874 0 -0.0045500879038749744 -0.0018476755635510138 0 -0.0045818361179653369 -0.0019749795546310281 0 -0.0044692162955193042 -0.0020545412656660352 0 -0.0045500879038749744 -0.0018476755635510138 0 -0.004586248718716969 -0.0018759090941906668 0 -0.0045818361179653369 -0.0019749795546310281 0 -0.0071699473549457484 -0.001161860532041458 0 -0.0064344980717023032 -0.00097621630433583899 0 -0.0045605820881709997 -0.0018527006087243247 0 -0.0046755974148318001 -0.0018290646974127211 0 -0.004586248718716969 -0.0018759090941906668 0 -0.0046929344145802332 -0.0019117581745676706 0 -0.0046755974148318001 -0.0018290646974127211 0 -0.004586248718716969 -0.0018759090941906668 0 -0.0046929344145802332 -0.0019117581745676706 0 -0.0046795121115792062 -0.0020499797098564457 0 -0.0045818361179653369 -0.0019749795546310281 0 -0.0046929344145802332 -0.0019117581745676706 0 -0.004586248718716969 -0.0018759090941906668 0 -0.0045818361179653369 -0.0019749795546310281 0 -0.0046795121115792062 -0.0020499797098564457 0 -0.0045818361179653369 -0.0019749795546310281 0 -0.0044692162955193042 -0.0020545412656660352 0 -0.0068890939485148064 -0.0015452348580664874 0 -0.007481415057679605 -0.003073375074133152 0 -0.0046795121115792062 -0.0020499797098564457 0 -0.004675613688976522 -0.0024609673520047609 0 -0.0044692162955193042 -0.0020545412656660352 0 -0.0037502401123289588 -0.0023967161445895631 0 -0.0068890939485148064 -0.0015452348580664874 0 -0.004675613688976522 -0.0024609673520047609 0 -0.0045224997971569682 -0.0030299841776001524 0 -0.0039777850808521073 -0.0026114200977432134 0 -0.004675613688976522 -0.0024609673520047609 0 -0.0041131885725461644 -0.0019567126409297847 0 -0.0039777850808521073 -0.0026114200977432134 0 -0.0045224997971569682 -0.0030299841776001524 0 -0.0039777850808521073 -0.0026114200977432134 0 -0.0038426681238561979 -0.0033143777629869912 0 -0.007481415057679605 -0.003073375074133152 0 -0.0074900925456162651 -0.00334667190533909 0 -0.010317624259972754 -0.003848394579045164 0 -0.010908468470394879 -0.0031568937438561377 0 -0.010676961218072399 -0.0048015011229308987 0 -0.010317624259972754 -0.003848394579045164 0 -0.0094975475377159849 -0.0043545267540627524 0 -0.010676961218072399 -0.0048015011229308987 0 -0.011149551949448687 -0.0015968952199923296 0 -0.010908468470394879 -0.0031568937438561377 0 -0.009882034672146307 -0.0025024363630128245 0 -0.010317624259972754 -0.003848394579045164 0 -0.010908468470394879 -0.0031568937438561377 0 -0.009882034672146307 -0.0025024363630128245 0 -0.015914816106333309 -0.0017050244325324559 0 -0.016357640319814876 -0.0018942792907847986 0 -0.016012010611338865 -0.0021719239711101273 0 -0.016357640319814876 -0.0018942792907847986 0 -0.016220079481800143 -0.0025983772723627368 0 -0.016012010611338865 -0.0021719239711101273 0 -0.010317624259972754 -0.003848394579045164 0 -0.009882034672146307 -0.0025024363630128245 0 -0.0094975475377159849 -0.0043545267540627524 0 -0.013150575025792173 -0.002237557049224609 0 -0.012840734074194024 -0.0033367518486550306 0 -0.016220079481800143 -0.0025983772723627368 0 -0.015828630722546914 -0.0028407495834711599 0 -0.015624956994220972 -0.002377177585244103 0 -0.016220079481800143 -0.0025983772723627368 0 -0.016012010611338865 -0.0021719239711101273 0 -0.015624956994220972 -0.002377177585244103 0 -0.015905614674321816 -0.0017377026971276172 0 -0.015696323013904223 -0.002263706666421251 0 -0.015914816106333309 -0.0017050244325324559 0 -0.016012010611338865 -0.0021719239711101273 0 -0.015624956994220972 -0.002377177585244103 0 -0.015828630722546914 -0.0028407495834711599 0 -0.016067060272937216 -0.0031776943175346765 0 -0.015660480065702011 -0.003372624612401677 0 -0.0094975475377159849 -0.0043545267540627524 0 -0.009963876643301086 -0.0052805464101032071 0 -0.009639586151948874 -0.0060382234279690687 0 -0.016220079481800143 -0.0025983772723627368 0 -0.015828630722546914 -0.0028407495834711599 0 -0.016067060272937216 -0.0031776943175346765 0 -0.012840734074194024 -0.0033367518486550306 0 -0.012821758733136512 -0.0053527707387155555 0 -0.0094975475377159849 -0.0043545267540627524 0 -0.009639586151948874 -0.0060382234279690687 0 -0.0091835436163745926 -0.0062804464886873461 0 -0.009963876643301086 -0.0052805464101032071 0 -0.009639586151948874 -0.0060382234279690687 0 -0.0094141624813952815 -0.0069354026201364207 0 -0.009963876643301086 -0.0052805464101032071 0 -0.010386898981613763 -0.0067146031384077319 0 -0.0091591286978123625 -0.0072233914391984441 0 -0.01023041239391533 -0.0045396816963657683 0 -0.0086029637220422957 -0.0091091444835105194 0 -0.009960560706578284 -0.0064283627639120881 0 -0.012821758733136512 -0.0053527707387155555 0 -0.009639586151948874 -0.0060382234279690687 0 -0.0092097130178091843 -0.0062846355395825967 0 -0.0094141624813952815 -0.0069354026201364207 0 -0.0037213988433194203 -0.0040736868849842595 0 -0.0038426681238561979 -0.0033143777629869912 0 -0.0043820419387869541 -0.0037416970236640139 0 -0.0053631086446978777 -0.0085956848680602636 0 -0.0074900925456162651 -0.00334667190533909 0 -0.009963876643301086 -0.0052805464101032071 0 -0.010386898981613763 -0.0067146031384077319 0 -0.010676961218072399 -0.0048015011229308987 0 -0.0094975475377159849 -0.0043545267540627524 0 -0.009963876643301086 -0.0052805464101032071 0 -0.010676961218072399 -0.0048015011229308987 0 -0.0045224997971569682 -0.0030299841776001524 0 -0.0038426681238561979 -0.0033143777629869912 0 -0.0043820419387869541 -0.0037416970236640139 0 -0.0053631086446978777 -0.0085956848680602636 0 -0.0041347542265218378 -0.008394044402529376 0 -0.0039239166289791686 -0.013187405688592661 0 -0.0045252118371127683 -0.012919044330430299 0 -0.0045642919075024107 -0.013375550239184401 0 -0.0039239166289791686 -0.013187405688592661 0 -0.0045642919075024107 -0.013375550239184401 0 -0.004320569000814004 -0.013710834179635027 0 -0.0045642919075024107 -0.013375550239184401 0 -0.004320569000814004 -0.013710834179635027 0 -0.0047554854940227266 -0.013798063035439061 0 -0.004320569000814004 -0.013710834179635027 0 -0.0042318288999461688 -0.014106880139426204 0 -0.0045210184267497691 -0.014187417048934338 0 -0.004320569000814004 -0.013710834179635027 0 -0.0047554854940227266 -0.013798063035439061 0 -0.0045210184267497691 -0.014187417048934338 0 -0.004320569000814004 -0.013710834179635027 0 -0.0042318288999461688 -0.014106880139426204 0 -0.0038429106757178963 -0.013965923996175491 0 -0.0039239166289791686 -0.013187405688592661 0 -0.004320569000814004 -0.013710834179635027 0 -0.0038429106757178963 -0.013965923996175491 0 -0.0053631086446978777 -0.0085956848680602636 0 -0.0045281355576544721 -0.013856756884072795 0 -0.0099260411483501915 -0.0093639811805069917 0 -0.010715337758959232 -0.0090421171213728741 0 -0.0093460246567314987 -0.012674406283057266 0 -0.005749087865504687 -0.010694016560138655 0 -0.0054483497710516937 -0.012277790383714836 0 -0.0048492860933395492 -0.011071304818156128 0 -0.0053631086446978777 -0.0085956848680602636 0 -0.0086029637220422957 -0.0091091444835105194 0 -0.0092097130178091843 -0.0062846355395825967 0 -0.009085446755720962 -0.0070763309426031071 0 -0.0094141624813952815 -0.0069354026201364207 0 -0.012821758733136512 -0.0053527707387155555 0 -0.011880719457174397 -0.0091898821725520871 0 -0.011880719457174397 -0.0091898821725520871 0 -0.0086029637220422957 -0.0091091444835105194 0 -0.0086029637220422957 -0.0091091444835105194 0 -0.0097888250631751276 -0.013041300621251969 0 -0.0054483497710516937 -0.012277790383714836 0 -0.0048492860933395492 -0.011071304818156128 0 -0.0043484871626992124 -0.012437929485756475 0 -0.011880719457174397 -0.0091898821725520871 0 -0.0097888250631751276 -0.013041300621251969 0 -0.013141266931674394 -0.012287733423622035 0 -0.013167829622088897 -0.012190064533080013 0 -0.013302332504635188 -0.012260308328446441 0 -0.011880719457174397 -0.0091898821725520871 0 -0.013873745241010786 -0.0099620445515666879 0 -0.012821758733136512 -0.0053527707387155555 0 -0.015193513725701532 -0.0054183665411054452 0 -0.013727810212210319 -0.0076771113682555184 0 -0.013744595407790956 -0.0076227212583243548 0 -0.01388799090484652 -0.0076319711643721179 0 -0.013744595407790956 -0.0076227212583243548 0 -0.01388799090484652 -0.0076319711643721179 0 -0.013897515105757041 -0.0076023303905302184 0 -0.0054725862880060198 -0.012876379682759169 0 -0.0058852772042820804 -0.012866646064332197 0 -0.0056183723135692868 -0.013274649381543237 0 -0.0058852772042820804 -0.012866646064332197 0 -0.0060349385510345454 -0.013427839526284867 0 -0.0063978080783361245 -0.012982990452274877 0 -0.0058852772042820804 -0.012866646064332197 0 -0.0061084589703443515 -0.012412152572610082 0 -0.0063978080783361245 -0.012982990452274877 0 -0.0058852772042820804 -0.012866646064332197 0 -0.0061084589703443515 -0.012412152572610082 0 -0.0057552427641868803 -0.012283809314497142 0 -0.0057029755174365614 -0.0079516824969456217 0 -0.005103822754121105 -0.0079781451296266417 0 -0.0054725862880060198 -0.012876379682759169 0 -0.0058852772042820804 -0.012866646064332197 0 -0.0057552427641868803 -0.012283809314497142 0 -0.0054725862880060198 -0.012876379682759169 0 -0.0057552427641868803 -0.012283809314497142 0 -0.0051221676238821234 -0.012611167634348209 0 -0.0041347542265218378 -0.008394044402529376 0 -0.005103822754121105 -0.0079781451296266417 0 -0.0045224997971569682 -0.0030299841776001524 0 -0.0043820419387869541 -0.0037416970236640139 0 -0.0049615991414499348 -0.0034308041582667564 0 -0.0045252118371127683 -0.012919044330430299 0 -0.0051221676238821234 -0.012611167634348209 0 -0.0050350769798156196 -0.013316242801963607 0 -0.0045252118371127683 -0.012919044330430299 0 -0.0045642919075024107 -0.013375550239184401 0 -0.0050350769798156196 -0.013316242801963607 0 -0.0054725862880060198 -0.012876379682759169 0 -0.0051221676238821234 -0.012611167634348209 0 -0.0050350769798156196 -0.013316242801963607 0 -0.0054725862880060198 -0.012876379682759169 0 -0.0050350769798156196 -0.013316242801963607 0 -0.0056183723135692868 -0.013274649381543237 0 -0.0045642919075024107 -0.013375550239184401 0 -0.0050350769798156196 -0.013316242801963607 0 -0.0047554854940227266 -0.013798063035439061 0 -0.0047554854940227266 -0.013798063035439061 0 -0.005159130809000957 -0.013944241893587089 0 -0.0048829018375130305 -0.01426826181090296 0 -0.0047554854940227266 -0.013798063035439061 0 -0.0048829018375130305 -0.01426826181090296 0 -0.0045210184267497691 -0.014187417048934338 0 -0.0050350769798156196 -0.013316242801963607 0 -0.0047554854940227266 -0.013798063035439061 0 -0.005159130809000957 -0.013944241893587089 0 -0.0050350769798156196 -0.013316242801963607 0 -0.005159130809000957 -0.013944241893587089 0 -0.0055788194923429534 -0.013773107832193023 0 -0.0055788194923429534 -0.013773107832193023 0 -0.005973470800000596 -0.01402063344495115 0 -0.0055271251325189775 -0.014187386609928397 0 -0.005159130809000957 -0.013944241893587089 0 -0.0055788194923429534 -0.013773107832193023 0 -0.0055271251325189775 -0.014187386609928397 0 -0.0055788194923429534 -0.013773107832193023 0 -0.0056183723135692868 -0.013274649381543237 0 -0.0060349385510345454 -0.013427839526284867 0 -0.0050350769798156196 -0.013316242801963607 0 -0.0055788194923429534 -0.013773107832193023 0 -0.0056183723135692868 -0.013274649381543237 0 -0.0058852772042820804 -0.012866646064332197 0 -0.0056183723135692868 -0.013274649381543237 0 -0.0060349385510345454 -0.013427839526284867 0 -0.0060349385510345454 -0.013427839526284867 0 -0.005973470800000596 -0.01402063344495115 0 -0.006581398002677815 -0.013645585555423891 0 -0.0055788194923429534 -0.013773107832193023 0 -0.0060349385510345454 -0.013427839526284867 0 -0.005973470800000596 -0.01402063344495115 0 -0.005973470800000596 -0.01402063344495115 0 -0.0064792612733982971 -0.014088623907339502 0 -0.006581398002677815 -0.013645585555423891 0 -0.006581398002677815 -0.013645585555423891 0 -0.0069861575279015695 -0.013566231156979447 0 -0.0071511668988677836 -0.014116609712689231 0 -0.0064792612733982971 -0.014088623907339502 0 -0.006581398002677815 -0.013645585555423891 0 -0.0071511668988677836 -0.014116609712689231 0 -0.0069861575279015695 -0.013566231156979447 0 -0.0068635262694847939 -0.013184763735688334 0 -0.0073486238353522391 -0.013315181432064702 0 -0.006581398002677815 -0.013645585555423891 0 -0.0069861575279015695 -0.013566231156979447 0 -0.0068635262694847939 -0.013184763735688334 0 -0.006581398002677815 -0.013645585555423891 0 -0.0068635262694847939 -0.013184763735688334 0 -0.0063978080783361245 -0.012982990452274877 0 -0.0060349385510345454 -0.013427839526284867 0 -0.006581398002677815 -0.013645585555423891 0 -0.0063978080783361245 -0.012982990452274877 0 -0.0068635262694847939 -0.013184763735688334 0 -0.0063978080783361245 -0.012982990452274877 0 -0.0067723135806168847 -0.012808455938835608 0 -0.0063978080783361245 -0.012982990452274877 0 -0.0067723135806168847 -0.012808455938835608 0 -0.0065123696824900745 -0.012625514094907997 0 -0.0068635262694847939 -0.013184763735688334 0 -0.0071413383182866675 -0.012932528450162059 0 -0.0073486238353522391 -0.013315181432064702 0 -0.0068635262694847939 -0.013184763735688334 0 -0.0067723135806168847 -0.012808455938835608 0 -0.0071413383182866675 -0.012932528450162059 0 -0.0069946929826072389 -0.012593335901030199 0 -0.0071995867923706856 -0.012589699168886945 0 -0.0071413383182866675 -0.012932528450162059 0 -0.0067723135806168847 -0.012808455938835608 0 -0.0069946929826072389 -0.012593335901030199 0 -0.0071413383182866675 -0.012932528450162059 0 -0.0067317452152890764 -0.012540257525232839 0 -0.0069946929826072389 -0.012593335901030199 0 -0.0066862216942552835 -0.012264873777313891 0 -0.0067723135806168847 -0.012808455938835608 0 -0.0067317452152890764 -0.012540257525232839 0 -0.0069946929826072389 -0.012593335901030199 0 -0.0069946929826072389 -0.012593335901030199 0 -0.0071065759133123046 -0.012338414394575569 0 -0.0071995867923706856 -0.012589699168886945 0 -0.0061342437403324908 -0.0077843450689579008 0 -0.0053839508656898316 -0.0075489009961744241 0 -0.0058421517899483362 -0.0072725236171149983 0 -0.0069946929826072389 -0.012593335901030199 0 -0.0071065759133123046 -0.012338414394575569 0 -0.0065879725965001246 -0.012165094009020746 0 -0.0071824729444141776 -0.012751915192805231 0 -0.0063629925336691597 -0.011107601700318723 0 -0.0066660331369922891 -0.010134783983952884 0 -0.0063629925336691597 -0.011107601700318723 0 -0.0067317452152890764 -0.012540257525232839 0 -0.0065064709050628297 -0.01237808573464712 0 -0.0066862216942552835 -0.012264873777313891 0 -0.0065064709050628297 -0.01237808573464712 0 -0.0066862216942552835 -0.012264873777313891 0 -0.0064225506192438159 -0.012170153263348634 0 -0.0061084589703443515 -0.012412152572610082 0 -0.0063978080783361245 -0.012982990452274877 0 -0.0065123696824900745 -0.012625514094907997 0 -0.0061084589703443515 -0.012412152572610082 0 -0.0065064709050628297 -0.01237808573464712 0 -0.0064225506192438159 -0.012170153263348634 0 -0.0061084589703443515 -0.012412152572610082 0 -0.0065064709050628297 -0.01237808573464712 0 -0.0065123696824900745 -0.012625514094907997 0 -0.0067723135806168847 -0.012808455938835608 0 -0.0067317452152890764 -0.012540257525232839 0 -0.0065123696824900745 -0.012625514094907997 0 -0.0067317452152890764 -0.012540257525232839 0 -0.0065064709050628297 -0.01237808573464712 0 -0.0065123696824900745 -0.012625514094907997 0 -0.0062841778663236727 -0.0094341135832919001 0 -0.004529993316716825 -0.0089088852639232219 0 -0.0059915165231184935 -0.0071474133158790963 0 -0.0048658952134023126 -0.0093332714196675895 0 -0.0050083370919353862 -0.0068779568077436933 0 -0.0060135310399341124 -0.01018008249248681 0 -0.0060979001832770358 -0.006852240749084278 0 -0.0048658952134023126 -0.0093332714196675895 0 -0.0060135310399341124 -0.01018008249248681 0 -0.0066660331369922891 -0.010134783983952884 0 -0.0060135310399341124 -0.01018008249248681 0 -0.0061342437403324908 -0.0077843450689579008 0 -0.0068946062471124947 -0.0080251564328152752 0 -0.0064888870546732143 -0.0073599383321324352 0 -0.0071065759133123046 -0.012338414394575569 0 -0.0071995867923706856 -0.012589699168886945 0 -0.0075510582787488715 -0.012482666652721538 0 -0.0060135310399341124 -0.01018008249248681 0 -0.0057495318326507448 -0.012615854464016614 0 -0.0075510582787488715 -0.012482666652721538 0 -0.0071413383182866675 -0.012932528450162059 0 -0.0073486238353522391 -0.013315181432064702 0 -0.0043772395826646767 -0.010399230576187073 0 -0.0046468786597006848 -0.011091908392667587 0 -0.0041235383440956317 -0.01141903161515969 0 -0.0071995867923706856 -0.012589699168886945 0 -0.0075510582787488715 -0.012482666652721538 0 -0.0071413383182866675 -0.012932528450162059 0 -0.0049917980029425772 -0.010586825733904688 0 -0.0046468786597006848 -0.011091908392667587 0 -0.0051050085814511566 -0.011475760806452474 0 -0.0049917980029425772 -0.010586825733904688 0 -0.0043772395826646767 -0.010399230576187073 0 -0.0046468786597006848 -0.011091908392667587 0 -0.0046468786597006848 -0.011091908392667587 0 -0.0041235383440956317 -0.01141903161515969 0 -0.0047139436647395342 -0.011851787580591152 0 -0.0046468786597006848 -0.011091908392667587 0 -0.0047139436647395342 -0.011851787580591152 0 -0.0051050085814511566 -0.011475760806452474 0 -0.0047139436647395342 -0.011851787580591152 0 -0.0052089962980417749 -0.012007600941479898 0 -0.0051050085814511566 -0.011475760806452474 0 -0.0057495318326507448 -0.012615854464016614 0 -0.0051925407932049026 -0.013311052822734473 0 -0.0041235383440956317 -0.01141903161515969 0 -0.0047139436647395342 -0.011851787580591152 0 -0.003898093830318109 -0.012418889987552898 0 -0.0069861575279015695 -0.013566231156979447 0 -0.0073486238353522391 -0.013315181432064702 0 -0.0071511668988677836 -0.014116609712689231 0 -0.0042288955601183214 -0.011738055744799558 0 -0.0051925407932049026 -0.013311052822734473 0 -0.0047139436647395342 -0.011851787580591152 0 -0.004572631736947024 -0.012585002271676984 0 -0.003743027195949016 -0.012511897924309543 0 -0.0052089962980417749 -0.012007600941479898 0 -0.0052272233808014898 -0.01264076996572684 0 -0.004572631736947024 -0.012585002271676984 0 -0.0047139436647395342 -0.011851787580591152 0 -0.0052089962980417749 -0.012007600941479898 0 -0.004572631736947024 -0.012585002271676984 0 -0.0057523655839240104 -0.012098175154439287 0 -0.0051618649485102109 -0.012686563516717573 0 -0.0052089962980417749 -0.012007600941479898 0 -0.0057722774441801199 -0.011902114063113388 0 -0.0052272233808014898 -0.01264076996572684 0 -0.0052089962980417749 -0.012007600941479898 0 -0.0057722774441801199 -0.011902114063113388 0 -0.0054283028007472995 -0.01167027828405163 0 -0.0055620939235824169 -0.012086671346379715 0 -0.0058181640989420124 -0.012676578393795067 0 -0.0051203248598396056 -0.012737106663669765 0 -0.0055620939235824169 -0.012086671346379715 0 -0.0062666710268540057 -0.01226395319563865 0 -0.0058181640989420124 -0.012676578393795067 0 -0.0057523655839240104 -0.012098175154439287 0 -0.0048279163712288617 -0.010036936719085055 0 -0.0057722774441801199 -0.011902114063113388 0 -0.0059445137312855887 -0.011225766324169047 0 -0.0056336750287385804 -0.011287626830662525 0 -0.0057722774441801199 -0.011902114063113388 0 -0.0059445137312855887 -0.011225766324169047 0 -0.0063279824685269458 -0.011142458152649803 0 -0.0055620939235824169 -0.012086671346379715 0 -0.0062666710268540057 -0.01226395319563865 0 -0.0060283406806101551 -0.011424036686536397 0 -0.0059445137312855887 -0.011225766324169047 0 -0.0056336750287385804 -0.011287626830662525 0 -0.0058250679617338355 -0.010961074283123101 0 -0.0056336750287385804 -0.011287626830662525 0 -0.0051050085814511566 -0.011475760806452474 0 -0.0054249086782207391 -0.010945414426966449 0 -0.0052089962980417749 -0.012007600941479898 0 -0.0051050085814511566 -0.011475760806452474 0 -0.0054283028007472995 -0.01167027828405163 0 -0.0057722774441801199 -0.011902114063113388 0 -0.0056336750287385804 -0.011287626830662525 0 -0.0054283028007472995 -0.01167027828405163 0 -0.0056336750287385804 -0.011287626830662525 0 -0.0051050085814511566 -0.011475760806452474 0 -0.0054283028007472995 -0.01167027828405163 0 -0.0023188790173943158 -0.0081692477199177688 0 -0.0030064782252545471 -0.0079541297501366359 0 -0.0026475214633889976 -0.0084100775290394461 0 -0.0023188790173943158 -0.0081692477199177688 0 -0.0024924767720569305 -0.0077150402431315065 0 -0.0030064782252545471 -0.0079541297501366359 0 -0.0023188790173943158 -0.0081692477199177688 0 -0.0022266924291975492 -0.0078973070864457682 0 -0.0020397317941960686 -0.007988678385804528 0 -0.0023188790173943158 -0.0081692477199177688 0 -0.0022266924291975492 -0.0078973070864457682 0 -0.0024924767720569305 -0.0077150402431315065 0 -0.0022266924291975492 -0.0078973070864457682 0 -0.0024924767720569305 -0.0077150402431315065 0 -0.002055963466790634 -0.0077175000854674625 0 -0.0028704937001591759 -0.0085878613431064031 0 -0.0021795127995923301 -0.0086700212762364608 0 -0.0030872194086733898 -0.0089597684472575937 0 -0.004598847665426173 -0.01009174808939879 0 -0.0048279163712288617 -0.010036936719085055 0 -0.0030064782252545471 -0.0079541297501366359 0 -0.0032524135110357636 -0.0087459530449031896 0 -0.0028704937001591759 -0.0085878613431064031 0 -0.0030064782252545471 -0.0079541297501366359 0 -0.0028704937001591759 -0.0085878613431064031 0 -0.0026475214633889976 -0.0084100775290394461 0 -0.0032524135110357636 -0.0087459530449031896 0 -0.0028704937001591759 -0.0085878613431064031 0 -0.0030872194086733898 -0.0089597684472575937 0 -0.0028704937001591759 -0.0085878613431064031 0 -0.0026475214633889976 -0.0084100775290394461 0 -0.0021795127995923301 -0.0086700212762364608 0 -0.0023188790173943158 -0.0081692477199177688 0 -0.0026475214633889976 -0.0084100775290394461 0 -0.0021795127995923301 -0.0086700212762364608 0 -0.0021519664321892167 -0.0086263231351238548 0 -0.003351144304596934 -0.0086713233948684278 0 -0.002287750767569794 -0.008561695183047122 0 -0.0024790245433333083 -0.0087657582997363679 0 -0.0028330540312609441 -0.0087397233510332958 0 -0.0022959724098912588 -0.008831246637340898 0 -0.0024790245433333083 -0.0087657582997363679 0 -0.0023942155740582522 -0.0090308793077571517 0 -0.0022959724098912588 -0.008831246637340898 0 -0.0023942155740582522 -0.0090308793077571517 0 -0.0021314469027735607 -0.0089736586504088004 0 -0.002287750767569794 -0.008561695183047122 0 -0.0023050414180080651 -0.0087142952418895452 0 -0.0024790245433333083 -0.0087657582997363679 0 -0.0022959724098912588 -0.008831246637340898 0 -0.0023050414180080651 -0.0087142952418895452 0 -0.002146128635152541 -0.0086946691937827992 0 -0.0022959724098912588 -0.008831246637340898 0 -0.0023050414180080651 -0.0087142952418895452 0 -0.0024790245433333083 -0.0087657582997363679 0 -0.002287750767569794 -0.008561695183047122 0 -0.0023050414180080651 -0.0087142952418895452 0 -0.002146128635152541 -0.0086946691937827992 0 -0.0024790245433333083 -0.0087657582997363679 0 -0.0027408129049281008 -0.008858022628510237 0 -0.0023942155740582522 -0.0090308793077571517 0 -0.0026984059058985724 -0.0073404202384439532 0 -0.0021743555066069198 -0.0076430463904472324 0 -0.0024790245433333083 -0.0087657582997363679 0 -0.0027408129049281008 -0.008858022628510237 0 -0.0028330540312609441 -0.0087397233510332958 0 -0.0030725736662242124 -0.0080030516224258701 0 -0.0031806516734432144 -0.0078665368194434301 0 -0.0032862183397020868 -0.0078987837640723743 0 -0.0042095741127396186 -0.0091150819030245047 0 -0.0043473966569877332 -0.0089263023964270202 0 -0.0042191745033532064 -0.0088873110967013589 0 -0.0048279163712288617 -0.010036936719085055 0 -0.003351144304596934 -0.0086713233948684278 0 -0.003351144304596934 -0.0086713233948684278 0 -0.0038322205153882597 -0.0083191423199250516 0 -0.0023046382154661054 -0.0058961273166229502 0 -0.0023638608373794598 -0.0058780224584640403 0 -0.0023369512450040629 -0.0059395204025289488 0 -0.0023638608373794598 -0.0058780224584640403 0 -0.0023369512450040629 -0.0059395204025289488 0 -0.0023813126715748908 -0.0058837285542803998 0 -0.0026984059058985724 -0.0073404202384439532 0 -0.0038322205153882597 -0.0083191423199250516 0 -0.0026984059058985724 -0.0073404202384439532 0 -0.003351144304596934 -0.0086713233948684278 0 -0.0023369512450040629 -0.0059395204025289488 0 -0.0024163619624101109 -0.0059987209340416313 0 -0.0022945791133627304 -0.0060218689807376852 0 -0.0023369512450040629 -0.0059395204025289488 0 -0.0022491943794879939 -0.0059717222278355417 0 -0.0022945791133627304 -0.0060218689807376852 0 -0.0022491943794879939 -0.0059717222278355417 0 -0.0022283488668796273 -0.0060203172995251528 0 -0.0022945791133627304 -0.0060218689807376852 0 -0.0023046382154661054 -0.0058961273166229502 0 -0.0023369512450040629 -0.0059395204025289488 0 -0.0022491943794879939 -0.0059717222278355417 0 -0.0023046382154661054 -0.0058961273166229502 0 -0.0022491943794879939 -0.0059717222278355417 0 -0.0021462067725079473 -0.0060178595359333033 0 -0.0026984059058985724 -0.0073404202384439532 0 -0.0020919975760411301 -0.0056251866312271434 0 -0.0019796279034819978 -0.0062526529861803778 0 -0.0021468139492371138 -0.0060404331944393383 0 -0.0021386749346625458 -0.0061603824309156901 0 -0.0019796279034819978 -0.0062526529861803778 0 -0.0021468139492371138 -0.0060404331944393383 0 -0.0021462067725079473 -0.0060178595359333033 0 -0.0022491943794879939 -0.0059717222278355417 0 -0.0022030603033279714 -0.0060119481624062773 0 -0.0021462067725079473 -0.0060178595359333033 0 -0.0022491943794879939 -0.0059717222278355417 0 -0.0022030603033279714 -0.0060119481624062773 0 -0.0022283488668796273 -0.0060203172995251528 0 -0.0021468139492371138 -0.0060404331944393383 0 -0.0021386749346625458 -0.0061603824309156901 0 -0.0023059294838841402 -0.0060777215776565462 0 -0.0049424879256738637 -0.010393273891651515 0 -0.0051050085814511566 -0.011475760806452474 0 -0.0054249086782207391 -0.010945414426966449 0 -0.0048658952134023126 -0.0093332714196675895 0 -0.0051476952179566977 -0.011887587873553599 0 -0.0049424879256738637 -0.010393273891651515 0 -0.005600425160623335 -0.010599365664863372 0 -0.0054249086782207391 -0.010945414426966449 0 -0.0048658952134023126 -0.0093332714196675895 0 -0.0053958077241343747 -0.0092397039354780025 0 -0.005600425160623335 -0.010599365664863372 0 -0.0054249086782207391 -0.010945414426966449 0 -0.0058250679617338355 -0.010961074283123101 0 -0.0056336750287385804 -0.011287626830662525 0 -0.0054249086782207391 -0.010945414426966449 0 -0.0058250679617338355 -0.010961074283123101 0 -0.005600425160623335 -0.010599365664863372 0 -0.0058250679617338355 -0.010961074283123101 0 -0.0062267599715924455 -0.010790861904612597 0 -0.0048168542664245454 -0.0078074845871617662 0 -0.0054621223064849466 -0.0080022890531699867 0 -0.00521863414944894 -0.0071214126520613664 0 -0.0058250679617338355 -0.010961074283123101 0 -0.0062267599715924455 -0.010790861904612597 0 -0.0062507645962180157 -0.010873919856229089 0 -0.0059445137312855887 -0.011225766324169047 0 -0.0058250679617338355 -0.010961074283123101 0 -0.0062507645962180157 -0.010873919856229089 0 -0.0059445137312855887 -0.011225766324169047 0 -0.0063279824685269458 -0.011142458152649803 0 -0.0062507645962180157 -0.010873919856229089 0 -0.0042095741127396186 -0.0091150819030245047 0 -0.0042191745033532064 -0.0088873110967013589 0 -0.004153267572389879 -0.0089219922758654348 0 -0.0048279163712288617 -0.010036936719085055 0 -0.0043927689897134865 -0.0086715959363762602 0 -0.0044417460121209014 -0.0082143852005073705 0 -0.0043927689897134865 -0.0086715959363762602 0 -0.0043823456633909977 -0.008234544079837789 0 -0.0045412481169406511 -0.0082816542503616527 0 -0.0045087706968026187 -0.008169787426500515 0 -0.0038322205153882597 -0.0083191423199250516 0 -0.0044417460121209014 -0.0082143852005073705 0 -0.0038322205153882597 -0.0083191423199250516 0 -0.0043927689897134865 -0.0086715959363762602 0 -0.0053958077241343747 -0.0092397039354780025 0 -0.0044417460121209014 -0.0082143852005073705 0 -0.0048168542664245454 -0.0078074845871617662 0 -0.00521863414944894 -0.0071214126520613664 0 -0.0046408492960906935 -0.0070849751224209244 0 -0.0044417460121209014 -0.0082143852005073705 0 -0.0037300437039792184 -0.0062796254088623863 0 -0.0023369512450040629 -0.0059395204025289488 0 -0.0023813126715748908 -0.0058837285542803998 0 -0.0024163619624101109 -0.0059987209340416313 0 -0.0041621953992303836 -0.0076157761545373381 0 -0.0048168542664245454 -0.0078074845871617662 0 -0.0046408492960906935 -0.0070849751224209244 0 -0.0041621953992303836 -0.0076157761545373381 0 -0.0046408492960906935 -0.0070849751224209244 0 -0.0040323429262235696 -0.0066428056503085326 0 -0.0046408492960906935 -0.0070849751224209244 0 -0.0049708742410930536 -0.0062309955516292124 0 -0.0040323429262235696 -0.0066428056503085326 0 -0.0024163619624101109 -0.0059987209340416313 0 -0.0023682529620334043 -0.0060805043151140013 0 -0.0022945791133627304 -0.0060218689807376852 0 -0.00521863414944894 -0.0071214126520613664 0 -0.0046408492960906935 -0.0070849751224209244 0 -0.0049708742410930536 -0.0062309955516292124 0 -0.0037300437039792184 -0.0062796254088623863 0 -0.003742003307198735 -0.0063653491603081081 0 -0.0024163619624101109 -0.0059987209340416313 0 -0.0023682529620334043 -0.0060805043151140013 0 -0.0024607569616393959 -0.0061299437551475761 0 -0.0023682529620334043 -0.0060805043151140013 0 -0.0024607569616393959 -0.0061299437551475761 0 -0.0023797538228987566 -0.0061458031419440728 0 -0.0024607569616393959 -0.0061299437551475761 0 -0.0023797538228987566 -0.0061458031419440728 0 -0.0024282983811367131 -0.0062258146811534519 0 -0.0024607569616393959 -0.0061299437551475761 0 -0.0024282983811367131 -0.0062258146811534519 0 -0.0025022641041265391 -0.0062520249584589252 0 -0.0023797538228987566 -0.0061458031419440728 0 -0.0024282983811367131 -0.0062258146811534519 0 -0.0023542368857028297 -0.006216591527296522 0 -0.0049708742410930536 -0.0062309955516292124 0 -0.0047164995768715703 -0.0053387392665441716 0 -0.0039068906823970847 -0.0056662697946358699 0 -0.0049708742410930536 -0.0062309955516292124 0 -0.0040323429262235696 -0.0066428056503085326 0 -0.0039068906823970847 -0.0056662697946358699 0 -0.003742003307198735 -0.0063653491603081081 0 -0.0038773015116321894 -0.00500608366736388 0 -0.0020945630307217427 -0.0061303607708940036 0 -0.0021254607515234386 -0.006096712164451892 0 -0.0020751496791182249 -0.0060875655733731394 0 -0.0020945630307217427 -0.0061303607708940036 0 -0.0021254607515234386 -0.006096712164451892 0 -0.002163640988044432 -0.0061277993936291637 0 -0.0021254607515234386 -0.006096712164451892 0 -0.0021249753600160377 -0.0060573036338025269 0 -0.0021720816465472781 -0.006075294055947012 0 -0.0021254607515234386 -0.006096712164451892 0 -0.0021720816465472781 -0.006075294055947012 0 -0.002163640988044432 -0.0061277993936291637 0 -0.0021254607515234386 -0.006096712164451892 0 -0.0021249753600160377 -0.0060573036338025269 0 -0.0020751496791182249 -0.0060875655733731394 0 -0.0021249753600160377 -0.0060573036338025269 0 -0.0020854244326510983 -0.0060297655285459434 0 -0.0020751496791182249 -0.0060875655733731394 0 -0.0021468139492371138 -0.0060404331944393383 0 -0.0021462067725079473 -0.0060178595359333033 0 -0.0020854244326510983 -0.0060297655285459434 0 -0.0021249753600160377 -0.0060573036338025269 0 -0.0021462067725079473 -0.0060178595359333033 0 -0.0020854244326510983 -0.0060297655285459434 0 -0.0021249753600160377 -0.0060573036338025269 0 -0.0021462067725079473 -0.0060178595359333033 0 -0.0021580293439735702 -0.0060479460180290958 0 -0.0021249753600160377 -0.0060573036338025269 0 -0.0021580293439735702 -0.0060479460180290958 0 -0.0021720816465472781 -0.006075294055947012 0 -0.0021580293439735702 -0.0060479460180290958 0 -0.0021883881203696698 -0.0060395821203455989 0 -0.0021720816465472781 -0.006075294055947012 0 -0.0021462067725079473 -0.0060178595359333033 0 -0.0021580293439735702 -0.0060479460180290958 0 -0.0021883881203696698 -0.0060395821203455989 0 -0.0022030603033279714 -0.0060119481624062773 0 -0.0021462067725079473 -0.0060178595359333033 0 -0.0021883881203696698 -0.0060395821203455989 0 -0.0021883881203696698 -0.0060395821203455989 0 -0.0022283488668796273 -0.0060203172995251528 0 -0.0022272162215830108 -0.0060580041541865087 0 -0.0022030603033279714 -0.0060119481624062773 0 -0.0021883881203696698 -0.0060395821203455989 0 -0.0022283488668796273 -0.0060203172995251528 0 -0.0021883881203696698 -0.0060395821203455989 0 -0.0022272162215830108 -0.0060580041541865087 0 -0.0021720816465472781 -0.006075294055947012 0 -0.0022272162215830108 -0.0060580041541865087 0 -0.0022132247395782708 -0.0060992252695970988 0 -0.0021720816465472781 -0.006075294055947012 0 -0.0022132247395782708 -0.0060992252695970988 0 -0.0021720816465472781 -0.006075294055947012 0 -0.002163640988044432 -0.0061277993936291637 0 -0.0022132247395782708 -0.0060992252695970988 0 -0.002163640988044432 -0.0061277993936291637 0 -0.0022201592832723945 -0.0061366270451715102 0 -0.0022132247395782708 -0.0060992252695970988 0 -0.0022851935830131751 -0.0061073422255636155 0 -0.0022201592832723945 -0.0061366270451715102 0 -0.0022272162215830108 -0.0060580041541865087 0 -0.0022132247395782708 -0.0060992252695970988 0 -0.0022851935830131751 -0.0061073422255636155 0 -0.0022283488668796273 -0.0060203172995251528 0 -0.0022272162215830108 -0.0060580041541865087 0 -0.0022945791133627304 -0.0060218689807376852 0 -0.0022272162215830108 -0.0060580041541865087 0 -0.0022851935830131751 -0.0061073422255636155 0 -0.0022945791133627304 -0.0060218689807376852 0 -0.0023682529620334043 -0.0060805043151140013 0 -0.0022851935830131751 -0.0061073422255636155 0 -0.0022945791133627304 -0.0060218689807376852 0 -0.0023682529620334043 -0.0060805043151140013 0 -0.0023797538228987566 -0.0061458031419440728 0 -0.0022851935830131751 -0.0061073422255636155 0 -0.0023797538228987566 -0.0061458031419440728 0 -0.00231094434651603 -0.0061680716118777661 0 -0.0023542368857028297 -0.006216591527296522 0 -0.0023797538228987566 -0.0061458031419440728 0 -0.0022851935830131751 -0.0061073422255636155 0 -0.00231094434651603 -0.0061680716118777661 0 -0.00231094434651603 -0.0061680716118777661 0 -0.0023542368857028297 -0.006216591527296522 0 -0.0022756531722668998 -0.0062356956085422863 0 -0.0022756531722668998 -0.0062356956085422863 0 -0.0022462175906997127 -0.006174068225356058 0 -0.0021816768411717529 -0.0062334656767889093 0 -0.00231094434651603 -0.0061680716118777661 0 -0.0022756531722668998 -0.0062356956085422863 0 -0.0022462175906997127 -0.006174068225356058 0 -0.0022851935830131751 -0.0061073422255636155 0 -0.00231094434651603 -0.0061680716118777661 0 -0.0022462175906997127 -0.006174068225356058 0 -0.0022851935830131751 -0.0061073422255636155 0 -0.0022462175906997127 -0.006174068225356058 0 -0.0022201592832723945 -0.0061366270451715102 0 -0.002163640988044432 -0.0061277993936291637 0 -0.0022201592832723945 -0.0061366270451715102 0 -0.0021760748422095426 -0.0061796410461358925 0 -0.0022462175906997127 -0.006174068225356058 0 -0.0022201592832723945 -0.0061366270451715102 0 -0.0021760748422095426 -0.0061796410461358925 0 -0.0022462175906997127 -0.006174068225356058 0 -0.0021760748422095426 -0.0061796410461358925 0 -0.0021816768411717529 -0.0062334656767889093 0 -0.0021760748422095426 -0.0061796410461358925 0 -0.0021063649515857354 -0.0062371233144391863 0 -0.0020995116742187222 -0.0061819601987740799 0 -0.0021760748422095426 -0.0061796410461358925 0 -0.0021816768411717529 -0.0062334656767889093 0 -0.0021063649515857354 -0.0062371233144391863 0 -0.002163640988044432 -0.0061277993936291637 0 -0.0021760748422095426 -0.0061796410461358925 0 -0.0020995116742187222 -0.0061819601987740799 0 -0.0020945630307217427 -0.0061303607708940036 0 -0.002163640988044432 -0.0061277993936291637 0 -0.0020995116742187222 -0.0061819601987740799 0 -0.0020931195314906584 -0.006375135239748848 0 -0.0021216727886800664 -0.0062824619107851734 0 -0.0021909063708358701 -0.0063032137411049806 0 -0.0021816768411717529 -0.0062334656767889093 0 -0.0021063649515857354 -0.0062371233144391863 0 -0.0021216727886800664 -0.0062824619107851734 0 -0.0020931195314906584 -0.006375135239748848 0 -0.0021216727886800664 -0.0062824619107851734 0 -0.0020342072172083252 -0.0062669259689107143 0 -0.0021063649515857354 -0.0062371233144391863 0 -0.0021216727886800664 -0.0062824619107851734 0 -0.0020342072172083252 -0.0062669259689107143 0 -0.0022756531722668998 -0.0062356956085422863 0 -0.0021816768411717529 -0.0062334656767889093 0 -0.0021909063708358701 -0.0063032137411049806 0 -0.0021816768411717529 -0.0062334656767889093 0 -0.0021216727886800664 -0.0062824619107851734 0 -0.0021909063708358701 -0.0063032137411049806 0 -0.0021909063708358701 -0.0063032137411049806 0 -0.0022820541858085061 -0.0063129865702672948 0 -0.0021997648879814101 -0.0063778396501736013 0 -0.0020931195314906584 -0.006375135239748848 0 -0.0021909063708358701 -0.0063032137411049806 0 -0.0021997648879814101 -0.0063778396501736013 0 -0.0022820541858085061 -0.0063129865702672948 0 -0.0022642378619776356 -0.0063731249072991334 0 -0.0021997648879814101 -0.0063778396501736013 0 -0.0022820541858085061 -0.0063129865702672948 0 -0.0023255852425882778 -0.0063488088739143975 0 -0.0022642378619776356 -0.0063731249072991334 0 -0.0022756531722668998 -0.0062356956085422863 0 -0.0022820541858085061 -0.0063129865702672948 0 -0.0023346077250206375 -0.006263326352946734 0 -0.0022756531722668998 -0.0062356956085422863 0 -0.0021909063708358701 -0.0063032137411049806 0 -0.0022820541858085061 -0.0063129865702672948 0 -0.0023542368857028297 -0.006216591527296522 0 -0.0022756531722668998 -0.0062356956085422863 0 -0.0023346077250206375 -0.006263326352946734 0 -0.0023542368857028297 -0.006216591527296522 0 -0.0023346077250206375 -0.006263326352946734 0 -0.0023782469256310303 -0.0062595498058665971 0 -0.0023346077250206375 -0.006263326352946734 0 -0.0023608193321472347 -0.0063028266722712483 0 -0.0023782469256310303 -0.0062595498058665971 0 -0.0022820541858085061 -0.0063129865702672948 0 -0.0023608193321472347 -0.0063028266722712483 0 -0.0023255852425882778 -0.0063488088739143975 0 -0.0023608193321472347 -0.0063028266722712483 0 -0.0023255852425882778 -0.0063488088739143975 0 -0.0024331841216055777 -0.0063152938837623693 0 -0.0022820541858085061 -0.0063129865702672948 0 -0.0023346077250206375 -0.006263326352946734 0 -0.0023608193321472347 -0.0063028266722712483 0 -0.0025840511003374488 -0.0063207864498590807 0 -0.0023176831314010542 -0.0063622169509469613 0 -0.0023255852425882778 -0.0063488088739143975 0 -0.002248699169388363 -0.0064631266040984193 0 -0.0024331841216055777 -0.0063152938837623693 0 -0.0023155998002845814 -0.0062957487015480301 0 -0.0024011232551307514 -0.0063173670052555884 0 -0.0023686742971493983 -0.0063001516916054287 0 -0.0024011232551307514 -0.0063173670052555884 0 -0.0023686742971493983 -0.0063001516916054287 0 -0.0024331841216055777 -0.0063152938837623693 0 -0.002248699169388363 -0.0064631266040984193 0 -0.0022642378619776356 -0.0063731249072991334 0 -0.0021997648879814101 -0.0063778396501736013 0 -0.0023255852425882778 -0.0063488088739143975 0 -0.002248699169388363 -0.0064631266040984193 0 -0.0022642378619776356 -0.0063731249072991334 0 -0.0020931195314906584 -0.006375135239748848 0 -0.0021470289438681673 -0.0064400544560801578 0 -0.0020551880383876562 -0.0065412841523200468 0 -0.002248699169388363 -0.0064631266040984193 0 -0.0021470289438681673 -0.0064400544560801578 0 -0.0020551880383876562 -0.0065412841523200468 0 -0.0025840511003374488 -0.0063207864498590807 0 -0.00049929288719104386 -0.0059743603610485866 0 -0.002248699169388363 -0.0064631266040984193 0 -0.0021470289438681673 -0.0064400544560801578 0 -0.0021997648879814101 -0.0063778396501736013 0 -0.0020931195314906584 -0.006375135239748848 0 -0.0021470289438681673 -0.0064400544560801578 0 -0.0021997648879814101 -0.0063778396501736013 0 -0.0038773015116321894 -0.00500608366736388 0 -0.0051878623113422668 -0.0045223110920407233 0 -0.0049751978447326413 -0.0023816628385714979 0 -0.0052037481652163148 -0.0024203216046217993 0 -0.0047779495550492697 -0.0025940983122981695 0 -0.0050965595190812498 -0.0021781026621174636 0 -0.0049751978447326413 -0.0023816628385714979 0 -0.0049195052865890505 -0.001966607791475913 0 -0.0051313714515210714 -0.0021636050259654788 0 -0.0050965595190812498 -0.0021781026621174636 0 -0.0052037481652163148 -0.0024203216046217993 0 -0.003681487612461432 -0.0033116469800560243 0 -0.0038773015116321894 -0.00500608366736388 0 -0.002506126024403808 -0.0063029775374252982 0 -0.0025040472025558477 -0.0062397405438303598 0 -0.0024656599109083512 -0.0062900671910790249 0 -0.003681487612461432 -0.0033116469800560243 0 -0.0038321368834619957 -0.0032327015105731664 0 -0.0050965595190812498 -0.0021781026621174636 0 -0.0049751978447326413 -0.0023816628385714979 0 -0.0052037481652163148 -0.0024203216046217993 0 -0.002506126024403808 -0.0063029775374252982 0 -0.0024656599109083512 -0.0062900671910790249 0 -0.0024331841216055777 -0.0063152938837623693 0 -0.0038773015116321894 -0.00500608366736388 0 -0.0018972944277213443 -0.0064721001107085549 0 -0.0024282983811367131 -0.0062258146811534519 0 -0.0025022641041265391 -0.0062520249584589252 0 -0.002406894708273607 -0.0062913261273302113 0 -0.0024282983811367131 -0.0062258146811534519 0 -0.0023782469256310303 -0.0062595498058665971 0 -0.002406894708273607 -0.0062913261273302113 0 -0.0024282983811367131 -0.0062258146811534519 0 -0.0023542368857028297 -0.006216591527296522 0 -0.0023782469256310303 -0.0062595498058665971 0 -0.002406894708273607 -0.0062913261273302113 0 -0.0024656599109083512 -0.0062900671910790249 0 -0.0024331841216055777 -0.0063152938837623693 0 -0.0023608193321472347 -0.0063028266722712483 0 -0.0023782469256310303 -0.0062595498058665971 0 -0.002406894708273607 -0.0062913261273302113 0 -0.0023608193321472347 -0.0063028266722712483 0 -0.002406894708273607 -0.0062913261273302113 0 -0.0024331841216055777 -0.0063152938837623693 0 -0.0025040472025558477 -0.0062397405438303598 0 -0.002406894708273607 -0.0062913261273302113 0 -0.0024656599109083512 -0.0062900671910790249 0 -0.0033669299190754172 -0.0037456057897665438 0 -0.003681487612461432 -0.0033116469800560243 0 -0.0024011232551307514 -0.0063173670052555884 0 -0.002506126024403808 -0.0063029775374252982 0 -0.0024331841216055777 -0.0063152938837623693 0 -0.0042463570407097837 -0.0013484906087539751 0 -0.0040020993702340885 -0.0012871217999484502 0 -0.004380079262128995 -0.001108617629873819 0 -0.0045068875259534217 -0.0013901555053249946 0 -0.0042463570407097837 -0.0013484906087539751 0 -0.004380079262128995 -0.001108617629873819 0 -0.0047867611153697498 -0.0012801986159472493 0 -0.003681487612461432 -0.0033116469800560243 0 -0.0049611963543840553 -0.0017551133615866671 0 -0.0051255067369125346 -0.0021586443491853793 0 -0.0049195052865890505 -0.001966607791475913 0 -0.0051255067369125346 -0.0021586443491853793 0 -0.0050965595190812498 -0.0021781026621174636 0 -0.0049195052865890505 -0.001966607791475913 0 -0.0049195052865890505 -0.001966607791475913 0 -0.0048097568403070098 -0.0019258436490357292 0 -0.0048540436000882939 -0.002275968146906665 0 -0.0048969457286980964 -0.001842553682400489 0 -0.0049195052865890505 -0.001966607791475913 0 -0.0048097568403070098 -0.0019258436490357292 0 -0.0049611963543840553 -0.0017551133615866671 0 -0.0048969457286980964 -0.001842553682400489 0 -0.0049195052865890505 -0.001966607791475913 0 -0.0051171477674781182 -0.0017362202706670657 0 -0.0051249371045383333 -0.0017840816907022717 0 -0.0050959755907702608 -0.0017492357586970163 0 -0.0049751978447326413 -0.0023816628385714979 0 -0.0049195052865890505 -0.001966607791475913 0 -0.0047631699248253242 -0.002477765099552943 0 -0.0049356954040916034 -0.0017038072738463793 0 -0.0052164574679136053 -0.0026690122464901856 0 -0.0051171477674781182 -0.0017362202706670657 0 -0.0051249371045383333 -0.0017840816907022717 0 -0.0051575205294467465 -0.0018265022371184404 0 -0.004855332770015746 -0.0019075484137907157 0 -0.0052164574679136053 -0.0026690122464901856 0 -0.0051249371045383333 -0.0017840816907022717 0 -0.0051324246575506641 -0.0018133968224395315 0 -0.0051575205294467465 -0.0018265022371184404 0 -0.0051324246575506641 -0.0018133968224395315 0 -0.005150596554399544 -0.0018439060776330701 0 -0.0051234753590831805 -0.0018269441286157355 0 -0.0051324246575506641 -0.0018133968224395315 0 -0.0051575205294467465 -0.0018265022371184404 0 -0.005150596554399544 -0.0018439060776330701 0 -0.0049751978447326413 -0.0023816628385714979 0 -0.0047631699248253242 -0.002477765099552943 0 -0.0047779495550492697 -0.0025940983122981695 0 -0.0051090215634451456 -0.0017919053887260142 0 -0.0051109193556032936 -0.0018198863475177307 0 -0.0051234753590831805 -0.0018269441286157355 0 -0.0051324246575506641 -0.0018133968224395315 0 -0.0051090215634451456 -0.0017919053887260142 0 -0.0051234753590831805 -0.0018269441286157355 0 -0.0051249371045383333 -0.0017840816907022717 0 -0.0051324246575506641 -0.0018133968224395315 0 -0.0051090215634451456 -0.0017919053887260142 0 -0.0051090215634451456 -0.0017919053887260142 0 -0.0050959755907702608 -0.0017492357586970163 0 -0.0051025709783382904 -0.0017614196410182274 0 -0.0051249371045383333 -0.0017840816907022717 0 -0.0051090215634451456 -0.0017919053887260142 0 -0.0050959755907702608 -0.0017492357586970163 0 -0.0050853231448629013 -0.001722716799361846 0 -0.0050593531364134603 -0.0017132058018945169 0 -0.0050959755907702608 -0.0017492357586970163 0 -0.0050593531364134603 -0.0017132058018945169 0 -0.0051171477674781182 -0.0017362202706670657 0 -0.0050959755907702608 -0.0017492357586970163 0 -0.0050853231448629013 -0.001722716799361846 0 -0.0050959755907702608 -0.0017492357586970163 0 -0.0051025709783382904 -0.0017614196410182274 0 -0.0051090215634451456 -0.0017919053887260142 0 -0.0051091255003729115 -0.001788719707971569 0 -0.0051025709783382904 -0.0017614196410182274 0 -0.0051031048137223627 -0.0017225447902916736 0 -0.0051091255003729115 -0.001788719707971569 0 -0.0051025709783382904 -0.0017614196410182274 0 -0.0051031048137223627 -0.0017225447902916736 0 -0.0050853231448629013 -0.001722716799361846 0 -0.0051025709783382904 -0.0017614196410182274 0 -0.0051181510339313799 -0.001722264253514443 0 -0.0051168689214087697 -0.0018428214249529603 0 -0.0051091255003729115 -0.001788719707971569 0 -0.0051168689214087697 -0.0018428214249529603 0 -0.0051091255003729115 -0.001788719707971569 0 -0.0051078116180002676 -0.0018393109281825352 0 -0.0051168689214087697 -0.0018428214249529603 0 -0.0051181509470261 -0.0018542633803964935 0 -0.0051078116180002676 -0.0018393109281825352 0 -0.0051091255003729115 -0.001788719707971569 0 -0.0051109193556032936 -0.0018198863475177307 0 -0.0051078116180002676 -0.0018393109281825352 0 -0.0051090215634451456 -0.0017919053887260142 0 -0.0051091255003729115 -0.001788719707971569 0 -0.0051109193556032936 -0.0018198863475177307 0 -0.0051109193556032936 -0.0018198863475177307 0 -0.0051154332647443705 -0.001856198666659608 0 -0.0051078116180002676 -0.0018393109281825352 0 -0.0051154332647443705 -0.001856198666659608 0 -0.0051078116180002676 -0.0018393109281825352 0 -0.0051116230719246789 -0.0018734989075933088 0 -0.0051181509470261 -0.0018542633803964935 0 -0.0051078116180002676 -0.0018393109281825352 0 -0.0051116230719246789 -0.0018734989075933088 0 -0.0053839508656898316 -0.0075489009961744241 0 -0.0049202740600928522 -0.0070496497381987685 0 -0.0058421517899483362 -0.0072725236171149983 0 -0.006679476183456272 -0.012240861138344493 0 -0.0064223990462956362 -0.011959792133687612 0 -0.0064225506192438159 -0.012170153263348634 0 -0.0063629925336691597 -0.011107601700318723 0 -0.0066581492941852338 -0.011786422111620556 0 -0.0063629925336691597 -0.011107601700318723 0 -0.0055825413102101804 -0.0055146886986890131 0 -0.0061084589703443515 -0.012412152572610082 0 -0.0064223990462956362 -0.011959792133687612 0 -0.0064225506192438159 -0.012170153263348634 0 -0.0056374262256670407 -0.0040175787780576703 0 -0.0055825413102101804 -0.0055146886986890131 0 -0.0061294410110662402 -0.006546618257610025 0 -0.0049202740600928522 -0.0070496497381987685 0 -0.0058421517899483362 -0.0072725236171149983 0 -0.0061294410110662402 -0.006546618257610025 0 -0.0058421517899483362 -0.0072725236171149983 0 -0.0064888870546732143 -0.0073599383321324352 0 -0.0061342437403324908 -0.0077843450689579008 0 -0.0058421517899483362 -0.0072725236171149983 0 -0.0064888870546732143 -0.0073599383321324352 0 -0.0068946062471124947 -0.0080251564328152752 0 -0.0064888870546732143 -0.0073599383321324352 0 -0.0071293551441661222 -0.0070259794201393919 0 -0.0061294410110662402 -0.006546618257610025 0 -0.0064888870546732143 -0.0073599383321324352 0 -0.0071293551441661222 -0.0070259794201393919 0 -0.004529993316716825 -0.0089088852639232219 0 -0.0050034113693772711 -0.0069222762072477422 0 -0.0059915165231184935 -0.0071474133158790963 0 -0.0050034113693772711 -0.0069222762072477422 0 -0.0059915165231184935 -0.0071474133158790963 0 -0.00548289717777946 -0.0049181554909050731 0 -0.0050083370919353862 -0.0068779568077436933 0 -0.0051878623113422668 -0.0045223110920407233 0 -0.0059915165231184935 -0.0071474133158790963 0 -0.0056920099459065844 -0.0048334272696711816 0 -0.00548289717777946 -0.0049181554909050731 0 -0.0060979001832770358 -0.006852240749084278 0 -0.0058884003485026506 -0.004420333560890599 0 -0.0054970714799130157 -0.0032140949677567916 0 -0.0056505392254477971 -0.0043669718374836916 0 -0.0051750973589530678 -0.0045590602291048525 0 -0.0052164574679136053 -0.0026690122464901856 0 -0.0051878623113422668 -0.0045223110920407233 0 -0.0052164574679136053 -0.0026690122464901856 0 -0.0058884003485026506 -0.004420333560890599 0 -0.0051878623113422668 -0.0045223110920407233 0 -0.0058884003485026506 -0.004420333560890599 0 -0.0061294410110662402 -0.006546618257610025 0 -0.0071293551441661222 -0.0070259794201393919 0 -0.007356628493215292 -0.0060288386732538623 0 -0.0051109193556032936 -0.0018198863475177307 0 -0.0051154332647443705 -0.001856198666659608 0 -0.0051234753590831805 -0.0018269441286157355 0 -0.0056374262256670407 -0.0040175787780576703 0 -0.0058884003485026506 -0.004420333560890599 0 -0.0051154332647443705 -0.001856198666659608 0 -0.005150596554399544 -0.0018439060776330701 0 -0.0051234753590831805 -0.0018269441286157355 0 -0.015796106672039154 -0.0029234133929065247 0 -0.015357461988220689 -0.0030647898000632826 0 -0.015325070169842978 -0.0027659632342040626 0 -0.015603738400888698 -0.0034373408650496384 0 -0.015263639160933918 -0.003654285540889631 0 -0.015796106672039154 -0.0029234133929065247 0 -0.015357461988220689 -0.0030647898000632826 0 -0.015407841015417754 -0.003433193276529085 0 -0.014999982982053054 -0.0031147427348160684 0 -0.015357461988220689 -0.0030647898000632826 0 -0.015325070169842978 -0.0027659632342040626 0 -0.014999982982053054 -0.0031147427348160684 0 -0.015357461988220689 -0.0030647898000632826 0 -0.015407841015417754 -0.003433193276529085 0 -0.015263639160933918 -0.003654285540889631 0 -0.015000059594414637 -0.0039459023416070146 0 -0.014999982982053054 -0.0031147427348160684 0 -0.015407841015417754 -0.003433193276529085 0 -0.015000001297761186 -0.0039459458592153995 0 -0.015245458870108475 -0.0037918451741255142 0 -0.01514268555251376 -0.0038848251455083846 0 -0.015310143959988292 -0.0039446391193340893 0 -0.01514268555251376 -0.0038848251455083846 0 -0.015310143959988292 -0.0039446391193340893 0 -0.015341063208199782 -0.0042371105703039773 0 -0.015310143959988292 -0.0039446391193340893 0 -0.015409962258045383 -0.0040162393840617655 0 -0.015357781471415904 -0.0038115134271998518 0 -0.015409962258045383 -0.0040162393840617655 0 -0.015399599520006711 -0.0038094996299593612 0 -0.015357781471415904 -0.0038115134271998518 0 -0.015399599520006711 -0.0038094996299593612 0 -0.015357781471415904 -0.0038115134271998518 0 -0.015400688071904421 -0.0037382555846836264 0 -0.015245458870108475 -0.0037918451741255142 0 -0.015310143959988292 -0.0039446391193340893 0 -0.015357781471415904 -0.0038115134271998518 0 -0.014513989063484244 -0.0020218513392004818 0 -0.014957654375090574 -0.0015622781037025063 0 -0.015603738400888698 -0.0034373408650496384 0 -0.014513989063484244 -0.0020218513392004818 0 -0.015245458870108475 -0.0037918451741255142 0 -0.015357781471415904 -0.0038115134271998518 0 -0.015310840641366496 -0.0037052092818096521 0 -0.015796106672039154 -0.0029234133929065247 0 -0.01616760946565312 -0.0024384910386344343 0 -0.015728263479884041 -0.0023206113490262677 0 -0.014513989063484244 -0.0020218513392004818 0 -0.014264986705447695 -0.0026005531203381264 0 -0.015357781471415904 -0.0038115134271998518 0 -0.015310840641366496 -0.0037052092818096521 0 -0.015400688071904421 -0.0037382555846836264 0 -0.013178376376254238 -0.0012664173182827798 0 -0.013228889563401234 -0.0012453195334984732 0 -0.013223539722052136 -0.0013277658452231149 0 -0.013178376376254238 -0.0012664173182827798 0 -0.013228889563401234 -0.0012453195334984732 0 -0.013256459775274626 -0.00118272054104764 0 -0.014513989063484244 -0.0020218513392004818 0 -0.013054370602926408 -0.00092730520528403945 0 -0.013679522898701457 -0.00065847084455136144 0 -0.013570818518476496 -0.0010115770052765924 0 -0.013256459775274626 -0.00118272054104764 0 -0.013679522898701457 -0.00065847084455136144 0 -0.013943201418882232 -0.0011291141457145672 0 -0.014156253234827132 -0.00077072263428746299 0 -0.013943201418882232 -0.0011291141457145672 0 -0.013570818518476496 -0.0010115770052765924 0 -0.013280890069052776 -0.0012518619694827245 0 -0.013679522898701457 -0.00065847084455136144 0 -0.013943201418882232 -0.0011291141457145672 0 -0.013570818518476496 -0.0010115770052765924 0 -0.014957654375090574 -0.0015622781037025063 0 -0.015067874720220371 -0.0017794932459944842 0 -0.015815964913189651 -0.0018167978212462706 0 -0.015258015635197712 -0.0021211898731597579 0 -0.015256740109712298 -0.0017233759952913041 0 -0.014862388644173012 -0.0014437935965672249 0 -0.015067874720220371 -0.0017794932459944842 0 -0.013943201418882232 -0.0011291141457145672 0 -0.014156253234827132 -0.00077072263428746299 0 -0.014651854748103734 -0.00090644408064638948 0 -0.015728263479884041 -0.0023206113490262677 0 -0.015443041724490368 -0.0024701098579684162 0 -0.015276847716499392 -0.0021930900436666011 0 -0.015796106672039154 -0.0029234133929065247 0 -0.015728263479884041 -0.0023206113490262677 0 -0.015443041724490368 -0.0024701098579684162 0 -0.015796106672039154 -0.0029234133929065247 0 -0.015325070169842978 -0.0027659632342040626 0 -0.015443041724490368 -0.0024701098579684162 0 -0.014999982982053054 -0.0031147427348160684 0 -0.015325070169842978 -0.0027659632342040626 0 -0.014999990448601924 -0.0022836366989836066 0 -0.015325070169842978 -0.0027659632342040626 0 -0.015443041724490368 -0.0024701098579684162 0 -0.014999990448601924 -0.0022836366989836066 0 -0.015067874720220371 -0.0017794932459944842 0 -0.015000225555638019 -0.0021037020746707716 0 -0.014999999498906045 -0.0022835804353127918 0 -0.015287511122991855 -0.0021762685627280615 0 -0.014999998712380086 -0.0021038835441087706 0 -0.015000050216278102 -0.0022832708845241727 0 -0.015067874720220371 -0.0017794932459944842 0 -0.015443041724490368 -0.0024701098579684162 0 -0.014999990448601924 -0.0022836366989836066 0 -0.015276847716499392 -0.0021930900436666011 0 -0.015258015635197712 -0.0021211898731597579 0 -0.014999971353171115 -0.0021036361886269997 0 -0.015256740109712298 -0.0017233759952913041 0 -0.015256740109712298 -0.0017233759952913041 0 -0.015530145102556075 -0.0014015048095775947 0 -0.014999982442032756 -0.0013459527033305978 0 -0.014999971353171115 -0.0021036361886269997 0 -0.015256740109712298 -0.0017233759952913041 0 -0.014999982442032756 -0.0013459527033305978 0 -0.015815964913189651 -0.0018167978212462706 0 -0.015256740109712298 -0.0017233759952913041 0 -0.015530145102556075 -0.0014015048095775947 0 -0.015535791806446686 -0.0013550393398077719 0 -0.016014093459387032 -0.0013449014963333268 0 -0.015560113250997843 -0.0013155558652779785 0 -0.015445005511058025 -0.00088833581040648744 0 -0.015855171699012034 -0.0010226171715041065 0 -0.015000003166511547 -0.0013456745117481777 0 -0.01499997358799089 -0.00057244230481986883 0 -0.015445005511058025 -0.00088833581040648744 0 -0.015535791806446686 -0.0013550393398077719 0 -0.01500012183370711 -0.0013458099596447037 0 -0.015560113250997843 -0.0013155558652779785 0 -0.015000003166511547 -0.0013456745117481777 0 -0.015445005511058025 -0.00088833581040648744 0 -0.01499997358799089 -0.00057244230481986883 0 -0.015445005511058025 -0.00088833581040648744 0 -0.01544323801389578 -0.00038618505950388228 0 -0.015445005511058025 -0.00088833581040648744 0 -0.015752896248795906 -0.00070920025873694658 0 -0.01544323801389578 -0.00038618505950388228 0 -0.015445005511058025 -0.00088833581040648744 0 -0.015752896248795906 -0.00070920025873694658 0 -0.015855171699012034 -0.0010226171715041065 0 -0.015752896248795906 -0.00070920025873694658 0 -0.01544323801389578 -0.00038618505950388228 0 -0.015806141989541281 -0.00043062706344262653 0 -0.015461359007794918 9.5484656618941954e-05 0 -0.01544323801389578 -0.00038618505950388228 0 -0.015635399982387384 -0.00018378534036248584 0 -0.01544323801389578 -0.00038618505950388228 0 -0.015806141989541281 -0.00043062706344262653 0 -0.015635399982387384 -0.00018378534036248584 0 -0.015806141989541281 -0.00043062706344262653 0 -0.015841400203017744 -0.00020212231570603025 0 -0.015635399982387384 -0.00018378534036248584 0 -0.015701297648171613 -7.7398883588500328e-07 0 -0.015841400203017744 -0.00020212231570603025 0 -0.015635399982387384 -0.00018378534036248584 0 -0.015461359007794918 9.5484656618941954e-05 0 -0.015701297648171613 -7.7398883588500328e-07 0 -0.015635399982387384 -0.00018378534036248584 0 -0.014999968766916288 0.00020098165522742411 0 -0.01499997358799089 -0.00057244230481986883 0 -0.01544323801389578 -0.00038618505950388228 0 -0.014999968766916288 0.00020098165522742411 0 -0.015461359007794918 9.5484656618941954e-05 0 -0.01544323801389578 -0.00038618505950388228 0 -0.016187575564367188 -0.00053667326408837648 0 -0.016293733065987571 -0.00061844472123384251 0 -0.016272482182915906 -0.00046083141526946018 0 -0.016187575564367188 -0.00053667326408837648 0 -0.016293733065987571 -0.00061844472123384251 0 -0.016184229217436293 -0.00065529776361625822 0 -0.016409024396297923 -0.0005594876648282401 0 -0.016293733065987571 -0.00061844472123384251 0 -0.016272482182915906 -0.00046083141526946018 0 -0.016409024396297923 -0.0005594876648282401 0 -0.016293733065987571 -0.00061844472123384251 0 -0.016430021173330783 -0.00073844073415461561 0 -0.016388901301630662 -0.00051888371297427861 0 -0.016198558328998407 -0.00034902450897816818 0 -0.016409024396297923 -0.0005594876648282401 0 -0.016254931940031664 -0.00045531222599726857 0 -0.016511062451235337 -0.00048657291014709192 0 -0.016187575564367188 -0.00053667326408837648 0 -0.016271834989375573 -0.00045804496521155972 0 -0.016191216828088925 -0.00040222368163019581 0 -0.016198558328998407 -0.00034902450897816818 0 -0.016029254769233486 -2.6798735754362966e-05 0 -0.016170461349719542 -0.00043800195972892663 0 -0.016198558328998407 -0.00034902450897816818 0 -0.016223591771876079 -0.00036604614402586114 0 -0.016002967514152242 -0.00050394940634259039 0 -0.01604856037284938 -0.00057814826325469583 0 -0.016029254769233486 -2.6798735754362966e-05 0 -0.016001178133278574 -0.00054003558885990714 0 -0.015915065705020447 0.00018002590403875369 0 -0.015841400203017744 -0.00020212231570603025 0 -0.016044558477593573 -0.00028567274410680585 0 -0.016187575564367188 -0.00053667326408837648 0 -0.016191216828088925 -0.00040222368163019581 0 -0.01604856037284938 -0.00057814826325469583 0 -0.015888238453442626 -0.0001279761471659668 0 -0.016223591771876079 -0.00036604614402586114 0 -0.016002967514152242 -0.00050394940634259039 0 -0.016002967514152242 -0.00050394940634259039 0 -0.01604856037284938 -0.00057814826325469583 0 -0.016107904943093668 -0.00080754372616683573 0 -0.015806141989541281 -0.00043062706344262653 0 -0.016044558477593573 -0.00028567274410680585 0 -0.016107904943093668 -0.00080754372616683573 0 -0.015806141989541281 -0.00043062706344262653 0 -0.015841400203017744 -0.00020212231570603025 0 -0.016044558477593573 -0.00028567274410680585 0 -0.016187575564367188 -0.00053667326408837648 0 -0.01604856037284938 -0.00057814826325469583 0 -0.016184229217436293 -0.00065529776361625822 0 -0.01604856037284938 -0.00057814826325469583 0 -0.016107904943093668 -0.00080754372616683573 0 -0.016184229217436293 -0.00065529776361625822 0 -0.016036429420765077 -0.00045321949748406841 0 -0.016098388169836317 -0.00073454877846387118 0 -0.015752896248795906 -0.00070920025873694658 0 -0.015806141989541281 -0.00043062706344262653 0 -0.016107904943093668 -0.00080754372616683573 0 -0.015752896248795906 -0.00070920025873694658 0 -0.016107904943093668 -0.00080754372616683573 0 -0.015855171699012034 -0.0010226171715041065 0 -0.016107904943093668 -0.00080754372616683573 0 -0.016265105130494326 -0.00090382527906475104 0 -0.016284007681074714 -0.000748367613901283 0 -0.016107904943093668 -0.00080754372616683573 0 -0.016184229217436293 -0.00065529776361625822 0 -0.016284007681074714 -0.000748367613901283 0 -0.016293733065987571 -0.00061844472123384251 0 -0.016184229217436293 -0.00065529776361625822 0 -0.016284007681074714 -0.000748367613901283 0 -0.016293733065987571 -0.00061844472123384251 0 -0.016284007681074714 -0.000748367613901283 0 -0.016430021173330783 -0.00073844073415461561 0 -0.016265105130494326 -0.00090382527906475104 0 -0.016284007681074714 -0.000748367613901283 0 -0.016421189639282133 -0.00092580403054571484 0 -0.016284007681074714 -0.000748367613901283 0 -0.016421189639282133 -0.00092580403054571484 0 -0.016430021173330783 -0.00073844073415461561 0 -0.016231656270126595 -0.0010976475576721107 0 -0.016022642421773516 -0.0012896083465641806 0 -0.016397687218321175 -0.0013305522840685281 0 -0.016265105130494326 -0.00090382527906475104 0 -0.016231656270126595 -0.0010976475576721107 0 -0.016386058465383539 -0.0011324008544556488 0 -0.016265105130494326 -0.00090382527906475104 0 -0.016421189639282133 -0.00092580403054571484 0 -0.016386058465383539 -0.0011324008544556488 0 -0.016107904943093668 -0.00080754372616683573 0 -0.016265105130494326 -0.00090382527906475104 0 -0.016231656270126595 -0.0010976475576721107 0 -0.016231656270126595 -0.0010976475576721107 0 -0.016386058465383539 -0.0011324008544556488 0 -0.016397687218321175 -0.0013305522840685281 0 -0.015560113250997843 -0.0013155558652779785 0 -0.015855171699012034 -0.0010226171715041065 0 -0.016022642421773516 -0.0012896083465641806 0 -0.016107904943093668 -0.00080754372616683573 0 -0.016231656270126595 -0.0010976475576721107 0 -0.015855171699012034 -0.0010226171715041065 0 -0.016231656270126595 -0.0010976475576721107 0 -0.015855171699012034 -0.0010226171715041065 0 -0.016022642421773516 -0.0012896083465641806 0 -0.014862388644173012 -0.0014437935965672249 0 -0.014782584518734541 -0.0013772232302837614 0 -0.015815964913189651 -0.0018167978212462706 0 -0.015530145102556075 -0.0014015048095775947 0 -0.015990853304350194 -0.0013984209811030493 0 -0.015815964913189651 -0.0018167978212462706 0 -0.015990853304350194 -0.0013984209811030493 0 -0.016288534554129257 -0.0015133598725897909 0 -0.015990853304350194 -0.0013984209811030493 0 -0.016397687218321175 -0.0013305522840685281 0 -0.016288534554129257 -0.0015133598725897909 0 -0.016014093459387032 -0.0013449014963333268 0 -0.016371593640021567 -0.0013394076057288028 0 -0.013570818518476496 -0.0010115770052765924 0 -0.013280890069052776 -0.0012518619694827245 0 -0.013256459775274626 -0.00118272054104764 0 -0.013280890069052776 -0.0012518619694827245 0 -0.013256459775274626 -0.00118272054104764 0 -0.013281254918471217 -0.0011814340160849141 0 -0.014782584518734541 -0.0013772232302837614 0 -0.01510224107203745 -0.0012419103402912907 0 -0.016397687218321175 -0.0013305522840685281 0 -0.016288534554129257 -0.0015133598725897909 0 -0.016708885460383439 -0.0012486075287597707 0 -0.013280890069052776 -0.0012518619694827245 0 -0.013281254918471217 -0.0011814340160849141 0 -0.013323661363971924 -0.0011011638674229441 0 -0.013281254918471217 -0.0011814340160849141 0 -0.013349106505226355 -0.0011723307552525474 0 -0.013323661363971924 -0.0011011638674229441 0 -0.013349106505226355 -0.0011723307552525474 0 -0.013510516456735625 -0.0010198949568691444 0 -0.013429114313906544 -0.0012025859894149165 0 -0.013349106505226355 -0.0011723307552525474 0 -0.013323661363971924 -0.0011011638674229441 0 -0.013510516456735625 -0.0010198949568691444 0 -0.016781961791800082 -0.0010127693721965958 0 -0.016975515295550546 -0.00089046676300551686 0 -0.01707746418324128 -0.0010744563370080032 0 -0.01510224107203745 -0.0012419103402912907 0 -0.014746197316083178 -0.00035734096414475735 0 -0.016708885460383439 -0.0012486075287597707 0 -0.016781961791800082 -0.0010127693721965958 0 -0.01707746418324128 -0.0010744563370080032 0 -0.016397687218321175 -0.0013305522840685281 0 -0.016708885460383439 -0.0012486075287597707 0 -0.016548464812364942 -0.001110338165335214 0 -0.016386058465383539 -0.0011324008544556488 0 -0.016397687218321175 -0.0013305522840685281 0 -0.016548464812364942 -0.001110338165335214 0 -0.016708885460383439 -0.0012486075287597707 0 -0.016781961791800082 -0.0010127693721965958 0 -0.016548464812364942 -0.001110338165335214 0 -0.016781961791800082 -0.0010127693721965958 0 -0.016548464812364942 -0.001110338165335214 0 -0.016587368370602672 -0.00089715152185759349 0 -0.016421189639282133 -0.00092580403054571484 0 -0.016548464812364942 -0.001110338165335214 0 -0.016587368370602672 -0.00089715152185759349 0 -0.016421189639282133 -0.00092580403054571484 0 -0.016386058465383539 -0.0011324008544556488 0 -0.016548464812364942 -0.001110338165335214 0 -0.016421189639282133 -0.00092580403054571484 0 -0.016430021173330783 -0.00073844073415461561 0 -0.016587368370602672 -0.00089715152185759349 0 -0.016409024396297923 -0.0005594876648282401 0 -0.016430021173330783 -0.00073844073415461561 0 -0.016587777070171388 -0.00068911726639281237 0 -0.016430021173330783 -0.00073844073415461561 0 -0.016587777070171388 -0.00068911726639281237 0 -0.016587368370602672 -0.00089715152185759349 0 -0.016587777070171388 -0.00068911726639281237 0 -0.016587368370602672 -0.00089715152185759349 0 -0.016770667713493313 -0.00084793354246723296 0 -0.016781961791800082 -0.0010127693721965958 0 -0.016587368370602672 -0.00089715152185759349 0 -0.016770667713493313 -0.00084793354246723296 0 -0.016770667713493313 -0.00084793354246723296 0 -0.016983658155103103 -0.00056331333689994855 0 -0.016975515295550546 -0.00089046676300551686 0 -0.016770667713493313 -0.00084793354246723296 0 -0.016755802853580332 -0.00064746382009219937 0 -0.016983658155103103 -0.00056331333689994855 0 -0.016781961791800082 -0.0010127693721965958 0 -0.016770667713493313 -0.00084793354246723296 0 -0.016975515295550546 -0.00089046676300551686 0 -0.016587777070171388 -0.00068911726639281237 0 -0.016770667713493313 -0.00084793354246723296 0 -0.016755802853580332 -0.00064746382009219937 0 -0.016788014697032012 -0.00031848906208616936 0 -0.016679258842773576 -0.00049001144148089529 0 -0.016983658155103103 -0.00056331333689994855 0 -0.015339186558913191 0.00096631572961176709 0 -0.014954193957652398 0.00088269169878803786 0 -0.015228103177758698 0.00055000975005384538 0 -0.016755802853580332 -0.00064746382009219937 0 -0.016679258842773576 -0.00049001144148089529 0 -0.016983658155103103 -0.00056331333689994855 0 -0.0160224059953347 0.00037222518864534631 0 -0.016228103942007011 -0.00015241545044201291 0 -0.0160224059953347 0.00037222518864534631 0 -0.016450587983973388 -0.00031085627185483208 0 -0.016593341485719046 -0.0003131316652139317 0 -0.01680081368265619 -0.00030043961547681323 0 -0.016679258842773576 -0.00049001144148089529 0 -0.016593341485719046 -0.0003131316652139317 0 -0.016679258842773576 -0.00049001144148089529 0 -0.016511062451235337 -0.00048657291014709192 0 -0.016593341485719046 -0.0003131316652139317 0 -0.016254931940031664 -0.00045531222599726857 0 -0.016511062451235337 -0.00048657291014709192 0 -0.016409024396297923 -0.0005594876648282401 0 -0.016587777070171388 -0.00068911726639281237 0 -0.016511062451235337 -0.00048657291014709192 0 -0.016587777070171388 -0.00068911726639281237 0 -0.016679258842773576 -0.00049001144148089529 0 -0.016511062451235337 -0.00048657291014709192 0 -0.016587777070171388 -0.00068911726639281237 0 -0.016755802853580332 -0.00064746382009219937 0 -0.016679258842773576 -0.00049001144148089529 0 -0.013734138939618558 0.0010308585577864817 0 -0.013708460243057325 0.0012461271524478713 0 -0.013876922332225686 0.0014512555323314752 0 -0.014360172926624721 0.0011144778859960591 0 -0.015282006912982806 0.00033369352478380948 0 -0.013708460243057325 0.0012461271524478713 0 -0.01360644173631502 0.0013934259826625492 0 -0.013572544644587814 0.0012652130165152179 0 -0.01355319447444246 0.0010899585525067758 0 -0.013708460243057325 0.0012461271524478713 0 -0.013572544644587814 0.0012652130165152179 0 -0.01355319447444246 0.0010899585525067758 0 -0.013721001508134139 0.0010512850393068556 0 -0.013708460243057325 0.0012461271524478713 0 -0.014360172926624721 0.0011144778859960591 0 -0.013794262192729364 0.0012212947286546277 0 -0.015732135279737911 0.00091248824727472525 0 -0.015228103177758698 0.00055000975005384538 0 -0.015500039155484143 0.0002181903713222623 0 -0.016983658155103103 -0.00056331333689994855 0 -0.016975515295550546 -0.00089046676300551686 0 -0.017168659277150684 -0.00080375857914642972 0 -0.016228103942007011 -0.00015241545044201291 0 -0.015282006912982806 0.00033369352478380948 0 -0.016975515295550546 -0.00089046676300551686 0 -0.017168659277150684 -0.00080375857914642972 0 -0.01707746418324128 -0.0010744563370080032 0 -0.015282006912982806 0.00033369352478380948 0 -0.013962049041581371 0.00088702877673310046 0 -0.013876922332225686 0.0014512555323314752 0 -0.01360644173631502 0.0013934259826625492 0 -0.013743884490166435 0.0016076175244065241 0 -0.013708460243057325 0.0012461271524478713 0 -0.013876922332225686 0.0014512555323314752 0 -0.01360644173631502 0.0013934259826625492 0 -0.013962049041581371 0.00088702877673310046 0 -0.014189023592114717 0.00010667161801480113 0 -0.014151367194207934 0.00019222450378514501 0 -0.01387312993651065 8.8682764301449904e-05 0 -0.014063331344399601 -0.00025975334334069023 0 -0.015282006912982806 0.00033369352478380948 0 -0.014746197316083178 -0.00035734096414475735 0 -0.013962049041581371 0.00088702877673310046 0 -0.014746197316083178 -0.00035734096414475735 0 -0.014704312720303273 0.00027631709889118023 0 -0.014703220457384094 0.00027447493050165454 0 -0.014700999924402675 0.00026926883112204171 0 -0.014746197316083178 -0.00035734096414475735 0 -0.013476518196867807 -0.0008728440149314311 0 -0.01387312993651065 8.8682764301449904e-05 0 -0.014063331344399601 -0.00025975334334069023 0 -0.013707557435210129 -0.00039630635691767719 0 -0.014206451671162513 -0.00029608162385986667 0 -0.013476518196867807 -0.0008728440149314311 0 -0.014216274462071998 -0.00036807023897897075 0 -0.014536191252859243 -0.00044741775702687367 0 -0.014561901724226622 -0.00029576129109599205 0 -0.014206451671162513 -0.00029608162385986667 0 -0.014189023592114717 0.00010667161801480113 0 -0.014151367194207934 0.00019222450378514501 0 -0.014063331344399601 -0.00025975334334069023 0 -0.01441306167999404 -0.00012572058860087709 0 -0.014216274462071998 -0.00036807023897897075 0 -0.014539501467179026 -0.00065744920401372209 0 -0.014536191252859243 -0.00044741775702687367 0 -0.014216274462071998 -0.00036807023897897075 0 -0.014539501467179026 -0.00065744920401372209 0 -0.014105809103368823 -0.00074033202182859981 0 -0.014539501467179026 -0.00065744920401372209 0 -0.014103115910809353 -0.0011349943767440362 0 -0.014105809103368823 -0.00074033202182859981 0 -0.014539501467179026 -0.00065744920401372209 0 -0.014760221039650094 -0.0015102256468569459 0 -0.014103115910809353 -0.0011349943767440362 0 -0.014760221039650094 -0.0015102256468569459 0 -0.014103115910809353 -0.0011349943767440362 0 -0.013489354009940242 -0.0017594571064389612 0 -0.014103115910809353 -0.0011349943767440362 0 -0.013588490586679665 -0.001276333131555562 0 -0.013489354009940242 -0.0017594571064389612 0 -0.013588490586679665 -0.001276333131555562 0 -0.01379710263109437 -0.00099457604389052647 0 -0.013436624928020459 -0.0011486504238905372 0 -0.014103115910809353 -0.0011349943767440362 0 -0.013588490586679665 -0.001276333131555562 0 -0.01379710263109437 -0.00099457604389052647 0 -0.014216274462071998 -0.00036807023897897075 0 -0.014105809103368823 -0.00074033202182859981 0 -0.013570747583144707 -0.00060432389722295027 0 -0.01379710263109437 -0.00099457604389052647 0 -0.013570747583144707 -0.00060432389722295027 0 -0.013436624928020459 -0.0011486504238905372 0 -0.014103115910809353 -0.0011349943767440362 0 -0.01379710263109437 -0.00099457604389052647 0 -0.014105809103368823 -0.00074033202182859981 0 -0.01379710263109437 -0.00099457604389052647 0 -0.014105809103368823 -0.00074033202182859981 0 -0.013570747583144707 -0.00060432389722295027 0 -0.013349106505226355 -0.0011723307552525474 0 -0.013429114313906544 -0.0012025859894149165 0 -0.013267798691821387 -0.0012141508892761018 0 -0.013471051722394845 -0.0010424173694893334 0 -0.013436624928020459 -0.0011486504238905372 0 -0.013267798691821387 -0.0012141508892761018 0 -0.013476518196867807 -0.0008728440149314311 0 -0.013259290648094007 -0.0012582766932737158 0 -0.013476518196867807 -0.0008728440149314311 0 -0.013446174727949459 -0.0010640942266079121 0 -0.013436624928020459 -0.0011486504238905372 0 -0.013267798691821387 -0.0012141508892761018 0 -0.013346469547056435 -0.0013190111607447414 0 -0.013256459775274626 -0.00118272054104764 0 -0.013281254918471217 -0.0011814340160849141 0 -0.013267798691821387 -0.0012141508892761018 0 -0.013228889563401234 -0.0012453195334984732 0 -0.013256459775274626 -0.00118272054104764 0 -0.013267798691821387 -0.0012141508892761018 0 -0.013281254918471217 -0.0011814340160849141 0 -0.013349106505226355 -0.0011723307552525474 0 -0.013267798691821387 -0.0012141508892761018 0 -0.013228889563401234 -0.0012453195334984732 0 -0.013267798691821387 -0.0012141508892761018 0 -0.013223539722052136 -0.0013277658452231149 0 -0.013267798691821387 -0.0012141508892761018 0 -0.013223539722052136 -0.0013277658452231149 0 -0.013346469547056435 -0.0013190111607447414 0 -0.013223539722052136 -0.0013277658452231149 0 -0.013346469547056435 -0.0013190111607447414 0 -0.013489354009940242 -0.0017594571064389612 0 -0.014264986705447695 -0.0026005531203381264 0 -0.014497720985311211 -0.0026735530454707868 0 -0.013588490586679665 -0.001276333131555562 0 -0.013436624928020459 -0.0011486504238905372 0 -0.013346469547056435 -0.0013190111607447414 0 -0.013588490586679665 -0.001276333131555562 0 -0.013346469547056435 -0.0013190111607447414 0 -0.013489354009940242 -0.0017594571064389612 0 -0.015400688071904421 -0.0037382555846836264 0 -0.015403061480587399 -0.0037590292309918455 0 -0.015350640156520382 -0.0036216250889195404 0 -0.015403061480587399 -0.0037590292309918455 0 -0.01537674936607192 -0.0036407486866993502 0 -0.015350640156520382 -0.0036216250889195404 0 -0.015399599520006711 -0.0038094996299593612 0 -0.015400688071904421 -0.0037382555846836264 0 -0.015403061480587399 -0.0037590292309918455 0 -0.015409962258045383 -0.0040162393840617655 0 -0.015403061480587399 -0.0037590292309918455 0 -0.015460717725191362 -0.0041181605131972356 0 -0.015409962258045383 -0.0040162393840617655 0 -0.015399599520006711 -0.0038094996299593612 0 -0.015403061480587399 -0.0037590292309918455 0 -0.01537674936607192 -0.0036407486866993502 0 -0.015423774765255582 -0.0037690984682848499 0 -0.015460717725191362 -0.0041181605131972356 0 -0.015403061480587399 -0.0037590292309918455 0 -0.01537674936607192 -0.0036407486866993502 0 -0.015460717725191362 -0.0041181605131972356 0 -0.01537674936607192 -0.0036407486866993502 0 -0.015423774765255582 -0.0037690984682848499 0 -0.015249139894552377 -0.0033209758981239379 0 -0.015249139894552377 -0.0033209758981239379 0 -0.015619234965240441 -0.003338515339578514 0 -0.015652093430080467 -0.0037340374836375037 0 -0.015423774765255582 -0.0037690984682848499 0 -0.015249139894552377 -0.0033209758981239379 0 -0.015652093430080467 -0.0037340374836375037 0 -0.015082450153319719 -0.0027164579316574389 0 -0.015249139894552377 -0.0033209758981239379 0 -0.015619234965240441 -0.003338515339578514 0 -0.014760221039650094 -0.0015102256468569459 0 -0.015082450153319719 -0.0027164579316574389 0 -0.013489354009940242 -0.0017594571064389612 0 -0.01537674936607192 -0.0036407486866993502 0 -0.015249139894552377 -0.0033209758981239379 0 -0.015350640156520382 -0.0036216250889195404 0 -0.015099820644054421 -0.0027540863798896143 0 -0.014497720985311211 -0.0026735530454707868 0 -0.015082450153319719 -0.0027164579316574389 0 -0.015249139894552377 -0.0033209758981239379 0 -0.015350640156520382 -0.0036216250889195404 0 -0.014369076014488197 -0.00064176764475088648 0 -0.014327873474346553 -0.00071296432773413135 0 -0.01439296084770751 -0.00063536969114071681 0 -0.014237843042681322 -0.00054940670530934555 0 -0.01435187709798055 -0.00050348493072607207 0 -0.01429304109044304 -0.00062641744322773803 0 -0.01439296084770751 -0.00063536969114071681 0 -0.014294830916231457 -0.00087691949641133401 0 -0.01439296084770751 -0.00063536969114071681 0 -0.014294830916231457 -0.00087691949641133401 0 -0.014406656298250328 -0.00086685217220162198 0 -0.014760221039650094 -0.0015102256468569459 0 -0.015082450153319719 -0.0027164579316574389 0 -0.016113715973565177 -0.0029887306988568545 0 -0.015082450153319719 -0.0027164579316574389 0 -0.016113715973565177 -0.0029887306988568545 0 -0.015619234965240441 -0.003338515339578514 0 -0.01429304109044304 -0.00062641744322773803 0 -0.01439296084770751 -0.00063536969114071681 0 -0.014932315210523487 -0.0008795746656824826 0 -0.015183927247916109 -0.001836432433261247 0 -0.014978340622671246 -0.0010030889762861199 0 -0.015619234965240441 -0.003338515339578514 0 -0.01637046667027478 -0.0039716024526929685 0 -0.015652093430080467 -0.0037340374836375037 0 -0.016113715973565177 -0.0029887306988568545 0 -0.015619234965240441 -0.003338515339578514 0 -0.01637046667027478 -0.0039716024526929685 0 -0.01429304109044304 -0.00062641744322773803 0 -0.014294830916231457 -0.00087691949641133401 0 -0.014050004845461966 -0.0012203296927883731 0 -0.015183927247916109 -0.001836432433261247 0 -0.015223415632418179 -0.0026052985978799962 0 -0.014294830916231457 -0.00087691949641133401 0 -0.014406656298250328 -0.00086685217220162198 0 -0.014381223713191393 -0.0012344572432706131 0 -0.014237843042681322 -0.00054940670530934555 0 -0.014323196325622366 -0.00048443296592000671 0 -0.014456788355864482 -0.00085663717209872106 0 -0.014406656298250328 -0.00086685217220162198 0 -0.014766159707422954 -0.0010671469253282261 0 -0.014381223713191393 -0.0012344572432706131 0 -0.014327873474346553 -0.00071296432773413135 0 -0.014628614477850684 -0.00096316017748104051 0 -0.014237843042681322 -0.00054940670530934555 0 -0.014323196325622366 -0.00048443296592000671 0 -0.014246157017223669 -0.0003224289173153337 0 -0.014237843042681322 -0.00054940670530934555 0 -0.014246157017223669 -0.0003224289173153337 0 -0.01435187709798055 -0.00050348493072607207 0 -0.014246157017223669 -0.0003224289173153337 0 -0.014312677522014509 -0.00026301584483303845 0 -0.01435187709798055 -0.00050348493072607207 0 -0.014323196325622366 -0.00048443296592000671 0 -0.014246157017223669 -0.0003224289173153337 0 -0.014327482696080085 -0.00015872217445150844 0 -0.014246157017223669 -0.0003224289173153337 0 -0.014168613658163336 7.2957884094036564e-06 0 -0.014327482696080085 -0.00015872217445150844 0 -0.014168613658163336 7.2957884094036564e-06 0 -0.014312677522014509 -0.00026301584483303845 0 -0.014141531947461919 0.00013424891811988289 0 -0.014246157017223669 -0.0003224289173153337 0 -0.014168613658163336 7.2957884094036564e-06 0 -0.014312677522014509 -0.00026301584483303845 0 -0.014312677522014509 -0.00026301584483303845 0 -0.014546371464636018 -0.00053216654351350562 0 -0.01435187709798055 -0.00050348493072607207 0 -0.014312677522014509 -0.00026301584483303845 0 -0.014546371464636018 -0.00053216654351350562 0 -0.014453133526015439 -0.00030156238785852721 0 -0.014546371464636018 -0.00053216654351350562 0 -0.014643900280337675 -0.00052656161821288858 0 -0.014453133526015439 -0.00030156238785852721 0 -0.01439296084770751 -0.00063536969114071681 0 -0.01435187709798055 -0.00050348493072607207 0 -0.014932315210523487 -0.0008795746656824826 0 -0.014546371464636018 -0.00053216654351350562 0 -0.01435187709798055 -0.00050348493072607207 0 -0.014932315210523487 -0.0008795746656824826 0 -0.014760221039650094 -0.0015102256468569459 0 -0.016113715973565177 -0.0029887306988568545 0 -0.014932315210523487 -0.0008795746656824826 0 -0.014539501467179026 -0.00065744920401372209 0 -0.014760221039650094 -0.0015102256468569459 0 -0.014932315210523487 -0.0008795746656824826 0 -0.014539501467179026 -0.00065744920401372209 0 -0.014932315210523487 -0.0008795746656824826 0 -0.014643900280337675 -0.00052656161821288858 0 -0.014546371464636018 -0.00053216654351350562 0 -0.014932315210523487 -0.0008795746656824826 0 -0.014643900280337675 -0.00052656161821288858 0 -0.014539501467179026 -0.00065744920401372209 0 -0.014643900280337675 -0.00052656161821288858 0 -0.014536191252859243 -0.00044741775702687367 0 -0.01455986813817603 -0.00036996750027796279 0 -0.014572080414539728 -0.00038506405590891504 0 -0.014307108061055063 -0.00011975125535431719 0 -0.014643900280337675 -0.00052656161821288858 0 -0.014536191252859243 -0.00044741775702687367 0 -0.01455986813817603 -0.00036996750027796279 0 -0.014536191252859243 -0.00044741775702687367 0 -0.01455986813817603 -0.00036996750027796279 0 -0.014561901724226622 -0.00029576129109599205 0 -0.014643900280337675 -0.00052656161821288858 0 -0.01455986813817603 -0.00036996750027796279 0 -0.014453133526015439 -0.00030156238785852721 0 -0.014516954128070452 -0.0002954778975251925 0 -0.014189023592114717 0.00010667161801480113 0 -0.01455986813817603 -0.00036996750027796279 0 -0.014453133526015439 -0.00030156238785852721 0 -0.014307108061055063 -0.00011975125535431719 0 -0.014453133526015439 -0.00030156238785852721 0 -0.014307108061055063 -0.00011975125535431719 0 -0.01428738764409104 -0.00010889115411238571 0 -0.014312677522014509 -0.00026301584483303845 0 -0.014453133526015439 -0.00030156238785852721 0 -0.01428738764409104 -0.00010889115411238571 0 -0.0137054871603811 0.0011899570272556764 0 -0.013568654737972733 0.001150071643273583 0 -0.013625411244656606 0.0011233786729580302 0 -0.014189023592114717 0.00010667161801480113 0 -0.013957431992653023 0.00057004118257552325 0 -0.013568654737972733 0.001150071643273583 0 -0.013625411244656606 0.0011233786729580302 0 -0.013545085521736009 0.0010913075393616139 0 -0.013775514132006393 0.0011071773809039479 0 -0.013683366497141665 0.0011217563344027421 0 -0.013625644031652617 0.0010646175562609738 0 -0.013775514132006393 0.0011071773809039479 0 -0.0137054871603811 0.0011899570272556764 0 -0.013683366497141665 0.0011217563344027421 0 -0.0137054871603811 0.0011899570272556764 0 -0.013625411244656606 0.0011233786729580302 0 -0.013683366497141665 0.0011217563344027421 0 -0.013625411244656606 0.0011233786729580302 0 -0.013683366497141665 0.0011217563344027421 0 -0.013625644031652617 0.0010646175562609738 0 -0.013962049041581371 0.00088702877673310046 0 -0.013452699446683073 0.0013342277503883219 0 -0.01360644173631502 0.0013934259826625492 0 -0.013743884490166435 0.0016076175244065241 0 -0.01333942544526134 0.0014736819483927577 0 -0.01360644173631502 0.0013934259826625492 0 -0.01342037941987282 0.0013353374486308246 0 -0.01333942544526134 0.0014736819483927577 0 -0.01342037941987282 0.0013353374486308246 0 -0.01333942544526134 0.0014736819483927577 0 -0.01333858428497325 0.0013732585358528849 0 -0.013452699446683073 0.0013342277503883219 0 -0.01327019993909144 0.0012088926138493074 0 -0.013625644031652617 0.0010646175562609738 0 -0.013480707149275614 0.0010354923424830502 0 -0.013545085521736009 0.0010913075393616139 0 -0.013625411244656606 0.0011233786729580302 0 -0.013625644031652617 0.0010646175562609738 0 -0.013545085521736009 0.0010913075393616139 0 -0.01333942544526134 0.0014736819483927577 0 -0.013247190695056215 0.0013580515646368001 0 -0.013047500335861413 0.0014052818433209311 0 -0.01333942544526134 0.0014736819483927577 0 -0.01333858428497325 0.0013732585358528849 0 -0.013247190695056215 0.0013580515646368001 0 -0.01334512026264667 0.0013376652981315631 0 -0.013247190695056215 0.0013580515646368001 0 -0.013297680246290371 0.0012884031865294453 0 -0.01333858428497325 0.0013732585358528849 0 -0.01334512026264667 0.0013376652981315631 0 -0.013247190695056215 0.0013580515646368001 0 -0.013194167628798621 0.001221534431685676 0 -0.013247190695056215 0.0013580515646368001 0 -0.013136605626672383 0.0013090915306527501 0 -0.013194167628798621 0.001221534431685676 0 -0.013247190695056215 0.0013580515646368001 0 -0.013297680246290371 0.0012884031865294453 0 -0.01334512026264667 0.0013376652981315631 0 -0.013297680246290371 0.0012884031865294453 0 -0.013391345286078014 0.001342277323755901 0 -0.013274932188484584 0.0011877369575809032 0 -0.013297680246290371 0.0012884031865294453 0 -0.013391345286078014 0.001342277323755901 0 -0.013297964897970334 0.001413072419501456 0 -0.01342037941987282 0.0013353374486308246 0 -0.013391345286078014 0.001342277323755901 0 -0.01355319447444246 0.0010899585525067758 0 -0.01342037941987282 0.0013353374486308246 0 -0.013572544644587814 0.0012652130165152179 0 -0.013411077220035263 0.0012664134273920385 0 -0.01341457664813818 0.0013265316702043791 0 -0.01360644173631502 0.0013934259826625492 0 -0.01342037941987282 0.0013353374486308246 0 -0.013572544644587814 0.0012652130165152179 0 -0.01342037941987282 0.0013353374486308246 0 -0.01334512026264667 0.0013376652981315631 0 -0.013391345286078014 0.001342277323755901 0 -0.01342037941987282 0.0013353374486308246 0 -0.01333858428497325 0.0013732585358528849 0 -0.01334512026264667 0.0013376652981315631 0 -0.012923381109867193 0.001233507119492455 0 -0.013047500335861413 0.0014052818433209311 0 -0.012723097073005729 0.0012919429209348912 0 -0.01327019993909144 0.0012088926138493074 0 -0.013024353330593069 0.0011749062776510186 0 -0.013480707149275614 0.0010354923424830502 0 -0.013400542594016518 0.0010659866535325992 0 -0.013341997054120567 0.0010219908026250038 0 -0.013247190695056215 0.0013580515646368001 0 -0.013047500335861413 0.0014052818433209311 0 -0.013136605626672383 0.0013090915306527501 0 -0.013063235005549742 0.0012136245899000435 0 -0.012923381109867193 0.001233507119492455 0 -0.013047500335861413 0.0014052818433209311 0 -0.013063235005549742 0.0012136245899000435 0 -0.013047500335861413 0.0014052818433209311 0 -0.013136605626672383 0.0013090915306527501 0 -0.013063235005549742 0.0012136245899000435 0 -0.013194167628798621 0.001221534431685676 0 -0.013136605626672383 0.0013090915306527501 0 -0.013480707149275614 0.0010354923424830502 0 -0.013545085521736009 0.0010913075393616139 0 -0.013434672930727826 0.0011091846774809718 0 -0.013480707149275614 0.0010354923424830502 0 -0.013400542594016518 0.0010659866535325992 0 -0.013434672930727826 0.0011091846774809718 0 -0.013968858402281912 0.0004000364483889058 0 -0.014141531947461919 0.00013424891811988289 0 -0.013997323200157742 0.00057989130196318007 0 -0.013957431992653023 0.00057004118257552325 0 -0.013722338563925957 0.00077743045491219555 0 -0.013568654737972733 0.001150071643273583 0 -0.013545085521736009 0.0010913075393616139 0 -0.013434672930727826 0.0011091846774809718 0 -0.014307108061055063 -0.00011975125535431719 0 -0.013968858402281912 0.0004000364483889058 0 -0.014141531947461919 0.00013424891811988289 0 -0.014307108061055063 -0.00011975125535431719 0 -0.014141531947461919 0.00013424891811988289 0 -0.01428738764409104 -0.00010889115411238571 0 -0.014312677522014509 -0.00026301584483303845 0 -0.014141531947461919 0.00013424891811988289 0 -0.01428738764409104 -0.00010889115411238571 0 -0.014168613658163336 7.2957884094036564e-06 0 -0.014141531947461919 0.00013424891811988289 0 -0.013997323200157742 0.00057989130196318007 0 -0.013997323200157742 0.00057989130196318007 0 -0.013547712416977805 0.00088621684053520622 0 -0.013530373832638106 0.0010641241405148017 0 -0.013997323200157742 0.00057989130196318007 0 -0.013547712416977805 0.00088621684053520622 0 -0.013475275882597882 0.00090778756979838682 0 -0.014021817205853663 0.00059714350512955056 0 -0.014235943439368312 0.00055968392772385114 0 -0.013319670816393162 0.001246335815186201 0 -0.013640690889836899 0.00080545439020419073 0 -0.013365632872908989 0.0010827486446205036 0 -0.013997323200157742 0.00057989130196318007 0 -0.013475275882597882 0.00090778756979838682 0 -0.013640690889836899 0.00080545439020419073 0 -0.013475275882597882 0.00090778756979838682 0 -0.013319670816393162 0.001246335815186201 0 -0.013640690889836899 0.00080545439020419073 0 -0.013968858402281912 0.0004000364483889058 0 -0.013997323200157742 0.00057989130196318007 0 -0.013640690889836899 0.00080545439020419073 0 -0.013722338563925957 0.00077743045491219555 0 -0.013444872377346177 0.0010289968769014004 0 -0.013400542594016518 0.0010659866535325992 0 -0.013434672930727826 0.0011091846774809718 0 -0.013365632872908989 0.0010827486446205036 0 -0.013400542594016518 0.0010659866535325992 0 -0.013365632872908989 0.0010827486446205036 0 -0.013341997054120567 0.0010219908026250038 0 -0.013968858402281912 0.0004000364483889058 0 -0.013640690889836899 0.00080545439020419073 0 -0.013365632872908989 0.0010827486446205036 0 -0.013365632872908989 0.0010827486446205036 0 -0.013014904845542146 0.0011581062574793786 0 -0.012813453313661157 0.0012979907982161173 0 -0.013319670816393162 0.001246335815186201 0 -0.013365632872908989 0.0010827486446205036 0 -0.012813453313661157 0.0012979907982161173 0 -0.012504098185229023 0.0011685114186286178 0 -0.013014904845542146 0.0011581062574793786 0 -0.012813453313661157 0.0012979907982161173 0 -0.012504098185229023 0.0011685114186286178 0 -0.013014904845542146 0.0011581062574793786 0 -0.013341997054120567 0.0010219908026250038 0 -0.013365632872908989 0.0010827486446205036 0 -0.013014904845542146 0.0011581062574793786 0 -0.013341997054120567 0.0010219908026250038 0 -0.012564308471498349 0.0011532704818391177 0 -0.013024353330593069 0.0011749062776510186 0 -0.011845239422534071 0.0016174402753307577 0 -0.012263171887996051 0.0013884984817269313 0 -0.012394556116688755 0.0015956654375712486 0 -0.011743928762876556 0.0013731318014512423 0 -0.011845239422534071 0.0016174402753307577 0 -0.012263171887996051 0.0013884984817269313 0 -0.012263171887996051 0.0013884984817269313 0 -0.012813453313661157 0.0012979907982161173 0 -0.012394556116688755 0.0015956654375712486 0 -0.012504098185229023 0.0011685114186286178 0 -0.012263171887996051 0.0013884984817269313 0 -0.012813453313661157 0.0012979907982161173 0 -0.013319670816393162 0.001246335815186201 0 -0.012813453313661157 0.0012979907982161173 0 -0.012394556116688755 0.0015956654375712486 0 -0.011845239422534071 0.0016174402753307577 0 -0.012394556116688755 0.0015956654375712486 0 -0.011860243436729751 0.0020293631626565971 0 -0.012394556116688755 0.0015956654375712486 0 -0.011860243436729751 0.0020293631626565971 0 -0.01216300475545566 0.0023037913305544709 0 -0.011417382444976717 0.0024991164215390476 0 -0.011860243436729751 0.0020293631626565971 0 -0.01216300475545566 0.0023037913305544709 0 -0.013319670816393162 0.001246335815186201 0 -0.012394556116688755 0.0015956654375712486 0 -0.01216300475545566 0.0023037913305544709 0 -0.01323024524242195 0.0013153677916076809 0 -0.012878047903208721 0.0016132871197399653 0 -0.013475275882597882 0.00090778756979838682 0 -0.013319670816393162 0.001246335815186201 0 -0.013530790884043168 0.00094064235053854339 0 -0.013475275882597882 0.00090778756979838682 0 -0.013530790884043168 0.00094064235053854339 0 -0.013499321791234741 0.00092217333681376642 0 -0.013547712416977805 0.00088621684053520622 0 -0.013475275882597882 0.00090778756979838682 0 -0.013499321791234741 0.00092217333681376642 0 -0.013499321791234741 0.00092217333681376642 0 -0.013477585121407527 0.00094952958613558165 0 -0.0134800948454326 0.00097359866573953836 0 -0.013499321791234741 0.00092217333681376642 0 -0.0134800948454326 0.00097359866573953836 0 -0.013500097343430875 0.00096675043824541711 0 -0.013547712416977805 0.00088621684053520622 0 -0.013499321791234741 0.00092217333681376642 0 -0.013500097343430875 0.00096675043824541711 0 -0.013547712416977805 0.00088621684053520622 0 -0.013500097343430875 0.00096675043824541711 0 -0.013517999197612058 0.00098327093854871841 0 -0.013440711325553124 0.00094578496177063912 0 -0.013530790884043168 0.00094064235053854339 0 -0.013477585121407527 0.00094952958613558165 0 -0.013530790884043168 0.00094064235053854339 0 -0.013499321791234741 0.00092217333681376642 0 -0.013477585121407527 0.00094952958613558165 0 -0.013477585121407527 0.00094952958613558165 0 -0.013454550592845477 0.00098964276015648983 0 -0.0134800948454326 0.00097359866573953836 0 -0.013440711325553124 0.00094578496177063912 0 -0.013477585121407527 0.00094952958613558165 0 -0.013435064686555802 0.00096758707618972001 0 -0.013477585121407527 0.00094952958613558165 0 -0.013435064686555802 0.00096758707618972001 0 -0.013454550592845477 0.00098964276015648983 0 -0.013411797948204665 0.00099044349796165144 0 -0.013454550592845477 0.00098964276015648983 0 -0.013433950285386123 0.0010172799334180384 0 -0.013411797948204665 0.00099044349796165144 0 -0.013435064686555802 0.00096758707618972001 0 -0.013454550592845477 0.00098964276015648983 0 -0.013454550592845477 0.00098964276015648983 0 -0.013473645820646522 0.0010117297101576897 0 -0.0134800948454326 0.00097359866573953836 0 -0.013454550592845477 0.00098964276015648983 0 -0.013458432702483493 0.0010213754731161276 0 -0.013473645820646522 0.0010117297101576897 0 -0.013458432702483493 0.0010213754731161276 0 -0.013476102228684178 0.0010340798905683357 0 -0.013473645820646522 0.0010117297101576897 0 -0.013458432702483493 0.0010213754731161276 0 -0.01344899162252052 0.0010356873012905196 0 -0.01346229261763562 0.0010354689594042113 0 -0.013458432702483493 0.0010213754731161276 0 -0.01346229261763562 0.0010354689594042113 0 -0.013476102228684178 0.0010340798905683357 0 -0.013454550592845477 0.00098964276015648983 0 -0.013458432702483493 0.0010213754731161276 0 -0.013433950285386123 0.0010172799334180384 0 -0.013458432702483493 0.0010213754731161276 0 -0.013433950285386123 0.0010172799334180384 0 -0.01344899162252052 0.0010356873012905196 0 -0.013381795608412832 0.001054636573001826 0 -0.01342309365138817 0.0010342892075724981 0 -0.013456099195873317 0.0010459202674420634 0 -0.01342309365138817 0.0010342892075724981 0 -0.01344899162252052 0.0010356873012905196 0 -0.013456099195873317 0.0010459202674420634 0 -0.01449849966313666 0.00011912829915900841 0 -0.014775371604026475 2.9810706496368739e-05 0 -0.014766911324962134 7.1237661376570463e-05 0 -0.013433950285386123 0.0010172799334180384 0 -0.01342309365138817 0.0010342892075724981 0 -0.01344899162252052 0.0010356873012905196 0 -0.01346229261763562 0.0010354689594042113 0 -0.013456099195873317 0.0010459202674420634 0 -0.013476102228684178 0.0010340798905683357 0 -0.01344899162252052 0.0010356873012905196 0 -0.01346229261763562 0.0010354689594042113 0 -0.013456099195873317 0.0010459202674420634 0 -0.015527734812511086 -0.00039488667686570937 0 -0.015161502851590432 -0.00029217595624469594 0 -0.014948317044225209 6.2787458555184255e-05 0 -0.015066482708914935 -0.0001390648797358452 0 -0.014992384892201085 2.9351652769153849e-05 0 -0.014775371604026475 2.9810706496368739e-05 0 -0.014766911324962134 7.1237661376570463e-05 0 -0.014948317044225209 6.2787458555184255e-05 0 -0.015161502851590432 -0.00029217595624469594 0 -0.015011080099167875 -0.00033920291089952159 0 -0.015164263039082101 -0.00047380529049547766 0 -0.015161502851590432 -0.00029217595624469594 0 -0.015011080099167875 -0.00033920291089952159 0 -0.014947786763238437 -0.00017141920052337895 0 -0.015527734812511086 -0.00039488667686570937 0 -0.015161502851590432 -0.00029217595624469594 0 -0.015347272028289187 -0.00049146420906530765 0 -0.015161502851590432 -0.00029217595624469594 0 -0.014948317044225209 6.2787458555184255e-05 0 -0.014947786763238437 -0.00017141920052337895 0 -0.013456099195873317 0.0010459202674420634 0 -0.013500939076317307 0.0010446597137455682 0 -0.013530373832638106 0.0010641241405148017 0 -0.014775371604026475 2.9810706496368739e-05 0 -0.014948317044225209 6.2787458555184255e-05 0 -0.014965298539317731 8.9922183135666704e-05 0 -0.014058427522814382 0.0005522972115633494 0 -0.014235943439368312 0.00055968392772385114 0 -0.013456099195873317 0.0010459202674420634 0 -0.013500939076317307 0.0010446597137455682 0 -0.013476102228684178 0.0010340798905683357 0 -0.013500939076317307 0.0010446597137455682 0 -0.013476102228684178 0.0010340798905683357 0 -0.01348723490843263 0.0010099844035710858 0 -0.013476102228684178 0.0010340798905683357 0 -0.013473645820646522 0.0010117297101576897 0 -0.01348723490843263 0.0010099844035710858 0 -0.01348723490843263 0.0010099844035710858 0 -0.0134800948454326 0.00097359866573953836 0 -0.013500097343430875 0.00096675043824541711 0 -0.013473645820646522 0.0010117297101576897 0 -0.01348723490843263 0.0010099844035710858 0 -0.0134800948454326 0.00097359866573953836 0 -0.013500939076317307 0.0010446597137455682 0 -0.013505685555301676 0.001013018495039488 0 -0.013530373832638106 0.0010641241405148017 0 -0.013505685555301676 0.001013018495039488 0 -0.013517999197612058 0.00098327093854871841 0 -0.013530373832638106 0.0010641241405148017 0 -0.013500939076317307 0.0010446597137455682 0 -0.01348723490843263 0.0010099844035710858 0 -0.013505685555301676 0.001013018495039488 0 -0.013505685555301676 0.001013018495039488 0 -0.013500097343430875 0.00096675043824541711 0 -0.013517999197612058 0.00098327093854871841 0 -0.01348723490843263 0.0010099844035710858 0 -0.013505685555301676 0.001013018495039488 0 -0.013500097343430875 0.00096675043824541711 0 -0.013547712416977805 0.00088621684053520622 0 -0.013517999197612058 0.00098327093854871841 0 -0.013530373832638106 0.0010641241405148017 0 -0.013997323200157742 0.00057989130196318007 0 -0.014965298539317731 8.9922183135666704e-05 0 -0.01461746803387015 -6.2160423247647096e-05 0 -0.014965298539317731 8.9922183135666704e-05 0 -0.01461746803387015 -6.2160423247647096e-05 0 -0.014823524213236674 -5.1119371815336559e-05 0 -0.014948317044225209 6.2787458555184255e-05 0 -0.014965298539317731 8.9922183135666704e-05 0 -0.014823524213236674 -5.1119371815336559e-05 0 -0.013997323200157742 0.00057989130196318007 0 -0.01461746803387015 -6.2160423247647096e-05 0 -0.014327482696080085 -0.00015872217445150844 0 -0.014168613658163336 7.2957884094036564e-06 0 -0.013997323200157742 0.00057989130196318007 0 -0.014327482696080085 -0.00015872217445150844 0 -0.01461746803387015 -6.2160423247647096e-05 0 -0.014327482696080085 -0.00015872217445150844 0 -0.014557441616374572 -0.00040104338371645484 0 -0.014323196325622366 -0.00048443296592000671 0 -0.014327482696080085 -0.00015872217445150844 0 -0.014557441616374572 -0.00040104338371645484 0 -0.01461746803387015 -6.2160423247647096e-05 0 -0.014803270096083745 -0.00025888848249662488 0 -0.014557441616374572 -0.00040104338371645484 0 -0.014948317044225209 6.2787458555184255e-05 0 -0.014823524213236674 -5.1119371815336559e-05 0 -0.014947786763238437 -0.00017141920052337895 0 -0.014823524213236674 -5.1119371815336559e-05 0 -0.014947786763238437 -0.00017141920052337895 0 -0.014803270096083745 -0.00025888848249662488 0 -0.01461746803387015 -6.2160423247647096e-05 0 -0.014823524213236674 -5.1119371815336559e-05 0 -0.014803270096083745 -0.00025888848249662488 0 -0.015011080099167875 -0.00033920291089952159 0 -0.014947786763238437 -0.00017141920052337895 0 -0.014803270096083745 -0.00025888848249662488 0 -0.015011080099167875 -0.00033920291089952159 0 -0.014803270096083745 -0.00025888848249662488 0 -0.0148876422566072 -0.0005603136693897653 0 -0.014803270096083745 -0.00025888848249662488 0 -0.0148876422566072 -0.0005603136693897653 0 -0.014557441616374572 -0.00040104338371645484 0 -0.014323196325622366 -0.00048443296592000671 0 -0.014557441616374572 -0.00040104338371645484 0 -0.014456788355864482 -0.00085663717209872106 0 -0.0148876422566072 -0.0005603136693897653 0 -0.014557441616374572 -0.00040104338371645484 0 -0.014456788355864482 -0.00085663717209872106 0 -0.014456788355864482 -0.00085663717209872106 0 -0.015145091282884453 -0.00086306975696657151 0 -0.015114298263454574 -0.0012183157802868182 0 -0.0148876422566072 -0.0005603136693897653 0 -0.014456788355864482 -0.00085663717209872106 0 -0.015145091282884453 -0.00086306975696657151 0 -0.014628614477850684 -0.00096316017748104051 0 -0.015092654596498502 -0.0011997117911842197 0 -0.015145091282884453 -0.00086306975696657151 0 -0.015516748136608272 -0.00092751001268325645 0 -0.015362058617018086 -0.00066653320259470433 0 -0.015145091282884453 -0.00086306975696657151 0 -0.015516748136608272 -0.00092751001268325645 0 -0.015114298263454574 -0.0012183157802868182 0 -0.015807042460164858 -0.00091158811564857336 0 -0.015783405748236064 -0.0011281052514567373 0 -0.015516748136608272 -0.00092751001268325645 0 -0.015807042460164858 -0.00091158811564857336 0 -0.015516748136608272 -0.00092751001268325645 0 -0.015704543691077884 -0.00070987040906170902 0 -0.015516748136608272 -0.00092751001268325645 0 -0.015515440171704085 -0.00062310668690509596 0 -0.015362058617018086 -0.00066653320259470433 0 -0.015515440171704085 -0.00062310668690509596 0 -0.015347272028289187 -0.00049146420906530765 0 -0.015362058617018086 -0.00066653320259470433 0 -0.015516748136608272 -0.00092751001268325645 0 -0.015515440171704085 -0.00062310668690509596 0 -0.015704543691077884 -0.00070987040906170902 0 -0.015527734812511086 -0.00039488667686570937 0 -0.015515440171704085 -0.00062310668690509596 0 -0.015704543691077884 -0.00070987040906170902 0 -0.015527734812511086 -0.00039488667686570937 0 -0.015515440171704085 -0.00062310668690509596 0 -0.015347272028289187 -0.00049146420906530765 0 -0.015161502851590432 -0.00029217595624469594 0 -0.015347272028289187 -0.00049146420906530765 0 -0.015164263039082101 -0.00047380529049547766 0 -0.015347272028289187 -0.00049146420906530765 0 -0.015164263039082101 -0.00047380529049547766 0 -0.015362058617018086 -0.00066653320259470433 0 -0.015145091282884453 -0.00086306975696657151 0 -0.015164263039082101 -0.00047380529049547766 0 -0.015362058617018086 -0.00066653320259470433 0 -0.0148876422566072 -0.0005603136693897653 0 -0.015145091282884453 -0.00086306975696657151 0 -0.015164263039082101 -0.00047380529049547766 0 -0.015011080099167875 -0.00033920291089952159 0 -0.0148876422566072 -0.0005603136693897653 0 -0.015164263039082101 -0.00047380529049547766 0 -0.0155945084036273 -0.0014194692428199499 0 -0.015114298263454574 -0.0012183157802868182 0 -0.015259795948789547 -0.0018134025308920428 0 -0.015914816106333309 -0.0017050244325324559 0 -0.0155945084036273 -0.0014194692428199499 0 -0.015623666169350884 -0.0017742700995146321 0 -0.0155945084036273 -0.0014194692428199499 0 -0.015259795948789547 -0.0018134025308920428 0 -0.015623666169350884 -0.0017742700995146321 0 -0.015783405748236064 -0.0011281052514567373 0 -0.015516748136608272 -0.00092751001268325645 0 -0.0155945084036273 -0.0014194692428199499 0 -0.015516748136608272 -0.00092751001268325645 0 -0.0155945084036273 -0.0014194692428199499 0 -0.015114298263454574 -0.0012183157802868182 0 -0.014766159707422954 -0.0010671469253282261 0 -0.015114298263454574 -0.0012183157802868182 0 -0.014924311279775979 -0.0015119246037594235 0 -0.014766159707422954 -0.0010671469253282261 0 -0.014924311279775979 -0.0015119246037594235 0 -0.014591292826942675 -0.0016201556349827234 0 -0.014924311279775979 -0.0015119246037594235 0 -0.014868653132343016 -0.0019426947321962143 0 -0.014591292826942675 -0.0016201556349827234 0 -0.015114298263454574 -0.0012183157802868182 0 -0.014924311279775979 -0.0015119246037594235 0 -0.015259795948789547 -0.0018134025308920428 0 -0.014924311279775979 -0.0015119246037594235 0 -0.014868653132343016 -0.0019426947321962143 0 -0.015259795948789547 -0.0018134025308920428 0 -0.014868653132343016 -0.0019426947321962143 0 -0.015242014186770811 -0.0022918799588089265 0 -0.015259795948789547 -0.0018134025308920428 0 -0.014868653132343016 -0.0019426947321962143 0 -0.014784457780699532 -0.002365671347461695 0 -0.014420346531978906 -0.0021082952726120831 0 -0.014868653132343016 -0.0019426947321962143 0 -0.014784457780699532 -0.002365671347461695 0 -0.015242014186770811 -0.0022918799588089265 0 -0.015242014186770811 -0.0022918799588089265 0 -0.015259795948789547 -0.0018134025308920428 0 -0.015754800032261717 -0.0021640426576407688 0 -0.015242014186770811 -0.0022918799588089265 0 -0.015754800032261717 -0.0021640426576407688 0 -0.015583758738885987 -0.0027122975993956553 0 -0.015914816106333309 -0.0017050244325324559 0 -0.015623666169350884 -0.0017742700995146321 0 -0.015754800032261717 -0.0021640426576407688 0 -0.015259795948789547 -0.0018134025308920428 0 -0.015623666169350884 -0.0017742700995146321 0 -0.015754800032261717 -0.0021640426576407688 0 -0.015828630722546914 -0.0028407495834711599 0 -0.015624956994220972 -0.002377177585244103 0 -0.015453576549267295 -0.0029424452733748541 0 -0.015696323013904223 -0.002263706666421251 0 -0.015515501257343377 -0.0028344716497623714 0 -0.015242014186770811 -0.0022918799588089265 0 -0.015583758738885987 -0.0027122975993956553 0 -0.015126537206911173 -0.0028521773397602104 0 -0.015583758738885987 -0.0027122975993956553 0 -0.015337212466473455 -0.0033779551033235188 0 -0.015126537206911173 -0.0028521773397602104 0 -0.015515501257343377 -0.0028344716497623714 0 -0.015339857670625724 -0.0033448833220164958 0 -0.015828630722546914 -0.0028407495834711599 0 -0.015453576549267295 -0.0029424452733748541 0 -0.015660480065702011 -0.003372624612401677 0 -0.015453576549267295 -0.0029424452733748541 0 -0.015660480065702011 -0.003372624612401677 0 -0.015337212466473455 -0.0033779551033235188 0 -0.01388799090484652 -0.0076319711643721179 0 -0.013897515105757041 -0.0076023303905302184 0 -0.013992089339521263 -0.0076157579139970333 0 -0.015660480065702011 -0.003372624612401677 0 -0.015337212466473455 -0.0033779551033235188 0 -0.015349680125649559 -0.0036188736034891656 0 -0.015193513725701532 -0.0054183665411054452 0 -0.0145538086313489 -0.0056985454733353242 0 -0.015337212466473455 -0.0033779551033235188 0 -0.015349680125649559 -0.0036188736034891656 0 -0.015097912734380558 -0.0034918744929525666 0 -0.013897515105757041 -0.0076023303905302184 0 -0.013995093116035926 -0.0076163251086890822 0 -0.013992089339521263 -0.0076157579139970333 0 -0.013873745241010786 -0.0099620445515666879 0 -0.013707946022178716 -0.0099086127034146536 0 -0.013302332504635188 -0.012260308328446441 0 -0.013482837509098943 -0.012231691691434314 0 -0.01332992210998039 -0.012183937714614417 0 -0.013167829622088897 -0.012190064533080013 0 -0.013302332504635188 -0.012260308328446441 0 -0.01332992210998039 -0.012183937714614417 0 -0.014741107398669807 -0.0041480515578972551 0 -0.014849728671829796 -0.0032871991332723122 0 -0.014152389182695995 -0.0034864775994667778 0 -0.015349680125649559 -0.0036188736034891656 0 -0.014741107398669807 -0.0041480515578972551 0 -0.015097912734380558 -0.0034918744929525666 0 -0.013707946022178716 -0.0099086127034146536 0 -0.013785293540572233 -0.010122132756039685 0 -0.013995093116035926 -0.0076163251086890822 0 -0.013992089339521263 -0.0076157579139970333 0 -0.014011034798089572 -0.0076554295598363917 0 -0.013995093116035926 -0.0076163251086890822 0 -0.014011034798089572 -0.0076554295598363917 0 -0.014011409364137806 -0.0076655965009283225 0 -0.014741107398669807 -0.0041480515578972551 0 -0.015097912734380558 -0.0034918744929525666 0 -0.014849728671829796 -0.0032871991332723122 0 -0.0145538086313489 -0.0056985454733353242 0 -0.014447026297555159 -0.0056069090011557476 0 -0.015337212466473455 -0.0033779551033235188 0 -0.015097912734380558 -0.0034918744929525666 0 -0.015106932402871812 -0.003224940617876254 0 -0.015097912734380558 -0.0034918744929525666 0 -0.015106932402871812 -0.003224940617876254 0 -0.014849728671829796 -0.0032871991332723122 0 -0.014849728671829796 -0.0032871991332723122 0 -0.014634781133885161 -0.0029308512180402312 0 -0.014515802503257872 -0.0033370023639515659 0 -0.014865999144996089 -0.0032915453839749086 0 -0.014163818307788579 -0.0033441051485153927 0 -0.014849728671829796 -0.0032871991332723122 0 -0.014634781133885161 -0.0029308512180402312 0 -0.015126537206911173 -0.0028521773397602104 0 -0.015106932402871812 -0.003224940617876254 0 -0.014849728671829796 -0.0032871991332723122 0 -0.015126537206911173 -0.0028521773397602104 0 -0.015337212466473455 -0.0033779551033235188 0 -0.015106932402871812 -0.003224940617876254 0 -0.015126537206911173 -0.0028521773397602104 0 -0.014784457780699532 -0.002365671347461695 0 -0.015242014186770811 -0.0022918799588089265 0 -0.015126537206911173 -0.0028521773397602104 0 -0.014784457780699532 -0.002365671347461695 0 -0.014634781133885161 -0.0029308512180402312 0 -0.015126537206911173 -0.0028521773397602104 0 -0.014784457780699532 -0.002365671347461695 0 -0.014634781133885161 -0.0029308512180402312 0 -0.01436057871538088 -0.0026307440117106545 0 -0.01436057871538088 -0.0026307440117106545 0 -0.014045822009279004 -0.0029044125434661027 0 -0.013994246900473357 -0.0023294083897313586 0 -0.01436057871538088 -0.0026307440117106545 0 -0.014045822009279004 -0.0029044125434661027 0 -0.014342621573224945 -0.0030535535624906813 0 -0.014634781133885161 -0.0029308512180402312 0 -0.01436057871538088 -0.0026307440117106545 0 -0.014342621573224945 -0.0030535535624906813 0 -0.014634781133885161 -0.0029308512180402312 0 -0.014342621573224945 -0.0030535535624906813 0 -0.014515802503257872 -0.0033370023639515659 0 -0.014163818307788579 -0.0033441051485153927 0 -0.015129281983921128 -0.005684335910212065 0 -0.014342621573224945 -0.0030535535624906813 0 -0.014515802503257872 -0.0033370023639515659 0 -0.014141871054036319 -0.003449647092618858 0 -0.014045822009279004 -0.0029044125434661027 0 -0.014342621573224945 -0.0030535535624906813 0 -0.014141871054036319 -0.003449647092618858 0 -0.015405823587319487 -0.0041185910662485999 0 -0.015129281983921128 -0.005684335910212065 0 -0.016716328116770606 -0.0057058220883426797 0 -0.016774744875163467 -0.0061610869465995579 0 -0.016518905272347062 -0.0059956412203983032 0 -0.013420876609295663 -0.0036890352332829943 0 -0.013973651024345508 -0.004167542897406333 0 -0.013628461546937452 -0.0048568162844366087 0 -0.014741107398669807 -0.0041480515578972551 0 -0.014152389182695995 -0.0034864775994667778 0 -0.013973651024345508 -0.004167542897406333 0 -0.014152389182695995 -0.0034864775994667778 0 -0.013420876609295663 -0.0036890352332829943 0 -0.013973651024345508 -0.004167542897406333 0 -0.015353494546383717 -0.010675182529033881 0 -0.015018084685172999 -0.010830534583023835 0 -0.015179411803001279 -0.010960893754052509 0 -0.016774744875163467 -0.0061610869465995579 0 -0.016322648976369342 -0.0062778416415655231 0 -0.016518905272347062 -0.0059956412203983032 0 -0.015129281983921128 -0.005684335910212065 0 -0.015816462495238069 -0.0088920754916923996 0 -0.016322648976369342 -0.0062778416415655231 0 -0.016518905272347062 -0.0059956412203983032 0 -0.016272664115914853 -0.0058436187731713751 0 -0.016322648976369342 -0.0062778416415655231 0 -0.016272664115914853 -0.0058436187731713751 0 -0.016015931381451024 -0.0060333062332344409 0 -0.016716328116770606 -0.0057058220883426797 0 -0.016518905272347062 -0.0059956412203983032 0 -0.016272664115914853 -0.0058436187731713751 0 -0.016716328116770606 -0.0057058220883426797 0 -0.016272664115914853 -0.0058436187731713751 0 -0.01624242789801373 -0.0053913884314052826 0 -0.016716328116770606 -0.0057058220883426797 0 -0.01624242789801373 -0.0053913884314052826 0 -0.0166589840851698 -0.0052075726707530847 0 -0.015405823587319487 -0.0041185910662485999 0 -0.015328554133300852 -0.0038102288973283671 0 -0.016272664115914853 -0.0058436187731713751 0 -0.01624242789801373 -0.0053913884314052826 0 -0.015894336143495627 -0.005608398763680294 0 -0.016550507854715235 -0.0046319819717410473 0 -0.0166589840851698 -0.0052075726707530847 0 -0.016000823092754198 -0.0049574520405113965 0 -0.01624242789801373 -0.0053913884314052826 0 -0.0166589840851698 -0.0052075726707530847 0 -0.016000823092754198 -0.0049574520405113965 0 -0.016550507854715235 -0.0046319819717410473 0 -0.015956452164036645 -0.0043569713447442881 0 -0.016000823092754198 -0.0049574520405113965 0 -0.015272072052210334 -0.0031947535519694908 0 -0.015328554133300852 -0.0038102288973283671 0 -0.013996029008175011 -0.0017596934203906989 0 -0.014420346531978906 -0.0021082952726120831 0 -0.014591292826942675 -0.0016201556349827234 0 -0.01436057871538088 -0.0026307440117106545 0 -0.013994246900473357 -0.0023294083897313586 0 -0.014420346531978906 -0.0021082952726120831 0 -0.013996029008175011 -0.0017596934203906989 0 -0.013994246900473357 -0.0023294083897313586 0 -0.014420346531978906 -0.0021082952726120831 0 -0.014784457780699532 -0.002365671347461695 0 -0.01436057871538088 -0.0026307440117106545 0 -0.014420346531978906 -0.0021082952726120831 0 -0.014868653132343016 -0.0019426947321962143 0 -0.014420346531978906 -0.0021082952726120831 0 -0.014591292826942675 -0.0016201556349827234 0 -0.013996029008175011 -0.0017596934203906989 0 -0.014591292826942675 -0.0016201556349827234 0 -0.014381223713191393 -0.0012344572432706131 0 -0.014766159707422954 -0.0010671469253282261 0 -0.014591292826942675 -0.0016201556349827234 0 -0.014381223713191393 -0.0012344572432706131 0 -0.014294830916231457 -0.00087691949641133401 0 -0.014381223713191393 -0.0012344572432706131 0 -0.014050004845461966 -0.0012203296927883731 0 -0.01637046667027478 -0.0039716024526929685 0 -0.015956452164036645 -0.0043569713447442881 0 -0.015652093430080467 -0.0037340374836375037 0 -0.016550507854715235 -0.0046319819717410473 0 -0.01637046667027478 -0.0039716024526929685 0 -0.015956452164036645 -0.0043569713447442881 0 -0.015272072052210334 -0.0031947535519694908 0 -0.015223415632418179 -0.0026052985978799962 0 -0.013996029008175011 -0.0017596934203906989 0 -0.014381223713191393 -0.0012344572432706131 0 -0.014050004845461966 -0.0012203296927883731 0 -0.015556036234588027 -0.0044519451528143225 0 -0.015956452164036645 -0.0043569713447442881 0 -0.015657172964863887 -0.0040268994389247564 0 -0.015956452164036645 -0.0043569713447442881 0 -0.015652093430080467 -0.0037340374836375037 0 -0.015657172964863887 -0.0040268994389247564 0 -0.015423774765255582 -0.0037690984682848499 0 -0.015652093430080467 -0.0037340374836375037 0 -0.015657172964863887 -0.0040268994389247564 0 -0.015423774765255582 -0.0037690984682848499 0 -0.015556036234588027 -0.0044519451528143225 0 -0.015657172964863887 -0.0040268994389247564 0 -0.015556036234588027 -0.0044519451528143225 0 -0.015460717725191362 -0.0041181605131972356 0 -0.01567068938042911 -0.004698020968172509 0 -0.015460717725191362 -0.0041181605131972356 0 -0.01567068938042911 -0.004698020968172509 0 -0.015523686391880221 -0.0044737134025947169 0 -0.015423774765255582 -0.0037690984682848499 0 -0.015556036234588027 -0.0044519451528143225 0 -0.015460717725191362 -0.0041181605131972356 0 -0.015409962258045383 -0.0040162393840617655 0 -0.015460717725191362 -0.0041181605131972356 0 -0.015523686391880221 -0.0044737134025947169 0 -0.015581352656501487 -0.0044969402198166246 0 -0.015493349191088348 -0.0049337068812728077 0 -0.015556036234588027 -0.0044519451528143225 0 -0.015308631224856194 -0.0051803565037544866 0 -0.015642386116092141 -0.0052113430999547261 0 -0.015308631224856194 -0.0051803565037544866 0 -0.015493363591892424 -0.0056919380888742679 0 -0.015256712901866828 -0.0057174292042833702 0 -0.015308631224856194 -0.0051803565037544866 0 -0.015642386116092141 -0.0052113430999547261 0 -0.015493363591892424 -0.0056919380888742679 0 -0.015642386116092141 -0.0052113430999547261 0 -0.016000823092754198 -0.0049574520405113965 0 -0.015894336143495627 -0.005608398763680294 0 -0.015556036234588027 -0.0044519451528143225 0 -0.015642386116092141 -0.0052113430999547261 0 -0.016000823092754198 -0.0049574520405113965 0 -0.015556036234588027 -0.0044519451528143225 0 -0.015956452164036645 -0.0043569713447442881 0 -0.016000823092754198 -0.0049574520405113965 0 -0.015642386116092141 -0.0052113430999547261 0 -0.015894336143495627 -0.005608398763680294 0 -0.015493363591892424 -0.0056919380888742679 0 -0.01624242789801373 -0.0053913884314052826 0 -0.016000823092754198 -0.0049574520405113965 0 -0.015894336143495627 -0.005608398763680294 0 -0.015894336143495627 -0.005608398763680294 0 -0.015717426177250981 -0.0060530492112943896 0 -0.015493363591892424 -0.0056919380888742679 0 -0.015894336143495627 -0.005608398763680294 0 -0.016015931381451024 -0.0060333062332344409 0 -0.015717426177250981 -0.0060530492112943896 0 -0.016272664115914853 -0.0058436187731713751 0 -0.015894336143495627 -0.005608398763680294 0 -0.016015931381451024 -0.0060333062332344409 0 -0.016015931381451024 -0.0060333062332344409 0 -0.015717426177250981 -0.0060530492112943896 0 -0.015910321151727726 -0.0063501731314950785 0 -0.015717426177250981 -0.0060530492112943896 0 -0.015910321151727726 -0.0063501731314950785 0 -0.015597667169611081 -0.0063901390064988071 0 -0.015816462495238069 -0.0088920754916923996 0 -0.015314731531472855 -0.0086419065146229029 0 -0.016322648976369342 -0.0062778416415655231 0 -0.016015931381451024 -0.0060333062332344409 0 -0.015910321151727726 -0.0063501731314950785 0 -0.015717426177250981 -0.0060530492112943896 0 -0.015505782743541002 -0.0062268451468440083 0 -0.015597667169611081 -0.0063901390064988071 0 -0.015717426177250981 -0.0060530492112943896 0 -0.015505782743541002 -0.0062268451468440083 0 -0.015494836059694034 -0.0060096109711112265 0 -0.015505782743541002 -0.0062268451468440083 0 -0.015494836059694034 -0.0060096109711112265 0 -0.015401060649226845 -0.0062026783237203618 0 -0.015494836059694034 -0.0060096109711112265 0 -0.015493363591892424 -0.0056919380888742679 0 -0.015383683268051907 -0.0060379942524286627 0 -0.015717426177250981 -0.0060530492112943896 0 -0.015494836059694034 -0.0060096109711112265 0 -0.015493363591892424 -0.0056919380888742679 0 -0.015493363591892424 -0.0056919380888742679 0 -0.015256712901866828 -0.0057174292042833702 0 -0.015383683268051907 -0.0060379942524286627 0 -0.015473235967481968 -0.0054767727655175638 0 -0.015384140541305033 -0.0060728373836442763 0 -0.015256712901866828 -0.0057174292042833702 0 -0.015383683268051907 -0.0060379942524286627 0 -0.015299898778229345 -0.0061459922979937723 0 -0.015383683268051907 -0.0060379942524286627 0 -0.015442300276770378 -0.0062904542014894866 0 -0.015299898778229345 -0.0061459922979937723 0 -0.015383683268051907 -0.0060379942524286627 0 -0.015401060649226845 -0.0062026783237203618 0 -0.015442300276770378 -0.0062904542014894866 0 -0.015494836059694034 -0.0060096109711112265 0 -0.015383683268051907 -0.0060379942524286627 0 -0.015401060649226845 -0.0062026783237203618 0 -0.015401060649226845 -0.0062026783237203618 0 -0.015442300276770378 -0.0062904542014894866 0 -0.015345563952941121 -0.0062813452134379433 0 -0.0154595053278807 -0.0064748275033620134 0 -0.015592136941410116 -0.0064738409511521577 0 -0.015401060649226845 -0.0062026783237203618 0 -0.015345563952941121 -0.0062813452134379433 0 -0.015421386152273144 -0.0063903285819672537 0 -0.015505782743541002 -0.0062268451468440083 0 -0.015401060649226845 -0.0062026783237203618 0 -0.015421386152273144 -0.0063903285819672537 0 -0.014999800597632324 -0.0074386696032530493 0 -0.015214146681458448 -0.0070425716539049676 0 -0.015039116642625083 -0.0067528782542508594 0 -0.014999800597632324 -0.0074386696032530493 0 -0.015214146681458448 -0.0070425716539049676 0 -0.01535381774287352 -0.0075860418438832072 0 -0.015787244078603151 -0.0072298791385934594 0 -0.015434541508477536 -0.0069483199346633611 0 -0.01535381774287352 -0.0075860418438832072 0 -0.015214146681458448 -0.0070425716539049676 0 -0.015434541508477536 -0.0069483199346633611 0 -0.01535381774287352 -0.0075860418438832072 0 -0.015442300276770378 -0.0062904542014894866 0 -0.015434541508477536 -0.0069483199346633611 0 -0.015296782503664588 -0.0066038877134536097 0 -0.015296782503664588 -0.0066038877134536097 0 -0.015039116642625083 -0.0067528782542508594 0 -0.015299898778229345 -0.0061459922979937723 0 -0.015214146681458448 -0.0070425716539049676 0 -0.015434541508477536 -0.0069483199346633611 0 -0.015296782503664588 -0.0066038877134536097 0 -0.015442300276770378 -0.0062904542014894866 0 -0.015787244078603151 -0.0072298791385934594 0 -0.015434541508477536 -0.0069483199346633611 0 -0.015214146681458448 -0.0070425716539049676 0 -0.015296782503664588 -0.0066038877134536097 0 -0.015039116642625083 -0.0067528782542508594 0 -0.014999800597632324 -0.0074386696032530493 0 -0.014999869733759906 -0.0065653461655860315 0 -0.015039116642625083 -0.0067528782542508594 0 -0.014999869733759906 -0.0065653461655860315 0 -0.015039116642625083 -0.0067528782542508594 0 -0.015494293397643967 -0.005980191182100511 0 -0.014999869733759906 -0.0065653461655860315 0 -0.015494293397643967 -0.005980191182100511 0 -0.014999814761649188 -0.0056921346713495772 0 -0.015038040761678884 -0.0066935685048555961 0 -0.015384140541305033 -0.0060728373836442763 0 -0.015442300276770378 -0.0062904542014894866 0 -0.015296782503664588 -0.0066038877134536097 0 -0.015299898778229345 -0.0061459922979937723 0 -0.015695466257692497 -0.0052303292221716809 0 -0.015494293397643967 -0.005980191182100511 0 -0.015337618854534402 -0.0053479613484010841 0 -0.015494293397643967 -0.005980191182100511 0 -0.014999814761649188 -0.0056921346713495772 0 -0.015337618854534402 -0.0053479613484010841 0 -0.014999814761649188 -0.0056921346713495772 0 -0.014999807179920284 -0.0048188194173529814 0 -0.015337618854534402 -0.0053479613484010841 0 -0.014999807179920284 -0.0048188194173529814 0 -0.015380447898573972 -0.0047642983280037588 0 -0.015337618854534402 -0.0053479613484010841 0 -0.01567068938042911 -0.004698020968172509 0 -0.015695466257692497 -0.0052303292221716809 0 -0.015523686391880221 -0.0044737134025947169 0 -0.015695466257692497 -0.0052303292221716809 0 -0.015380447898573972 -0.0047642983280037588 0 -0.015337618854534402 -0.0053479613484010841 0 -0.015695466257692497 -0.0052303292221716809 0 -0.015380447898573972 -0.0047642983280037588 0 -0.015523686391880221 -0.0044737134025947169 0 -0.015493349191088348 -0.0049337068812728077 0 -0.015473235967481968 -0.0054767727655175638 0 -0.015380447898573972 -0.0047642983280037588 0 -0.015523686391880221 -0.0044737134025947169 0 -0.015341063208199782 -0.0042371105703039773 0 -0.015310143959988292 -0.0039446391193340893 0 -0.015409962258045383 -0.0040162393840617655 0 -0.015341063208199782 -0.0042371105703039773 0 -0.015409962258045383 -0.0040162393840617655 0 -0.015523686391880221 -0.0044737134025947169 0 -0.015341063208199782 -0.0042371105703039773 0 -0.01514268555251376 -0.0038848251455083846 0 -0.015341063208199782 -0.0042371105703039773 0 -0.015183732605491201 -0.0043101722363798793 0 -0.01514268555251376 -0.0038848251455083846 0 -0.014999842600428359 -0.0039468730289218901 0 -0.015183732605491201 -0.0043101722363798793 0 -0.014999807179920284 -0.0048188194173529814 0 -0.014999842600428359 -0.0039468730289218901 0 -0.015183732605491201 -0.0043101722363798793 0 -0.014999807179920284 -0.0048188194173529814 0 -0.015380447898573972 -0.0047642983280037588 0 -0.015183732605491201 -0.0043101722363798793 0 -0.015380447898573972 -0.0047642983280037588 0 -0.015341063208199782 -0.0042371105703039773 0 -0.015183732605491201 -0.0043101722363798793 0 -0.014999935013725891 -0.011124270955100088 0 -0.01504130327736412 -0.010655453151576563 0 -0.015122747973285439 -0.010666886430628068 0 -0.014999935013725891 -0.011124270955100088 0 -0.01504130327736412 -0.010655453151576563 0 -0.014999630189108585 -0.010752112184602139 0 -0.01504130327736412 -0.010655453151576563 0 -0.014999630189108585 -0.010752112184602139 0 -0.014999794144587937 -0.0099392283846426489 0 -0.014999935013725891 -0.011124270955100088 0 -0.014999630189108585 -0.010752112184602139 0 -0.014975123843622276 -0.011634808308858258 0 -0.014999630189108585 -0.010752112184602139 0 -0.014975123843622276 -0.011634808308858258 0 -0.014999585848861656 -0.011565221953000786 0 -0.014999935013725891 -0.011124270955100088 0 -0.014816295869351336 -0.01176620756244314 0 -0.014975123843622276 -0.011634808308858258 0 -0.014999935013725891 -0.011124270955100088 0 -0.01487825588570087 -0.011269378612788122 0 -0.014816295869351336 -0.01176620756244314 0 -0.01464620410143219 -0.011743916586267672 0 -0.01487825588570087 -0.011269378612788122 0 -0.014816295869351336 -0.01176620756244314 0 -0.014728657044845874 -0.011384518565099987 0 -0.01487825588570087 -0.011269378612788122 0 -0.014889460322392854 -0.011009899238149341 0 -0.01464620410143219 -0.011743916586267672 0 -0.014728657044845874 -0.011384518565099987 0 -0.01487825588570087 -0.011269378612788122 0 -0.014999935013725891 -0.011124270955100088 0 -0.01487825588570087 -0.011269378612788122 0 -0.015122747973285439 -0.010666886430628068 0 -0.014889460322392854 -0.011009899238149341 0 -0.0150280542196822 -0.010707770299679481 0 -0.015122747973285439 -0.010666886430628068 0 -0.01487825588570087 -0.011269378612788122 0 -0.014889460322392854 -0.011009899238149341 0 -0.015122747973285439 -0.010666886430628068 0 -0.014728657044845874 -0.011384518565099987 0 -0.014889460322392854 -0.011009899238149341 0 -0.014663254253851562 -0.011326220600157427 0 -0.014889460322392854 -0.011009899238149341 0 -0.014787916025289914 -0.011032599306727234 0 -0.014663254253851562 -0.011326220600157427 0 -0.014889460322392854 -0.011009899238149341 0 -0.014787916025289914 -0.011032599306727234 0 -0.0150280542196822 -0.010707770299679481 0 -0.014787916025289914 -0.011032599306727234 0 -0.0150280542196822 -0.010707770299679481 0 -0.014862256734433586 -0.010910282969307896 0 -0.014787916025289914 -0.011032599306727234 0 -0.014862256734433586 -0.010910282969307896 0 -0.014748667087095704 -0.011086086407572955 0 -0.0150280542196822 -0.010707770299679481 0 -0.015341250229520624 -0.010249374152514956 0 -0.015122747973285439 -0.010666886430628068 0 -0.0150280542196822 -0.010707770299679481 0 -0.015341250229520624 -0.010249374152514956 0 -0.014862256734433586 -0.010910282969307896 0 -0.015341250229520624 -0.010249374152514956 0 -0.015122747973285439 -0.010666886430628068 0 -0.014999794144587937 -0.0099392283846426489 0 -0.01504130327736412 -0.010655453151576563 0 -0.015122747973285439 -0.010666886430628068 0 -0.014999794144587937 -0.0099392283846426489 0 -0.015341250229520624 -0.010249374152514956 0 -0.014999794144587937 -0.0099392283846426489 0 -0.014999695040346659 -0.0091258956756325189 0 -0.015341250229520624 -0.010249374152514956 0 -0.014999695040346659 -0.0091258956756325189 0 -0.015236815974987009 -0.008831363493197044 0 -0.015341250229520624 -0.010249374152514956 0 -0.01581713076661051 -0.0089512164150092836 0 -0.015236815974987009 -0.008831363493197044 0 -0.015387633193894919 -0.010105497608306514 0 -0.015504774389021026 -0.010238291714183419 0 -0.01581713076661051 -0.0089512164150092836 0 -0.015236815974987009 -0.008831363493197044 0 -0.015365571400077778 -0.0082627268648428637 0 -0.014999695040346659 -0.0091258956756325189 0 -0.015236815974987009 -0.008831363493197044 0 -0.014999885663302308 -0.0083121650787723461 0 -0.014999968463273897 -0.0083118570884584166 0 -0.015364427466325121 -0.0081277269091535823 0 -0.01535381774287352 -0.0075860418438832072 0 -0.015236815974987009 -0.008831363493197044 0 -0.014999885663302308 -0.0083121650787723461 0 -0.015365571400077778 -0.0082627268648428637 0 -0.014999999755038827 -0.0083120235409749159 0 -0.015469334527789301 -0.00817753494246512 0 -0.015504774389021026 -0.010238291714183419 0 -0.015254018877403262 -0.0085009628134028233 0 -0.015364427466325121 -0.0081277269091535823 0 -0.01535381774287352 -0.0075860418438832072 0 -0.015786574026451495 -0.0079905083716984345 0 -0.01581713076661051 -0.0089512164150092836 0 -0.015365571400077778 -0.0082627268648428637 0 -0.0159059102690631 -0.0081344302721681333 0 -0.015469334527789301 -0.00817753494246512 0 -0.015254018877403262 -0.0085009628134028233 0 -0.015787244078603151 -0.0072298791385934594 0 -0.01535381774287352 -0.0075860418438832072 0 -0.015786574026451495 -0.0079905083716984345 0 -0.014999800597632324 -0.0074386696032530493 0 -0.014999968463273897 -0.0083118570884584166 0 -0.01535381774287352 -0.0075860418438832072 0 -0.015592136941410116 -0.0064738409511521577 0 -0.015254018877403262 -0.0085009628134028233 0 -0.015345563952941121 -0.0062813452134379433 0 -0.015421386152273144 -0.0063903285819672537 0 -0.015313625781028611 -0.0064299430126104938 0 -0.015222517815711817 -0.011029215138812094 0 -0.01512749958798921 -0.011294246905259989 0 -0.014890746715295795 -0.011172757247707958 0 -0.015110025819827261 -0.0088922525623868886 0 -0.015254018877403262 -0.0085009628134028233 0 -0.014816866714196669 -0.011302448936093099 0 -0.01512749958798921 -0.011294246905259989 0 -0.014890746715295795 -0.011172757247707958 0 -0.014816866714196669 -0.011302448936093099 0 -0.014890746715295795 -0.011172757247707958 0 -0.014699002881973794 -0.011228825255487991 0 -0.014890746715295795 -0.011172757247707958 0 -0.014862256734433586 -0.010910282969307896 0 -0.014736547547456003 -0.011142499736887497 0 -0.015222517815711817 -0.011029215138812094 0 -0.014890746715295795 -0.011172757247707958 0 -0.014862256734433586 -0.010910282969307896 0 -0.015341250229520624 -0.010249374152514956 0 -0.015222517815711817 -0.011029215138812094 0 -0.014862256734433586 -0.010910282969307896 0 -0.014862256734433586 -0.010910282969307896 0 -0.014748667087095704 -0.011086086407572955 0 -0.014736547547456003 -0.011142499736887497 0 -0.014748667087095704 -0.011086086407572955 0 -0.014691284679079252 -0.011191707079231379 0 -0.014687547273037517 -0.011190358728192113 0 -0.014748667087095704 -0.011086086407572955 0 -0.014691284679079252 -0.011191707079231379 0 -0.014736547547456003 -0.011142499736887497 0 -0.014672503750735286 -0.011256633443410295 0 -0.014691284679079252 -0.011191707079231379 0 -0.014677331650966123 -0.011283036940593585 0 -0.014672503750735286 -0.011256633443410295 0 -0.014691284679079252 -0.011191707079231379 0 -0.014687547273037517 -0.011190358728192113 0 -0.014691284679079252 -0.011191707079231379 0 -0.014682810548323096 -0.011225208745463032 0 -0.014677331650966123 -0.011283036940593585 0 -0.014682810548323096 -0.011225208745463032 0 -0.014699002881973794 -0.011228825255487991 0 -0.014675891327758797 -0.01124888760509906 0 -0.014682810548323096 -0.011225208745463032 0 -0.014681499817777891 -0.011280479634943941 0 -0.014677331650966123 -0.011283036940593585 0 -0.014682810548323096 -0.011225208745463032 0 -0.014675891327758797 -0.01124888760509906 0 -0.014681499817777891 -0.011280479634943941 0 -0.014682810548323096 -0.011225208745463032 0 -0.014736547547456003 -0.011142499736887497 0 -0.014699002881973794 -0.011228825255487991 0 -0.014691284679079252 -0.011191707079231379 0 -0.014682810548323096 -0.011225208745463032 0 -0.014736547547456003 -0.011142499736887497 0 -0.014890746715295795 -0.011172757247707958 0 -0.014736547547456003 -0.011142499736887497 0 -0.014699002881973794 -0.011228825255487991 0 -0.014699002881973794 -0.011228825255487991 0 -0.014675891327758797 -0.01124888760509906 0 -0.014678203672231025 -0.011204456315289451 0 -0.014699002881973794 -0.011228825255487991 0 -0.014668302001959831 -0.011202903812114681 0 -0.014678203672231025 -0.011204456315289451 0 -0.015110025819827261 -0.0088922525623868886 0 -0.015153701212905022 -0.0087899117584629479 0 -0.015505782743541002 -0.0062268451468440083 0 -0.015421386152273144 -0.0063903285819672537 0 -0.015597667169611081 -0.0063901390064988071 0 -0.014816866714196669 -0.011302448936093099 0 -0.014699002881973794 -0.011228825255487991 0 -0.014668302001959831 -0.011202903812114681 0 -0.014744924760606548 -0.011016206804205928 0 -0.014716578431965667 -0.01122162405203561 0 -0.014828288635486495 -0.011176300027163421 0 -0.014744924760606548 -0.011016206804205928 0 -0.014828288635486495 -0.011176300027163421 0 -0.014987092420303497 -0.011072646797763885 0 -0.015314731531472855 -0.0086419065146229029 0 -0.015153701212905022 -0.0087899117584629479 0 -0.014744924760606548 -0.011016206804205928 0 -0.014716578431965667 -0.01122162405203561 0 -0.014678203672231025 -0.011204456315289451 0 -0.014744924760606548 -0.011016206804205928 0 -0.014668302001959831 -0.011202903812114681 0 -0.014678203672231025 -0.011204456315289451 0 -0.014675891327758797 -0.01124888760509906 0 -0.014716578431965667 -0.01122162405203561 0 -0.014678203672231025 -0.011204456315289451 0 -0.014675891327758797 -0.01124888760509906 0 -0.014716578431965667 -0.01122162405203561 0 -0.0146982069719747 -0.011295827296787374 0 -0.014716578431965667 -0.01122162405203561 0 -0.014744901067669802 -0.011283510505937285 0 -0.0146982069719747 -0.011295827296787374 0 -0.014744901067669802 -0.011283510505937285 0 -0.014853405011423215 -0.011266427854008932 0 -0.014738752947665438 -0.011368714382880342 0 -0.014716578431965667 -0.01122162405203561 0 -0.014744901067669802 -0.011283510505937285 0 -0.014828288635486495 -0.011176300027163421 0 -0.014828288635486495 -0.011176300027163421 0 -0.014853405011423215 -0.011266427854008932 0 -0.014938870301562789 -0.011183476247648507 0 -0.014744901067669802 -0.011283510505937285 0 -0.014828288635486495 -0.011176300027163421 0 -0.014853405011423215 -0.011266427854008932 0 -0.014744901067669802 -0.011283510505937285 0 -0.014714057211154942 -0.011341699300311448 0 -0.014738752947665438 -0.011368714382880342 0 -0.014714057211154942 -0.011341699300311448 0 -0.014738752947665438 -0.011368714382880342 0 -0.014720360953902641 -0.011392181667427427 0 -0.014738752947665438 -0.011368714382880342 0 -0.014720360953902641 -0.011392181667427427 0 -0.014748174817566413 -0.011423985312805985 0 -0.014714057211154942 -0.011341699300311448 0 -0.014720360953902641 -0.011392181667427427 0 -0.014696295721164656 -0.01134024940181666 0 -0.014720360953902641 -0.011392181667427427 0 -0.014696295721164656 -0.01134024940181666 0 -0.014703411576104088 -0.011407064837269217 0 -0.014694875467502883 -0.011477899573024641 0 -0.014748174817566413 -0.011423985312805985 0 -0.014665549458330051 -0.011554631357146128 0 -0.014715837329990088 -0.011436070163160417 0 -0.014694875467502883 -0.011477899573024641 0 -0.014748174817566413 -0.011423985312805985 0 -0.014720360953902641 -0.011392181667427427 0 -0.014715837329990088 -0.011436070163160417 0 -0.014748174817566413 -0.011423985312805985 0 -0.014675891327758797 -0.01124888760509906 0 -0.0146982069719747 -0.011295827296787374 0 -0.014681499817777891 -0.011280479634943941 0 -0.014744901067669802 -0.011283510505937285 0 -0.014714057211154942 -0.011341699300311448 0 -0.0146982069719747 -0.011295827296787374 0 -0.014714057211154942 -0.011341699300311448 0 -0.0146982069719747 -0.011295827296787374 0 -0.014696295721164656 -0.01134024940181666 0 -0.0146982069719747 -0.011295827296787374 0 -0.014696295721164656 -0.01134024940181666 0 -0.014681499817777891 -0.011280479634943941 0 -0.014696295721164656 -0.01134024940181666 0 -0.014681499817777891 -0.011280479634943941 0 -0.014677331650966123 -0.011283036940593585 0 -0.014696295721164656 -0.01134024940181666 0 -0.014686248841084517 -0.011344436736360125 0 -0.014703411576104088 -0.011407064837269217 0 -0.014696295721164656 -0.01134024940181666 0 -0.014677331650966123 -0.011283036940593585 0 -0.014686248841084517 -0.011344436736360125 0 -0.014686248841084517 -0.011344436736360125 0 -0.014671096155214156 -0.011322981479409492 0 -0.014682180688647802 -0.011371807477337306 0 -0.014672503750735286 -0.011256633443410295 0 -0.014677331650966123 -0.011283036940593585 0 -0.014671096155214156 -0.011322981479409492 0 -0.014677331650966123 -0.011283036940593585 0 -0.014686248841084517 -0.011344436736360125 0 -0.014671096155214156 -0.011322981479409492 0 -0.014715837329990088 -0.011436070163160417 0 -0.014703411576104088 -0.011407064837269217 0 -0.01467713854601807 -0.011465392598364809 0 -0.014703411576104088 -0.011407064837269217 0 -0.014671726215854898 -0.011426089627987092 0 -0.01467713854601807 -0.011465392598364809 0 -0.014715837329990088 -0.011436070163160417 0 -0.014694875467502883 -0.011477899573024641 0 -0.01467713854601807 -0.011465392598364809 0 -0.014720360953902641 -0.011392181667427427 0 -0.014715837329990088 -0.011436070163160417 0 -0.014703411576104088 -0.011407064837269217 0 -0.014686248841084517 -0.011344436736360125 0 -0.014703411576104088 -0.011407064837269217 0 -0.014682180688647802 -0.011371807477337306 0 -0.014703411576104088 -0.011407064837269217 0 -0.014682180688647802 -0.011371807477337306 0 -0.014671726215854898 -0.011426089627987092 0 -0.014671726215854898 -0.011426089627987092 0 -0.014666976807945214 -0.011393632147930112 0 -0.014657915104709424 -0.011418440984283086 0 -0.014682180688647802 -0.011371807477337306 0 -0.014666976807945214 -0.011393632147930112 0 -0.014663288646947267 -0.011364116050651421 0 -0.014682180688647802 -0.011371807477337306 0 -0.014671726215854898 -0.011426089627987092 0 -0.014666976807945214 -0.011393632147930112 0 -0.014666976807945214 -0.011393632147930112 0 -0.014657915104709424 -0.011418440984283086 0 -0.014645064466235301 -0.011410964994298528 0 -0.014666976807945214 -0.011393632147930112 0 -0.014645064466235301 -0.011410964994298528 0 -0.014663288646947267 -0.011364116050651421 0 -0.014657915104709424 -0.011418440984283086 0 -0.014650892584420174 -0.011451825585712333 0 -0.014645064466235301 -0.011410964994298528 0 -0.014650892584420174 -0.011451825585712333 0 -0.014645064466235301 -0.011410964994298528 0 -0.014588587291723128 -0.011554728593314641 0 -0.014645064466235301 -0.011410964994298528 0 -0.014598532716713469 -0.011450138179523825 0 -0.014588587291723128 -0.011554728593314641 0 -0.014645064466235301 -0.011410964994298528 0 -0.014598532716713469 -0.011450138179523825 0 -0.014646667069146597 -0.011330874157506889 0 -0.014645064466235301 -0.011410964994298528 0 -0.014646667069146597 -0.011330874157506889 0 -0.014663288646947267 -0.011364116050651421 0 -0.014671096155214156 -0.011322981479409492 0 -0.014682180688647802 -0.011371807477337306 0 -0.014663288646947267 -0.011364116050651421 0 -0.014672503750735286 -0.011256633443410295 0 -0.014671096155214156 -0.011322981479409492 0 -0.014646667069146597 -0.011330874157506889 0 -0.014671096155214156 -0.011322981479409492 0 -0.014646667069146597 -0.011330874157506889 0 -0.014663288646947267 -0.011364116050651421 0 -0.014672503750735286 -0.011256633443410295 0 -0.014646667069146597 -0.011330874157506889 0 -0.014687547273037517 -0.011190358728192113 0 -0.014646667069146597 -0.011330874157506889 0 -0.014687547273037517 -0.011190358728192113 0 -0.014621372849769531 -0.011352879765659728 0 -0.014787916025289914 -0.011032599306727234 0 -0.014687547273037517 -0.011190358728192113 0 -0.014663254253851562 -0.011326220600157427 0 -0.014787916025289914 -0.011032599306727234 0 -0.014748667087095704 -0.011086086407572955 0 -0.014687547273037517 -0.011190358728192113 0 -0.014687547273037517 -0.011190358728192113 0 -0.014663254253851562 -0.011326220600157427 0 -0.014621372849769531 -0.011352879765659728 0 -0.014663254253851562 -0.011326220600157427 0 -0.014621372849769531 -0.011352879765659728 0 -0.014485908486939985 -0.011637601808629293 0 -0.014598532716713469 -0.011450138179523825 0 -0.014621372849769531 -0.011352879765659728 0 -0.014485908486939985 -0.011637601808629293 0 -0.014598532716713469 -0.011450138179523825 0 -0.014646667069146597 -0.011330874157506889 0 -0.014621372849769531 -0.011352879765659728 0 -0.014663254253851562 -0.011326220600157427 0 -0.014485908486939985 -0.011637601808629293 0 -0.014523291756136376 -0.011687192979691407 0 -0.01464620410143219 -0.011743916586267672 0 -0.014728657044845874 -0.011384518565099987 0 -0.014523291756136376 -0.011687192979691407 0 -0.014728657044845874 -0.011384518565099987 0 -0.014663254253851562 -0.011326220600157427 0 -0.014523291756136376 -0.011687192979691407 0 -0.01464620410143219 -0.011743916586267672 0 -0.014523291756136376 -0.011687192979691407 0 -0.014310330309195847 -0.012179449601494629 0 -0.014523291756136376 -0.011687192979691407 0 -0.014356758972864633 -0.011937266698253478 0 -0.014310330309195847 -0.012179449601494629 0 -0.014485908486939985 -0.011637601808629293 0 -0.014356758972864633 -0.011937266698253478 0 -0.014354286577456531 -0.011933591077238133 0 -0.014356758972864633 -0.011937266698253478 0 -0.014188257211535099 -0.012270301958220955 0 -0.014310330309195847 -0.012179449601494629 0 -0.014485908486939985 -0.011637601808629293 0 -0.014523291756136376 -0.011687192979691407 0 -0.014356758972864633 -0.011937266698253478 0 -0.014356758972864633 -0.011937266698253478 0 -0.014354286577456531 -0.011933591077238133 0 -0.014188257211535099 -0.012270301958220955 0 -0.014354286577456531 -0.011933591077238133 0 -0.014588587291723128 -0.011554728593314641 0 -0.014769843259001193 -0.011826390688353356 0 -0.014354286577456531 -0.011933591077238133 0 -0.014769843259001193 -0.011826390688353356 0 -0.014062057261410167 -0.012651135649646605 0 -0.014588587291723128 -0.011554728593314641 0 -0.014684576182083646 -0.011512550315473404 0 -0.014769843259001193 -0.011826390688353356 0 -0.014650892584420174 -0.011451825585712333 0 -0.014588587291723128 -0.011554728593314641 0 -0.014684576182083646 -0.011512550315473404 0 -0.014485908486939985 -0.011637601808629293 0 -0.014354286577456531 -0.011933591077238133 0 -0.014588587291723128 -0.011554728593314641 0 -0.014598532716713469 -0.011450138179523825 0 -0.014485908486939985 -0.011637601808629293 0 -0.014588587291723128 -0.011554728593314641 0 -0.014635844070390194 -0.01142970460237476 0 -0.014684576182083646 -0.011512550315473404 0 -0.014625008286127146 -0.011446691962528996 0 -0.014635844070390194 -0.01142970460237476 0 -0.014684576182083646 -0.011512550315473404 0 -0.014769843259001193 -0.011826390688353356 0 -0.014508550928531164 -0.012000779582092768 0 -0.014391169640044514 -0.012277321381868754 0 -0.014271102259128025 -0.012564611237980054 0 -0.014097005417401678 -0.012694172487348073 0 -0.014211424868057175 -0.01276461302565904 0 -0.014271102259128025 -0.012564611237980054 0 -0.014326634172143301 -0.012719244380754044 0 -0.014211424868057175 -0.01276461302565904 0 -0.014326634172143301 -0.012719244380754044 0 -0.01443052327825547 -0.012625103198057059 0 -0.014426408737948176 -0.012799861401382855 0 -0.014271102259128025 -0.012564611237980054 0 -0.014326634172143301 -0.012719244380754044 0 -0.01443052327825547 -0.012625103198057059 0 -0.013668717961167124 -0.012498141580994077 0 -0.013151775694383083 -0.012692773851024589 0 -0.012877545492280417 -0.012251189301930945 0 -0.013042176720631718 -0.012260705857231028 0 -0.012874091023261782 -0.01247179523089954 0 -0.013668717961167124 -0.012498141580994077 0 -0.014017536901186154 -0.011872925468051592 0 -0.012877545492280417 -0.012251189301930945 0 -0.012881171049992599 -0.011993314681124953 0 -0.013053497423930584 -0.012085394782589754 0 -0.014271102259128025 -0.012564611237980054 0 -0.01443052327825547 -0.012625103198057059 0 -0.014425126909565484 -0.012441750042786788 0 -0.014508550928531164 -0.012000779582092768 0 -0.014017536901186154 -0.011872925468051592 0 -0.014635844070390194 -0.01142970460237476 0 -0.014409938638439312 -0.011391674437032533 0 -0.014290420200530765 -0.011343783882529688 0 -0.014635844070390194 -0.01142970460237476 0 -0.014409938638439312 -0.011391674437032533 0 -0.014510015374517626 -0.011423590790773801 0 -0.014409938638439312 -0.011391674437032533 0 -0.014290420200530765 -0.011343783882529688 0 -0.014219692228874523 -0.011385585265758185 0 -0.014409938638439312 -0.011391674437032533 0 -0.014360172631490966 -0.011449604750124395 0 -0.014510015374517626 -0.011423590790773801 0 -0.014017536901186154 -0.011872925468051592 0 -0.013399893381332779 -0.011636228690233816 0 -0.014212687308635088 -0.011156948313543904 0 -0.014219692228874523 -0.011385585265758185 0 -0.013818476632955861 -0.011376902962469881 0 -0.012881171049992599 -0.011993314681124953 0 -0.013070669918365457 -0.011861290397974546 0 -0.013053497423930584 -0.012085394782589754 0 -0.014017536901186154 -0.011872925468051592 0 -0.014139081256225969 -0.011304287619108335 0 -0.014219692228874523 -0.011385585265758185 0 -0.01402752657009153 -0.011499053509771526 0 -0.013818476632955861 -0.011376902962469881 0 -0.014219692228874523 -0.011385585265758185 0 -0.01420766146019474 -0.011517177331398624 0 -0.01402752657009153 -0.011499053509771526 0 -0.01420766146019474 -0.011517177331398624 0 -0.01402752657009153 -0.011499053509771526 0 -0.014035659624440994 -0.011622166114098265 0 -0.014360172631490966 -0.011449604750124395 0 -0.014469813257441613 -0.011475522082390293 0 -0.014510015374517626 -0.011423590790773801 0 -0.014409938638439312 -0.011391674437032533 0 -0.014219692228874523 -0.011385585265758185 0 -0.014360172631490966 -0.011449604750124395 0 -0.014219692228874523 -0.011385585265758185 0 -0.01420766146019474 -0.011517177331398624 0 -0.014360172631490966 -0.011449604750124395 0 -0.01420766146019474 -0.011517177331398624 0 -0.014360172631490966 -0.011449604750124395 0 -0.014333605527252147 -0.011545178123603455 0 -0.014360172631490966 -0.011449604750124395 0 -0.014469813257441613 -0.011475522082390293 0 -0.014333605527252147 -0.011545178123603455 0 -0.014469813257441613 -0.011475522082390293 0 -0.014438272425755972 -0.01153816639923402 0 -0.014333605527252147 -0.011545178123603455 0 -0.014469813257441613 -0.011475522082390293 0 -0.014438272425755972 -0.01153816639923402 0 -0.014539215092211611 -0.011498194489716585 0 -0.014573758590116469 -0.011443189729484949 0 -0.01462380701447439 -0.011448139145147038 0 -0.014539215092211611 -0.011498194489716585 0 -0.014469813257441613 -0.011475522082390293 0 -0.014573758590116469 -0.011443189729484949 0 -0.014539215092211611 -0.011498194489716585 0 -0.014469813257441613 -0.011475522082390293 0 -0.014573758590116469 -0.011443189729484949 0 -0.014510015374517626 -0.011423590790773801 0 -0.014635844070390194 -0.01142970460237476 0 -0.014510015374517626 -0.011423590790773801 0 -0.014625008286127146 -0.011446691962528996 0 -0.014573758590116469 -0.011443189729484949 0 -0.014510015374517626 -0.011423590790773801 0 -0.014625008286127146 -0.011446691962528996 0 -0.014650892584420174 -0.011451825585712333 0 -0.014684576182083646 -0.011512550315473404 0 -0.014636983617878688 -0.011434025624787215 0 -0.014684576182083646 -0.011512550315473404 0 -0.014625008286127146 -0.011446691962528996 0 -0.014636983617878688 -0.011434025624787215 0 -0.014573758590116469 -0.011443189729484949 0 -0.014625008286127146 -0.011446691962528996 0 -0.014636983617878688 -0.011434025624787215 0 -0.014657915104709424 -0.011418440984283086 0 -0.014650892584420174 -0.011451825585712333 0 -0.014636983617878688 -0.011434025624787215 0 -0.014657915104709424 -0.011418440984283086 0 -0.014636983617878688 -0.011434025624787215 0 -0.01462380701447439 -0.011448139145147038 0 -0.014573758590116469 -0.011443189729484949 0 -0.014636983617878688 -0.011434025624787215 0 -0.01462380701447439 -0.011448139145147038 0 -0.014671726215854898 -0.011426089627987092 0 -0.014657915104709424 -0.011418440984283086 0 -0.01462380701447439 -0.011448139145147038 0 -0.014671726215854898 -0.011426089627987092 0 -0.014616361105862405 -0.011488971249426397 0 -0.01467713854601807 -0.011465392598364809 0 -0.014671726215854898 -0.011426089627987092 0 -0.01462380701447439 -0.011448139145147038 0 -0.014616361105862405 -0.011488971249426397 0 -0.01462380701447439 -0.011448139145147038 0 -0.014616361105862405 -0.011488971249426397 0 -0.014539215092211611 -0.011498194489716585 0 -0.014616361105862405 -0.011488971249426397 0 -0.01457597786258245 -0.011556750112609371 0 -0.014624560517243125 -0.011522095828975386 0 -0.014616361105862405 -0.011488971249426397 0 -0.01457597786258245 -0.011556750112609371 0 -0.014550913948923818 -0.011535659680018861 0 -0.01457597786258245 -0.011556750112609371 0 -0.014624560517243125 -0.011522095828975386 0 -0.014600133504861392 -0.01158191905045295 0 -0.014624560517243125 -0.011522095828975386 0 -0.01467713854601807 -0.011465392598364809 0 -0.014646662957715877 -0.011534065110184826 0 -0.014616361105862405 -0.011488971249426397 0 -0.014624560517243125 -0.011522095828975386 0 -0.01467713854601807 -0.011465392598364809 0 -0.014694875467502883 -0.011477899573024641 0 -0.01467713854601807 -0.011465392598364809 0 -0.014646662957715877 -0.011534065110184826 0 -0.014438272425755972 -0.01153816639923402 0 -0.014539215092211611 -0.011498194489716585 0 -0.014463244896862227 -0.011582218417669338 0 -0.014438272425755972 -0.01153816639923402 0 -0.014463244896862227 -0.011582218417669338 0 -0.014367614906960211 -0.01161493474600191 0 -0.014539215092211611 -0.011498194489716585 0 -0.014550913948923818 -0.011535659680018861 0 -0.014463244896862227 -0.011582218417669338 0 -0.014616361105862405 -0.011488971249426397 0 -0.014539215092211611 -0.011498194489716585 0 -0.014550913948923818 -0.011535659680018861 0 -0.014550913948923818 -0.011535659680018861 0 -0.014508658952007069 -0.011608668196873654 0 -0.014463244896862227 -0.011582218417669338 0 -0.01457597786258245 -0.011556750112609371 0 -0.014550913948923818 -0.011535659680018861 0 -0.014508658952007069 -0.011608668196873654 0 -0.014508658952007069 -0.011608668196873654 0 -0.014463244896862227 -0.011582218417669338 0 -0.014403768360209278 -0.011677153493891868 0 -0.014463244896862227 -0.011582218417669338 0 -0.014403768360209278 -0.011677153493891868 0 -0.014367614906960211 -0.01161493474600191 0 -0.014403768360209278 -0.011677153493891868 0 -0.014466935663086721 -0.011694914204872417 0 -0.014373991327774394 -0.011780996280843295 0 -0.014508658952007069 -0.011608668196873654 0 -0.014403768360209278 -0.011677153493891868 0 -0.014466935663086721 -0.011694914204872417 0 -0.014466935663086721 -0.011694914204872417 0 -0.014545581712045442 -0.011640133586978787 0 -0.014506283770602429 -0.011715605917124073 0 -0.014508658952007069 -0.011608668196873654 0 -0.014466935663086721 -0.011694914204872417 0 -0.014545581712045442 -0.011640133586978787 0 -0.01457597786258245 -0.011556750112609371 0 -0.014508658952007069 -0.011608668196873654 0 -0.014545581712045442 -0.011640133586978787 0 -0.014545581712045442 -0.011640133586978787 0 -0.014550169311954821 -0.011709625936608063 0 -0.014574330173163676 -0.011640941543379376 0 -0.014545581712045442 -0.011640133586978787 0 -0.014550169311954821 -0.011709625936608063 0 -0.014506283770602429 -0.011715605917124073 0 -0.014550169311954821 -0.011709625936608063 0 -0.01459784260535197 -0.011638457922826738 0 -0.014538118317036317 -0.011881086184167064 0 -0.014550169311954821 -0.011709625936608063 0 -0.0144948780362225 -0.01178750404842987 0 -0.014538118317036317 -0.011881086184167064 0 -0.014550169311954821 -0.011709625936608063 0 -0.0144948780362225 -0.01178750404842987 0 -0.014506283770602429 -0.011715605917124073 0 -0.0144948780362225 -0.01178750404842987 0 -0.014429406978399386 -0.01182529131039925 0 -0.014472405706857577 -0.011843763226263244 0 -0.0144948780362225 -0.01178750404842987 0 -0.014506283770602429 -0.011715605917124073 0 -0.014461020385531567 -0.011761848695554475 0 -0.014466935663086721 -0.011694914204872417 0 -0.014506283770602429 -0.011715605917124073 0 -0.014461020385531567 -0.011761848695554475 0 -0.014466935663086721 -0.011694914204872417 0 -0.014461020385531567 -0.011761848695554475 0 -0.014373991327774394 -0.011780996280843295 0 -0.014461020385531567 -0.011761848695554475 0 -0.014429406978399386 -0.01182529131039925 0 -0.014373991327774394 -0.011780996280843295 0 -0.0144948780362225 -0.01178750404842987 0 -0.014461020385531567 -0.011761848695554475 0 -0.014429406978399386 -0.01182529131039925 0 -0.014373991327774394 -0.011780996280843295 0 -0.014378253883237296 -0.011875901185077782 0 -0.014313130766957635 -0.011874178945239644 0 -0.014429406978399386 -0.01182529131039925 0 -0.014373991327774394 -0.011780996280843295 0 -0.014378253883237296 -0.011875901185077782 0 -0.014748174817566413 -0.011423985312805985 0 -0.014665549458330051 -0.011554631357146128 0 -0.014538118317036317 -0.011881086184167064 0 -0.014738752947665438 -0.011368714382880342 0 -0.014748174817566413 -0.011423985312805985 0 -0.01484370866642485 -0.011322829686133106 0 -0.014748174817566413 -0.011423985312805985 0 -0.01484370866642485 -0.011322829686133106 0 -0.014847938323618437 -0.011330128601342609 0 -0.014749761203084927 -0.011388495266262986 0 -0.014689323568356104 -0.011824677769632893 0 -0.014665549458330051 -0.011554631357146128 0 -0.014646662957715877 -0.011534065110184826 0 -0.01459784260535197 -0.011638457922826738 0 -0.014694875467502883 -0.011477899573024641 0 -0.014665549458330051 -0.011554631357146128 0 -0.014646662957715877 -0.011534065110184826 0 -0.014624560517243125 -0.011522095828975386 0 -0.014646662957715877 -0.011534065110184826 0 -0.014600133504861392 -0.01158191905045295 0 -0.014646662957715877 -0.011534065110184826 0 -0.014600133504861392 -0.01158191905045295 0 -0.01459784260535197 -0.011638457922826738 0 -0.01457597786258245 -0.011556750112609371 0 -0.014545581712045442 -0.011640133586978787 0 -0.014600133504861392 -0.01158191905045295 0 -0.014550169311954821 -0.011709625936608063 0 -0.014574330173163676 -0.011640941543379376 0 -0.01459784260535197 -0.011638457922826738 0 -0.014600133504861392 -0.01158191905045295 0 -0.014574330173163676 -0.011640941543379376 0 -0.01459784260535197 -0.011638457922826738 0 -0.014545581712045442 -0.011640133586978787 0 -0.014600133504861392 -0.01158191905045295 0 -0.014574330173163676 -0.011640941543379376 0 -0.014665549458330051 -0.011554631357146128 0 -0.01459784260535197 -0.011638457922826738 0 -0.014538118317036317 -0.011881086184167064 0 -0.014674914559595874 -0.011340116639029122 0 -0.015152122504146808 -0.011404354067524642 0 -0.014853405011423215 -0.011266427854008932 0 -0.014738752947665438 -0.011368714382880342 0 -0.015072883494906143 -0.011247354835280814 0 -0.014853405011423215 -0.011266427854008932 0 -0.014973073308026547 -0.011216479891288978 0 -0.015072883494906143 -0.011247354835280814 0 -0.014853405011423215 -0.011266427854008932 0 -0.014938870301562789 -0.011183476247648507 0 -0.014973073308026547 -0.011216479891288978 0 -0.014828288635486495 -0.011176300027163421 0 -0.014938870301562789 -0.011183476247648507 0 -0.014987092420303497 -0.011072646797763885 0 -0.014938870301562789 -0.011183476247648507 0 -0.015028247048370519 -0.011166882115486228 0 -0.014987092420303497 -0.011072646797763885 0 -0.015028247048370519 -0.011166882115486228 0 -0.014973073308026547 -0.011216479891288978 0 -0.015072883494906143 -0.011247354835280814 0 -0.014938870301562789 -0.011183476247648507 0 -0.015028247048370519 -0.011166882115486228 0 -0.014973073308026547 -0.011216479891288978 0 -0.015152122504146808 -0.011404354067524642 0 -0.014141939924211155 -0.010192611102199624 0 -0.01484370866642485 -0.011322829686133106 0 -0.014847938323618437 -0.011330128601342609 0 -0.014839214170243586 -0.011251284675044078 0 -0.015072883494906143 -0.011247354835280814 0 -0.015137551863578685 -0.01110600929871673 0 -0.015421872353599559 -0.011096954539745317 0 -0.014538118317036317 -0.011881086184167064 0 -0.014472405706857577 -0.011843763226263244 0 -0.014433197793175557 -0.011870984952388934 0 -0.0144948780362225 -0.01178750404842987 0 -0.014538118317036317 -0.011881086184167064 0 -0.014472405706857577 -0.011843763226263244 0 -0.014538118317036317 -0.011881086184167064 0 -0.014433197793175557 -0.011870984952388934 0 -0.014351306255653057 -0.01193235350453889 0 -0.014378253883237296 -0.011875901185077782 0 -0.014433197793175557 -0.011870984952388934 0 -0.014351306255653057 -0.01193235350453889 0 -0.014378253883237296 -0.011875901185077782 0 -0.014351306255653057 -0.01193235350453889 0 -0.014313130766957635 -0.011874178945239644 0 -0.014429406978399386 -0.01182529131039925 0 -0.014378253883237296 -0.011875901185077782 0 -0.014433197793175557 -0.011870984952388934 0 -0.014429406978399386 -0.01182529131039925 0 -0.014472405706857577 -0.011843763226263244 0 -0.014433197793175557 -0.011870984952388934 0 -0.015028247048370519 -0.011166882115486228 0 -0.015072883494906143 -0.011247354835280814 0 -0.015137551863578685 -0.01110600929871673 0 -0.015137551863578685 -0.01110600929871673 0 -0.015179411803001279 -0.010960893754052509 0 -0.015421872353599559 -0.011096954539745317 0 -0.015137551863578685 -0.01110600929871673 0 -0.015179411803001279 -0.010960893754052509 0 -0.014987092420303497 -0.011072646797763885 0 -0.015018084685172999 -0.010830534583023835 0 -0.015179411803001279 -0.010960893754052509 0 -0.014987092420303497 -0.011072646797763885 0 -0.015018084685172999 -0.010830534583023835 0 -0.014744924760606548 -0.011016206804205928 0 -0.014987092420303497 -0.011072646797763885 0 -0.015028247048370519 -0.011166882115486228 0 -0.015137551863578685 -0.01110600929871673 0 -0.014987092420303497 -0.011072646797763885 0 -0.01400868650264555 -0.012150610374805625 0 -0.013941741654051603 -0.0120618924964852 0 -0.01370065503304314 -0.012210945334600289 0 -0.013973651024345508 -0.004167542897406333 0 -0.013898513508831483 -0.0047034974017497524 0 -0.013628461546937452 -0.0048568162844366087 0 -0.014741107398669807 -0.0041480515578972551 0 -0.013973651024345508 -0.004167542897406333 0 -0.013898513508831483 -0.0047034974017497524 0 -0.01400868650264555 -0.012150610374805625 0 -0.014108912905513808 -0.012109974501078407 0 -0.014041090216859824 -0.012086226962729445 0 -0.014088095443412439 -0.0083663473691072271 0 -0.014141939924211155 -0.010192611102199624 0 -0.015129281983921128 -0.005684335910212065 0 -0.014141939924211155 -0.010192611102199624 0 -0.015353494546383717 -0.010675182529033881 0 -0.015179411803001279 -0.010960893754052509 0 -0.015421872353599559 -0.011096954539745317 0 -0.014538118317036317 -0.011881086184167064 0 -0.014351306255653057 -0.01193235350453889 0 -0.014133785054001992 -0.012139223947291921 0 -0.014141939924211155 -0.010192611102199624 0 -0.014300335435671826 -0.011879708173544399 0 -0.014108912905513808 -0.012109974501078407 0 -0.014103818665623408 -0.012018153282864853 0 -0.014041090216859824 -0.012086226962729445 0 -0.014689323568356104 -0.011824677769632893 0 -0.014141939924211155 -0.010192611102199624 0 -0.014133785054001992 -0.012139223947291921 0 -0.014103818665623408 -0.012018153282864853 0 -0.014203974286862155 -0.011937359313798119 0 -0.014351306255653057 -0.01193235350453889 0 -0.014133785054001992 -0.012139223947291921 0 -0.014203974286862155 -0.011937359313798119 0 -0.014351306255653057 -0.01193235350453889 0 -0.014313130766957635 -0.011874178945239644 0 -0.014203974286862155 -0.011937359313798119 0 -0.014103818665623408 -0.012018153282864853 0 -0.014203974286862155 -0.011937359313798119 0 -0.014050468977671661 -0.011942847263813896 0 -0.014203974286862155 -0.011937359313798119 0 -0.014050468977671661 -0.011942847263813896 0 -0.014145379338396569 -0.011858272844135792 0 -0.014103818665623408 -0.012018153282864853 0 -0.014050468977671661 -0.011942847263813896 0 -0.013941741654051603 -0.0120618924964852 0 -0.014103818665623408 -0.012018153282864853 0 -0.014041090216859824 -0.012086226962729445 0 -0.013941741654051603 -0.0120618924964852 0 -0.01400868650264555 -0.012150610374805625 0 -0.014041090216859824 -0.012086226962729445 0 -0.013941741654051603 -0.0120618924964852 0 -0.014050468977671661 -0.011942847263813896 0 -0.013941741654051603 -0.0120618924964852 0 -0.013908049492518707 -0.011938020060834251 0 -0.013941741654051603 -0.0120618924964852 0 -0.013908049492518707 -0.011938020060834251 0 -0.013798290927959121 -0.012038617844785344 0 -0.013908049492518707 -0.011938020060834251 0 -0.01401561617357938 -0.011839780977702349 0 -0.013854451932885372 -0.011831474519408124 0 -0.014050468977671661 -0.011942847263813896 0 -0.01401561617357938 -0.011839780977702349 0 -0.014145379338396569 -0.011858272844135792 0 -0.014050468977671661 -0.011942847263813896 0 -0.013908049492518707 -0.011938020060834251 0 -0.01401561617357938 -0.011839780977702349 0 -0.01401561617357938 -0.011839780977702349 0 -0.014181562877108455 -0.011767105143640245 0 -0.01412037617473561 -0.011720932703068107 0 -0.01401561617357938 -0.011839780977702349 0 -0.014145379338396569 -0.011858272844135792 0 -0.014181562877108455 -0.011767105143640245 0 -0.01401561617357938 -0.011839780977702349 0 -0.013982647664926318 -0.011730963438674231 0 -0.01412037617473561 -0.011720932703068107 0 -0.01401561617357938 -0.011839780977702349 0 -0.013982647664926318 -0.011730963438674231 0 -0.013854451932885372 -0.011831474519408124 0 -0.014373991327774394 -0.011780996280843295 0 -0.014313130766957635 -0.011874178945239644 0 -0.014251975796608396 -0.011830609454824831 0 -0.014373991327774394 -0.011780996280843295 0 -0.014251975796608396 -0.011830609454824831 0 -0.014298047237371363 -0.011717881809772719 0 -0.014313130766957635 -0.011874178945239644 0 -0.014203974286862155 -0.011937359313798119 0 -0.014251975796608396 -0.011830609454824831 0 -0.014251975796608396 -0.011830609454824831 0 -0.014145379338396569 -0.011858272844135792 0 -0.014181562877108455 -0.011767105143640245 0 -0.014203974286862155 -0.011937359313798119 0 -0.014251975796608396 -0.011830609454824831 0 -0.014145379338396569 -0.011858272844135792 0 -0.014181562877108455 -0.011767105143640245 0 -0.014298047237371363 -0.011717881809772719 0 -0.0142579830737925 -0.011642905468528782 0 -0.014251975796608396 -0.011830609454824831 0 -0.014181562877108455 -0.011767105143640245 0 -0.014298047237371363 -0.011717881809772719 0 -0.014403768360209278 -0.011677153493891868 0 -0.014373991327774394 -0.011780996280843295 0 -0.014298047237371363 -0.011717881809772719 0 -0.014403768360209278 -0.011677153493891868 0 -0.014298047237371363 -0.011717881809772719 0 -0.014367614906960211 -0.01161493474600191 0 -0.014298047237371363 -0.011717881809772719 0 -0.014367614906960211 -0.01161493474600191 0 -0.0142579830737925 -0.011642905468528782 0 -0.014181562877108455 -0.011767105143640245 0 -0.0142579830737925 -0.011642905468528782 0 -0.01412037617473561 -0.011720932703068107 0 -0.0142579830737925 -0.011642905468528782 0 -0.01412037617473561 -0.011720932703068107 0 -0.014158277638131957 -0.011630131131663623 0 -0.0142579830737925 -0.011642905468528782 0 -0.014333605527252147 -0.011545178123603455 0 -0.014158277638131957 -0.011630131131663623 0 -0.01420766146019474 -0.011517177331398624 0 -0.014333605527252147 -0.011545178123603455 0 -0.014158277638131957 -0.011630131131663623 0 -0.014367614906960211 -0.01161493474600191 0 -0.0142579830737925 -0.011642905468528782 0 -0.014333605527252147 -0.011545178123603455 0 -0.014438272425755972 -0.01153816639923402 0 -0.014367614906960211 -0.01161493474600191 0 -0.014333605527252147 -0.011545178123603455 0 -0.013982647664926318 -0.011730963438674231 0 -0.013800074313413528 -0.011694363336366004 0 -0.013854451932885372 -0.011831474519408124 0 -0.013982647664926318 -0.011730963438674231 0 -0.01412037617473561 -0.011720932703068107 0 -0.014158277638131957 -0.011630131131663623 0 -0.013982647664926318 -0.011730963438674231 0 -0.014158277638131957 -0.011630131131663623 0 -0.014035659624440994 -0.011622166114098265 0 -0.01420766146019474 -0.011517177331398624 0 -0.014158277638131957 -0.011630131131663623 0 -0.014035659624440994 -0.011622166114098265 0 -0.013982647664926318 -0.011730963438674231 0 -0.014035659624440994 -0.011622166114098265 0 -0.013800074313413528 -0.011694363336366004 0 -0.01402752657009153 -0.011499053509771526 0 -0.014035659624440994 -0.011622166114098265 0 -0.013800074313413528 -0.011694363336366004 0 -0.013800074313413528 -0.011694363336366004 0 -0.013618962320667075 -0.011827218832728578 0 -0.013411937810381273 -0.011725016045743152 0 -0.013800074313413528 -0.011694363336366004 0 -0.013618962320667075 -0.011827218832728578 0 -0.013854451932885372 -0.011831474519408124 0 -0.013411937810381273 -0.011725016045743152 0 -0.013433575141655203 -0.011821713479818242 0 -0.013376720783659368 -0.011844468485205026 0 -0.013618962320667075 -0.011827218832728578 0 -0.013411937810381273 -0.011725016045743152 0 -0.013433575141655203 -0.011821713479818242 0 -0.013618962320667075 -0.011827218832728578 0 -0.013433575141655203 -0.011821713479818242 0 -0.01358045464117086 -0.011920278449176551 0 -0.013433575141655203 -0.011821713479818242 0 -0.01358045464117086 -0.011920278449176551 0 -0.013477705775606802 -0.011988391163407086 0 -0.013618962320667075 -0.011827218832728578 0 -0.013854451932885372 -0.011831474519408124 0 -0.013741468939230495 -0.011925723689935486 0 -0.013618962320667075 -0.011827218832728578 0 -0.01358045464117086 -0.011920278449176551 0 -0.013741468939230495 -0.011925723689935486 0 -0.013908049492518707 -0.011938020060834251 0 -0.013854451932885372 -0.011831474519408124 0 -0.013741468939230495 -0.011925723689935486 0 -0.013908049492518707 -0.011938020060834251 0 -0.013741468939230495 -0.011925723689935486 0 -0.013798290927959121 -0.012038617844785344 0 -0.013741468939230495 -0.011925723689935486 0 -0.013798290927959121 -0.012038617844785344 0 -0.013630374774720955 -0.012042141480527036 0 -0.01358045464117086 -0.011920278449176551 0 -0.013741468939230495 -0.011925723689935486 0 -0.013630374774720955 -0.012042141480527036 0 -0.013630374774720955 -0.012042141480527036 0 -0.013505611912631776 -0.012120400837954235 0 -0.013477705775606802 -0.011988391163407086 0 -0.01358045464117086 -0.011920278449176551 0 -0.013630374774720955 -0.012042141480527036 0 -0.013477705775606802 -0.011988391163407086 0 -0.013482837509098943 -0.012231691691434314 0 -0.01370065503304314 -0.012210945334600289 0 -0.013505611912631776 -0.012120400837954235 0 -0.013630374774720955 -0.012042141480527036 0 -0.01370065503304314 -0.012210945334600289 0 -0.013505611912631776 -0.012120400837954235 0 -0.014447026297555159 -0.0056069090011557476 0 -0.014088095443412439 -0.0083663473691072271 0 -0.014088095443412439 -0.0083663473691072271 0 -0.013785293540572233 -0.010122132756039685 0 -0.014011034798089572 -0.0076554295598363917 0 -0.01397551579854452 -0.0077502834575741732 0 -0.014011409364137806 -0.0076655965009283225 0 -0.013798290927959121 -0.012038617844785344 0 -0.013630374774720955 -0.012042141480527036 0 -0.01370065503304314 -0.012210945334600289 0 -0.013941741654051603 -0.0120618924964852 0 -0.013798290927959121 -0.012038617844785344 0 -0.01370065503304314 -0.012210945334600289 0 -0.013374392830296556 -0.012102731048835339 0 -0.013287697947200177 -0.012106984286029285 0 -0.013324141126511617 -0.012044757000208645 0 -0.013374392830296556 -0.012102731048835339 0 -0.013422169683916248 -0.012040872840482421 0 -0.013324141126511617 -0.012044757000208645 0 -0.01332992210998039 -0.012183937714614417 0 -0.013374392830296556 -0.012102731048835339 0 -0.013287697947200177 -0.012106984286029285 0 -0.013374392830296556 -0.012102731048835339 0 -0.013505611912631776 -0.012120400837954235 0 -0.013422169683916248 -0.012040872840482421 0 -0.013482837509098943 -0.012231691691434314 0 -0.013374392830296556 -0.012102731048835339 0 -0.013505611912631776 -0.012120400837954235 0 -0.013482837509098943 -0.012231691691434314 0 -0.01332992210998039 -0.012183937714614417 0 -0.013374392830296556 -0.012102731048835339 0 -0.013505611912631776 -0.012120400837954235 0 -0.013422169683916248 -0.012040872840482421 0 -0.013477705775606802 -0.011988391163407086 0 -0.013422169683916248 -0.012040872840482421 0 -0.013477705775606802 -0.011988391163407086 0 -0.013370295713014945 -0.011981978410951222 0 -0.013477705775606802 -0.011988391163407086 0 -0.013370295713014945 -0.011981978410951222 0 -0.01339233689753587 -0.011891000680697322 0 -0.013370295713014945 -0.011981978410951222 0 -0.013322114285898475 -0.011990391729608406 0 -0.013343388504897797 -0.011938490277545406 0 -0.013370295713014945 -0.011981978410951222 0 -0.013324141126511617 -0.012044757000208645 0 -0.013322114285898475 -0.011990391729608406 0 -0.013422169683916248 -0.012040872840482421 0 -0.013370295713014945 -0.011981978410951222 0 -0.013324141126511617 -0.012044757000208645 0 -0.013324141126511617 -0.012044757000208645 0 -0.013322114285898475 -0.011990391729608406 0 -0.013249357009549389 -0.012009610195235845 0 -0.013287697947200177 -0.012106984286029285 0 -0.013324141126511617 -0.012044757000208645 0 -0.013249357009549389 -0.012009610195235845 0 -0.013322114285898475 -0.011990391729608406 0 -0.013343388504897797 -0.011938490277545406 0 -0.013249357009549389 -0.012009610195235845 0 -0.013343388504897797 -0.011938490277545406 0 -0.013371442919513567 -0.011830521322526313 0 -0.013249357009549389 -0.012009610195235845 0 -0.013343388504897797 -0.011938490277545406 0 -0.01339233689753587 -0.011891000680697322 0 -0.013371442919513567 -0.011830521322526313 0 -0.013213518002856675 -0.012185776382384527 0 -0.013461382832210761 -0.012538216410266612 0 -0.013211205287162782 -0.012467265213712464 0 -0.012786787864860105 -0.013239470244358406 0 -0.01291676288024699 -0.012414290678392196 0 -0.013370295713014945 -0.011981978410951222 0 -0.013343388504897797 -0.011938490277545406 0 -0.01339233689753587 -0.011891000680697322 0 -0.01339233689753587 -0.011891000680697322 0 -0.013391763772376844 -0.011844147479589767 0 -0.013371442919513567 -0.011830521322526313 0 -0.013433575141655203 -0.011821713479818242 0 -0.013477705775606802 -0.011988391163407086 0 -0.01339233689753587 -0.011891000680697322 0 -0.013433575141655203 -0.011821713479818242 0 -0.01339233689753587 -0.011891000680697322 0 -0.013391763772376844 -0.011844147479589767 0 -0.013380866902811109 -0.011850320755310329 0 -0.013371442919513567 -0.011830521322526313 0 -0.013377634446190924 -0.01195065180036704 0 -0.013433575141655203 -0.011821713479818242 0 -0.013380866902811109 -0.011850320755310329 0 -0.013376720783659368 -0.011844468485205026 0 -0.013433575141655203 -0.011821713479818242 0 -0.013391763772376844 -0.011844147479589767 0 -0.013380866902811109 -0.011850320755310329 0 -0.013391763772376844 -0.011844147479589767 0 -0.013380866902811109 -0.011850320755310329 0 -0.013371442919513567 -0.011830521322526313 0 -0.013211205287162782 -0.012467265213712464 0 -0.013201688457198942 -0.012188164600912684 0 -0.01291676288024699 -0.012414290678392196 0 -0.013213518002856675 -0.012185776382384527 0 -0.013395873682372174 -0.0119439404465229 0 -0.013211205287162782 -0.012467265213712464 0 -0.013201688457198942 -0.012188164600912684 0 -0.013377634446190924 -0.01195065180036704 0 -0.013201688457198942 -0.012188164600912684 0 -0.01327171256112597 -0.011973106068080856 0 -0.01291676288024699 -0.012414290678392196 0 -0.013201688457198942 -0.012188164600912684 0 -0.01327171256112597 -0.011973106068080856 0 -0.013377634446190924 -0.01195065180036704 0 -0.0085746983906578068 -0.013966441120224351 0 -0.0088376520232790225 -0.014058929926907328 0 -0.01327171256112597 -0.011973106068080856 0 -0.013345547132093663 -0.012015671701739075 0 -0.013401961955848153 -0.012175416167159789 0 -0.01327171256112597 -0.011973106068080856 0 -0.013345547132093663 -0.012015671701739075 0 -0.013377634446190924 -0.01195065180036704 0 -0.013345547132093663 -0.012015671701739075 0 -0.013377634446190924 -0.01195065180036704 0 -0.013376720783659368 -0.011844468485205026 0 -0.013380866902811109 -0.011850320755310329 0 -0.013377634446190924 -0.01195065180036704 0 -0.013376720783659368 -0.011844468485205026 0 -0.013411937810381273 -0.011725016045743152 0 -0.013376720783659368 -0.011844468485205026 0 -0.01325445413395383 -0.011951979100628242 0 -0.01402752657009153 -0.011499053509771526 0 -0.013800074313413528 -0.011694363336366004 0 -0.013818476632955861 -0.011376902962469881 0 -0.01341947264219435 -0.011698877330201691 0 -0.013399893381332779 -0.011636228690233816 0 -0.013411937810381273 -0.011725016045743152 0 -0.013070669918365457 -0.011861290397974546 0 -0.01325445413395383 -0.011951979100628242 0 -0.013800074313413528 -0.011694363336366004 0 -0.013411937810381273 -0.011725016045743152 0 -0.013818476632955861 -0.011376902962469881 0 -0.013070669918365457 -0.011861290397974546 0 -0.01325445413395383 -0.011951979100628242 0 -0.013053497423930584 -0.012085394782589754 0 -0.013345547132093663 -0.012015671701739075 0 -0.013376720783659368 -0.011844468485205026 0 -0.01325445413395383 -0.011951979100628242 0 -0.01325445413395383 -0.011951979100628242 0 -0.013208991102055581 -0.012131062069979262 0 -0.013053497423930584 -0.012085394782589754 0 -0.013345547132093663 -0.012015671701739075 0 -0.01325445413395383 -0.011951979100628242 0 -0.013208991102055581 -0.012131062069979262 0 -0.013208991102055581 -0.012131062069979262 0 -0.013053497423930584 -0.012085394782589754 0 -0.013042176720631718 -0.012260705857231028 0 -0.012877545492280417 -0.012251189301930945 0 -0.013053497423930584 -0.012085394782589754 0 -0.013042176720631718 -0.012260705857231028 0 -0.013042176720631718 -0.012260705857231028 0 -0.013254573033337018 -0.012321558226631529 0 -0.01305548778348764 -0.012434165063516229 0 -0.013208991102055581 -0.012131062069979262 0 -0.013042176720631718 -0.012260705857231028 0 -0.013254573033337018 -0.012321558226631529 0 -0.013254573033337018 -0.012321558226631529 0 -0.013401961955848153 -0.012175416167159789 0 -0.013306527425754141 -0.012163587815995754 0 -0.013254573033337018 -0.012321558226631529 0 -0.013401961955848153 -0.012175416167159789 0 -0.01338321762868677 -0.012500402251539528 0 -0.0040010826743867162 -0.016253586251459676 0 -0.00401449242185871 -0.016556998746585016 0 -0.004222352623037255 -0.016469345083467098 0 -0.0088376520232790225 -0.014058929926907328 0 -0.007735678637923394 -0.01513626957197718 0 -0.013345547132093663 -0.012015671701739075 0 -0.013208991102055581 -0.012131062069979262 0 -0.013306527425754141 -0.012163587815995754 0 -0.013345547132093663 -0.012015671701739075 0 -0.013401961955848153 -0.012175416167159789 0 -0.013306527425754141 -0.012163587815995754 0 -0.013208991102055581 -0.012131062069979262 0 -0.013254573033337018 -0.012321558226631529 0 -0.013306527425754141 -0.012163587815995754 0 -0.0092701437586993913 -0.015498124115317771 0 -0.009194091596751117 -0.015862339698524922 0 -0.0095716917823075488 -0.015673129914879815 0 -0.0092701437586993913 -0.015498124115317771 0 -0.0095716917823075488 -0.015673129914879815 0 -0.0096359350761414664 -0.015345009541027382 0 -0.0040244424660930292 -0.01689467300047625 0 -0.0040313586652284015 -0.016650753034921542 0 -0.0042345530098167085 -0.016832745990353865 0 -0.0064860259064403163 -0.016488909742434867 0 -0.007735678637923394 -0.01513626957197718 0 -0.007735678637923394 -0.01513626957197718 0 -0.0027018786720679204 -0.01717197430524103 0 -0.013254573033337018 -0.012321558226631529 0 -0.01338321762868677 -0.012500402251539528 0 -0.013223924350267773 -0.01263125569659306 0 -0.007735678637923394 -0.01513626957197718 0 -0.012085088558988325 -0.013861616236903853 0 -0.013254573033337018 -0.012321558226631529 0 -0.01305548778348764 -0.012434165063516229 0 -0.013223924350267773 -0.01263125569659306 0 -0.01305548778348764 -0.012434165063516229 0 -0.012840586577798832 -0.012631028774813568 0 -0.012604785850189199 -0.012507483411146094 0 -0.012875175748779017 -0.012405671728836699 0 -0.013151775694383083 -0.012692773851024589 0 -0.013042176720631718 -0.012260705857231028 0 -0.01305548778348764 -0.012434165063516229 0 -0.012874091023261782 -0.01247179523089954 0 -0.01305548778348764 -0.012434165063516229 0 -0.012840586577798832 -0.012631028774813568 0 -0.012962005594030561 -0.01283854746776637 0 -0.012840586577798832 -0.012631028774813568 0 -0.012962005594030561 -0.01283854746776637 0 -0.012763100478137493 -0.012885512549845959 0 -0.012085088558988325 -0.013861616236903853 0 -0.01127124154983826 -0.014236478238495573 0 -0.01305548778348764 -0.012434165063516229 0 -0.013223924350267773 -0.01263125569659306 0 -0.012962005594030561 -0.01283854746776637 0 -0.0095716917823075488 -0.015673129914879815 0 -0.0096359350761414664 -0.015345009541027382 0 -0.0099309612399351641 -0.015487029687369504 0 -0.0096359350761414664 -0.015345009541027382 0 -0.0099309612399351641 -0.015487029687369504 0 -0.0099243755018645699 -0.015239211300318732 0 -0.01127124154983826 -0.014236478238495573 0 -0.011683446222067623 -0.01418825185001373 0 -0.0099309612399351641 -0.015487029687369504 0 -0.0099243755018645699 -0.015239211300318732 0 -0.010179785197523857 -0.015312548118672924 0 -0.0099243755018645699 -0.015239211300318732 0 -0.010046063483772551 -0.01499023958951912 0 -0.009773867090103857 -0.015047628879430839 0 -0.0099243755018645699 -0.015239211300318732 0 -0.010046063483772551 -0.01499023958951912 0 -0.010179785197523857 -0.015312548118672924 0 -0.009773867090103857 -0.015047628879430839 0 -0.0093153887512318154 -0.015172153643577433 0 -0.0095367065373134913 -0.014963020858634756 0 -0.0096359350761414664 -0.015345009541027382 0 -0.009773867090103857 -0.015047628879430839 0 -0.0093395297007382479 -0.015138696028491494 0 -0.010508033054717097 -0.014811630440370725 0 -0.0075277664826947617 -0.015896676405365476 0 -0.0096359350761414664 -0.015345009541027382 0 -0.0099243755018645699 -0.015239211300318732 0 -0.009773867090103857 -0.015047628879430839 0 -0.0064860259064403163 -0.016488909742434867 0 -0.0075277664826947617 -0.015896676405365476 0 -0.0092701437586993913 -0.015498124115317771 0 -0.0096359350761414664 -0.015345009541027382 0 -0.0093395297007382479 -0.015138696028491494 0 -0.0040244424660930292 -0.01689467300047625 0 -0.0040266827640960236 -0.017082122666079433 0 -0.0042330607331661652 -0.017069521928302717 0 -0.0040244424660930292 -0.01689467300047625 0 -0.0042345530098167085 -0.016832745990353865 0 -0.0042330607331661652 -0.017069521928302717 0 -0.0077288698089880365 -0.016944363812182991 0 -0.0073676068063673319 -0.016529627285336319 0 -0.0069295421374830721 -0.017129518593463344 0 -0.0075277664826947617 -0.015896676405365476 0 -0.0052006872289419573 -0.017275198401614539 0 -0.0073676068063673319 -0.016529627285336319 0 -0.0074484344263528136 -0.016185236593423954 0 -0.0071287245014997449 -0.01608532359413576 0 -0.0073676068063673319 -0.016529627285336319 0 -0.0074484344263528136 -0.016185236593423954 0 -0.0078550236960899713 -0.016272603364303383 0 -0.0077288698089880365 -0.016944363812182991 0 -0.0073676068063673319 -0.016529627285336319 0 -0.0078550236960899713 -0.016272603364303383 0 -0.0093153887512318154 -0.015172153643577433 0 -0.0094075293054300107 -0.014760194007480658 0 -0.0095367065373134913 -0.014963020858634756 0 -0.0075277664826947617 -0.015896676405365476 0 -0.0087482722600285504 -0.015464847305320266 0 -0.0078550236960899713 -0.016272603364303383 0 -0.007540792518440172 -0.015846806083806717 0 -0.0079810762615440053 -0.015613875192730883 0 -0.0087482722600285504 -0.015464847305320266 0 -0.0084630708785221626 -0.015299272752330053 0 -0.0094075293054300107 -0.014760194007480658 0 -0.0094814516894174122 -0.014384515189825966 0 -0.0096504809806720326 -0.014552136569753321 0 -0.0074484344263528136 -0.016185236593423954 0 -0.0078550236960899713 -0.016272603364303383 0 -0.007540792518440172 -0.015846806083806717 0 -0.0074375574139297594 -0.015927182064723659 0 -0.0084630708785221626 -0.015299272752330053 0 -0.0074375574139297594 -0.015927182064723659 0 -0.0072138706863918711 -0.016042393777554599 0 -0.0074484344263528136 -0.016185236593423954 0 -0.007540792518440172 -0.015846806083806717 0 -0.0071287245014997449 -0.01608532359413576 0 -0.0075381318796275817 -0.015903942167138425 0 -0.0073030374045957112 -0.015832071236053638 0 -0.0074936410526814726 -0.015693348270052372 0 -0.0075381318796275817 -0.015903942167138425 0 -0.0073030374045957112 -0.015832071236053638 0 -0.0071287245014997449 -0.01608532359413576 0 -0.0078033065378819849 -0.015776852677584653 0 -0.0076478184397895006 -0.015402681221154478 0 -0.007144332378790392 -0.015715380399811331 0 -0.0073030374045957112 -0.015832071236053638 0 -0.0074936410526814726 -0.015693348270052372 0 -0.007144332378790392 -0.015715380399811331 0 -0.0075895534882467986 -0.015727444303593841 0 -0.0072318313232959952 -0.015725297895494112 0 -0.0078033065378819849 -0.015776852677584653 0 -0.0079960266937515751 -0.015572159221760303 0 -0.0076478184397895006 -0.015402681221154478 0 -0.0078033065378819849 -0.015776852677584653 0 -0.0083326647823374084 -0.015751456652778831 0 -0.0079960266937515751 -0.015572159221760303 0 -0.0074936410526814726 -0.015693348270052372 0 -0.0079216665721048227 -0.015706552693558532 0 -0.0079285540079351152 -0.015669954273733848 0 -0.0075381318796275817 -0.015903942167138425 0 -0.0074936410526814726 -0.015693348270052372 0 -0.0079216665721048227 -0.015706552693558532 0 -0.0083763549639661265 -0.015737927524061484 0 -0.0084512787265306442 -0.015735310670977318 0 -0.0084979128293013947 -0.015000027671279644 0 -0.0075895534882467986 -0.015727444303593841 0 -0.0084165185022892688 -0.015455600358551109 0 -0.0084630708785221626 -0.015299272752330053 0 -0.0084165185022892688 -0.015455600358551109 0 -0.0084165185022892688 -0.015455600358551109 0 -0.008791941600512625 -0.015255566233187587 0 -0.0084031772632403023 -0.015409305596090279 0 -0.0084197144796319037 -0.015319294733306834 0 -0.0085887988249947131 -0.01531301250330752 0 -0.0084630708785221626 -0.015299272752330053 0 -0.008791941600512625 -0.015255566233187587 0 -0.0083326647823374084 -0.015751456652778831 0 -0.0079960266937515751 -0.015572159221760303 0 -0.0080655488866910648 -0.015303462519860596 0 -0.0084165185022892688 -0.015455600358551109 0 -0.0084978223334547746 -0.015000583965429561 0 -0.0083326647823374084 -0.015751456652778831 0 -0.0080655488866910648 -0.015303462519860596 0 -0.0084979286359984016 -0.014999980099362424 0 -0.0080655488866910648 -0.015303462519860596 0 -0.0076657759661750225 -0.014999919185398024 0 -0.0084979286359984016 -0.014999980099362424 0 -0.0076657759661750225 -0.014999919185398024 0 -0.0076478184397895006 -0.015402681221154478 0 -0.0072210068887670828 -0.015277727459276686 0 -0.0080655488866910648 -0.015303462519860596 0 -0.0076657759661750225 -0.014999919185398024 0 -0.0076478184397895006 -0.015402681221154478 0 -0.0079960266937515751 -0.015572159221760303 0 -0.0080655488866910648 -0.015303462519860596 0 -0.0076478184397895006 -0.015402681221154478 0 -0.0090731378407781175 -0.015356103531572277 0 -0.0095231403440688093 -0.015196681981615083 0 -0.0091855184710917404 -0.015364055830071338 0 -0.0095834486924238887 -0.015143402783587893 0 -0.0095433174983858594 -0.015294135384065389 0 -0.0091593438882448478 -0.01518581286622897 0 -0.0088880645461839134 -0.015561056204684502 0 -0.0095834486924238887 -0.015143402783587893 0 -0.0091593438882448478 -0.01518581286622897 0 -0.0087730354557970132 -0.015084299624213033 0 -0.0093944841284419826 -0.014999832699230229 0 -0.0091593438882448478 -0.01518581286622897 0 -0.0087730354557970132 -0.015084299624213033 0 -0.0088880645461839134 -0.015561056204684502 0 -0.0091593438882448478 -0.01518581286622897 0 -0.0095834486924238887 -0.015143402783587893 0 -0.0093944841284419826 -0.014999832699230229 0 -0.0087730354557970132 -0.015084299624213033 0 -0.0084979128293013947 -0.015000027671279644 0 -0.0093944841284419826 -0.014999832699230229 0 -0.0084512787265306442 -0.015735310670977318 0 -0.0087730354557970132 -0.015084299624213033 0 -0.0084979128293013947 -0.015000027671279644 0 -0.0084512787265306442 -0.015735310670977318 0 -0.0087730354557970132 -0.015084299624213033 0 -0.0088945960481111898 -0.015504319330638564 0 -0.0088153705251739298 -0.015177452905637202 0 -0.0090731378407781175 -0.015356103531572277 0 -0.008791941600512625 -0.015255566233187587 0 -0.0095170804303840537 -0.014827188692436115 0 -0.0095303239721259772 -0.01435898941305438 0 -0.0098263610935447471 -0.014345816666325454 0 -0.0096504809806720326 -0.014552136569753321 0 -0.0088697954808726991 -0.015182512893693392 0 -0.0092348241907693751 -0.014992726278472892 0 -0.0092853996164438315 -0.015166213757544291 0 -0.008791941600512625 -0.015255566233187587 0 -0.0090731378407781175 -0.015356103531572277 0 -0.0094814516894174122 -0.014384515189825966 0 -0.0095303239721259772 -0.01435898941305438 0 -0.0096504809806720326 -0.014552136569753321 0 -0.0091855184710917404 -0.015364055830071338 0 -0.0093558706982168408 -0.015406390079991407 0 -0.0095433174983858594 -0.015294135384065389 0 -0.0092186886707349668 -0.015522126904509855 0 -0.0094718788719786347 -0.015448871972757258 0 -0.0097405779984168391 -0.015526609578948533 0 -0.0099852676198365162 -0.014480924339908328 0 -0.010138672514419954 -0.014583689774926599 0 -0.010285113857962496 -0.014469130087236859 0 -0.0095170804303840537 -0.014827188692436115 0 -0.010622550545280557 -0.014935036793755234 0 -0.0092186886707349668 -0.015522126904509855 0 -0.0093558706982168408 -0.015406390079991407 0 -0.0094718788719786347 -0.015448871972757258 0 -0.0091855184710917404 -0.015364055830071338 0 -0.0092186886707349668 -0.015522126904509855 0 -0.0093558706982168408 -0.015406390079991407 0 -0.0090731378407781175 -0.015356103531572277 0 -0.0095170804303840537 -0.014827188692436115 0 -0.0093558706982168408 -0.015406390079991407 0 -0.0094718788719786347 -0.015448871972757258 0 -0.0095433174983858594 -0.015294135384065389 0 -0.0099852676198365162 -0.014480924339908328 0 -0.010138672514419954 -0.014583689774926599 0 -0.010058147186298553 -0.014734959627136612 0 -0.0095170804303840537 -0.014827188692436115 0 -0.010003322432791936 -0.014640155449786297 0 -0.010138672514419954 -0.014583689774926599 0 -0.010058147186298553 -0.014734959627136612 0 -0.010195653434339815 -0.014660763238952761 0 -0.0098263610935447471 -0.014345816666325454 0 -0.009931211560787025 -0.014667565140310651 0 -0.0096504809806720326 -0.014552136569753321 0 -0.009931211560787025 -0.014667565140310651 0 -0.0096504809806720326 -0.014552136569753321 0 -0.009724373060403085 -0.014812528401274649 0 -0.0094075293054300107 -0.014760194007480658 0 -0.0096504809806720326 -0.014552136569753321 0 -0.009724373060403085 -0.014812528401274649 0 -0.0094075293054300107 -0.014760194007480658 0 -0.009724373060403085 -0.014812528401274649 0 -0.0095367065373134913 -0.014963020858634756 0 -0.009773867090103857 -0.015047628879430839 0 -0.009724373060403085 -0.014812528401274649 0 -0.0095367065373134913 -0.014963020858634756 0 -0.010046063483772551 -0.01499023958951912 0 -0.009931211560787025 -0.014667565140310651 0 -0.009724373060403085 -0.014812528401274649 0 -0.010046063483772551 -0.01499023958951912 0 -0.009773867090103857 -0.015047628879430839 0 -0.009724373060403085 -0.014812528401274649 0 -0.010123964236023405 -0.015006726814262543 0 -0.010058147186298553 -0.014734959627136612 0 -0.010299820204595852 -0.014856020862359019 0 -0.010089600716341234 -0.015019165197281548 0 -0.010003322432791936 -0.014640155449786297 0 -0.012289477489338816 -0.014012434026901086 0 -0.012271248063854793 -0.013934212319462276 0 -0.012396292961627862 -0.013822003729261761 0 -0.012289477489338816 -0.014012434026901086 0 -0.012396292961627862 -0.013822003729261761 0 -0.012414442106789486 -0.013897195404917363 0 -0.012538062436739815 -0.013988004750037664 0 -0.012289477489338816 -0.014012434026901086 0 -0.012414442106789486 -0.013897195404917363 0 -0.012538062436739815 -0.013988004750037664 0 -0.012289477489338816 -0.014012434026901086 0 -0.012140933145932788 -0.014413553266859162 0 -0.012289477489338816 -0.014012434026901086 0 -0.011988256807735839 -0.014277650917802059 0 -0.012271248063854793 -0.013934212319462276 0 -0.012289477489338816 -0.014012434026901086 0 -0.012140933145932788 -0.014413553266859162 0 -0.011988256807735839 -0.014277650917802059 0 -0.012140933145932788 -0.014413553266859162 0 -0.011288496722761653 -0.015130937131345711 0 -0.011988256807735839 -0.014277650917802059 0 -0.010058147186298553 -0.014734959627136612 0 -0.010299820204595852 -0.014856020862359019 0 -0.010195653434339815 -0.014660763238952761 0 -0.011497012134380471 -0.014470268454226909 0 -0.010622550545280557 -0.014935036793755234 0 -0.012538062436739815 -0.013988004750037664 0 -0.012140933145932788 -0.014413553266859162 0 -0.012565880019710261 -0.015087618694491668 0 -0.010299820204595852 -0.014856020862359019 0 -0.010195653434339815 -0.014660763238952761 0 -0.010285113857962496 -0.014469130087236859 0 -0.010138672514419954 -0.014583689774926599 0 -0.010195653434339815 -0.014660763238952761 0 -0.010285113857962496 -0.014469130087236859 0 -0.0094718788719786347 -0.015448871972757258 0 -0.0096266260576226472 -0.01541405484652305 0 -0.0097405779984168391 -0.015526609578948533 0 -0.0096266260576226472 -0.01541405484652305 0 -0.0097600104131648491 -0.015372516405582005 0 -0.0097405779984168391 -0.015526609578948533 0 -0.0096266260576226472 -0.01541405484652305 0 -0.0097600104131648491 -0.015372516405582005 0 -0.0095433174983858594 -0.015294135384065389 0 -0.0094718788719786347 -0.015448871972757258 0 -0.0096266260576226472 -0.01541405484652305 0 -0.0095433174983858594 -0.015294135384065389 0 -0.0097600104131648491 -0.015372516405582005 0 -0.010266823276913853 -0.01523840812210449 0 -0.0098384862358821806 -0.015204643204667261 0 -0.0097600104131648491 -0.015372516405582005 0 -0.0097385031702078607 -0.015777206242750801 0 -0.010266823276913853 -0.01523840812210449 0 -0.010356634914356304 -0.015334334342050721 0 -0.010622550545280557 -0.014935036793755234 0 -0.010622550545280557 -0.014935036793755234 0 -0.011432337384367001 -0.015265488634821585 0 -0.0097385031702078607 -0.015777206242750801 0 -0.011288496722761653 -0.015130937131345711 0 -0.010266823276913853 -0.01523840812210449 0 -0.012140933145932788 -0.014413553266859162 0 -0.012565880019710261 -0.015087618694491668 0 -0.011288496722761653 -0.015130937131345711 0 -0.011288496722761653 -0.015130937131345711 0 -0.010266823276913853 -0.01523840812210449 0 -0.010110508334810954 -0.015059067501522172 0 -0.011288496722761653 -0.015130937131345711 0 -0.010292010203449069 -0.014999617067300762 0 -0.010110508334810954 -0.015059067501522172 0 -0.010292010203449069 -0.014999617067300762 0 -0.010110508334810954 -0.015059067501522172 0 -0.0093944841284419826 -0.014999832699230229 0 -0.010110508334810954 -0.015059067501522172 0 -0.0095834486924238887 -0.015143402783587893 0 -0.0093944841284419826 -0.014999832699230229 0 -0.0097600104131648491 -0.015372516405582005 0 -0.0095433174983858594 -0.015294135384065389 0 -0.0098384862358821806 -0.015204643204667261 0 -0.0095834486924238887 -0.015143402783587893 0 -0.0095433174983858594 -0.015294135384065389 0 -0.0098384862358821806 -0.015204643204667261 0 -0.010266823276913853 -0.01523840812210449 0 -0.010110508334810954 -0.015059067501522172 0 -0.0098384862358821806 -0.015204643204667261 0 -0.010110508334810954 -0.015059067501522172 0 -0.0095834486924238887 -0.015143402783587893 0 -0.0098384862358821806 -0.015204643204667261 0 -0.011187967251339383 -0.014999266341703472 0 -0.011116181059724856 -0.014999592546218347 0 -0.011693350766169593 -0.014767291135339375 0 -0.011288496722761653 -0.015130937131345711 0 -0.010292010203449069 -0.014999617067300762 0 -0.011116181059724856 -0.014999592546218347 0 -0.010292010203449069 -0.014999617067300762 0 -0.011187967251339383 -0.014999266341703472 0 -0.011116181059724856 -0.014999592546218347 0 -0.011288496722761653 -0.015130937131345711 0 -0.011679309744136727 -0.014689316022087881 0 -0.011803768075323058 -0.01451722743265897 0 -0.011288496722761653 -0.015130937131345711 0 -0.011116181059724856 -0.014999592546218347 0 -0.011679309744136727 -0.014689316022087881 0 -0.011116181059724856 -0.014999592546218347 0 -0.011679309744136727 -0.014689316022087881 0 -0.011693350766169593 -0.014767291135339375 0 -0.011679309744136727 -0.014689316022087881 0 -0.012150252614334386 -0.014157038762652183 0 -0.012000539240169535 -0.014481674927953075 0 -0.011679309744136727 -0.014689316022087881 0 -0.011803768075323058 -0.01451722743265897 0 -0.012150252614334386 -0.014157038762652183 0 -0.011288496722761653 -0.015130937131345711 0 -0.011803768075323058 -0.01451722743265897 0 -0.011988256807735839 -0.014277650917802059 0 -0.011803768075323058 -0.01451722743265897 0 -0.011988256807735839 -0.014277650917802059 0 -0.012150252614334386 -0.014157038762652183 0 -0.012271248063854793 -0.013934212319462276 0 -0.012150252614334386 -0.014157038762652183 0 -0.012434771054735515 -0.013789696377910561 0 -0.011988256807735839 -0.014277650917802059 0 -0.012271248063854793 -0.013934212319462276 0 -0.012150252614334386 -0.014157038762652183 0 -0.012150252614334386 -0.014157038762652183 0 -0.012560984091031867 -0.013762787774866583 0 -0.012434771054735515 -0.013789696377910561 0 -0.012560984091031867 -0.013762787774866583 0 -0.012671402149041212 -0.01358935408167828 0 -0.012963689950045128 -0.013511000568027908 0 -0.012560984091031867 -0.013762787774866583 0 -0.012671402149041212 -0.01358935408167828 0 -0.012434771054735515 -0.013789696377910561 0 -0.012671402149041212 -0.01358935408167828 0 -0.013104692817843544 -0.0134473284251604 0 -0.012963689950045128 -0.013511000568027908 0 -0.012671402149041212 -0.01358935408167828 0 -0.012446070271455343 -0.013729000540919837 0 -0.012491170432845491 -0.013717872236646372 0 -0.012671402149041212 -0.01358935408167828 0 -0.012491170432845491 -0.013717872236646372 0 -0.012619429686643714 -0.013729197979539129 0 -0.012671402149041212 -0.01358935408167828 0 -0.012446070271455343 -0.013729000540919837 0 -0.012434771054735515 -0.013789696377910561 0 -0.012271248063854793 -0.013934212319462276 0 -0.012446070271455343 -0.013729000540919837 0 -0.012434771054735515 -0.013789696377910561 0 -0.012271248063854793 -0.013934212319462276 0 -0.012446070271455343 -0.013729000540919837 0 -0.012396292961627862 -0.013822003729261761 0 -0.012396292961627862 -0.013822003729261761 0 -0.012414442106789486 -0.013897195404917363 0 -0.012446770941683519 -0.013803657139340732 0 -0.012396292961627862 -0.013822003729261761 0 -0.012446770941683519 -0.013803657139340732 0 -0.012443970741025635 -0.013740153185098152 0 -0.012446770941683519 -0.013803657139340732 0 -0.012456213338214719 -0.013737009248856225 0 -0.012443970741025635 -0.013740153185098152 0 -0.012446070271455343 -0.013729000540919837 0 -0.012396292961627862 -0.013822003729261761 0 -0.012443970741025635 -0.013740153185098152 0 -0.011497012134380471 -0.014470268454226909 0 -0.011683446222067623 -0.01418825185001373 0 -0.010123964236023405 -0.015006726814262543 0 -0.010242366450843194 -0.015151596702701654 0 -0.010179785197523857 -0.015312548118672924 0 -0.010299820204595852 -0.014856020862359019 0 -0.010242366450843194 -0.015151596702701654 0 -0.010295204751645585 -0.015288786681631186 0 -0.012538062436739815 -0.013988004750037664 0 -0.012446770941683519 -0.013803657139340732 0 -0.012472470385961247 -0.0137185895654535 0 -0.012538062436739815 -0.013988004750037664 0 -0.012414442106789486 -0.013897195404917363 0 -0.012446770941683519 -0.013803657139340732 0 -0.010089600716341234 -0.015019165197281548 0 -0.010170779837355506 -0.015284890912462858 0 -0.010123964236023405 -0.015006726814262543 0 -0.010299820204595852 -0.014856020862359019 0 -0.010242366450843194 -0.015151596702701654 0 -0.012962005594030561 -0.01283854746776637 0 -0.012619942866871488 -0.013047886103890207 0 -0.012763100478137493 -0.012885512549845959 0 -0.0099309612399351641 -0.015487029687369504 0 -0.010179785197523857 -0.015312548118672924 0 -0.010295204751645585 -0.015288786681631186 0 -0.010242366450843194 -0.015151596702701654 0 -0.010179785197523857 -0.015312548118672924 0 -0.010295204751645585 -0.015288786681631186 0 -0.012472470385961247 -0.0137185895654535 0 -0.012456213338214719 -0.013737009248856225 0 -0.012462051186903429 -0.013731107291460634 0 -0.012446770941683519 -0.013803657139340732 0 -0.012472470385961247 -0.0137185895654535 0 -0.012456213338214719 -0.013737009248856225 0 -0.012446070271455343 -0.013729000540919837 0 -0.012443970741025635 -0.013740153185098152 0 -0.012491170432845491 -0.013717872236646372 0 -0.012456213338214719 -0.013737009248856225 0 -0.012443970741025635 -0.013740153185098152 0 -0.012462051186903429 -0.013731107291460634 0 -0.012472470385961247 -0.0137185895654535 0 -0.012462051186903429 -0.013731107291460634 0 -0.012461826706247129 -0.013754489811789962 0 -0.012462051186903429 -0.013731107291460634 0 -0.012491170432845491 -0.013717872236646372 0 -0.012461826706247129 -0.013754489811789962 0 -0.012443970741025635 -0.013740153185098152 0 -0.012462051186903429 -0.013731107291460634 0 -0.012491170432845491 -0.013717872236646372 0 -0.012461826706247129 -0.013754489811789962 0 -0.012438844566471581 -0.01379552782383228 0 -0.012522847686860286 -0.013822949721509124 0 -0.012491170432845491 -0.013717872236646372 0 -0.012461826706247129 -0.013754489811789962 0 -0.012522847686860286 -0.013822949721509124 0 -0.012472470385961247 -0.0137185895654535 0 -0.012461826706247129 -0.013754489811789962 0 -0.012438844566471581 -0.01379552782383228 0 -0.012619942866871488 -0.013047886103890207 0 -0.012763100478137493 -0.012885512549845959 0 -0.012604785850189199 -0.012507483411146094 0 -0.012840586577798832 -0.012631028774813568 0 -0.012763100478137493 -0.012885512549845959 0 -0.012604785850189199 -0.012507483411146094 0 -0.011683446222067623 -0.01418825185001373 0 -0.013151775694383083 -0.012692773851024589 0 -0.013151775694383083 -0.012692773851024589 0 -0.013456073715118951 -0.013370591873663256 0 -0.014326634172143301 -0.012719244380754044 0 -0.014426408737948176 -0.012799861401382855 0 -0.014292865646039 -0.012834152311616852 0 -0.014326634172143301 -0.012719244380754044 0 -0.014211424868057175 -0.01276461302565904 0 -0.014292865646039 -0.012834152311616852 0 -0.014211424868057175 -0.01276461302565904 0 -0.014196771452045526 -0.012906284619840022 0 -0.014292865646039 -0.012834152311616852 0 -0.014097005417401678 -0.012694172487348073 0 -0.014211424868057175 -0.01276461302565904 0 -0.01405474289902007 -0.012758614220116354 0 -0.014211424868057175 -0.01276461302565904 0 -0.014196771452045526 -0.012906284619840022 0 -0.01405474289902007 -0.012758614220116354 0 -0.012671402149041212 -0.01358935408167828 0 -0.012819559045589556 -0.013792139131160126 0 -0.013104692817843544 -0.0134473284251604 0 -0.012671402149041212 -0.01358935408167828 0 -0.012819559045589556 -0.013792139131160126 0 -0.012619429686643714 -0.013729197979539129 0 -0.012819559045589556 -0.013792139131160126 0 -0.012619429686643714 -0.013729197979539129 0 -0.012522847686860286 -0.013822949721509124 0 -0.012491170432845491 -0.013717872236646372 0 -0.012619429686643714 -0.013729197979539129 0 -0.012522847686860286 -0.013822949721509124 0 -0.013485873183546535 -0.013326956592023858 0 -0.013456073715118951 -0.013370591873663256 0 -0.013681727489014434 -0.013182236787126284 0 -0.013998957021803341 -0.01265160461927215 0 -0.013807997947471068 -0.012905704981652933 0 -0.013681727489014434 -0.013182236787126284 0 -0.013807997947471068 -0.012905704981652933 0 -0.013468611892882634 -0.013241049625375662 0 -0.013681727489014434 -0.013182236787126284 0 -0.014062057261410167 -0.012651135649646605 0 -0.013998957021803341 -0.01265160461927215 0 -0.012819559045589556 -0.013792139131160126 0 -0.013681727489014434 -0.013182236787126284 0 -0.013104692817843544 -0.0134473284251604 0 -0.013485873183546535 -0.013326956592023858 0 -0.013634708183910252 -0.013226816138332416 0 -0.014196771452045526 -0.012906284619840022 0 -0.013681727489014434 -0.013182236787126284 0 -0.01405474289902007 -0.012758614220116354 0 -0.013681727489014434 -0.013182236787126284 0 -0.013468611892882634 -0.013241049625375662 0 -0.013104692817843544 -0.0134473284251604 0 -0.014391169640044514 -0.012277321381868754 0 -0.014072944378834537 -0.012627494597824258 0 -0.013681727489014434 -0.013182236787126284 0 -0.01405474289902007 -0.012758614220116354 0 -0.014062057261410167 -0.012651135649646605 0 -0.014097005417401678 -0.012694172487348073 0 -0.01405474289902007 -0.012758614220116354 0 -0.014062057261410167 -0.012651135649646605 0 -0.014354286577456531 -0.011933591077238133 0 -0.014062057261410167 -0.012651135649646605 0 -0.014188257211535099 -0.012270301958220955 0 -0.014062057261410167 -0.012651135649646605 0 -0.014188257211535099 -0.012270301958220955 0 -0.013998957021803341 -0.01265160461927215 0 -0.014188257211535099 -0.012270301958220955 0 -0.013998957021803341 -0.01265160461927215 0 -0.014310330309195847 -0.012179449601494629 0 -0.013998957021803341 -0.01265160461927215 0 -0.014310330309195847 -0.012179449601494629 0 -0.014178203037097568 -0.012590875635297781 0 -0.01464620410143219 -0.011743916586267672 0 -0.014310330309195847 -0.012179449601494629 0 -0.014529293718536491 -0.012253252692283507 0 -0.014310330309195847 -0.012179449601494629 0 -0.014178203037097568 -0.012590875635297781 0 -0.014529293718536491 -0.012253252692283507 0 -0.014178203037097568 -0.012590875635297781 0 -0.013807997947471068 -0.012905704981652933 0 -0.014064743917850002 -0.012831586364912297 0 -0.013998957021803341 -0.01265160461927215 0 -0.014178203037097568 -0.012590875635297781 0 -0.013807997947471068 -0.012905704981652933 0 -0.013807997947471068 -0.012905704981652933 0 -0.013475772184230805 -0.013169529418477197 0 -0.014064743917850002 -0.012831586364912297 0 -0.013807997947471068 -0.012905704981652933 0 -0.013475772184230805 -0.013169529418477197 0 -0.013468611892882634 -0.013241049625375662 0 -0.014178203037097568 -0.012590875635297781 0 -0.014064743917850002 -0.012831586364912297 0 -0.01453285904853094 -0.012578351828013451 0 -0.014012907351973617 -0.012966666214886031 0 -0.013849729685803584 -0.013343303024397537 0 -0.014064743917850002 -0.012831586364912297 0 -0.013110413093586952 -0.013464444808075314 0 -0.012789490468233588 -0.013608531131894894 0 -0.013475772184230805 -0.013169529418477197 0 -0.014064743917850002 -0.012831586364912297 0 -0.013110413093586952 -0.013464444808075314 0 -0.013475772184230805 -0.013169529418477197 0 -0.013110413093586952 -0.013464444808075314 0 -0.013117346821076232 -0.013465510286689065 0 -0.013110413093586952 -0.013464444808075314 0 -0.013117346821076232 -0.013465510286689065 0 -0.012793336780032879 -0.013778599498613566 0 -0.013117346821076232 -0.013465510286689065 0 -0.012664404840369625 -0.013793416941278853 0 -0.012793336780032879 -0.013778599498613566 0 -0.013475772184230805 -0.013169529418477197 0 -0.013117346821076232 -0.013465510286689065 0 -0.013468611892882634 -0.013241049625375662 0 -0.013117346821076232 -0.013465510286689065 0 -0.013468611892882634 -0.013241049625375662 0 -0.012963689950045128 -0.013511000568027908 0 -0.013468611892882634 -0.013241049625375662 0 -0.013104692817843544 -0.0134473284251604 0 -0.012963689950045128 -0.013511000568027908 0 -0.012560984091031867 -0.013762787774866583 0 -0.012963689950045128 -0.013511000568027908 0 -0.012664404840369625 -0.013793416941278853 0 -0.013117346821076232 -0.013465510286689065 0 -0.012963689950045128 -0.013511000568027908 0 -0.012664404840369625 -0.013793416941278853 0 -0.012150252614334386 -0.014157038762652183 0 -0.012560984091031867 -0.013762787774866583 0 -0.012664404840369625 -0.013793416941278853 0 -0.012150252614334386 -0.014157038762652183 0 -0.012664404840369625 -0.013793416941278853 0 -0.012385953973052838 -0.014154996381887599 0 -0.012664404840369625 -0.013793416941278853 0 -0.012793336780032879 -0.013778599498613566 0 -0.012385953973052838 -0.014154996381887599 0 -0.012793336780032879 -0.013778599498613566 0 -0.012385953973052838 -0.014154996381887599 0 -0.01262854083195898 -0.014028561575421516 0 -0.012385953973052838 -0.014154996381887599 0 -0.01208340751174084 -0.014501141890086588 0 -0.012335194431031517 -0.01430674572077454 0 -0.012385953973052838 -0.014154996381887599 0 -0.012335194431031517 -0.01430674572077454 0 -0.01262854083195898 -0.014028561575421516 0 -0.012150252614334386 -0.014157038762652183 0 -0.012385953973052838 -0.014154996381887599 0 -0.012000539240169535 -0.014481674927953075 0 -0.012385953973052838 -0.014154996381887599 0 -0.012000539240169535 -0.014481674927953075 0 -0.01208340751174084 -0.014501141890086588 0 -0.011679309744136727 -0.014689316022087881 0 -0.012000539240169535 -0.014481674927953075 0 -0.011693350766169593 -0.014767291135339375 0 -0.01208340751174084 -0.014501141890086588 0 -0.011927118776090902 -0.014649682064728877 0 -0.011693350766169593 -0.014767291135339375 0 -0.012000539240169535 -0.014481674927953075 0 -0.01208340751174084 -0.014501141890086588 0 -0.011693350766169593 -0.014767291135339375 0 -0.01208340751174084 -0.014501141890086588 0 -0.012335194431031517 -0.01430674572077454 0 -0.012171894818159631 -0.014495175668154307 0 -0.01208340751174084 -0.014501141890086588 0 -0.012171894818159631 -0.014495175668154307 0 -0.011927118776090902 -0.014649682064728877 0 -0.011927118776090902 -0.014649682064728877 0 -0.011612765020626227 -0.014967297539496171 0 -0.012199413965276342 -0.014434592289925186 0 -0.012083454332715765 -0.014999846690306283 0 -0.011612765020626227 -0.014967297539496171 0 -0.012283981625375891 -0.015171936146531104 0 -0.011780668056944396 -0.014923141914172041 0 -0.012066399972572814 -0.014854190016777064 0 -0.012171894818159631 -0.014495175668154307 0 -0.011927118776090902 -0.014649682064728877 0 -0.012199413965276342 -0.014434592289925186 0 -0.011187967251339383 -0.014999266341703472 0 -0.012083454332715765 -0.014999846690306283 0 -0.011612765020626227 -0.014967297539496171 0 -0.011187967251339383 -0.014999266341703472 0 -0.011612765020626227 -0.014967297539496171 0 -0.011693350766169593 -0.014767291135339375 0 -0.011927118776090902 -0.014649682064728877 0 -0.011612765020626227 -0.014967297539496171 0 -0.011693350766169593 -0.014767291135339375 0 -0.012975247793188233 -0.01529382339105817 0 -0.012980060278932516 -0.01500007356449475 0 -0.012283981625375891 -0.015171936146531104 0 -0.013476066093154588 -0.014450257412541124 0 -0.012980323390265214 -0.015000265180718605 0 -0.012083454332715765 -0.014999846690306283 0 -0.012980060278932516 -0.01500007356449475 0 -0.012283981625375891 -0.015171936146531104 0 -0.012284776199773884 -0.014410048581992118 0 -0.012199413965276342 -0.014434592289925186 0 -0.012319080610873445 -0.014385895416238956 0 -0.012171894818159631 -0.014495175668154307 0 -0.012199413965276342 -0.014434592289925186 0 -0.012319080610873445 -0.014385895416238956 0 -0.013476066093154588 -0.014450257412541124 0 -0.012066399972572814 -0.014854190016777064 0 -0.012335194431031517 -0.01430674572077454 0 -0.012171894818159631 -0.014495175668154307 0 -0.012319080610873445 -0.014385895416238956 0 -0.012284776199773884 -0.014410048581992118 0 -0.012319080610873445 -0.014385895416238956 0 -0.012337470906444055 -0.01420277627717207 0 -0.015240508462515272 -0.013900746987425128 0 -0.015223727045949063 -0.013459209951352753 0 -0.015062092491846325 -0.013682864031806118 0 -0.013476066093154588 -0.014450257412541124 0 -0.013810499556434106 -0.01377488754266647 0 -0.013810499556434106 -0.01377488754266647 0 -0.013849729685803584 -0.013343303024397537 0 -0.012337470906444055 -0.01420277627717207 0 -0.01262854083195898 -0.014028561575421516 0 -0.012789490468233588 -0.013608531131894894 0 -0.015223727045949063 -0.013459209951352753 0 -0.014872107356561144 -0.012894180719181296 0 -0.014994694501280279 -0.013347717127236145 0 -0.012319080610873445 -0.014385895416238956 0 -0.012337470906444055 -0.01420277627717207 0 -0.01262854083195898 -0.014028561575421516 0 -0.012335194431031517 -0.01430674572077454 0 -0.012319080610873445 -0.014385895416238956 0 -0.01262854083195898 -0.014028561575421516 0 -0.013110413093586952 -0.013464444808075314 0 -0.01262854083195898 -0.014028561575421516 0 -0.012789490468233588 -0.013608531131894894 0 -0.013110413093586952 -0.013464444808075314 0 -0.012793336780032879 -0.013778599498613566 0 -0.01262854083195898 -0.014028561575421516 0 -0.012980881106597297 -0.014999930392509235 0 -0.01393815862876095 -0.015172664874554926 0 -0.01500007908323568 -0.01499876163911807 0 -0.014872107356561144 -0.012894180719181296 0 -0.014923438363316846 -0.013060585370742879 0 -0.014994694501280279 -0.013347717127236145 0 -0.014923438363316846 -0.013060585370742879 0 -0.014924408233563747 -0.013415742475348498 0 -0.014996008949594445 -0.013352557182948728 0 -0.014923438363316846 -0.013060585370742879 0 -0.014924408233563747 -0.013415742475348498 0 -0.014994694501280279 -0.013347717127236145 0 -0.014924408233563747 -0.013415742475348498 0 -0.014994694501280279 -0.013347717127236145 0 -0.014938474284997397 -0.013736887467403782 0 -0.015223727045949063 -0.013459209951352753 0 -0.014994694501280279 -0.013347717127236145 0 -0.015062092491846325 -0.013682864031806118 0 -0.015240508462515272 -0.013900746987425128 0 -0.015062092491846325 -0.013682864031806118 0 -0.014906126254749123 -0.013896320043375631 0 -0.014994694501280279 -0.013347717127236145 0 -0.015062092491846325 -0.013682864031806118 0 -0.014938474284997397 -0.013736887467403782 0 -0.014993811903933497 -0.013809915591149946 0 -0.014905998590008403 -0.01394663952225805 0 -0.014938474284997397 -0.013736887467403782 0 -0.014906126254749123 -0.013896320043375631 0 -0.014886542687829966 -0.014385009123644515 0 -0.014924408233563747 -0.013415742475348498 0 -0.014938474284997397 -0.013736887467403782 0 -0.014934709962080957 -0.013575106132882346 0 -0.015062092491846325 -0.013682864031806118 0 -0.014938474284997397 -0.013736887467403782 0 -0.014906126254749123 -0.013896320043375631 0 -0.013476066093154588 -0.014450257412541124 0 -0.014539860981420941 -0.014569751772504601 0 -0.013001549417994286 -0.015251191616656083 0 -0.012980881106597297 -0.014999930392509235 0 -0.01393815862876095 -0.015172664874554926 0 -0.01393815862876095 -0.015172664874554926 0 -0.01500007908323568 -0.01499876163911807 0 -0.014819557398169559 -0.01464703145554142 0 -0.01500007908323568 -0.01499876163911807 0 -0.014819557398169559 -0.01464703145554142 0 -0.014998914410920902 -0.014006571200210861 0 -0.014906126254749123 -0.013896320043375631 0 -0.014886542687829966 -0.014385009123644515 0 -0.014819557398169559 -0.01464703145554142 0 -0.014539860981420941 -0.014569751772504601 0 -0.014658457142937422 -0.014607132293838126 0 -0.014905998590008403 -0.01394663952225805 0 -0.014999792699941412 -0.014004557745149327 0 -0.014886542687829966 -0.014385009123644515 0 -0.014819557398169559 -0.01464703145554142 0 -0.014998914410920902 -0.014006571200210861 0 -0.014934709962080957 -0.013575106132882346 0 -0.014999690574206796 -0.014003251129690848 0 -0.014996008949594445 -0.013352557182948728 0 -0.014924408233563747 -0.013415742475348498 0 -0.014934709962080957 -0.013575106132882346 0 -0.014996008949594445 -0.013352557182948728 0 -0.014923438363316846 -0.013060585370742879 0 -0.014996008949594445 -0.013352557182948728 0 -0.014990871620196871 -0.012703316671247333 0 -0.014999690574206796 -0.014003251129690848 0 -0.014996008949594445 -0.013352557182948728 0 -0.014999623556527248 -0.013191455261596777 0 -0.014996008949594445 -0.013352557182948728 0 -0.014999623556527248 -0.013191455261596777 0 -0.014990871620196871 -0.012703316671247333 0 -0.014999623556527248 -0.013191455261596777 0 -0.014999631281175201 -0.012378174687845534 0 -0.014990871620196871 -0.012703316671247333 0 -0.014999631281175201 -0.012378174687845534 0 -0.014990871620196871 -0.012703316671247333 0 -0.014987507980267191 -0.012128416197343034 0 -0.014990871620196871 -0.012703316671247333 0 -0.014840657642064327 -0.012293143158049965 0 -0.014987507980267191 -0.012128416197343034 0 -0.014923438363316846 -0.013060585370742879 0 -0.014990871620196871 -0.012703316671247333 0 -0.014796859889598037 -0.012688562356104128 0 -0.014872107356561144 -0.012894180719181296 0 -0.014923438363316846 -0.013060585370742879 0 -0.014796859889598037 -0.012688562356104128 0 -0.014064743917850002 -0.012831586364912297 0 -0.014872107356561144 -0.012894180719181296 0 -0.014796859889598037 -0.012688562356104128 0 -0.014064743917850002 -0.012831586364912297 0 -0.014796859889598037 -0.012688562356104128 0 -0.01453285904853094 -0.012578351828013451 0 -0.014990871620196871 -0.012703316671247333 0 -0.014796859889598037 -0.012688562356104128 0 -0.014840657642064327 -0.012293143158049965 0 -0.014796859889598037 -0.012688562356104128 0 -0.01453285904853094 -0.012578351828013451 0 -0.014840657642064327 -0.012293143158049965 0 -0.01453285904853094 -0.012578351828013451 0 -0.014840657642064327 -0.012293143158049965 0 -0.014529293718536491 -0.012253252692283507 0 -0.014178203037097568 -0.012590875635297781 0 -0.01453285904853094 -0.012578351828013451 0 -0.014529293718536491 -0.012253252692283507 0 -0.01464620410143219 -0.011743916586267672 0 -0.014529293718536491 -0.012253252692283507 0 -0.014816295869351336 -0.01176620756244314 0 -0.014840657642064327 -0.012293143158049965 0 -0.014816295869351336 -0.01176620756244314 0 -0.014975123843622276 -0.011634808308858258 0 -0.014840657642064327 -0.012293143158049965 0 -0.014529293718536491 -0.012253252692283507 0 -0.014816295869351336 -0.01176620756244314 0 -0.014975123843622276 -0.011634808308858258 0 -0.014999585848861656 -0.011565221953000786 0 -0.014987507980267191 -0.012128416197343034 0 -0.014999631281175201 -0.012378174687845534 0 -0.014999585848861656 -0.011565221953000786 0 -0.014987507980267191 -0.012128416197343034 0 -0.014840657642064327 -0.012293143158049965 0 -0.014975123843622276 -0.011634808308858258 0 -0.014987507980267191 -0.012128416197343034 0 -0.0039534647429432168 -0.016394969871336967 0 -0.0034940972508194783 -0.016795944061514651 0 -0.0031234275993457876 -0.017050336820315089 0 -0.0031139320276912749 -0.017112939062526651 0 -0.0030985124262244588 -0.017120171457621271 0 -0.0047307884552342345 -0.01580786563498451 0 -0.0039336341386961059 -0.015403818884342006 0 -0.0038964936611970502 -0.016469256556621681 0 -0.0047307884552342345 -0.01580786563498451 0 -0.0039336341386961059 -0.015403818884342006 0 -0.0049507997098239311 -0.014687071069296719 0 -0.0039336341386961059 -0.015403818884342006 0 -0.0030754611819125369 -0.015598899590984237 0 -0.003388066122724554 -0.016239983046433773 0 -0.0039336341386961059 -0.015403818884342006 0 -0.0030754611819125369 -0.015598899590984237 0 -0.0032738857204652359 -0.014551302665340134 0 -0.0057048322574744688 -0.016127625303886912 0 -0.0053291550014491953 -0.016317694573587508 0 -0.0052894388313443983 -0.016089654990190064 0 -0.0057048322574744688 -0.016127625303886912 0 -0.005349061733060035 -0.015838394487242186 0 -0.0052894388313443983 -0.016089654990190064 0 -0.0053291550014491953 -0.016317694573587508 0 -0.0055292963829680231 -0.016760382292786268 0 -0.0052150476880618033 -0.016709765834462667 0 -0.0030754611819125369 -0.015598899590984237 0 -0.003388066122724554 -0.016239983046433773 0 -0.0029703684912948712 -0.016645374643881515 0 -0.004395925619280313 -0.015851471904858146 0 -0.0042379446882440715 -0.016737106233089504 0 -0.0057048322574744688 -0.016127625303886912 0 -0.0053291550014491953 -0.016317694573587508 0 -0.0055292963829680231 -0.016760382292786268 0 -0.0039336341386961059 -0.015403818884342006 0 -0.003388066122724554 -0.016239983046433773 0 -0.0038964936611970502 -0.016469256556621681 0 -0.0031719140174200698 -0.01703549540024055 0 -0.0031426460156257423 -0.017128828157839716 0 -0.0031139320276912749 -0.017112939062526651 0 -0.003388066122724554 -0.016239983046433773 0 -0.0031719140174200698 -0.01703549540024055 0 -0.0038964936611970502 -0.016469256556621681 0 -0.0031904202671897684 -0.017022332217972783 0 -0.0034940972508194783 -0.016795944061514651 0 -0.0029703684912948712 -0.016645374643881515 0 -0.0031719140174200698 -0.01703549540024055 0 -0.0031351030242768039 -0.017204007456169124 0 -0.0042379446882440715 -0.016737106233089504 0 -0.0044223078061908861 -0.017015071664619425 0 -0.003388066122724554 -0.016239983046433773 0 -0.0029703684912948712 -0.016645374643881515 0 -0.0031719140174200698 -0.01703549540024055 0 -0.0055292963829680231 -0.016760382292786268 0 -0.0053694549014894682 -0.017335510251363224 0 -0.0052150476880618033 -0.016709765834462667 0 -0.0031719140174200698 -0.01703549540024055 0 -0.0031977019265092819 -0.017139333690933831 0 -0.0031351030242768039 -0.017204007456169124 0 -0.0031977019265092819 -0.017139333690933831 0 -0.0031351030242768039 -0.017204007456169124 0 -0.0032421703117440359 -0.017150907675434243 0 -0.0044223078061908861 -0.017015071664619425 0 -0.0044421571404783984 -0.016854676416001711 0 -0.0044573334594608036 -0.016719784716692512 0 -0.0044668074604355436 -0.016713684599784135 0 -0.0043751840537734907 -0.016737850877603364 0 -0.0031426460156257423 -0.017128828157839716 0 -0.0031935025823805752 -0.017157115609705727 0 -0.0030641295220149817 -0.017223937438328479 0 -0.0031719140174200698 -0.01703549540024055 0 -0.0031977019265092819 -0.017139333690933831 0 -0.0031426460156257423 -0.017128828157839716 0 -0.0031977019265092819 -0.017139333690933831 0 -0.0031426460156257423 -0.017128828157839716 0 -0.0031935025823805752 -0.017157115609705727 0 -0.0031977019265092819 -0.017139333690933831 0 -0.0031935025823805752 -0.017157115609705727 0 -0.0032421703117440359 -0.017150907675434243 0 -0.0031426460156257423 -0.017128828157839716 0 -0.0030641295220149817 -0.017223937438328479 0 -0.0030985124262244588 -0.017120171457621271 0 -0.0031426460156257423 -0.017128828157839716 0 -0.0031139320276912749 -0.017112939062526651 0 -0.0030985124262244588 -0.017120171457621271 0 -0.0031234275993457876 -0.017050336820315089 0 -0.0030985124262244588 -0.017120171457621271 0 -0.0030952783078379014 -0.017083810287433689 0 -0.0030641295220149817 -0.017223937438328479 0 -0.0030985124262244588 -0.017120171457621271 0 -0.0031022906376838794 -0.017157923081037939 0 -0.0030985124262244588 -0.017120171457621271 0 -0.0030952783078379014 -0.017083810287433689 0 -0.0031022906376838794 -0.017157923081037939 0 -0.0031134403822745951 -0.01712179544894319 0 -0.0030952783078379014 -0.017083810287433689 0 -0.0031022906376838794 -0.017157923081037939 0 -0.0031134403822745951 -0.01712179544894319 0 -0.0031342247644516575 -0.017104505011981363 0 -0.0030952783078379014 -0.017083810287433689 0 -0.0031134403822745951 -0.01712179544894319 0 -0.0031342247644516575 -0.017104505011981363 0 -0.003114635928343175 -0.017132857315166145 0 -0.0031342247644516575 -0.017104505011981363 0 -0.0030952783078379014 -0.017083810287433689 0 -0.0030713757542423278 -0.016988598422322598 0 -0.0028832379714548097 -0.016433174284082967 0 -0.0027512352388405288 -0.016788865263946164 0 -0.0030713757542423278 -0.016988598422322598 0 -0.0031793210263702924 -0.016705449601269823 0 -0.0030214828590334306 -0.016993310143190141 0 -0.0025412357935452228 -0.016273264867538922 0 -0.0024678420181978343 -0.016050384409076038 0 -0.0021609351278612126 -0.016287797925828788 0 -0.0025412357935452228 -0.016273264867538922 0 -0.0025301933610686793 -0.016594181895101173 0 -0.0021609351278612126 -0.016287797925828788 0 -0.0031793210263702924 -0.016705449601269823 0 -0.0017253223804307321 -0.016982277805089461 0 -0.0028832379714548097 -0.016433174284082967 0 -0.0025412357935452228 -0.016273264867538922 0 -0.0025301933610686793 -0.016594181895101173 0 -0.0028832379714548097 -0.016433174284082967 0 -0.0025412357935452228 -0.016273264867538922 0 -0.0026549535039514871 -0.015917525358670616 0 -0.0028832379714548097 -0.016433174284082967 0 -0.0025301933610686793 -0.016594181895101173 0 -0.0027512352388405288 -0.016788865263946164 0 -0.0025301933610686793 -0.016594181895101173 0 -0.0021609351278612126 -0.016287797925828788 0 -0.0023036251668120257 -0.016766502815728605 0 -0.0025487119948716937 -0.016941033202405781 0 -0.0024303412778912872 -0.017156038123215953 0 -0.0023036251668120257 -0.016766502815728605 0 -0.0025301933610686793 -0.016594181895101173 0 -0.0025487119948716937 -0.016941033202405781 0 -0.0023036251668120257 -0.016766502815728605 0 -0.0025487119948716937 -0.016941033202405781 0 -0.0027512352388405288 -0.016788865263946164 0 -0.0028310688573246908 -0.017083710564341489 0 -0.0025301933610686793 -0.016594181895101173 0 -0.0025487119948716937 -0.016941033202405781 0 -0.0027512352388405288 -0.016788865263946164 0 -0.0025487119948716937 -0.016941033202405781 0 -0.0028310688573246908 -0.017083710564341489 0 -0.002610791172564911 -0.017160245869594578 0 -0.0025487119948716937 -0.016941033202405781 0 -0.002610791172564911 -0.017160245869594578 0 -0.0024303412778912872 -0.017156038123215953 0 -0.00019378463969544886 -0.014847950972294471 0 0.0011700917182742103 -0.013442819879788731 0 -0.00019378463969544886 -0.014847950972294471 0 -0.0013117475840254693 -0.016028532927506937 0 0.0018147901541070775 -0.013006550428707336 0 0.0017802081539249493 -0.013112633015830842 0 0.0020248520366272027 -0.012870493324405777 0 -0.0031234275993457876 -0.017050336820315089 0 -0.0030952783078379014 -0.017083810287433689 0 -0.0030713757542423278 -0.016988598422322598 0 -0.0027512352388405288 -0.016788865263946164 0 -0.0028310688573246908 -0.017083710564341489 0 -0.0030713757542423278 -0.016988598422322598 0 -0.0028310688573246908 -0.017083710564341489 0 -0.0030713757542423278 -0.016988598422322598 0 -0.0030772587041897632 -0.017142073045579784 0 -0.0039534647429432168 -0.016394969871336967 0 -0.0042486706222101579 -0.01638459076952686 0 -0.0031234275993457876 -0.017050336820315089 0 -0.0030713757542423278 -0.016988598422322598 0 -0.0030772587041897632 -0.017142073045579784 0 -0.0047307884552342345 -0.01580786563498451 0 -0.0055793775592811101 -0.015141581312787214 0 -0.0049507997098239311 -0.014687071069296719 0 -0.0055793775592811101 -0.015141581312787214 0 -0.005849047825798189 -0.014218627536262697 0 -0.0049507997098239311 -0.014687071069296719 0 -0.0042486706222101579 -0.01638459076952686 0 -0.0045755446780784883 -0.014311863165694952 0 -0.0055793775592811101 -0.015141581312787214 0 -0.005849047825798189 -0.014218627536262697 0 -0.0064388526791935513 -0.014485249042916549 0 -0.0028310688573246908 -0.017083710564341489 0 -0.0030772587041897632 -0.017142073045579784 0 -0.0028015157258018827 -0.017352365414824118 0 -0.0056844994110909815 -0.01405420554107163 0 -0.0061484050816614207 -0.014229011403584029 0 -0.0061233216050756894 -0.013675884225017627 0 -0.0056844994110909815 -0.01405420554107163 0 -0.0052217103674772718 -0.013913076947594253 0 -0.0057258473454854962 -0.013272289041000425 0 -0.0059730395711824029 -0.014249956149527686 0 -0.0045755446780784883 -0.014311863165694952 0 -0.0059730395711824029 -0.014249956149527686 0 -0.0052207713036672926 -0.013909052187934002 0 -0.005849047825798189 -0.014218627536262697 0 -0.0052217103674772718 -0.013913076947594253 0 -0.0049507997098239311 -0.014687071069296719 0 -0.00070915338067571395 -0.0097140873312333981 0 0.00017477329825465321 -0.012314752870281175 0 0.0012492686532308956 -0.0086077056507909196 0 0.0012037557627693229 -0.0090178795343509328 0 0.0009293257224536691 -0.0084365959411298753 0 -0.00019378463969544886 -0.014847950972294471 0 0.00017477329825465321 -0.012314752870281175 0 -0.002610791172564911 -0.017160245869594578 0 -0.0024596799299251345 -0.017234331259064976 0 -0.0025905357235030072 -0.017283857817666833 0 0.00017477329825465321 -0.012314752870281175 0 -0.0021100337739184596 -0.013075217138031647 0 -0.002610791172564911 -0.017160245869594578 0 -0.0024303412778912872 -0.017156038123215953 0 -0.0024596799299251345 -0.017234331259064976 0 -0.00080137316783204543 -0.011641261553058554 0 -0.0008459255281873055 -0.012044335940757366 0 -0.00051781138351440813 -0.01190049356430949 0 -0.00070915338067571395 -0.0097140873312333981 0 -0.0021100337739184596 -0.013075217138031647 0 -0.002610791172564911 -0.017160245869594578 0 -0.0025905357235030072 -0.017283857817666833 0 -0.0028015157258018827 -0.017352365414824118 0 -0.0028310688573246908 -0.017083710564341489 0 -0.002610791172564911 -0.017160245869594578 0 -0.0028015157258018827 -0.017352365414824118 0 -0.0021100337739184596 -0.013075217138031647 0 -0.0045755446780784883 -0.014311863165694952 0 -0.0029016018754662106 -0.011682070699940856 0 -0.0031149818014209862 -0.011780470433497149 0 -0.0028692582215434533 -0.011932046824892253 0 -0.0061484050816614207 -0.014229011403584029 0 -0.0061233216050756894 -0.013675884225017627 0 -0.0066558342248003513 -0.013832248658257428 0 -0.0045755446780784883 -0.014311863165694952 0 -0.0029987137726212756 -0.0099728460282610901 0 -0.00042343368314752116 -0.0076893830296967218 0 -0.00049344927491991829 -0.0076778147690083325 0 -0.00055659055104711141 -0.0075550499569099604 0 -0.0027922210337972581 -0.011767316672775212 0 -0.0029016018754662106 -0.011682070699940856 0 -0.0028692582215434533 -0.011932046824892253 0 -0.00045541435725478344 -0.0077949814726010159 0 -0.00042343368314752116 -0.0076893830296967218 0 -0.00045221804200349432 -0.0077542877525135761 0 -0.00070915338067571395 -0.0097140873312333981 0 -0.0029987137726212756 -0.0099728460282610901 0 -0.00046241154674197421 -0.007794144506546136 0 -0.00049344927491991829 -0.0076778147690083325 0 -0.00045221804200349432 -0.0077542877525135761 0 -0.00042343368314752116 -0.0076893830296967218 0 -0.00049344927491991829 -0.0076778147690083325 0 -0.00045221804200349432 -0.0077542877525135761 0 -0.00070915338067571395 -0.0097140873312333981 0 -0.00055710529436011952 -0.0088054166068925206 0 -0.0025263528041412401 -0.0065017901841850989 0 -0.0022728435885646563 -0.0070295295709003067 0 -0.0018779455156052 -0.0069099191983572955 0 -0.0029987137726212756 -0.0099728460282610901 0 -0.0047772490342665201 -0.01022772878101749 0 -0.0025263528041412401 -0.0065017901841850989 0 -0.0022728435885646563 -0.0070295295709003067 0 -0.0027519407034009803 -0.0072006947897205404 0 -0.0029987137726212756 -0.0099728460282610901 0 -0.0011082227957890766 -0.0069185537396871102 0 -0.0061233216050756894 -0.013675884225017627 0 -0.0064710716168132733 -0.0130751377117429 0 -0.0057258473454854962 -0.013272289041000425 0 -0.0061233216050756894 -0.013675884225017627 0 -0.0066558342248003513 -0.013832248658257428 0 -0.0064710716168132733 -0.0130751377117429 0 -0.004598847665426173 -0.01009174808939879 0 -0.0047772490342665201 -0.01022772878101749 0 -0.0024924767720569305 -0.0077150402431315065 0 -0.0030064782252545471 -0.0079541297501366359 0 -0.0027519407034009803 -0.0072006947897205404 0 -0.0062666710268540057 -0.01226395319563865 0 -0.0064710716168132733 -0.0130751377117429 0 -0.0058181640989420124 -0.012676578393795067 0 -0.0024924767720569305 -0.0077150402431315065 0 -0.0027519407034009803 -0.0072006947897205404 0 -0.0022531373698155264 -0.0073621852982245113 0 -0.0022728435885646563 -0.0070295295709003067 0 -0.0027519407034009803 -0.0072006947897205404 0 -0.0022531373698155264 -0.0073621852982245113 0 -0.0024924767720569305 -0.0077150402431315065 0 -0.0022531373698155264 -0.0073621852982245113 0 -0.002055963466790634 -0.0077175000854674625 0 -0.0022728435885646563 -0.0070295295709003067 0 -0.0022531373698155264 -0.0073621852982245113 0 -0.0020034675942890608 -0.0072154272859431268 0 -0.0052217103674772718 -0.013913076947594253 0 -0.005191696354210725 -0.013326531528918132 0 -0.0057258473454854962 -0.013272289041000425 0 -0.0052217103674772718 -0.013913076947594253 0 -0.005191696354210725 -0.013326531528918132 0 -0.0046600825387602442 -0.013385679188467451 0 -0.0056844994110909815 -0.01405420554107163 0 -0.0061233216050756894 -0.013675884225017627 0 -0.0057258473454854962 -0.013272289041000425 0 -0.0057258473454854962 -0.013272289041000425 0 -0.0058181640989420124 -0.012676578393795067 0 -0.0051203248598396056 -0.012737106663669765 0 -0.0064710716168132733 -0.0130751377117429 0 -0.0057258473454854962 -0.013272289041000425 0 -0.0058181640989420124 -0.012676578393795067 0 -0.005191696354210725 -0.013326531528918132 0 -0.0057258473454854962 -0.013272289041000425 0 -0.0051203248598396056 -0.012737106663669765 0 -0.005191696354210725 -0.013326531528918132 0 -0.0051203248598396056 -0.012737106663669765 0 -0.0046600825387602442 -0.013385679188467451 0 -0.0051618649485102109 -0.012686563516717573 0 -0.0046998093377436578 -0.01333140064016403 0 -0.004572631736947024 -0.012585002271676984 0 -0.0041157175539990286 -0.013157563367676183 0 -0.0046600825387602442 -0.013385679188467451 0 -0.0052272233808014898 -0.01264076996572684 0 -0.004572631736947024 -0.012585002271676984 0 -0.0046600825387602442 -0.013385679188467451 0 -0.003743027195949016 -0.012511897924309543 0 -0.0041157175539990286 -0.013157563367676183 0 -0.0035041967608228997 -0.013525420798108034 0 -0.004572631736947024 -0.012585002271676984 0 -0.003743027195949016 -0.012511897924309543 0 -0.0041157175539990286 -0.013157563367676183 0 -0.0041157175539990286 -0.013157563367676183 0 -0.0040824019549115355 -0.013815683704667323 0 -0.0035041967608228997 -0.013525420798108034 0 -0.0041157175539990286 -0.013157563367676183 0 -0.0046600825387602442 -0.013385679188467451 0 -0.0040824019549115355 -0.013815683704667323 0 -0.0046600825387602442 -0.013385679188467451 0 -0.0046410543790879706 -0.014014479892105912 0 -0.0040824019549115355 -0.013815683704667323 0 -0.0046410543790879706 -0.014014479892105912 0 -0.0041998736765092755 -0.014450282431404152 0 -0.0049507997098239311 -0.014687071069296719 0 -0.0052217103674772718 -0.013913076947594253 0 -0.0046410543790879706 -0.014014479892105912 0 -0.0049507997098239311 -0.014687071069296719 0 -0.0052217103674772718 -0.013913076947594253 0 -0.0046600825387602442 -0.013385679188467451 0 -0.0046410543790879706 -0.014014479892105912 0 -0.0046410543790879706 -0.014014479892105912 0 -0.0040824019549115355 -0.013815683704667323 0 -0.0041998736765092755 -0.014450282431404152 0 -0.0040824019549115355 -0.013815683704667323 0 -0.0041998736765092755 -0.014450282431404152 0 -0.0032738857204652359 -0.014551302665340134 0 -0.0039336341386961059 -0.015403818884342006 0 -0.0041998736765092755 -0.014450282431404152 0 -0.0049507997098239311 -0.014687071069296719 0 -0.0039336341386961059 -0.015403818884342006 0 -0.0041998736765092755 -0.014450282431404152 0 -0.0032738857204652359 -0.014551302665340134 0 -0.0054497518602722372 -0.01553333130021615 0 -0.0058400811259940663 -0.015517189465834427 0 -0.005349061733060035 -0.015838394487242186 0 -0.0057048322574744688 -0.016127625303886912 0 -0.0058400811259940663 -0.015517189465834427 0 -0.005349061733060035 -0.015838394487242186 0 -0.004395925619280313 -0.015851471904858146 0 -0.0045623111361292349 -0.015025837266442176 0 -0.0045623111361292349 -0.015025837266442176 0 -0.0046768780078977135 -0.014349489803135027 0 -0.0058400811259940663 -0.015517189465834427 0 -0.0056714861250204973 -0.015119762147320427 0 -0.005925180488688106 -0.015058365664811321 0 -0.0040824019549115355 -0.013815683704667323 0 -0.0032738857204652359 -0.014551302665340134 0 -0.0035041967608228997 -0.013525420798108034 0 -0.0054497518602722372 -0.01553333130021615 0 -0.0058400811259940663 -0.015517189465834427 0 -0.0055114222522733482 -0.01528005457468634 0 -0.0058400811259940663 -0.015517189465834427 0 -0.0055114222522733482 -0.01528005457468634 0 -0.0056714861250204973 -0.015119762147320427 0 -0.0054497518602722372 -0.01553333130021615 0 -0.0055114222522733482 -0.01528005457468634 0 -0.005337776632508966 -0.015474142505408406 0 -0.0063222952064312951 -0.014694727829595565 0 -0.0057010709854036761 -0.01498856390442322 0 -0.0055114222522733482 -0.01528005457468634 0 -0.0056714861250204973 -0.015119762147320427 0 -0.0053800445706689024 -0.015114710209307242 0 -0.0056714861250204973 -0.015119762147320427 0 -0.0056907244768833465 -0.014839190532862846 0 -0.0053800445706689024 -0.015114710209307242 0 -0.0066201416355616428 -0.014485099549986028 0 -0.0062009234539770206 -0.014400482374456611 0 -0.0060699094770507471 -0.01486124026742644 0 -0.0056714861250204973 -0.015119762147320427 0 -0.005925180488688106 -0.015058365664811321 0 -0.0056907244768833465 -0.014839190532862846 0 -0.0051925407932049026 -0.013311052822734473 0 -0.0063222952064312951 -0.014694727829595565 0 -0.0064792612733982971 -0.014088623907339502 0 -0.0071511668988677836 -0.014116609712689231 0 -0.0066201416355616428 -0.014485099549986028 0 -0.0060309171973945133 -0.014587931500798059 0 -0.005925180488688106 -0.015058365664811321 0 -0.0056907244768833465 -0.014839190532862846 0 -0.0051925407932049026 -0.013311052822734473 0 -0.0046768780078977135 -0.014349489803135027 0 -0.005973470800000596 -0.01402063344495115 0 -0.0064792612733982971 -0.014088623907339502 0 -0.0062009234539770206 -0.014400482374456611 0 -0.0064792612733982971 -0.014088623907339502 0 -0.0066201416355616428 -0.014485099549986028 0 -0.0062009234539770206 -0.014400482374456611 0 -0.005973470800000596 -0.01402063344495115 0 -0.0057975942837322483 -0.014463964596067634 0 -0.0055271251325189775 -0.014187386609928397 0 -0.005973470800000596 -0.01402063344495115 0 -0.0057975942837322483 -0.014463964596067634 0 -0.0062009234539770206 -0.014400482374456611 0 -0.0057010709854036761 -0.01498856390442322 0 -0.0054266448890776548 -0.015187241285761321 0 -0.0060699094770507471 -0.01486124026742644 0 -0.0055773579836943914 -0.014823840298253094 0 -0.0053827079445403899 -0.015213823597254332 0 -0.0057975942837322483 -0.014463964596067634 0 -0.0062009234539770206 -0.014400482374456611 0 -0.0060699094770507471 -0.01486124026742644 0 -0.0057975942837322483 -0.014463964596067634 0 -0.0060699094770507471 -0.01486124026742644 0 -0.0055773579836943914 -0.014823840298253094 0 -0.0055773579836943914 -0.014823840298253094 0 -0.0052043027744841487 -0.014917653304506196 0 -0.0053827079445403899 -0.015213823597254332 0 -0.0057975942837322483 -0.014463964596067634 0 -0.0055773579836943914 -0.014823840298253094 0 -0.0054804886538391195 -0.014559479407322586 0 -0.0055773579836943914 -0.014823840298253094 0 -0.0054804886538391195 -0.014559479407322586 0 -0.0052043027744841487 -0.014917653304506196 0 -0.0054804886538391195 -0.014559479407322586 0 -0.0055271251325189775 -0.014187386609928397 0 -0.0052097663772082336 -0.014362728914990639 0 -0.0057975942837322483 -0.014463964596067634 0 -0.0054804886538391195 -0.014559479407322586 0 -0.0055271251325189775 -0.014187386609928397 0 -0.005159130809000957 -0.013944241893587089 0 -0.0055271251325189775 -0.014187386609928397 0 -0.0052097663772082336 -0.014362728914990639 0 -0.005159130809000957 -0.013944241893587089 0 -0.0052097663772082336 -0.014362728914990639 0 -0.0048829018375130305 -0.01426826181090296 0 -0.0052097663772082336 -0.014362728914990639 0 -0.0048829018375130305 -0.01426826181090296 0 -0.0049886032057272498 -0.014655724165430444 0 -0.0048829018375130305 -0.01426826181090296 0 -0.0046761068126474088 -0.014627273758053394 0 -0.0045210184267497691 -0.014187417048934338 0 -0.0048829018375130305 -0.01426826181090296 0 -0.0046761068126474088 -0.014627273758053394 0 -0.0049886032057272498 -0.014655724165430444 0 -0.0046761068126474088 -0.014627273758053394 0 -0.0048944174033300732 -0.014943491256538778 0 -0.0049886032057272498 -0.014655724165430444 0 -0.0046761068126474088 -0.014627273758053394 0 -0.0048944174033300732 -0.014943491256538778 0 -0.0046692872326386942 -0.01500593851170479 0 -0.0052097663772082336 -0.014362728914990639 0 -0.0049886032057272498 -0.014655724165430444 0 -0.0052043027744841487 -0.014917653304506196 0 -0.0054804886538391195 -0.014559479407322586 0 -0.0052097663772082336 -0.014362728914990639 0 -0.0052043027744841487 -0.014917653304506196 0 -0.0048944174033300732 -0.014943491256538778 0 -0.0049886032057272498 -0.014655724165430444 0 -0.0052043027744841487 -0.014917653304506196 0 -0.0052043027744841487 -0.014917653304506196 0 -0.0050071687229102978 -0.015168629381014032 0 -0.0051541905069298326 -0.015354697566748204 0 -0.0048944174033300732 -0.014943491256538778 0 -0.0052043027744841487 -0.014917653304506196 0 -0.0050071687229102978 -0.015168629381014032 0 -0.0050071687229102978 -0.015168629381014032 0 -0.0051541905069298326 -0.015354697566748204 0 -0.0049524631099694778 -0.015397136912827283 0 -0.0046692872326386942 -0.01500593851170479 0 -0.0048063290909139142 -0.015213523804994758 0 -0.0046010205108201431 -0.015298411050883949 0 -0.0048944174033300732 -0.014943491256538778 0 -0.0046692872326386942 -0.01500593851170479 0 -0.0048063290909139142 -0.015213523804994758 0 -0.0048944174033300732 -0.014943491256538778 0 -0.0050071687229102978 -0.015168629381014032 0 -0.0048063290909139142 -0.015213523804994758 0 -0.0050071687229102978 -0.015168629381014032 0 -0.0048063290909139142 -0.015213523804994758 0 -0.0049524631099694778 -0.015397136912827283 0 -0.0048063290909139142 -0.015213523804994758 0 -0.0047725342408139575 -0.015430196215050679 0 -0.0049524631099694778 -0.015397136912827283 0 -0.0048063290909139142 -0.015213523804994758 0 -0.0047725342408139575 -0.015430196215050679 0 -0.0046010205108201431 -0.015298411050883949 0 -0.0047725342408139575 -0.015430196215050679 0 -0.0046010205108201431 -0.015298411050883949 0 -0.0046404223419438638 -0.015569990140844587 0 -0.0047725342408139575 -0.015430196215050679 0 -0.0048548931555477196 -0.015617884998453705 0 -0.0049524631099694778 -0.015397136912827283 0 -0.0047725342408139575 -0.015430196215050679 0 -0.0048548931555477196 -0.015617884998453705 0 -0.0046404223419438638 -0.015569990140844587 0 -0.0051541905069298326 -0.015354697566748204 0 -0.0050546766999971394 -0.015554103647468591 0 -0.0052753783065221981 -0.015433823783249949 0 -0.0051541905069298326 -0.015354697566748204 0 -0.0049524631099694778 -0.015397136912827283 0 -0.0050546766999971394 -0.015554103647468591 0 -0.0048548931555477196 -0.015617884998453705 0 -0.0049524631099694778 -0.015397136912827283 0 -0.0050546766999971394 -0.015554103647468591 0 -0.0050546766999971394 -0.015554103647468591 0 -0.0052753783065221981 -0.015433823783249949 0 -0.0052375668319300864 -0.015636990772665903 0 -0.0052753783065221981 -0.015433823783249949 0 -0.0053651104902354609 -0.015386023723122332 0 -0.0053407103330307213 -0.015523060536197158 0 -0.0052753783065221981 -0.015433823783249949 0 -0.0053407103330307213 -0.015523060536197158 0 -0.0052375668319300864 -0.015636990772665903 0 -0.0053651104902354609 -0.015386023723122332 0 -0.0053407103330307213 -0.015523060536197158 0 -0.0054582766695237851 -0.015601454514919942 0 -0.0053407103330307213 -0.015523060536197158 0 -0.0054582766695237851 -0.015601454514919942 0 -0.0052375668319300864 -0.015636990772665903 0 -0.0052147451403768592 -0.015747621177077606 0 -0.0053515218483902362 -0.015246930257638399 0 -0.0049900050228563709 -0.015866943967699911 0 -0.005337776632508966 -0.015474142505408406 0 -0.0053675936892189566 -0.015201272884731052 0 -0.0053651104902354609 -0.015386023723122332 0 -0.0054582766695237851 -0.015601454514919942 0 -0.0053675936892189566 -0.015201272884731052 0 -0.0054497518602722372 -0.01553333130021615 0 -0.005349061733060035 -0.015838394487242186 0 -0.0052831537007887452 -0.015660634085160594 0 -0.0049900050228563709 -0.015866943967699911 0 -0.005349061733060035 -0.015838394487242186 0 -0.0052831537007887452 -0.015660634085160594 0 -0.0049900050228563709 -0.015866943967699911 0 -0.0052831537007887452 -0.015660634085160594 0 -0.005337776632508966 -0.015474142505408406 0 -0.0054497518602722372 -0.01553333130021615 0 -0.0052831537007887452 -0.015660634085160594 0 -0.005337776632508966 -0.015474142505408406 0 -0.0053800445706689024 -0.015114710209307242 0 -0.0053675936892189566 -0.015201272884731052 0 -0.0053827079445403899 -0.015213823597254332 0 -0.0055114222522733482 -0.01528005457468634 0 -0.005337776632508966 -0.015474142505408406 0 -0.0053675936892189566 -0.015201272884731052 0 -0.0055114222522733482 -0.01528005457468634 0 -0.0053800445706689024 -0.015114710209307242 0 -0.0053675936892189566 -0.015201272884731052 0 -0.0052043027744841487 -0.014917653304506196 0 -0.0051541905069298326 -0.015354697566748204 0 -0.0053827079445403899 -0.015213823597254332 0 -0.0051541905069298326 -0.015354697566748204 0 -0.0052753783065221981 -0.015433823783249949 0 -0.0053827079445403899 -0.015213823597254332 0 -0.0052753783065221981 -0.015433823783249949 0 -0.0053651104902354609 -0.015386023723122332 0 -0.0053827079445403899 -0.015213823597254332 0 -0.0053651104902354609 -0.015386023723122332 0 -0.0053675936892189566 -0.015201272884731052 0 -0.0053827079445403899 -0.015213823597254332 0 -0.0097888250631751276 -0.013041300621251969 0 -0.0081537764024389222 -0.013651181788868533 0 -0.012317816932363689 -0.014006480630854447 0 -0.012620857321105849 -0.013211233875219755 0 -0.012786787864860105 -0.013239470244358406 0 -0.0097888250631751276 -0.013041300621251969 0 -0.013461382832210761 -0.012538216410266612 0 -0.013167829622088897 -0.012190064533080013 0 -0.013287697947200177 -0.012106984286029285 0 -0.013249357009549389 -0.012009610195235845 0 -0.013167829622088897 -0.012190064533080013 0 -0.01332992210998039 -0.012183937714614417 0 -0.013287697947200177 -0.012106984286029285 0 -0.0054483497710516937 -0.012277790383714836 0 -0.0043484871626992124 -0.012437929485756475 0 -0.0051018811638716879 -0.013726164376787215 0 -0.0043484871626992124 -0.012437929485756475 0 -0.0040934045150736757 -0.013951489573399643 0 -0.0051018811638716879 -0.013726164376787215 0 -0.0045281355576544721 -0.013856756884072795 0 -0.004516311429870969 -0.014033872503434127 0 -0.0040934045150736757 -0.013951489573399643 0 -0.0051018811638716879 -0.013726164376787215 0 -0.0047112259105074102 -0.014936693135533882 0 -0.0038698416990242709 -0.014711744338481861 0 -0.004233291229640666 -0.014550963818256579 0 -0.0043100113314088716 -0.015036711071420751 0 -0.0042318288999461688 -0.014106880139426204 0 -0.0038429106757178963 -0.013965923996175491 0 -0.004233291229640666 -0.014550963818256579 0 -0.0038429106757178963 -0.013965923996175491 0 -0.0038698416990242709 -0.014711744338481861 0 -0.004233291229640666 -0.014550963818256579 0 -0.0046761068126474088 -0.014627273758053394 0 -0.004233291229640666 -0.014550963818256579 0 -0.0045210184267497691 -0.014187417048934338 0 -0.0042318288999461688 -0.014106880139426204 0 -0.004233291229640666 -0.014550963818256579 0 -0.0045210184267497691 -0.014187417048934338 0 -0.0046761068126474088 -0.014627273758053394 0 -0.004233291229640666 -0.014550963818256579 0 -0.0044568128074663829 -0.014809013231959123 0 -0.004233291229640666 -0.014550963818256579 0 -0.0044568128074663829 -0.014809013231959123 0 -0.0043100113314088716 -0.015036711071420751 0 -0.0046692872326386942 -0.01500593851170479 0 -0.0044568128074663829 -0.014809013231959123 0 -0.0043100113314088716 -0.015036711071420751 0 -0.0046761068126474088 -0.014627273758053394 0 -0.0046692872326386942 -0.01500593851170479 0 -0.0044568128074663829 -0.014809013231959123 0 -0.0046692872326386942 -0.01500593851170479 0 -0.0046010205108201431 -0.015298411050883949 0 -0.0043100113314088716 -0.015036711071420751 0 -0.0046010205108201431 -0.015298411050883949 0 -0.0044125530106430277 -0.01545084432369866 0 -0.0043100113314088716 -0.015036711071420751 0 -0.0046010205108201431 -0.015298411050883949 0 -0.0046404223419438638 -0.015569990140844587 0 -0.0044125530106430277 -0.01545084432369866 0 -0.0046404223419438638 -0.015569990140844587 0 -0.0044125530106430277 -0.01545084432369866 0 -0.0045123463697206104 -0.015720945138210797 0 -0.0044125530106430277 -0.01545084432369866 0 -0.0040008811428310165 -0.015354150004245231 0 -0.00430913638175974 -0.015665071871520365 0 -0.0044125530106430277 -0.01545084432369866 0 -0.00430913638175974 -0.015665071871520365 0 -0.0045123463697206104 -0.015720945138210797 0 -0.0044125530106430277 -0.01545084432369866 0 -0.0043100113314088716 -0.015036711071420751 0 -0.0040008811428310165 -0.015354150004245231 0 -0.0038698416990242709 -0.014711744338481861 0 -0.0043100113314088716 -0.015036711071420751 0 -0.0040008811428310165 -0.015354150004245231 0 -0.004516311429870969 -0.014033872503434127 0 -0.0043538412456490339 -0.015158419064271201 0 -0.0040008811428310165 -0.015354150004245231 0 -0.0042732247057885751 -0.01575694493682837 0 -0.00430913638175974 -0.015665071871520365 0 -0.0043538412456490339 -0.015158419064271201 0 -0.0042829736220754396 -0.015678254474493069 0 -0.0047112259105074102 -0.014936693135533882 0 -0.0039309456021255533 -0.015172866641648268 0 -0.0042732247057885751 -0.01575694493682837 0 -0.0040934045150736757 -0.013951489573399643 0 -0.0047112259105074102 -0.014936693135533882 0 -0.0039309456021255533 -0.015172866641648268 0 -0.0081537764024389222 -0.013651181788868533 0 -0.0084641304713257287 -0.013770600024122222 0 -0.012620857321105849 -0.013211233875219755 0 -0.012786787864860105 -0.013239470244358406 0 -0.01291676288024699 -0.012414290678392196 0 -0.0039425967495742686 -0.015860802395502381 0 -0.0042732247057885751 -0.01575694493682837 0 -0.004171084825027759 -0.01610606555563724 0 -0.0039425967495742686 -0.015860802395502381 0 -0.0039309456021255533 -0.015172866641648268 0 -0.0042732247057885751 -0.01575694493682837 0 -0.0085746983906578068 -0.013966441120224351 0 -0.0084641304713257287 -0.013770600024122222 0 -0.0042732247057885751 -0.01575694493682837 0 -0.0043624812239464669 -0.015953423957565969 0 -0.00430913638175974 -0.015665071871520365 0 -0.0042732247057885751 -0.01575694493682837 0 -0.0043624812239464669 -0.015953423957565969 0 -0.004171084825027759 -0.01610606555563724 0 -0.0043624812239464669 -0.015953423957565969 0 -0.0044489914017769193 -0.015883549997373334 0 -0.0045269768148997885 -0.016123742141275987 0 -0.0043624812239464669 -0.015953423957565969 0 -0.00430913638175974 -0.015665071871520365 0 -0.0044489914017769193 -0.015883549997373334 0 -0.00430913638175974 -0.015665071871520365 0 -0.0044489914017769193 -0.015883549997373334 0 -0.0045123463697206104 -0.015720945138210797 0 -0.0044489914017769193 -0.015883549997373334 0 -0.0045123463697206104 -0.015720945138210797 0 -0.0045890813965430649 -0.015922686834955745 0 -0.0046404223419438638 -0.015569990140844587 0 -0.0045123463697206104 -0.015720945138210797 0 -0.004716920217442036 -0.015809853891646936 0 -0.0045123463697206104 -0.015720945138210797 0 -0.0045890813965430649 -0.015922686834955745 0 -0.004716920217442036 -0.015809853891646936 0 -0.0045890813965430649 -0.015922686834955745 0 -0.0045269768148997885 -0.016123742141275987 0 -0.0047020405444953466 -0.016106917069123674 0 -0.0045890813965430649 -0.015922686834955745 0 -0.004716920217442036 -0.015809853891646936 0 -0.0047020405444953466 -0.016106917069123674 0 -0.0044489914017769193 -0.015883549997373334 0 -0.0045890813965430649 -0.015922686834955745 0 -0.0045269768148997885 -0.016123742141275987 0 -0.0046640925003812997 -0.016281193809542287 0 -0.0045269768148997885 -0.016123742141275987 0 -0.0047020405444953466 -0.016106917069123674 0 -0.0046640925003812997 -0.016281193809542287 0 -0.004632414049692256 -0.016434122200223972 0 -0.0045269768148997885 -0.016123742141275987 0 -0.004632414049692256 -0.016434122200223972 0 -0.0047358952465673572 -0.016436757256099419 0 -0.0047834989696645021 -0.016549989052837128 0 -0.0046640925003812997 -0.016281193809542287 0 -0.004632414049692256 -0.016434122200223972 0 -0.0047358952465673572 -0.016436757256099419 0 -0.004632414049692256 -0.016434122200223972 0 -0.0043809830193920502 -0.016235203377803525 0 -0.0044596000369513632 -0.016480177434452705 0 -0.004632414049692256 -0.016434122200223972 0 -0.0044596000369513632 -0.016480177434452705 0 -0.0046719736656166315 -0.016636199381430822 0 -0.004632414049692256 -0.016434122200223972 0 -0.0045269768148997885 -0.016123742141275987 0 -0.0043809830193920502 -0.016235203377803525 0 -0.0043624812239464669 -0.015953423957565969 0 -0.0045269768148997885 -0.016123742141275987 0 -0.0043809830193920502 -0.016235203377803525 0 -0.0043809830193920502 -0.016235203377803525 0 -0.004222352623037255 -0.016469345083467098 0 -0.004171084825027759 -0.01610606555563724 0 -0.0043624812239464669 -0.015953423957565969 0 -0.0043809830193920502 -0.016235203377803525 0 -0.004171084825027759 -0.01610606555563724 0 -0.0043809830193920502 -0.016235203377803525 0 -0.0044596000369513632 -0.016480177434452705 0 -0.004222352623037255 -0.016469345083467098 0 -0.0039425967495742686 -0.015860802395502381 0 -0.0040010826743867162 -0.016253586251459676 0 -0.004171084825027759 -0.01610606555563724 0 -0.0040010826743867162 -0.016253586251459676 0 -0.004222352623037255 -0.016469345083467098 0 -0.004171084825027759 -0.01610606555563724 0 -0.0050253542736735136 -0.016126265350861691 0 -0.0052602542844029446 -0.016172907744248802 0 -0.0051672910486310732 -0.015872682577279976 0 -0.0050253542736735136 -0.016126265350861691 0 -0.0051672910486310732 -0.015872682577279976 0 -0.0049718762531231458 -0.015962288538031423 0 -0.0050253542736735136 -0.016126265350861691 0 -0.0052602542844029446 -0.016172907744248802 0 -0.0049293122258043283 -0.016366713635383022 0 -0.0049547830610710874 -0.016055358215747845 0 -0.0050473529248236159 -0.016665963208865292 0 -0.0053291550014491953 -0.016317694573587508 0 -0.0049989541938333147 -0.016040282107705698 0 -0.0052150476880618033 -0.016709765834462667 0 -0.0046496020838826136 -0.016598765932138417 0 -0.0049989541938333147 -0.016040282107705698 0 -0.0047564929200841167 -0.0166603065675206 0 -0.0052147451403768592 -0.015747621177077606 0 -0.0049554013264642583 -0.016368198193922621 0 -0.0049900050228563709 -0.015866943967699911 0 -0.0046496020838826136 -0.016598765932138417 0 -0.0049989541938333147 -0.016040282107705698 0 -0.0053291550014491953 -0.016317694573587508 0 -0.0052894388313443983 -0.016089654990190064 0 -0.0049989541938333147 -0.016040282107705698 0 -0.005349061733060035 -0.015838394487242186 0 -0.0052894388313443983 -0.016089654990190064 0 -0.0049989541938333147 -0.016040282107705698 0 -0.0049900050228563709 -0.015866943967699911 0 -0.005349061733060035 -0.015838394487242186 0 -0.0049989541938333147 -0.016040282107705698 0 -0.0054582766695237851 -0.015601454514919942 0 -0.0052602542844029446 -0.016172907744248802 0 -0.0051672910486310732 -0.015872682577279976 0 -0.0054582766695237851 -0.015601454514919942 0 -0.0051672910486310732 -0.015872682577279976 0 -0.0052375668319300864 -0.015636990772665903 0 -0.0051672910486310732 -0.015872682577279976 0 -0.0052375668319300864 -0.015636990772665903 0 -0.0050770252975076285 -0.015740772488826063 0 -0.0050546766999971394 -0.015554103647468591 0 -0.0052375668319300864 -0.015636990772665903 0 -0.0050770252975076285 -0.015740772488826063 0 -0.0050546766999971394 -0.015554103647468591 0 -0.0050770252975076285 -0.015740772488826063 0 -0.0049168319997516426 -0.015805584072364504 0 -0.0048548931555477196 -0.015617884998453705 0 -0.0050546766999971394 -0.015554103647468591 0 -0.0049168319997516426 -0.015805584072364504 0 -0.0049168319997516426 -0.015805584072364504 0 -0.0048273743234653757 -0.015991342094717656 0 -0.0049718762531231458 -0.015962288538031423 0 -0.0051672910486310732 -0.015872682577279976 0 -0.0050770252975076285 -0.015740772488826063 0 -0.0049718762531231458 -0.015962288538031423 0 -0.0050770252975076285 -0.015740772488826063 0 -0.0049168319997516426 -0.015805584072364504 0 -0.0049718762531231458 -0.015962288538031423 0 -0.0048548931555477196 -0.015617884998453705 0 -0.0046404223419438638 -0.015569990140844587 0 -0.004716920217442036 -0.015809853891646936 0 -0.0048548931555477196 -0.015617884998453705 0 -0.0049168319997516426 -0.015805584072364504 0 -0.004716920217442036 -0.015809853891646936 0 -0.0049168319997516426 -0.015805584072364504 0 -0.004716920217442036 -0.015809853891646936 0 -0.0048273743234653757 -0.015991342094717656 0 -0.0048273743234653757 -0.015991342094717656 0 -0.0047020405444953466 -0.016106917069123674 0 -0.004859706606378817 -0.016199092275746344 0 -0.004716920217442036 -0.015809853891646936 0 -0.0048273743234653757 -0.015991342094717656 0 -0.0047020405444953466 -0.016106917069123674 0 -0.0048273743234653757 -0.015991342094717656 0 -0.0049718762531231458 -0.015962288538031423 0 -0.004859706606378817 -0.016199092275746344 0 -0.0050253542736735136 -0.016126265350861691 0 -0.0049718762531231458 -0.015962288538031423 0 -0.004859706606378817 -0.016199092275746344 0 -0.004859706606378817 -0.016199092275746344 0 -0.004848043514682457 -0.016388383191081279 0 -0.0049293122258043283 -0.016366713635383022 0 -0.0050253542736735136 -0.016126265350861691 0 -0.004859706606378817 -0.016199092275746344 0 -0.0049293122258043283 -0.016366713635383022 0 -0.004859706606378817 -0.016199092275746344 0 -0.004848043514682457 -0.016388383191081279 0 -0.0047741245805010112 -0.016325697344950981 0 -0.004848043514682457 -0.016388383191081279 0 -0.0047741245805010112 -0.016325697344950981 0 -0.0048269605947356391 -0.016473164756053215 0 -0.004848043514682457 -0.016388383191081279 0 -0.0048384721277208477 -0.016522448008994283 0 -0.0049293122258043283 -0.016366713635383022 0 -0.0047020405444953466 -0.016106917069123674 0 -0.004859706606378817 -0.016199092275746344 0 -0.0047741245805010112 -0.016325697344950981 0 -0.0046640925003812997 -0.016281193809542287 0 -0.0047020405444953466 -0.016106917069123674 0 -0.0047741245805010112 -0.016325697344950981 0 -0.0046640925003812997 -0.016281193809542287 0 -0.0047741245805010112 -0.016325697344950981 0 -0.0047358952465673572 -0.016436757256099419 0 -0.0048071550060901965 -0.016503781077756765 0 -0.0047358952465673572 -0.016436757256099419 0 -0.0048269605947356391 -0.016473164756053215 0 -0.0047741245805010112 -0.016325697344950981 0 -0.0047358952465673572 -0.016436757256099419 0 -0.0048269605947356391 -0.016473164756053215 0 -0.0048384721277208477 -0.016522448008994283 0 -0.0048269605947356391 -0.016473164756053215 0 -0.00482938220272351 -0.016518258665905474 0 -0.0048071550060901965 -0.016503781077756765 0 -0.0048269605947356391 -0.016473164756053215 0 -0.00482938220272351 -0.016518258665905474 0 -0.004848043514682457 -0.016388383191081279 0 -0.0048384721277208477 -0.016522448008994283 0 -0.0048269605947356391 -0.016473164756053215 0 -0.0048384721277208477 -0.016522448008994283 0 -0.0047482577277174927 -0.016643895099061286 0 -0.00482938220272351 -0.016518258665905474 0 -0.0048384721277208477 -0.016522448008994283 0 -0.0047482577277174927 -0.016643895099061286 0 -0.0049293122258043283 -0.016366713635383022 0 -0.0049554013264642583 -0.016368198193922621 0 -0.0047821746955296947 -0.01660667114316056 0 -0.0052602542844029446 -0.016172907744248802 0 -0.0047482577277174927 -0.016643895099061286 0 -0.0049293122258043283 -0.016366713635383022 0 -0.0044223078061908861 -0.017015071664619425 0 -0.0050473529248236159 -0.016665963208865292 0 -0.0046496020838826136 -0.016598765932138417 0 -0.0047564929200841167 -0.0166603065675206 0 -0.0046227220655985293 -0.016693980652090417 0 -0.0044573334594608036 -0.016719784716692512 0 -0.0047564929200841167 -0.0166603065675206 0 -0.0046227220655985293 -0.016693980652090417 0 -0.0046496020838826136 -0.016598765932138417 0 -0.0047482577277174927 -0.016643895099061286 0 -0.0046227220655985293 -0.016693980652090417 0 -0.0047482577277174927 -0.016643895099061286 0 -0.0045352140558285606 -0.016694387791420916 0 -0.0043230953697958058 -0.01673108030924142 0 -0.0047482577277174927 -0.016643895099061286 0 -0.0046227220655985293 -0.016693980652090417 0 -0.0045352140558285606 -0.016694387791420916 0 -0.0046227220655985293 -0.016693980652090417 0 -0.0045352140558285606 -0.016694387791420916 0 -0.0044668074604355436 -0.016713684599784135 0 -0.0045352140558285606 -0.016694387791420916 0 -0.0044668074604355436 -0.016713684599784135 0 -0.0043230953697958058 -0.01673108030924142 0 -0.0044573334594608036 -0.016719784716692512 0 -0.0046227220655985293 -0.016693980652090417 0 -0.0044668074604355436 -0.016713684599784135 0 -0.0044668074604355436 -0.016713684599784135 0 -0.0043230953697958058 -0.01673108030924142 0 -0.0043751840537734907 -0.016737850877603364 0 -0.0043230953697958058 -0.01673108030924142 0 -0.0041021046968467917 -0.016800047370134599 0 -0.004281901051958914 -0.016816267378273773 0 -0.0041021046968467917 -0.016800047370134599 0 -0.004281901051958914 -0.016816267378273773 0 -0.0041676845865297385 -0.01669787167989463 0 -0.0043303601614804099 -0.016727913756224098 0 -0.004281901051958914 -0.016816267378273773 0 -0.0044706209173267638 -0.016776535720031394 0 -0.004281901051958914 -0.016816267378273773 0 -0.004402510352013128 -0.016945150081308681 0 -0.0044706209173267638 -0.016776535720031394 0 -0.0043303601614804099 -0.016727913756224098 0 -0.0044706209173267638 -0.016776535720031394 0 -0.0044001712634799709 -0.016604614702452891 0 -0.0043303601614804099 -0.016727913756224098 0 -0.004281901051958914 -0.016816267378273773 0 -0.0041676845865297385 -0.01669787167989463 0 -0.0043230953697958058 -0.01673108030924142 0 -0.004281901051958914 -0.016816267378273773 0 -0.004402510352013128 -0.016945150081308681 0 -0.0047482577277174927 -0.016643895099061286 0 -0.0043230953697958058 -0.01673108030924142 0 -0.00482938220272351 -0.016518258665905474 0 -0.0043635746076088134 -0.016730951610218099 0 -0.0046247057229076962 -0.016733480666074416 0 -0.0046247057229076962 -0.016733480666074416 0 -0.0048336966717716168 -0.016725403948591112 0 -0.0048071550060901965 -0.016503781077756765 0 -0.00482938220272351 -0.016518258665905474 0 -0.0047834989696645021 -0.016549989052837128 0 -0.004402510352013128 -0.016945150081308681 0 -0.0049373442646171257 -0.016926357489958656 0 -0.0047434289676490079 -0.01680305909840351 0 -0.0048071550060901965 -0.016503781077756765 0 -0.0047358952465673572 -0.016436757256099419 0 -0.0047834989696645021 -0.016549989052837128 0 -0.0049373442646171257 -0.016926357489958656 0 -0.0047434289676490079 -0.01680305909840351 0 -0.0049821069153240692 -0.016888452969830638 0 -0.0050305453917952117 -0.017088083003764156 0 -0.0049821069153240692 -0.016888452969830638 0 -0.0050871406811532852 -0.017120181264278091 0 -0.004846146760478726 -0.016832577759393588 0 -0.0049682706043471317 -0.016888330524732317 0 -0.0047434289676490079 -0.01680305909840351 0 -0.0046810623656527509 -0.016586814347949771 0 -0.0049821069153240692 -0.016888452969830638 0 -0.004402510352013128 -0.016945150081308681 0 -0.0047434289676490079 -0.01680305909840351 0 -0.0044706209173267638 -0.016776535720031394 0 -0.0047434289676490079 -0.01680305909840351 0 -0.0044706209173267638 -0.016776535720031394 0 -0.0046810623656527509 -0.016586814347949771 0 -0.0044706209173267638 -0.016776535720031394 0 -0.0046810623656527509 -0.016586814347949771 0 -0.0044001712634799709 -0.016604614702452891 0 -0.004846146760478726 -0.016832577759393588 0 -0.004507664491455822 -0.016616842743925619 0 -0.0046810623656527509 -0.016586814347949771 0 -0.0043659977935254814 -0.016379105822925968 0 -0.0044001712634799709 -0.016604614702452891 0 -0.0050305453917952117 -0.017088083003764156 0 -0.005129515521769849 -0.016908513239542938 0 -0.0050871406811532852 -0.017120181264278091 0 -0.005129515521769849 -0.016908513239542938 0 -0.0049417590723178683 -0.01686513817016539 0 -0.005182650962066518 -0.016481078685554054 0 -0.0050305453917952117 -0.017088083003764156 0 -0.005129515521769849 -0.016908513239542938 0 -0.0049417590723178683 -0.01686513817016539 0 -0.0049781426043810717 -0.016831149687630356 0 -0.0053636286485659905 -0.016513513332688339 0 -0.0050305453917952117 -0.017088083003764156 0 -0.0049417590723178683 -0.01686513817016539 0 -0.0046463527535704745 -0.016860654233009396 0 -0.0049417590723178683 -0.01686513817016539 0 -0.0046463527535704745 -0.016860654233009396 0 -0.0048211087423877903 -0.016564874719305536 0 -0.0043659977935254814 -0.016379105822925968 0 -0.0041158734723508554 -0.016500138192487385 0 -0.0040046493187434187 -0.016127415333646089 0 -0.0043659977935254814 -0.016379105822925968 0 -0.0041158734723508554 -0.016500138192487385 0 -0.0044001712634799709 -0.016604614702452891 0 -0.003820543201429829 -0.016428020599463734 0 -0.0041158734723508554 -0.016500138192487385 0 -0.0038970858916093144 -0.016652012003597189 0 -0.003820543201429829 -0.016428020599463734 0 -0.0041158734723508554 -0.016500138192487385 0 -0.0040046493187434187 -0.016127415333646089 0 -0.0041021046968467917 -0.016800047370134599 0 -0.0038970858916093144 -0.016652012003597189 0 -0.0041676845865297385 -0.01669787167989463 0 -0.0041158734723508554 -0.016500138192487385 0 -0.0038970858916093144 -0.016652012003597189 0 -0.0041676845865297385 -0.01669787167989463 0 -0.0043303601614804099 -0.016727913756224098 0 -0.0041676845865297385 -0.01669787167989463 0 -0.0044001712634799709 -0.016604614702452891 0 -0.0041158734723508554 -0.016500138192487385 0 -0.0041676845865297385 -0.01669787167989463 0 -0.0044001712634799709 -0.016604614702452891 0 -0.0040313586652284015 -0.016650753034921542 0 -0.004222352623037255 -0.016469345083467098 0 -0.0042345530098167085 -0.016832745990353865 0 -0.004222352623037255 -0.016469345083467098 0 -0.0042345530098167085 -0.016832745990353865 0 -0.0044638449986373931 -0.016727854401651643 0 -0.0044596000369513632 -0.016480177434452705 0 -0.004222352623037255 -0.016469345083467098 0 -0.0044638449986373931 -0.016727854401651643 0 -0.0042345530098167085 -0.016832745990353865 0 -0.0044638449986373931 -0.016727854401651643 0 -0.0045306556141035967 -0.017099468045290535 0 -0.0044638449986373931 -0.016727854401651643 0 -0.0047511912924823423 -0.016896488512750746 0 -0.0046719736656166315 -0.016636199381430822 0 -0.0044638449986373931 -0.016727854401651643 0 -0.0047511912924823423 -0.016896488512750746 0 -0.0045306556141035967 -0.017099468045290535 0 -0.0044596000369513632 -0.016480177434452705 0 -0.0044638449986373931 -0.016727854401651643 0 -0.0046719736656166315 -0.016636199381430822 0 -0.004632414049692256 -0.016434122200223972 0 -0.0047834989696645021 -0.016549989052837128 0 -0.0046719736656166315 -0.016636199381430822 0 -0.0048336966717716168 -0.016725403948591112 0 -0.0046674254274632638 -0.016658314141133033 0 -0.0049373442646171257 -0.016926357489958656 0 -0.0046719736656166315 -0.016636199381430822 0 -0.0049821069153240692 -0.016888452969830638 0 -0.0047511912924823423 -0.016896488512750746 0 -0.0046719736656166315 -0.016636199381430822 0 -0.0049821069153240692 -0.016888452969830638 0 -0.0047511912924823423 -0.016896488512750746 0 -0.0049821069153240692 -0.016888452969830638 0 -0.0050871406811532852 -0.017120181264278091 0 -0.005129515521769849 -0.016908513239542938 0 -0.0050871406811532852 -0.017120181264278091 0 -0.0055742805464994178 -0.016771342582053768 0 -0.005129515521769849 -0.016908513239542938 0 -0.0055742805464994178 -0.016771342582053768 0 -0.005182650962066518 -0.016481078685554054 0 -0.0055742805464994178 -0.016771342582053768 0 -0.0060464377293447573 -0.017250668373344311 0 -0.0063204193137501759 -0.016596180916286524 0 -0.0050864891408107064 -0.017143566188572969 0 -0.0053941243680867938 -0.017128067499111058 0 -0.0050871406811532852 -0.017120181264278091 0 -0.0055742805464994178 -0.016771342582053768 0 -0.0060464377293447573 -0.017250668373344311 0 -0.0047511912924823423 -0.016896488512750746 0 -0.0050871406811532852 -0.017120181264278091 0 -0.0045306556141035967 -0.017099468045290535 0 -0.0053941243680867938 -0.017128067499111058 0 -0.0052006872289419573 -0.017275198401614539 0 -0.0060464377293447573 -0.017250668373344311 0 -0.0069295421374830721 -0.017129518593463344 0 -0.0063204193137501759 -0.016596180916286524 0 -0.0069295421374830721 -0.017129518593463344 0 -0.0068801798260641504 -0.016479787453174785 0 -0.0063204193137501759 -0.016596180916286524 0 -0.0073676068063673319 -0.016529627285336319 0 -0.0069295421374830721 -0.017129518593463344 0 -0.0068801798260641504 -0.016479787453174785 0 -0.0042345530098167085 -0.016832745990353865 0 -0.0045306556141035967 -0.017099468045290535 0 -0.0042330607331661652 -0.017069521928302717 0 -0.0073030374045957112 -0.015832071236053638 0 -0.0071287245014997449 -0.01608532359413576 0 -0.007144332378790392 -0.015715380399811331 0 -0.0071287245014997449 -0.01608532359413576 0 -0.0066220804208681171 -0.016084131006607261 0 -0.007144332378790392 -0.015715380399811331 0 -0.0071287245014997449 -0.01608532359413576 0 -0.0068801798260641504 -0.016479787453174785 0 -0.0066220804208681171 -0.016084131006607261 0 -0.0073676068063673319 -0.016529627285336319 0 -0.0071287245014997449 -0.01608532359413576 0 -0.0068801798260641504 -0.016479787453174785 0 -0.0063204193137501759 -0.016596180916286524 0 -0.0066220804208681171 -0.016084131006607261 0 -0.0057492915435321309 -0.016018354931257583 0 -0.0068801798260641504 -0.016479787453174785 0 -0.0063204193137501759 -0.016596180916286524 0 -0.0066220804208681171 -0.016084131006607261 0 -0.0066220804208681171 -0.016084131006607261 0 -0.0064349432549058311 -0.015606957658538537 0 -0.007144332378790392 -0.015715380399811331 0 -0.0066220804208681171 -0.016084131006607261 0 -0.0057492915435321309 -0.016018354931257583 0 -0.0064349432549058311 -0.015606957658538537 0 -0.005934536949054557 -0.016089374622392967 0 -0.0065706480864110512 -0.0156707683314538 0 -0.0055742805464994178 -0.016771342582053768 0 -0.0063204193137501759 -0.016596180916286524 0 -0.0057492915435321309 -0.016018354931257583 0 -0.0055742805464994178 -0.016771342582053768 0 -0.0057492915435321309 -0.016018354931257583 0 -0.005182650962066518 -0.016481078685554054 0 -0.005934536949054557 -0.016089374622392967 0 -0.0053636286485659905 -0.016513513332688339 0 -0.0061173688657088273 -0.016153695454769062 0 -0.005526710788370263 -0.016548991622748626 0 -0.0054981656609139106 -0.015702261179577976 0 -0.0061173688657088273 -0.016153695454769062 0 -0.0061048410304369565 -0.0155667210963278 0 -0.0054981656609139106 -0.015702261179577976 0 -0.0060019133115519121 -0.014999964004453895 0 -0.0061048410304369565 -0.0155667210963278 0 -0.0054981656609139106 -0.015702261179577976 0 -0.0060019133115519121 -0.014999964004453895 0 -0.0065147276170090078 -0.015328623940764334 0 -0.0061048410304369565 -0.0155667210963278 0 -0.0060019133115519121 -0.014999964004453895 0 -0.0065147276170090078 -0.015328623940764334 0 -0.0068338626705355355 -0.014999983047449468 0 -0.0061173688657088273 -0.016153695454769062 0 -0.0061048410304369565 -0.0155667210963278 0 -0.0066972267233718873 -0.015727244851532329 0 -0.0065147276170090078 -0.015328623940764334 0 -0.0061048410304369565 -0.0155667210963278 0 -0.0066972267233718873 -0.015727244851532329 0 -0.0065147276170090078 -0.015328623940764334 0 -0.0066972267233718873 -0.015727244851532329 0 -0.0072210068887670828 -0.015277727459276686 0 -0.0065706480864110512 -0.0156707683314538 0 -0.0071551881265961449 -0.015300726573141696 0 -0.0065147276170090078 -0.015328623940764334 0 -0.0068338626705355355 -0.014999983047449468 0 -0.0072210068887670828 -0.015277727459276686 0 -0.0076657759661750225 -0.014999919185398024 0 -0.0068338626705355355 -0.014999983047449468 0 -0.0072210068887670828 -0.015277727459276686 0 -0.0076478184397895006 -0.015402681221154478 0 -0.0072210068887670828 -0.015277727459276686 0 -0.007144332378790392 -0.015715380399811331 0 -0.0064349432549058311 -0.015606957658538537 0 -0.0072210068887670828 -0.015277727459276686 0 -0.007144332378790392 -0.015715380399811331 0 -0.0041342486044333542 -0.016411999877869447 0 -0.0048594247353076015 -0.016087050917786359 0 -0.004344599283428445 -0.015713802254834045 0 -0.0041342486044333542 -0.016411999877869447 0 -0.004344599283428445 -0.015713802254834045 0 -0.0035974682154717723 -0.01585332598247248 0 -0.0040654456027647123 -0.016264570214895146 0 -0.0036356470447708798 -0.015879539610306942 0 -0.003820543201429829 -0.016428020599463734 0 -0.0040046493187434187 -0.016127415333646089 0 -0.0035134727191912575 -0.016232872082964912 0 -0.0046463527535704745 -0.016860654233009396 0 -0.0041342486044333542 -0.016411999877869447 0 -0.0048211087423877903 -0.016564874719305536 0 -0.004507664491455822 -0.016616842743925619 0 -0.0040654456027647123 -0.016264570214895146 0 -0.0041342486044333542 -0.016411999877869447 0 -0.0048211087423877903 -0.016564874719305536 0 -0.0048594247353076015 -0.016087050917786359 0 -0.0048211087423877903 -0.016564874719305536 0 -0.005526710788370263 -0.016548991622748626 0 -0.0048594247353076015 -0.016087050917786359 0 -0.0049417590723178683 -0.01686513817016539 0 -0.0048211087423877903 -0.016564874719305536 0 -0.005526710788370263 -0.016548991622748626 0 -0.005526710788370263 -0.016548991622748626 0 -0.0048594247353076015 -0.016087050917786359 0 -0.0054981656609139106 -0.015702261179577976 0 -0.0048594247353076015 -0.016087050917786359 0 -0.0048785287525667173 -0.015503184598370421 0 -0.004344599283428445 -0.015713802254834045 0 -0.0048594247353076015 -0.016087050917786359 0 -0.0048785287525667173 -0.015503184598370421 0 -0.0054981656609139106 -0.015702261179577976 0 -0.0060019133115519121 -0.014999964004453895 0 -0.0054981656609139106 -0.015702261179577976 0 -0.0051699033492067581 -0.014999973118340223 0 -0.0048785287525667173 -0.015503184598370421 0 -0.0054981656609139106 -0.015702261179577976 0 -0.0051699033492067581 -0.014999973118340223 0 -0.0048785287525667173 -0.015503184598370421 0 -0.0051699033492067581 -0.014999973118340223 0 -0.0043379273866010837 -0.014999952561099031 0 -0.0048785287525667173 -0.015503184598370421 0 -0.0043379273866010837 -0.014999952561099031 0 -0.004344599283428445 -0.015713802254834045 0 -0.004344599283428445 -0.015713802254834045 0 -0.0038423461440315484 -0.015423359055546215 0 -0.0035974682154717723 -0.01585332598247248 0 -0.0043379273866010837 -0.014999952561099031 0 -0.0038423461440315484 -0.015423359055546215 0 -0.0035059519279753669 -0.01499995555800206 0 -0.0043379273866010837 -0.014999952561099031 0 -0.004344599283428445 -0.015713802254834045 0 -0.0038423461440315484 -0.015423359055546215 0 -0.0038423461440315484 -0.015423359055546215 0 -0.0035059519279753669 -0.01499995555800206 0 -0.0030173759935708407 -0.015519395356926056 0 -0.0035059519279753669 -0.01499995555800206 0 -0.0030173759935708407 -0.015519395356926056 0 -0.0026740089406260001 -0.014999920128093449 0 -0.0038423461440315484 -0.015423359055546215 0 -0.0030173759935708407 -0.015519395356926056 0 -0.0035974682154717723 -0.01585332598247248 0 -0.0022887833142015727 -0.015346557909868021 0 -0.0026740089406260001 -0.014999920128093449 0 -0.0018419950967052986 -0.014999926586396648 0 -0.0030173759935708407 -0.015519395356926056 0 -0.0022887833142015727 -0.015346557909868021 0 -0.0026740089406260001 -0.014999920128093449 0 -0.0030173759935708407 -0.015519395356926056 0 -0.0022887833142015727 -0.015346557909868021 0 -0.0022226651635909064 -0.015823901468384888 0 -0.0022887833142015727 -0.015346557909868021 0 -0.0022226651635909064 -0.015823901468384888 0 -0.0015608092107456579 -0.015504865499984959 0 -0.0030173759935708407 -0.015519395356926056 0 -0.0022226651635909064 -0.015823901468384888 0 -0.0030119994419179272 -0.01601996119860542 0 -0.0022226651635909064 -0.015823901468384888 0 -0.00221652628975818 -0.016372496285579387 0 -0.0030119994419179272 -0.01601996119860542 0 -0.00221652628975818 -0.016372496285579387 0 -0.0030119994419179272 -0.01601996119860542 0 -0.0030879788093637248 -0.016463181524542424 0 -0.0035974682154717723 -0.01585332598247248 0 -0.0030119994419179272 -0.01601996119860542 0 -0.0035134727191912575 -0.016232872082964912 0 -0.0030173759935708407 -0.015519395356926056 0 -0.0035974682154717723 -0.01585332598247248 0 -0.0030119994419179272 -0.01601996119860542 0 -0.0030119994419179272 -0.01601996119860542 0 -0.0035134727191912575 -0.016232872082964912 0 -0.0030879788093637248 -0.016463181524542424 0 -0.0040046493187434187 -0.016127415333646089 0 -0.0035974682154717723 -0.01585332598247248 0 -0.0035134727191912575 -0.016232872082964912 0 -0.003820543201429829 -0.016428020599463734 0 -0.0035134727191912575 -0.016232872082964912 0 -0.0034764596526011115 -0.016547192215469072 0 -0.003820543201429829 -0.016428020599463734 0 -0.0038970858916093144 -0.016652012003597189 0 -0.0034764596526011115 -0.016547192215469072 0 -0.0038970858916093144 -0.016652012003597189 0 -0.0034764596526011115 -0.016547192215469072 0 -0.003583790432903093 -0.016791748326710758 0 -0.0041021046968467917 -0.016800047370134599 0 -0.0038970858916093144 -0.016652012003597189 0 -0.003583790432903093 -0.016791748326710758 0 -0.003583790432903093 -0.016791748326710758 0 -0.003139467386713331 -0.016666924388076428 0 -0.0031309608629428152 -0.01698291923127539 0 -0.0034764596526011115 -0.016547192215469072 0 -0.003583790432903093 -0.016791748326710758 0 -0.003139467386713331 -0.016666924388076428 0 -0.0034764596526011115 -0.016547192215469072 0 -0.0030879788093637248 -0.016463181524542424 0 -0.003139467386713331 -0.016666924388076428 0 -0.0035134727191912575 -0.016232872082964912 0 -0.0034764596526011115 -0.016547192215469072 0 -0.0030879788093637248 -0.016463181524542424 0 -0.0030879788093637248 -0.016463181524542424 0 -0.0028239195444423005 -0.016564614109945523 0 -0.003139467386713331 -0.016666924388076428 0 -0.0030556021405797958 -0.016482188609167697 0 -0.0025531522171909058 -0.016792614604217118 0 -0.00221652628975818 -0.016372496285579387 0 -0.0030879788093637248 -0.016463181524542424 0 -0.002285849557940966 -0.017044212124912587 0 -0.00221652628975818 -0.016372496285579387 0 -0.002285849557940966 -0.017044212124912587 0 -0.0016229687507576139 -0.01682419341840696 0 -0.0028239195444423005 -0.016564614109945523 0 -0.0027842834427157363 -0.016972268998834909 0 -0.0022196877061227945 -0.016789978164494616 0 -0.0025531522171909058 -0.016792614604217118 0 -0.0019122195415523457 -0.017104165433447477 0 -0.0028239195444423005 -0.016564614109945523 0 -0.003139467386713331 -0.016666924388076428 0 -0.0027842834427157363 -0.016972268998834909 0 -0.003139467386713331 -0.016666924388076428 0 -0.0031309608629428152 -0.01698291923127539 0 -0.0027842834427157363 -0.016972268998834909 0 -0.0030294144729617759 -0.017243751100437278 0 -0.002796697684159943 -0.017279828556190487 0 -0.0027842834427157363 -0.016972268998834909 0 -0.0025716674814107096 -0.017415891797986697 0 -0.0023748862025316109 -0.017175614061129926 0 -0.0030641295220149817 -0.017223937438328479 0 -0.0027842834427157363 -0.016972268998834909 0 -0.0025716674814107096 -0.017415891797986697 0 -0.0030641295220149817 -0.017223937438328479 0 -0.0031309608629428152 -0.01698291923127539 0 -0.0032585323879909373 -0.017087413952751967 0 -0.0030641295220149817 -0.017223937438328479 0 -0.0031309608629428152 -0.01698291923127539 0 -0.0027842834427157363 -0.016972268998834909 0 -0.0031935025823805752 -0.017157115609705727 0 -0.0030641295220149817 -0.017223937438328479 0 -0.0032585323879909373 -0.017087413952751967 0 -0.0031935025823805752 -0.017157115609705727 0 -0.0032585323879909373 -0.017087413952751967 0 -0.0032421703117440359 -0.017150907675434243 0 -0.0044223078061908861 -0.017015071664619425 0 -0.0036869214771644153 -0.016850295095952518 0 -0.0044351760583466703 -0.016723778309954293 0 -0.0043751840537734907 -0.016737850877603364 0 -0.0041120606852947765 -0.016807542324639616 0 -0.0031351030242768039 -0.017204007456169124 0 -0.0032421703117440359 -0.017150907675434243 0 -0.0033774769782724799 -0.017079440470797746 0 -0.0043230953697958058 -0.01673108030924142 0 -0.0043751840537734907 -0.016737850877603364 0 -0.0041120606852947765 -0.016807542324639616 0 -0.0043230953697958058 -0.01673108030924142 0 -0.0041021046968467917 -0.016800047370134599 0 -0.0041120606852947765 -0.016807542324639616 0 -0.0032585323879909373 -0.017087413952751967 0 -0.0032421703117440359 -0.017150907675434243 0 -0.0033774769782724799 -0.017079440470797746 0 -0.0036147622655864943 -0.016768754614441109 0 -0.0036869214771644153 -0.016850295095952518 0 -0.0041021046968467917 -0.016800047370134599 0 -0.003583790432903093 -0.016791748326710758 0 -0.0041120606852947765 -0.016807542324639616 0 -0.003583790432903093 -0.016791748326710758 0 -0.0032585323879909373 -0.017087413952751967 0 -0.0033774769782724799 -0.017079440470797746 0 -0.003583790432903093 -0.016791748326710758 0 -0.0031309608629428152 -0.01698291923127539 0 -0.0032585323879909373 -0.017087413952751967 0 -0.0011281739521438342 -0.017382305387846405 0 -0.00092960154230090281 -0.017589794074484372 0 -0.00062894647258325044 -0.017161126032012843 0 -0.0011281739521438342 -0.017382305387846405 0 -0.00092960154230090281 -0.017589794074484372 0 -0.0012651224747289541 -0.017548900597411796 0 3.3061951897422601e-05 -0.017200729323988972 0 -4.6201476317178449e-05 -0.016879094586872735 0 0.00018919512226448431 -0.016980439316079295 0 -0.0017253223804307321 -0.016982277805089461 0 -0.00020015370717432529 -0.017062033848764431 0 3.3061951897422601e-05 -0.017200729323988972 0 -0.00023907422805186329 -0.017261109967306974 0 -4.6201476317178449e-05 -0.016879094586872735 0 -0.0023495194740814408 -0.015840485781266848 0 -0.0024678420181978343 -0.016050384409076038 0 -0.0021609351278612126 -0.016287797925828788 0 -0.0025412357935452228 -0.016273264867538922 0 -0.0024678420181978343 -0.016050384409076038 0 -0.0026549535039514871 -0.015917525358670616 0 -0.0023495194740814408 -0.015840485781266848 0 -0.0024678420181978343 -0.016050384409076038 0 -0.0026549535039514871 -0.015917525358670616 0 -0.0011958821679562059 -0.016522519093552051 0 -0.0017253223804307321 -0.016982277805089461 0 -0.00092960154230090281 -0.017589794074484372 0 -0.0012651224747289541 -0.017548900597411796 0 -0.0017620502022419634 -0.017570003331520822 0 -0.0017253223804307321 -0.016982277805089461 0 -0.0024905332196778741 -0.017377651121704338 0 -0.0031342247644516575 -0.017104505011981363 0 -0.0031165306390039797 -0.017130000324313943 0 -0.003114635928343175 -0.017132857315166145 0 -0.0025716674814107096 -0.017415891797986697 0 -0.0017620502022419634 -0.017570003331520822 0 -0.0023748862025316109 -0.017175614061129926 0 -0.002796697684159943 -0.017279828556190487 0 -0.0024905332196778741 -0.017377651121704338 0 -0.0031134403822745951 -0.01712179544894319 0 -0.0031022906376838794 -0.017157923081037939 0 -0.003114635928343175 -0.017132857315166145 0 -0.0017620502022419634 -0.017570003331520822 0 -0.0022196877061227945 -0.016789978164494616 0 -0.0023748862025316109 -0.017175614061129926 0 -0.0027842834427157363 -0.016972268998834909 0 -0.0022196877061227945 -0.016789978164494616 0 -0.0023748862025316109 -0.017175614061129926 0 -0.0013055342417040328 -0.017516917209263173 0 -0.0019122195415523457 -0.017104165433447477 0 -0.0011281739521438342 -0.017382305387846405 0 -0.0016093218071715949 -0.017381779372453117 0 -0.0011187940402820754 -0.017223044442337201 0 -0.0011281739521438342 -0.017382305387846405 0 -0.0012651224747289541 -0.017548900597411796 0 -0.0016093218071715949 -0.017381779372453117 0 -0.0012651224747289541 -0.017548900597411796 0 -0.0017620502022419634 -0.017570003331520822 0 -0.0022196877061227945 -0.016789978164494616 0 -0.0016093218071715949 -0.017381779372453117 0 -0.0013362713612835257 -0.017061769204531126 0 -0.0011187940402820754 -0.017223044442337201 0 -0.0013362713612835257 -0.017061769204531126 0 -0.00099379998667825913 -0.016794060037689518 0 -0.0011187940402820754 -0.017223044442337201 0 -0.0016093218071715949 -0.017381779372453117 0 -0.0013362713612835257 -0.017061769204531126 0 -0.0016229687507576139 -0.01682419341840696 0 -0.002285849557940966 -0.017044212124912587 0 -0.0016093218071715949 -0.017381779372453117 0 -0.0016229687507576139 -0.01682419341840696 0 -0.0013362713612835257 -0.017061769204531126 0 -0.0016229687507576139 -0.01682419341840696 0 -0.00099379998667825913 -0.016794060037689518 0 -0.0016229687507576139 -0.01682419341840696 0 -0.00099379998667825913 -0.016794060037689518 0 -0.0013928469937559429 -0.016166890479026513 0 -0.00099379998667825913 -0.016794060037689518 0 -0.0011187940402820754 -0.017223044442337201 0 -0.00062894647258325044 -0.017161126032012843 0 -0.0011281739521438342 -0.017382305387846405 0 -0.0011187940402820754 -0.017223044442337201 0 -0.00062894647258325044 -0.017161126032012843 0 -4.6201476317178449e-05 -0.016879094586872735 0 0.00027439736187999316 -0.016650275126407332 0 0.00012044127515751303 -0.016503644410469746 0 -0.00099379998667825913 -0.016794060037689518 0 -0.00062894647258325044 -0.017161126032012843 0 -0.00021334304373497588 -0.016647525354469554 0 -0.00020015370717432529 -0.017062033848764431 0 -5.6619118629907026e-05 -0.016551292078572203 0 -0.00062786048851532969 -0.016276835983461458 0 0.00024521889908824012 -0.016034861313628749 0 -0.00021334304373497588 -0.016647525354469554 0 -0.00099379998667825913 -0.016794060037689518 0 -0.00062786048851532969 -0.016276835983461458 0 -0.00021334304373497588 -0.016647525354469554 0 -0.00099379998667825913 -0.016794060037689518 0 -0.00062786048851532969 -0.016276835983461458 0 -0.0013928469937559429 -0.016166890479026513 0 -0.00062786048851532969 -0.016276835983461458 0 -0.0013928469937559429 -0.016166890479026513 0 -0.00060600291776768966 -0.015696589349060385 0 -0.00062786048851532969 -0.016276835983461458 0 -0.00060600291776768966 -0.015696589349060385 0 0.00024521889908824012 -0.016034861313628749 0 -0.0013928469937559429 -0.016166890479026513 0 -0.0015608092107456579 -0.015504865499984959 0 -0.00060600291776768966 -0.015696589349060385 0 -0.00221652628975818 -0.016372496285579387 0 -0.0016229687507576139 -0.01682419341840696 0 -0.0013928469937559429 -0.016166890479026513 0 -0.0022226651635909064 -0.015823901468384888 0 -0.00221652628975818 -0.016372496285579387 0 -0.0013928469937559429 -0.016166890479026513 0 -0.0022226651635909064 -0.015823901468384888 0 -0.0013928469937559429 -0.016166890479026513 0 -0.0015608092107456579 -0.015504865499984959 0 -0.0015608092107456579 -0.015504865499984959 0 -0.001010015702641623 -0.014999936502634132 0 -0.00060600291776768966 -0.015696589349060385 0 -0.0022887833142015727 -0.015346557909868021 0 -0.0015608092107456579 -0.015504865499984959 0 -0.0018419950967052986 -0.014999926586396648 0 -0.0015608092107456579 -0.015504865499984959 0 -0.001010015702641623 -0.014999936502634132 0 -0.0018419950967052986 -0.014999926586396648 0 -0.001010015702641623 -0.014999936502634132 0 -0.00060600291776768966 -0.015696589349060385 0 -0.00017799847425900282 -0.014999931480311986 0 -0.00060600291776768966 -0.015696589349060385 0 -0.00017799847425900282 -0.014999931480311986 0 0.00021871065278726643 -0.015448402989287763 0 -0.00017799847425900282 -0.014999931480311986 0 0.00021871065278726643 -0.015448402989287763 0 0.00065398676602898694 -0.014999959065645231 0 -0.00060600291776768966 -0.015696589349060385 0 0.00021871065278726643 -0.015448402989287763 0 0.00024521889908824012 -0.016034861313628749 0 0.00021871065278726643 -0.015448402989287763 0 0.00087532344518677027 -0.015426092105421726 0 0.00024521889908824012 -0.016034861313628749 0 0.00087532344518677027 -0.015426092105421726 0 0.0010715957968970796 -0.015835124777723968 0 0.00024521889908824012 -0.016034861313628749 0 0.00021871065278726643 -0.015448402989287763 0 0.00087532344518677027 -0.015426092105421726 0 0.00065398676602898694 -0.014999959065645231 0 0.00087532344518677027 -0.015426092105421726 0 0.001351980535911672 -0.015132539116267132 0 0.0014142485119665738 -0.015142120695611034 0 0.00065398676602898694 -0.014999959065645231 0 0.001351980535911672 -0.015132539116267132 0 0.0014859196887928832 -0.014999967824015747 0 0.00087532344518677027 -0.015426092105421726 0 0.00065398676602898694 -0.014999959065645231 0 0.001351980535911672 -0.015132539116267132 0 0.0032722037486871422 -0.014846165206245722 0 0.0033996950350470138 -0.015026076563533088 0 0.0036215051813075615 -0.014873073510163957 0 0.0014860791793296986 -0.014999990967864888 0 0.0014430768784453544 -0.015154391563831927 0 0.0023264080307314615 -0.015293837721656385 0 0.0014870231585532433 -0.015000179612751475 0 0.0021173186632770804 -0.014915127438367079 0 0.001351980535911672 -0.015132539116267132 0 0.0014859196887928832 -0.014999967824015747 0 0.0014252153636561196 -0.015146151694456522 0 0.0019884241784580898 -0.01491180611061145 0 0.0021173186632770804 -0.014915127438367079 0 0.0032722037486871422 -0.014846165206245722 0 0.0033996950350470138 -0.015026076563533088 0 0.0032517585662395509 -0.015074542615371011 0 0.0021173186632770804 -0.014915127438367079 0 0.0021987119697726809 -0.015424266446505894 0 0.00087532344518677027 -0.015426092105421726 0 0.0014142485119665738 -0.015142120695611034 0 0.0010715957968970796 -0.015835124777723968 0 0.0021987119697726809 -0.015424266446505894 0 0.0019851231570218743 -0.015956111731907148 0 0.0033996950350470138 -0.015026076563533088 0 0.0032517585662395509 -0.015074542615371011 0 0.0033529678478859404 -0.015145426301816114 0 0.0032517585662395509 -0.015074542615371011 0 0.0033529678478859404 -0.015145426301816114 0 0.0032187634397139423 -0.015185891628668378 0 0.0033529678478859404 -0.015145426301816114 0 0.0032187634397139423 -0.015185891628668378 0 0.0032906907131463776 -0.015232989493326578 0 0.0007801674287987321 -0.016437679898287653 0 0.0003775225108573983 -0.016457318401158716 0 0.00024521889908824012 -0.016034861313628749 0 0.00023121181189268513 -0.016053834093093106 0 -5.6619118629907026e-05 -0.016551292078572203 0 0.0003775225108573983 -0.016457318401158716 0 0.00024521889908824012 -0.016034861313628749 0 0.00012044127515751303 -0.016503644410469746 0 0.0010715957968970796 -0.015835124777723968 0 0.0007801674287987321 -0.016437679898287653 0 0.00024521889908824012 -0.016034861313628749 0 0.0041166207671607833 -0.015190606155143406 0 0.0039955458821281748 -0.015011929254355192 0 0.0042209148158270414 -0.015283061631230953 0 0.0040259351730150689 -0.015159665767415615 0 0.0038988800911755627 -0.015102917671486728 0 0.0040906941036088591 -0.015326896467449785 0 0.0035873929878991596 -0.015210241847829882 0 0.0041725877159733606 -0.015282794153365781 0 0.0041166207671607833 -0.015190606155143406 0 0.0040906941036088591 -0.015326896467449785 0 0.0042085788225175004 -0.015242804980615535 0 0.0041166207671607833 -0.015190606155143406 0 0.0040259351730150689 -0.015159665767415615 0 0.0040906941036088591 -0.015326896467449785 0 0.0041166207671607833 -0.015190606155143406 0 0.0040259351730150689 -0.015159665767415615 0 0.0039955458821281748 -0.015011929254355192 0 0.0037880612438170522 -0.015203241578718782 0 0.0035511273964608583 -0.015140846369679831 0 0.0032196681854030616 -0.015430889234767839 0 0.0037880612438170522 -0.015203241578718782 0 0.0032196681854030616 -0.015430889234767839 0 0.0042209148158270414 -0.015283061631230953 0 0.0035511273964608583 -0.015140846369679831 0 0.0031545011349904646 -0.01499995727170467 0 0.0039888268442578164 -0.014999848168079774 0 0.0037880612438170522 -0.015203241578718782 0 0.0035511273964608583 -0.015140846369679831 0 0.0039888268442578164 -0.014999848168079774 0 0.0035511273964608583 -0.015140846369679831 0 0.0032196681854030616 -0.015430889234767839 0 0.0031545011349904646 -0.01499995727170467 0 0.0032196681854030616 -0.015430889234767839 0 0.0031545011349904646 -0.01499995727170467 0 0.0023264080307314615 -0.015293837721656385 0 0.0039955458821281748 -0.015011929254355192 0 0.0038988800911755627 -0.015102917671486728 0 0.0037935915301407653 -0.015040466997481992 0 0.0040259351730150689 -0.015159665767415615 0 0.0039955458821281748 -0.015011929254355192 0 0.0038988800911755627 -0.015102917671486728 0 0.0036535912915529479 -0.015055596809533665 0 0.0037935915301407653 -0.015040466997481992 0 0.0037982761658026747 -0.015128900691186897 0 0.0038988800911755627 -0.015102917671486728 0 0.0037935915301407653 -0.015040466997481992 0 0.0037982761658026747 -0.015128900691186897 0 0.0036535912915529479 -0.015055596809533665 0 0.0037935915301407653 -0.015040466997481992 0 0.0036215051813075615 -0.014873073510163957 0 0.0035873929878991596 -0.015210241847829882 0 0.0030301070109864199 -0.01510390048605147 0 0.0031545011349904646 -0.01499995727170467 0 0.0023264080307314615 -0.015293837721656385 0 0.0023202427024219671 -0.015000010611385622 0 0.0039955458821281748 -0.015011929254355192 0 0.0037935915301407653 -0.015040466997481992 0 0.0036215051813075615 -0.014873073510163957 0 0.0014860791793296986 -0.014999990967864888 0 0.0023264080307314615 -0.015293837721656385 0 0.0023202427024219671 -0.015000010611385622 0 0.0021173186632770804 -0.014915127438367079 0 0.0030301070109864199 -0.01510390048605147 0 0.0033996950350470138 -0.015026076563533088 0 0.0036535912915529479 -0.015055596809533665 0 0.0036215051813075615 -0.014873073510163957 0 0.0033996950350470138 -0.015026076563533088 0 0.0036535912915529479 -0.015055596809533665 0 0.003662481331170162 -0.015235619209815846 0 0.0033996950350470138 -0.015026076563533088 0 0.0033529678478859404 -0.015145426301816114 0 0.0034413505430798434 -0.015101163011199688 0 0.0034087612887802204 -0.015034450170653508 0 0.0035455588650921224 -0.015160095812561215 0 0.0033529678478859404 -0.015145426301816114 0 0.0034390193130910667 -0.015171314576295659 0 0.0033874298917345408 -0.015228146077737195 0 0.0033529678478859404 -0.015145426301816114 0 0.0034390193130910667 -0.015171314576295659 0 0.0034413505430798434 -0.015101163011199688 0 0.0035455588650921224 -0.015160095812561215 0 0.0037338612833439297 -0.015292455039415351 0 0.0034390193130910667 -0.015171314576295659 0 0.0034413505430798434 -0.015101163011199688 0 0.0035087152157452484 -0.015164252419296026 0 0.0036535912915529479 -0.015055596809533665 0 0.003662481331170162 -0.015235619209815846 0 0.0037982761658026747 -0.015128900691186897 0 0.003662481331170162 -0.015235619209815846 0 0.0037982761658026747 -0.015128900691186897 0 0.0039218377422813935 -0.015408978869240189 0 0.0038292589934283802 -0.015133222086053638 0 0.004195225334162553 -0.015201877916583069 0 0.0037982761658026747 -0.015128900691186897 0 0.0039218377422813935 -0.015408978869240189 0 0.0042880406276261792 -0.015073400182908649 0 0.0038988800911755627 -0.015102917671486728 0 0.0037982761658026747 -0.015128900691186897 0 0.0040906941036088591 -0.015326896467449785 0 0.0042677658706890467 -0.015388989758169956 0 0.0042880406276261792 -0.015073400182908649 0 0.0045624986144689452 -0.015289167791220951 0 0.0039218377422813935 -0.015408978869240189 0 0.0042677658706890467 -0.015388989758169956 0 0.0042880406276261792 -0.015073400182908649 0 0.0037897951493248601 -0.015465239849583768 0 0.0050440138574499669 -0.015233786165679823 0 0.0036090296059604855 -0.015299784486040701 0 0.0035899377995486448 -0.015223001629718768 0 0.00369205682904593 -0.015295079544155031 0 0.0036090296059604855 -0.015299784486040701 0 0.0035899377995486448 -0.015223001629718768 0 0.0035633105257141455 -0.015267853611093833 0 0.0036090296059604855 -0.015299784486040701 0 0.0035633105257141455 -0.015267853611093833 0 0.0035681064572864914 -0.015300245686445644 0 0.0042677658706890467 -0.015388989758169956 0 0.0042340749365368871 -0.015676432787349991 0 0.0045806339705899346 -0.015560618059786063 0 0.0037338612833439297 -0.015292455039415351 0 0.0037897951493248601 -0.015465239849583768 0 0.0039218377422813935 -0.015408978869240189 0 0.0042677658706890467 -0.015388989758169956 0 0.0042340749365368871 -0.015676432787349991 0 0.0035087152157452484 -0.015164252419296026 0 0.0035899377995486448 -0.015223001629718768 0 0.0034943429753220043 -0.015235938389306373 0 0.0035899377995486448 -0.015223001629718768 0 0.0035633105257141455 -0.015267853611093833 0 0.0034943429753220043 -0.015235938389306373 0 0.0035633105257141455 -0.015267853611093833 0 0.003524074272176179 -0.015292015067141564 0 0.0034943429753220043 -0.015235938389306373 0 0.0035633105257141455 -0.015267853611093833 0 0.0035681064572864914 -0.015300245686445644 0 0.003524074272176179 -0.015292015067141564 0 0.003524074272176179 -0.015292015067141564 0 0.0034943429753220043 -0.015235938389306373 0 0.0034447768183205243 -0.015320287051730908 0 0.0034943429753220043 -0.015235938389306373 0 0.0033874298917345408 -0.015228146077737195 0 0.0034447768183205243 -0.015320287051730908 0 0.0034390193130910667 -0.015171314576295659 0 0.0034943429753220043 -0.015235938389306373 0 0.0033874298917345408 -0.015228146077737195 0 0.0034390193130910667 -0.015171314576295659 0 0.0035087152157452484 -0.015164252419296026 0 0.0034943429753220043 -0.015235938389306373 0 0.0033874298917345408 -0.015228146077737195 0 0.0034447768183205243 -0.015320287051730908 0 0.003315049700811592 -0.015308821265402317 0 0.0030968926228780807 -0.01377559557804495 0 0.0030473047065331391 -0.013428424215230961 0 0.0026034334283161803 -0.012237766545772258 0 0.0027750539794112964 -0.012055978746011723 0 0.0024616966311986717 -0.012038294956792083 0 0.0026034334283161803 -0.012237766545772258 0 0.0028129120769328909 -0.012251697056044637 0 0.0027750539794112964 -0.012055978746011723 0 0.0028129120769328909 -0.012251697056044637 0 0.0027750539794112964 -0.012055978746011723 0 0.0029795245766570909 -0.012159952056124506 0 0.0027750539794112964 -0.012055978746011723 0 0.0029795245766570909 -0.012159952056124506 0 0.0030907097499089536 -0.012105185949881855 0 0.003524074272176179 -0.015292015067141564 0 0.0034447768183205243 -0.015320287051730908 0 0.0035774551191794638 -0.015339904743927466 0 0.0030968926228780807 -0.01377559557804495 0 0.0032824914555001608 -0.013349618136956421 0 0.0035681064572864914 -0.015300245686445644 0 0.003524074272176179 -0.015292015067141564 0 0.0035774551191794638 -0.015339904743927466 0 0.0032328355748885247 -0.012407142944382187 0 0.0032824914555001608 -0.013349618136956421 0 0.0029795245766570909 -0.012159952056124506 0 0.0031234539160756342 -0.012258700605032289 0 0.0030924166465051235 -0.012102022073137673 0 0.0028129120769328909 -0.012251697056044637 0 0.0029795245766570909 -0.012159952056124506 0 0.0029855188449935512 -0.01228885619322357 0 0.0029795245766570909 -0.012159952056124506 0 0.0029855188449935512 -0.01228885619322357 0 0.0031234539160756342 -0.012258700605032289 0 0.0031234539160756342 -0.012258700605032289 0 0.0030924166465051235 -0.012102022073137673 0 0.0032767846762521351 -0.012138375211488734 0 0.0031234539160756342 -0.012258700605032289 0 0.0032586206645146064 -0.012335354830308714 0 0.0032767846762521351 -0.012138375211488734 0 0.004189967201184577 -0.014795692473404004 0 0.0046933165148707809 -0.013936118359705941 0 0.0032824914555001608 -0.013349618136956421 0 0.0046933165148707809 -0.013936118359705941 0 0.003623638934874304 -0.013916256054158138 0 0.0041264290326290696 -0.013645166523672751 0 0.0044951661700080867 -0.014085887113599614 0 0.0036090296059604855 -0.015299784486040701 0 0.0035774551191794638 -0.015339904743927466 0 0.0036266166799199984 -0.01531802422181488 0 0.0032824914555001608 -0.013349618136956421 0 0.004189967201184577 -0.014795692473404004 0 0.0036090296059604855 -0.015299784486040701 0 0.0035681064572864914 -0.015300245686445644 0 0.0035774551191794638 -0.015339904743927466 0 0.0040084171610125768 -0.014973991451604744 0 0.004189967201184577 -0.014795692473404004 0 0.0036090296059604855 -0.015299784486040701 0 0.003633923152098862 -0.015325854281342605 0 0.00369205682904593 -0.015295079544155031 0 0.00041406242694690121 -0.016750945849715617 0 0.00057249173098064673 -0.016896906748081884 0 0.00050482501965218773 -0.016624040646593747 0 0.0018456444372032157 -0.01540876386810814 0 8.505692086793172e-05 -0.016581452658786026 0 0.00041406242694690121 -0.016750945849715617 0 0.00057249173098064673 -0.016896906748081884 0 0.00030521129022868451 -0.016831293465109524 0 0.0021957250639694594 -0.012038938981107163 0 0.0023109775841293383 -0.012106903017875969 0 0.0022271343591699399 -0.012111890628252939 0 0.00038653540835080177 -0.016860671023604713 0 0.00033876551330141411 -0.016879449440602334 0 0.00035288445670547002 -0.016874953117347082 0 0.00038653540835080177 -0.016860671023604713 0 0.00033876551330141411 -0.016879449440602334 0 0.00030521129022868451 -0.016831293465109524 0 0.00033876551330141411 -0.016879449440602334 0 0.00030521129022868451 -0.016831293465109524 0 0.00018919512226448431 -0.016980439316079295 0 -4.6201476317178449e-05 -0.016879094586872735 0 0.00030521129022868451 -0.016831293465109524 0 0.00018919512226448431 -0.016980439316079295 0 -4.6201476317178449e-05 -0.016879094586872735 0 0.00030521129022868451 -0.016831293465109524 0 0.00027439736187999316 -0.016650275126407332 0 0.00041406242694690121 -0.016750945849715617 0 0.00030521129022868451 -0.016831293465109524 0 0.00027439736187999316 -0.016650275126407332 0 0.00041406242694690121 -0.016750945849715617 0 0.00027439736187999316 -0.016650275126407332 0 0.00050482501965218773 -0.016624040646593747 0 0.0003775225108573983 -0.016457318401158716 0 0.00027439736187999316 -0.016650275126407332 0 0.00012044127515751303 -0.016503644410469746 0 0.0003775225108573983 -0.016457318401158716 0 0.00027439736187999316 -0.016650275126407332 0 0.00050482501965218773 -0.016624040646593747 0 0.0007801674287987321 -0.016437679898287653 0 0.0003775225108573983 -0.016457318401158716 0 0.00050482501965218773 -0.016624040646593747 0 0.0007801674287987321 -0.016437679898287653 0 0.00057249173098064673 -0.016896906748081884 0 0.00050482501965218773 -0.016624040646593747 0 0.0019851231570218743 -0.015956111731907148 0 0.0018456444372032157 -0.01540876386810814 0 0.0032187634397139423 -0.015185891628668378 0 0.0031747349748744522 -0.015296816745383229 0 0.0032906907131463776 -0.015232989493326578 0 0.0033529678478859404 -0.015145426301816114 0 0.0033874298917345408 -0.015228146077737195 0 0.0032906907131463776 -0.015232989493326578 0 0.0033874298917345408 -0.015228146077737195 0 0.0032906907131463776 -0.015232989493326578 0 0.003315049700811592 -0.015308821265402317 0 0.0031747349748744522 -0.015296816745383229 0 0.0032906907131463776 -0.015232989493326578 0 0.003315049700811592 -0.015308821265402317 0 0.0021957250639694594 -0.012038938981107163 0 0.0024616966311986717 -0.012038294956792083 0 0.0023109775841293383 -0.012106903017875969 0 0.0018456444372032157 -0.01540876386810814 0 0.0030473047065331391 -0.013428424215230961 0 0.0023109775841293383 -0.012106903017875969 0 0.0022345285720993106 -0.012148329225696027 0 0.0022271343591699399 -0.012111890628252939 0 0.0023109775841293383 -0.012106903017875969 0 0.0023902787702804679 -0.012223226074642981 0 0.0022349294075937817 -0.012218071112252968 0 0.0024616966311986717 -0.012038294956792083 0 0.0023109775841293383 -0.012106903017875969 0 0.0023902787702804679 -0.012223226074642981 0 0.0023109775841293383 -0.012106903017875969 0 0.0022349294075937817 -0.012218071112252968 0 0.0022345285720993106 -0.012148329225696027 0 0.0026034334283161803 -0.012237766545772258 0 0.0024616966311986717 -0.012038294956792083 0 0.0023902787702804679 -0.012223226074642981 0 0.0026034334283161803 -0.012237766545772258 0 0.0023902787702804679 -0.012223226074642981 0 0.0024408121616934777 -0.01235814512673084 0 0.0023902787702804679 -0.012223226074642981 0 0.0022873004276865385 -0.012361430029816007 0 0.0024408121616934777 -0.01235814512673084 0 0.0023902787702804679 -0.012223226074642981 0 0.0022349294075937817 -0.012218071112252968 0 0.0022873004276865385 -0.012361430029816007 0 0.0022349294075937817 -0.012218071112252968 0 0.0020940283278671444 -0.012372821393344129 0 0.0022873004276865385 -0.012361430029816007 0 0.0022349294075937817 -0.012218071112252968 0 0.0021606213612195111 -0.012158508281192505 0 0.0020940283278671444 -0.012372821393344129 0 0.0007968487681125747 -0.014064064633859117 0 0.0011190797614222473 -0.013331820109399701 0 0.0022349294075937817 -0.012218071112252968 0 0.0022345285720993106 -0.012148329225696027 0 0.0021606213612195111 -0.012158508281192505 0 0.0018456444372032157 -0.01540876386810814 0 0.0007968487681125747 -0.014064064633859117 0 0.0021957250639694594 -0.012038938981107163 0 0.0021606213612195111 -0.012158508281192505 0 0.0022271343591699399 -0.012111890628252939 0 0.0022345285720993106 -0.012148329225696027 0 0.0021606213612195111 -0.012158508281192505 0 0.0022271343591699399 -0.012111890628252939 0 -0.0011958821679562059 -0.016522519093552051 0 -0.00041961139789025651 -0.015723993183576354 0 3.3061951897422601e-05 -0.017200729323988972 0 0.00018919512226448431 -0.016980439316079295 0 0.00029936358045684364 -0.017133364481969799 0 0.00033876551330141411 -0.016879449440602334 0 0.00035288445670547002 -0.016874953117347082 0 0.00034760307445007841 -0.01687068151137687 0 0.00019662427646425753 -0.017204030695619783 0 -0.00041961139789025651 -0.015723993183576354 0 0.00033876551330141411 -0.016879449440602334 0 0.00018919512226448431 -0.016980439316079295 0 0.00029936358045684364 -0.017133364481969799 0 0.0007968487681125747 -0.014064064633859117 0 -0.00041961139789025651 -0.015723993183576354 0 7.3264463334014244e-05 -0.014451741733831677 0 7.0541552818789295e-05 -0.014543504874981912 0 3.9463628460889718e-05 -0.014551604024244956 0 -0.00041961139789025651 -0.015723993183576354 0 -0.0011005756369724703 -0.015230007471191503 0 -0.0023495194740814408 -0.015840485781266848 0 -0.0020340958335046031 -0.015765590751824557 0 -0.0021609351278612126 -0.016287797925828788 0 0.00011129071189264946 -0.014441985540234493 0 7.3264463334014244e-05 -0.014451741733831677 0 7.0541552818789295e-05 -0.014543504874981912 0 7.0541552818789295e-05 -0.014543504874981912 0 3.9463628460889718e-05 -0.014551604024244956 0 9.9404088414718888e-06 -0.014684949446253488 0 0.0020940283278671444 -0.012372821393344129 0 0.002182733042003527 -0.012500764380324134 0 0.0022873004276865385 -0.012361430029816007 0 0.0020940283278671444 -0.012372821393344129 0 0.002182733042003527 -0.012500764380324134 0 0.0020083497175547318 -0.012572192784694885 0 0.0011190797614222473 -0.013331820109399701 0 0.0011700917182742103 -0.013442819879788731 0 -0.0011005756369724703 -0.015230007471191503 0 -0.0013117475840254693 -0.016028532927506937 0 3.9463628460889718e-05 -0.014551604024244956 0 9.9404088414718888e-06 -0.014684949446253488 0 -1.0407038005311104e-05 -0.014689957006205069 0 0.002182733042003527 -0.012500764380324134 0 0.0020083497175547318 -0.012572192784694885 0 0.0021522256449833291 -0.012599569238619858 0 -7.8414815852023402e-05 -0.014859657622076125 0 9.9404088414718888e-06 -0.014684949446253488 0 -1.0407038005311104e-05 -0.014689957006205069 0 0.0020083497175547318 -0.012572192784694885 0 0.0021029892026808434 -0.012644938629288541 0 0.0020248520366272027 -0.012870493324405777 0 0.0020083497175547318 -0.012572192784694885 0 0.0021029892026808434 -0.012644938629288541 0 0.0021522256449833291 -0.012599569238619858 0 0.002182733042003527 -0.012500764380324134 0 0.0021522256449833291 -0.012599569238619858 0 0.0022276161285798208 -0.012601609288903342 0 0.0021029892026808434 -0.012644938629288541 0 0.0021892711828874513 -0.012640207453814585 0 0.0022333105284147001 -0.012655879071100006 0 0.0021522256449833291 -0.012599569238619858 0 0.0022276161285798208 -0.012601609288903342 0 0.0021892711828874513 -0.012640207453814585 0 0.0022276161285798208 -0.012601609288903342 0 0.0022346968157101409 -0.012640857996504348 0 0.0021892711828874513 -0.012640207453814585 0 0.0021029892026808434 -0.012644938629288541 0 0.0021522256449833291 -0.012599569238619858 0 0.0021892711828874513 -0.012640207453814585 0 0.0021892711828874513 -0.012640207453814585 0 0.0022286570907635223 -0.012642608964271645 0 0.0022333105284147001 -0.012655879071100006 0 0.0023297587322283482 -0.012982817658203121 0 0.001710119303789948 -0.011810713042956347 0 0.0022346968157101409 -0.012640857996504348 0 0.0021892711828874513 -0.012640207453814585 0 0.0022286570907635223 -0.012642608964271645 0 0.0022346968157101409 -0.012640857996504348 0 0.0022544575217066606 -0.012641439475447753 0 0.0022442624530387514 -0.012635468379669314 0 0.0022346968157101409 -0.012640857996504348 0 0.0022286570907635223 -0.012642608964271645 0 0.0022544575217066606 -0.012641439475447753 0 0.0022286570907635223 -0.012642608964271645 0 0.0022544575217066606 -0.012641439475447753 0 0.0022333105284147001 -0.012655879071100006 0 0.0022544575217066606 -0.012641439475447753 0 0.0022733519671788664 -0.012630875223467968 0 0.0022324361864470743 -0.012599343718432139 0 0.001802964116911776 -0.011881705071844099 0 0.001710119303789948 -0.011810713042956347 0 0.0021029892026808434 -0.012644938629288541 0 0.0022617165384304374 -0.012904613394063387 0 0.0020248520366272027 -0.012870493324405777 0 0.0017802081539249493 -0.013112633015830842 0 0.0022617165384304374 -0.012904613394063387 0 0.0020248520366272027 -0.012870493324405777 0 0.0018147901541070775 -0.013006550428707336 0 0.0020083497175547318 -0.012572192784694885 0 0.0020248520366272027 -0.012870493324405777 0 0.00017477329825465321 -0.012314752870281175 0 0.001710119303789948 -0.011810713042956347 0 0.0024169261838403347 -0.01284659502907895 0 0.0024530592860138234 -0.012584634966077321 0 0.0026214847141980023 -0.012653466870589016 0 0.0024443473185497516 -0.012966724126056463 0 0.0021909493155448851 -0.012567420218290512 0 0.0024169261838403347 -0.01284659502907895 0 0.0022695939472560322 -0.012664274010086664 0 0.0024530592860138234 -0.012584634966077321 0 0.0021053210894879841 -0.012565687142062418 0 0.0022324361864470743 -0.012599343718432139 0 0.0022695939472560322 -0.012664274010086664 0 0.0022544575217066606 -0.012641439475447753 0 0.0022324361864470743 -0.012599343718432139 0 0.0022442624530387514 -0.012635468379669314 0 0.0022346968157101409 -0.012640857996504348 0 0.0022442624530387514 -0.012635468379669314 0 0.0022695939472560322 -0.012664274010086664 0 0.0022324361864470743 -0.012599343718432139 0 0.0022442624530387514 -0.012635468379669314 0 0.0022695939472560322 -0.012664274010086664 0 0.0022276161285798208 -0.012601609288903342 0 0.0022695939472560322 -0.012664274010086664 0 0.0023528491042895073 -0.012499562115003152 0 0.0022276161285798208 -0.012601609288903342 0 0.0022346968157101409 -0.012640857996504348 0 0.0022695939472560322 -0.012664274010086664 0 0.0022695939472560322 -0.012664274010086664 0 0.0024530592860138234 -0.012584634966077321 0 0.0023528491042895073 -0.012499562115003152 0 0.0024530592860138234 -0.012584634966077321 0 0.0023528491042895073 -0.012499562115003152 0 0.0025774373385623246 -0.012446090778315015 0 0.002182733042003527 -0.012500764380324134 0 0.0023528491042895073 -0.012499562115003152 0 0.0022873004276865385 -0.012361430029816007 0 0.002182733042003527 -0.012500764380324134 0 0.0022276161285798208 -0.012601609288903342 0 0.0023528491042895073 -0.012499562115003152 0 0.0023528491042895073 -0.012499562115003152 0 0.0022873004276865385 -0.012361430029816007 0 0.0024408121616934777 -0.01235814512673084 0 0.0023528491042895073 -0.012499562115003152 0 0.0024408121616934777 -0.01235814512673084 0 0.0025774373385623246 -0.012446090778315015 0 0.0026034334283161803 -0.012237766545772258 0 0.0028129120769328909 -0.012251697056044637 0 0.0026861898971003986 -0.012463740169738627 0 0.0026034334283161803 -0.012237766545772258 0 0.0024408121616934777 -0.01235814512673084 0 0.0025774373385623246 -0.012446090778315015 0 0.0026039073703324174 -0.012244545664450447 0 0.0026321552956984143 -0.012448293920699675 0 0.0028129120769328909 -0.012251697056044637 0 0.0029016071927431674 -0.012390748609901851 0 0.0026861898971003986 -0.012463740169738627 0 0.0028129120769328909 -0.012251697056044637 0 0.0029855188449935512 -0.01228885619322357 0 0.0029016071927431674 -0.012390748609901851 0 0.0026861898971003986 -0.012463740169738627 0 0.0029250005456353907 -0.012566901969524619 0 0.0027210299661190119 -0.012679279152075605 0 0.0029016071927431674 -0.012390748609901851 0 0.0026861898971003986 -0.012463740169738627 0 0.0029250005456353907 -0.012566901969524619 0 0.0026321552956984143 -0.012448293920699675 0 0.0026712092662803883 -0.012674833925811011 0 0.0031234539160756342 -0.012258700605032289 0 0.0031002630089741056 -0.012417613113018661 0 0.0032586206645146064 -0.012335354830308714 0 0.0031002630089741056 -0.012417613113018661 0 0.0032830092702481172 -0.01246742706275537 0 0.0032586206645146064 -0.012335354830308714 0 0.0029855188449935512 -0.01228885619322357 0 0.0031234539160756342 -0.012258700605032289 0 0.0031002630089741056 -0.012417613113018661 0 0.0029855188449935512 -0.01228885619322357 0 0.0029016071927431674 -0.012390748609901851 0 0.0031002630089741056 -0.012417613113018661 0 0.0031002630089741056 -0.012417613113018661 0 0.0029250005456353907 -0.012566901969524619 0 0.0031852416620156204 -0.012600940176774357 0 0.0029016071927431674 -0.012390748609901851 0 0.0031002630089741056 -0.012417613113018661 0 0.0029250005456353907 -0.012566901969524619 0 0.0031002630089741056 -0.012417613113018661 0 0.0031852416620156204 -0.012600940176774357 0 0.0032830092702481172 -0.01246742706275537 0 0.0031852416620156204 -0.012600940176774357 0 0.0031662670222264502 -0.012730506956977465 0 0.0033306040203107024 -0.012736321970725877 0 0.0031852416620156204 -0.012600940176774357 0 0.0030365923268052446 -0.012700959224249098 0 0.0031662670222264502 -0.012730506956977465 0 0.0029250005456353907 -0.012566901969524619 0 0.0031852416620156204 -0.012600940176774357 0 0.0030365923268052446 -0.012700959224249098 0 0.0029250005456353907 -0.012566901969524619 0 0.0030365923268052446 -0.012700959224249098 0 0.0028680973370924789 -0.012720471624583283 0 0.0030365923268052446 -0.012700959224249098 0 0.0029719713992081109 -0.012805991283503937 0 0.0028680973370924789 -0.012720471624583283 0 0.0029719713992081109 -0.012805991283503937 0 0.0030957622654000051 -0.012811115563865804 0 0.0030472479830973126 -0.012882782846852216 0 0.0030365923268052446 -0.012700959224249098 0 0.0029719713992081109 -0.012805991283503937 0 0.0030957622654000051 -0.012811115563865804 0 0.0030365923268052446 -0.012700959224249098 0 0.0030957622654000051 -0.012811115563865804 0 0.0031662670222264502 -0.012730506956977465 0 0.0030957622654000051 -0.012811115563865804 0 0.0032051466684520197 -0.01282659266665835 0 0.0031467294657949764 -0.012877265669110011 0 0.0030957622654000051 -0.012811115563865804 0 0.0032051466684520197 -0.01282659266665835 0 0.0031662670222264502 -0.012730506956977465 0 0.0024530592860138234 -0.012584634966077321 0 0.0025774373385623246 -0.012446090778315015 0 0.0026214847141980023 -0.012653466870589016 0 0.0029250005456353907 -0.012566901969524619 0 0.0027210299661190119 -0.012679279152075605 0 0.0028680973370924789 -0.012720471624583283 0 0.0028680973370924789 -0.012720471624583283 0 0.0027060077877087071 -0.012927431589206995 0 0.0028678417451439976 -0.012860047372507189 0 0.0027210299661190119 -0.012679279152075605 0 0.0028680973370924789 -0.012720471624583283 0 0.0027060077877087071 -0.012927431589206995 0 0.0029719713992081109 -0.012805991283503937 0 0.0028680973370924789 -0.012720471624583283 0 0.0028678417451439976 -0.012860047372507189 0 0.0024169261838403347 -0.01284659502907895 0 0.0026214847141980023 -0.012653466870589016 0 0.0027060077877087071 -0.012927431589206995 0 0.0026712092662803883 -0.012674833925811011 0 0.0027049466377146027 -0.012916973748225698 0 0.0024169261838403347 -0.01284659502907895 0 0.0027060077877087071 -0.012927431589206995 0 0.0025592619175106167 -0.013034621715911908 0 0.0027060077877087071 -0.012927431589206995 0 0.0028920446012157728 -0.013017513448317702 0 0.0025592619175106167 -0.013034621715911908 0 0.0027526932759358346 -0.013070954485571419 0 0.0014493648408611429 -0.011346559585655891 0 0.0028678417451439976 -0.012860047372507189 0 0.0028557466174820877 -0.012931195648013085 0 0.0029517184347720238 -0.012921046425627147 0 0.0027060077877087071 -0.012927431589206995 0 0.0028678417451439976 -0.012860047372507189 0 0.0028557466174820877 -0.012931195648013085 0 0.0028557466174820877 -0.012931195648013085 0 0.0028920446012157728 -0.013017513448317702 0 0.0029517184347720238 -0.012921046425627147 0 0.0027060077877087071 -0.012927431589206995 0 0.0028557466174820877 -0.012931195648013085 0 0.0028920446012157728 -0.013017513448317702 0 0.0017723974221975816 -0.0085794894380491014 0 0.0021314088436779149 -0.0089484092936509673 0 0.0012759503471656381 -0.0091038696509319738 0 0.0023975616305537306 -0.012744291582692309 0 0.0024136647598598121 -0.012848938370516559 0 0.0014647721529713112 -0.012794479257443859 0 0.0017723974221975816 -0.0085794894380491014 0 0.00091655922407686812 -0.0086036341246370687 0 0.0012759503471656381 -0.0091038696509319738 0 0.0021938224096981701 -0.010900891914013175 0 0.00071596397564780898 -0.0090260710572381501 0 0.0023975616305537306 -0.012744291582692309 0 0.001385836895529005 -0.012677303524356602 0 0.0014647721529713112 -0.012794479257443859 0 -0.00027551435762879683 -0.0067429085427873096 0 -0.00031626728298021615 -0.0068159943213425217 0 -0.00040386308628781947 -0.0066925385893595113 0 0.00071596397564780898 -0.0090260710572381501 0 0.00057207445966699164 -0.0069240968534172226 0 -0.00033264568902169176 -0.0068690039797617616 0 -0.00034943401077632425 -0.0068461952185447043 0 -0.00022201549569500755 -0.0068194960933260643 0 0.0014493648408611429 -0.011346559585655891 0 0.00071596397564780898 -0.0090260710572381501 0 0.0023975616305537306 -0.012744291582692309 0 0.0031690988572537276 -0.012954154466320009 0 0.0031452900040538087 -0.013015073297403002 0 0.0031690988572537276 -0.012954154466320009 0 0.0031452900040538087 -0.013015073297403002 0 0.0032558442797789382 -0.012948312971209564 0 0.0031690988572537276 -0.012954154466320009 0 0.0032164694590215686 -0.012899239494999234 0 0.0031467294657949764 -0.012877265669110011 0 0.0031690988572537276 -0.012954154466320009 0 0.0032164694590215686 -0.012899239494999234 0 0.0032558442797789382 -0.012948312971209564 0 0.0032051466684520197 -0.01282659266665835 0 0.0032164694590215686 -0.012899239494999234 0 0.0031467294657949764 -0.012877265669110011 0 0.0031690988572537276 -0.012954154466320009 0 0.0031467294657949764 -0.012877265669110011 0 0.0030472479830973126 -0.012882782846852216 0 0.0030957622654000051 -0.012811115563865804 0 0.0031467294657949764 -0.012877265669110011 0 0.0030472479830973126 -0.012882782846852216 0 0.0031690988572537276 -0.012954154466320009 0 0.0030472479830973126 -0.012882782846852216 0 0.0029517184347720238 -0.012921046425627147 0 0.0028920446012157728 -0.013017513448317702 0 0.0031690988572537276 -0.012954154466320009 0 0.0029517184347720238 -0.012921046425627147 0 0.0027526932759358346 -0.013070954485571419 0 0.0030785191593565766 -0.012894956677121832 0 0.0029719713992081109 -0.012805991283503937 0 0.0030472479830973126 -0.012882782846852216 0 0.0029517184347720238 -0.012921046425627147 0 0.0029719713992081109 -0.012805991283503937 0 0.0028678417451439976 -0.012860047372507189 0 0.0029517184347720238 -0.012921046425627147 0 0.0021938224096981701 -0.010900891914013175 0 0.0028855170657825723 -0.010729260621063873 0 0.0017723974221975816 -0.0085794894380491014 0 0.0021314088436779149 -0.0089484092936509673 0 0.0026380469714543477 -0.0085550675239399916 0 0.0023975616305537306 -0.012744291582692309 0 0.0024136647598598121 -0.012848938370516559 0 0.0031452900040538087 -0.013015073297403002 0 0.0021314088436779149 -0.0089484092936509673 0 0.0026380469714543477 -0.0085550675239399916 0 0.0029960696000639968 -0.0087892768564282013 0 0.0019290805676395963 -0.0073283789977748783 0 0.0029244209079420849 -0.0069581676782508517 0 0.002031429385822652 -0.0064570194553513422 0 0.0029856842076633619 -0.0068388203430351478 0 0.0028896956337614906 -0.005156056445431139 0 0.0016326967082343502 -0.005591187349806714 0 0.002031429385822652 -0.0064570194553513422 0 0.0028896956337614906 -0.005156056445431139 0 0.0016326967082343502 -0.005591187349806714 0 0.002031429385822652 -0.0064570194553513422 0 0.00082968612233634456 -0.0066655855565156564 0 0.002031429385822652 -0.0064570194553513422 0 0.0014706912078929289 -0.0072553485201810831 0 0.0020787889464641456 -0.0072973495945896569 0 0.002031429385822652 -0.0064570194553513422 0 0.0014706912078929289 -0.0072553485201810831 0 0.00082968612233634456 -0.0066655855565156564 0 0.002031429385822652 -0.0064570194553513422 0 0.0029856842076633619 -0.0068388203430351478 0 0.0020787889464641456 -0.0072973495945896569 0 -0.00040386308628781947 -0.0066925385893595113 0 -0.00020910127076672502 -0.0066434512633231288 0 -0.00026178053268897998 -0.006699319335782666 0 0.00057207445966699164 -0.0069240968534172226 0 -0.00037147248917655812 -0.0065867853331038626 0 0.00020707687212644839 -0.0068226119570686024 0 0.00048523434169640925 -0.0063855126157893165 0 -0.00020910127076672502 -0.0066434512633231288 0 -0.00027551435762879683 -0.0067429085427873096 0 -0.00040386308628781947 -0.0066925385893595113 0 -0.00026178053268897998 -0.006699319335782666 0 0.00020707687212644839 -0.0068226119570686024 0 0.00048523434169640925 -0.0063855126157893165 0 0.00082968612233634456 -0.0066655855565156564 0 0.0016326967082343502 -0.005591187349806714 0 0.00031461570439671193 -0.0059465816271612208 0 0.00082968612233634456 -0.0066655855565156564 0 0.0019290805676395963 -0.0073283789977748783 0 0.00057207445966699164 -0.0069240968534172226 0 0.00057207445966699164 -0.0069240968534172226 0 0.00062534795030482111 -0.0064531673666619648 0 0.0014706912078929289 -0.0072553485201810831 0 0.00045738098976060763 -0.0071237876641638128 0 0.00031097515654471795 -0.0076703524105142884 0 0.0014706912078929289 -0.0072553485201810831 0 0.00082968612233634456 -0.0066655855565156564 0 0.00045738098976060763 -0.0071237876641638128 0 0.00020707687212644839 -0.0068226119570686024 0 0.00082968612233634456 -0.0066655855565156564 0 0.00045738098976060763 -0.0071237876641638128 0 0.00045738098976060763 -0.0071237876641638128 0 -6.0680419471452461e-05 -0.0073834109900213444 0 0.00031097515654471795 -0.0076703524105142884 0 0.00020707687212644839 -0.0068226119570686024 0 -6.0680419471452461e-05 -0.0073834109900213444 0 -0.00020910127076672502 -0.0066434512633231288 0 0.00020707687212644839 -0.0068226119570686024 0 0.00045738098976060763 -0.0071237876641638128 0 -6.0680419471452461e-05 -0.0073834109900213444 0 -6.0680419471452461e-05 -0.0073834109900213444 0 -0.00028109699327091159 -0.0075345291319073573 0 -0.00017588237474451334 -0.0076251925823024565 0 -6.0680419471452461e-05 -0.0073834109900213444 0 -0.00030977321441203473 -0.0075189402229847088 0 -0.0004224661463521134 -0.0076416689552272609 0 -6.0680419471452461e-05 -0.0073834109900213444 0 -0.00028109699327091159 -0.0075345291319073573 0 -0.00030977321441203473 -0.0075189402229847088 0 -6.2851996760721533e-06 -0.0075199206358571103 0 -0.00049090590505439095 -0.0068893182543419678 0 -0.00028109699327091159 -0.0075345291319073573 0 -0.00030977321441203473 -0.0075189402229847088 0 -0.00039204171815651628 -0.0075293951272188322 0 -0.00030977321441203473 -0.0075189402229847088 0 -0.00032282982849737282 -0.0075470518869593028 0 -0.00039204171815651628 -0.0075293951272188322 0 -0.00030977321441203473 -0.0075189402229847088 0 -0.00032480780237327853 -0.0075821572580943332 0 -0.00032282982849737282 -0.0075470518869593028 0 -6.0680419471452461e-05 -0.0073834109900213444 0 -0.00028957628313629663 -0.0066417122977048626 0 -0.00020910127076672502 -0.0066434512633231288 0 -0.00030977321441203473 -0.0075189402229847088 0 -0.0004224661463521134 -0.0076416689552272609 0 -0.00032480780237327853 -0.0075821572580943332 0 -0.00028957628313629663 -0.0066417122977048626 0 -0.00020910127076672502 -0.0066434512633231288 0 -0.00023810869086973366 -0.0067175501184566803 0 -0.00020910127076672502 -0.0066434512633231288 0 -0.00026178053268897998 -0.006699319335782666 0 -0.00023810869086973366 -0.0067175501184566803 0 -0.00019507979261755486 -0.007871325622409003 0 -0.00013959002811731665 -0.0077021101185404256 0 -0.00027036989688535598 -0.0076653977282456617 0 -0.00019507979261755486 -0.007871325622409003 0 -0.00013959002811731665 -0.0077021101185404256 0 3.9299579690322326e-05 -0.0079415804085066245 0 -0.0004224661463521134 -0.0076416689552272609 0 -0.00019507979261755486 -0.007871325622409003 0 -0.00027036989688535598 -0.0076653977282456617 0 -0.0004224661463521134 -0.0076416689552272609 0 -0.00027036989688535598 -0.0076653977282456617 0 -0.00032480780237327853 -0.0075821572580943332 0 -0.00013959002811731665 -0.0077021101185404256 0 -0.00027036989688535598 -0.0076653977282456617 0 -0.0002450489358643959 -0.0075836961252708059 0 -0.00027036989688535598 -0.0076653977282456617 0 -0.00032480780237327853 -0.0075821572580943332 0 -0.0002450489358643959 -0.0075836961252708059 0 -0.00013959002811731665 -0.0077021101185404256 0 -0.0002450489358643959 -0.0075836961252708059 0 1.6291888281659766e-05 -0.0075706407731508246 0 -0.00039204171815651628 -0.0075293951272188322 0 -0.0005576591053817018 -0.0075172845327320546 0 -0.00056698882837263008 -0.0075072764193509457 0 -0.00039204171815651628 -0.0075293951272188322 0 -0.0005576591053817018 -0.0075172845327320546 0 -0.00043127314623081839 -0.0076973030761646553 0 -0.00085679163936440189 -0.0074686612197837612 0 -0.00045737586930000426 -0.0076783602478475736 0 -0.0002450489358643959 -0.0075836961252708059 0 -0.00039204171815651628 -0.0075293951272188322 0 1.6291888281659766e-05 -0.0075706407731508246 0 -0.00036370377132276022 -0.0075282948529758536 0 -0.00026912477188469243 -0.0075745704330168768 0 -0.0002450489358643959 -0.0075836961252708059 0 -0.00032282982849737282 -0.0075470518869593028 0 -0.00039204171815651628 -0.0075293951272188322 0 -0.00032480780237327853 -0.0075821572580943332 0 -0.0002450489358643959 -0.0075836961252708059 0 -0.00032282982849737282 -0.0075470518869593028 0 -0.0012533457419032399 -0.0075948897608700576 0 -0.0011806592296356153 -0.0073200688174176057 0 -0.00095639029237299723 -0.0077307171084798672 0 -0.00085679163936440189 -0.0074686612197837612 0 -0.0011082227957890766 -0.0069185537396871102 0 -0.0011806592296356153 -0.0073200688174176057 0 -0.0016786636252777969 -0.0073373979690279255 0 -0.0018779455156052 -0.0069099191983572955 0 -0.0012533457419032399 -0.0075948897608700576 0 -0.0014389318437882325 -0.0075311442969979133 0 -0.0011806592296356153 -0.0073200688174176057 0 -0.0014389318437882325 -0.0075311442969979133 0 -0.0011806592296356153 -0.0073200688174176057 0 -0.0016786636252777969 -0.0073373979690279255 0 -0.0019306320404351852 -0.0074453790080515484 0 -0.0017129726668709462 -0.0076293357237177646 0 -0.002055963466790634 -0.0077175000854674625 0 -0.0022531373698155264 -0.0073621852982245113 0 -0.0019306320404351852 -0.0074453790080515484 0 -0.002055963466790634 -0.0077175000854674625 0 -0.0019306320404351852 -0.0074453790080515484 0 -0.0017129726668709462 -0.0076293357237177646 0 -0.0016786636252777969 -0.0073373979690279255 0 -0.0014389318437882325 -0.0075311442969979133 0 -0.0017129726668709462 -0.0076293357237177646 0 -0.0016786636252777969 -0.0073373979690279255 0 -0.0016786636252777969 -0.0073373979690279255 0 -0.0020034675942890608 -0.0072154272859431268 0 -0.0018779455156052 -0.0069099191983572955 0 -0.0019306320404351852 -0.0074453790080515484 0 -0.0016786636252777969 -0.0073373979690279255 0 -0.0020034675942890608 -0.0072154272859431268 0 -0.0022531373698155264 -0.0073621852982245113 0 -0.0019306320404351852 -0.0074453790080515484 0 -0.0020034675942890608 -0.0072154272859431268 0 -0.00055659055104711141 -0.0075550499569099604 0 -0.00056698882837263008 -0.0075072764193509457 0 -0.00057078919288427771 -0.0076210843564636496 0 -0.0022728435885646563 -0.0070295295709003067 0 -0.0020034675942890608 -0.0072154272859431268 0 -0.0018779455156052 -0.0069099191983572955 0 -0.00049344927491991829 -0.0076778147690083325 0 -0.00055659055104711141 -0.0075550499569099604 0 -0.00057078919288427771 -0.0076210843564636496 0 -0.00026912477188469243 -0.0075745704330168768 0 8.0213680131560798e-05 -0.0076729331726329304 0 -0.0005576591053817018 -0.0075172845327320546 0 -0.00055659055104711141 -0.0075550499569099604 0 -0.00056698882837263008 -0.0075072764193509457 0 1.6291888281659766e-05 -0.0075706407731508246 0 3.9299579690322326e-05 -0.0079415804085066245 0 0.00057274013068244758 -0.0079754269244633157 0 -0.00013959002811731665 -0.0077021101185404256 0 1.6291888281659766e-05 -0.0075706407731508246 0 3.9299579690322326e-05 -0.0079415804085066245 0 0.00028273198112506405 -0.0083301764495907343 0 3.9299579690322326e-05 -0.0079415804085066245 0 -0.00020819181609177279 -0.0082706009068622341 0 0.00028273198112506405 -0.0083301764495907343 0 3.9299579690322326e-05 -0.0079415804085066245 0 0.00057274013068244758 -0.0079754269244633157 0 0.00010063455795270965 -0.0084154578279201139 0 0.00057968713211373072 -0.0088588331955751273 0 0.0012492686532308956 -0.0086077056507909196 0 0.00057274013068244758 -0.0079754269244633157 0 0.0009293257224536691 -0.0084365959411298753 0 -0.00046241154674197421 -0.007794144506546136 0 -0.00049344927491991829 -0.0076778147690083325 0 -0.00057078919288427771 -0.0076210843564636496 0 0.00028273198112506405 -0.0083301764495907343 0 0.00057274013068244758 -0.0079754269244633157 0 0.0009293257224536691 -0.0084365959411298753 0 -0.00070915338067571395 -0.0097140873312333981 0 8.0213680131560798e-05 -0.0076729331726329304 0 0.00010063455795270965 -0.0084154578279201139 0 0.00092414145044856274 -0.0084222774816266419 0 0.0012037557627693229 -0.0090178795343509328 0 0.00020467162559186373 -0.0085007208953479154 0 0.0009293257224536691 -0.0084365959411298753 0 0.0012037557627693229 -0.0090178795343509328 0 0.00010384565393553137 -0.009525854789325194 0 0.00020467162559186373 -0.0085007208953479154 0 0.00010384565393553137 -0.009525854789325194 0 0.00020467162559186373 -0.0085007208953479154 0 -0.00051030329498632924 -0.0085386805767212418 0 0.001710119303789948 -0.011810713042956347 0 0.00057968713211373072 -0.0088588331955751273 0 0.0022733519671788664 -0.012630875223467968 0 0.0022324361864470743 -0.012599343718432139 0 0.0022224176853336995 -0.01242264531180335 0 0.0021053210894879841 -0.012565687142062418 0 0.0022324361864470743 -0.012599343718432139 0 0.0022224176853336995 -0.01242264531180335 0 0.0024443473185497516 -0.012966724126056463 0 0.0014493648408611429 -0.011346559585655891 0 0.0021053210894879841 -0.012565687142062418 0 0.0019955403532198549 -0.012415184849312413 0 0.0022224176853336995 -0.01242264531180335 0 -0.00033264568902169176 -0.0068690039797617616 0 -0.00022201549569500755 -0.0068194960933260643 0 -5.9411946556030366e-05 -0.0068397772859594766 0 -0.00028957628313629663 -0.0066417122977048626 0 -0.00023810869086973366 -0.0067175501184566803 0 -5.9411946556030366e-05 -0.0068397772859594766 0 -0.00022201549569500755 -0.0068194960933260643 0 -0.00023810869086973366 -0.0067175501184566803 0 -5.9411946556030366e-05 -0.0068397772859594766 0 0.0014493648408611429 -0.011346559585655891 0 0.00057968713211373072 -0.0088588331955751273 0 0.00071596397564780898 -0.0090260710572381501 0 -0.00048480269530792815 -0.0071409309225863183 0 -0.00027551435762879683 -0.0067429085427873096 0 -0.00031626728298021615 -0.0068159943213425217 0 -0.00022201549569500755 -0.0068194960933260643 0 -0.00027551435762879683 -0.0067429085427873096 0 -0.00022201549569500755 -0.0068194960933260643 0 -0.00023810869086973366 -0.0067175501184566803 0 -0.00027551435762879683 -0.0067429085427873096 0 -0.00026178053268897998 -0.006699319335782666 0 -0.00023810869086973366 -0.0067175501184566803 0 -0.00049090590505439095 -0.0068893182543419678 0 0.00057968713211373072 -0.0088588331955751273 0 -0.0004224661463521134 -0.0076416689552272609 0 -0.00019507979261755486 -0.007871325622409003 0 -0.00020819181609177279 -0.0082706009068622341 0 -0.00019507979261755486 -0.007871325622409003 0 3.9299579690322326e-05 -0.0079415804085066245 0 -0.00020819181609177279 -0.0082706009068622341 0 0.0060618950566991656 -0.0089623477520112699 0 0.0074251838466356688 -0.0029126191725867699 0 0.00682172548477 -0.0040042180697992336 0 0.0076741656238969525 -0.0047178564906439988 0 0.0067270937389257773 -0.0050122794923096823 0 0.0062131267534795941 -0.004751279961115417 0 0.00682172548477 -0.0040042180697992336 0 0.0057421179111721704 -0.0042745120866470648 0 0.0062131267534795941 -0.004751279961115417 0 0.00682172548477 -0.0040042180697992336 0 0.0067270937389257773 -0.0050122794923096823 0 0.0040505428049212129 -0.012858987549304007 0 0.0038015401444596131 -0.012928693454182639 0 0.0038520490380198513 -0.012701106486313816 0 0.0060618950566991656 -0.0089623477520112699 0 0.0046157222385533291 -0.0085470009045502827 0 0.0067556399134204555 -0.0036400525181118008 0 0.0079205248343519139 -0.0033746525691887874 0 0.0076741656238969525 -0.0047178564906439988 0 0.0060618950566991656 -0.0089623477520112699 0 0.0070291656641797498 -0.0090691766887318597 0 0.0059386656429464817 -0.014732445167714695 0 0.0059663449901672565 -0.014746474990241646 0 0.005936886351426935 -0.014767708012472729 0 0.0091039949368058922 -0.0031673884426477801 0 0.0087031568566998084 -0.0041045128821366418 0 0.0095373870848109044 -0.0038531651869617586 0 0.0079205248343519139 -0.0033746525691887874 0 0.0091039949368058922 -0.0031673884426477801 0 0.0087031568566998084 -0.0041045128821366418 0 0.0070291656641797498 -0.0090691766887318597 0 0.007379630512734256 -0.0089570958857577397 0 0.0087031568566998084 -0.0041045128821366418 0 0.0088618469507632681 -0.0049991356822473056 0 0.0095874248156406078 -0.0046455301926054161 0 0.0087031568566998084 -0.0041045128821366418 0 0.0076741656238969525 -0.0047178564906439988 0 0.0088618469507632681 -0.0049991356822473056 0 0.0079205248343519139 -0.0033746525691887874 0 0.0087031568566998084 -0.0041045128821366418 0 0.0076741656238969525 -0.0047178564906439988 0 0.0076741656238969525 -0.0047178564906439988 0 0.0081673319492316446 -0.0053917593371941011 0 0.0088618469507632681 -0.0049991356822473056 0 0.0076741656238969525 -0.0047178564906439988 0 0.0081673319492316446 -0.0053917593371941011 0 0.0072990445144393247 -0.0055543613887238039 0 0.0081673319492316446 -0.0053917593371941011 0 0.0088618469507632681 -0.0049991356822473056 0 0.0088275558278158098 -0.0056680853973752913 0 0.0088618469507632681 -0.0049991356822473056 0 0.0088275558278158098 -0.0056680853973752913 0 0.009613039802962688 -0.0053818634388485935 0 0.0088275558278158098 -0.0056680853973752913 0 0.009613039802962688 -0.0053818634388485935 0 0.0094590259525279725 -0.005930756068533943 0 0.0088275558278158098 -0.0056680853973752913 0 0.0080771023927987511 -0.0060695175288169615 0 0.0089161214062691597 -0.0061977824516855923 0 0.0094590259525279725 -0.005930756068533943 0 0.009394111876432628 -0.0064353856795937858 0 0.0089161214062691597 -0.0061977824516855923 0 0.0088275558278158098 -0.0056680853973752913 0 0.0094590259525279725 -0.005930756068533943 0 0.0089161214062691597 -0.0061977824516855923 0 0.0081673319492316446 -0.0053917593371941011 0 0.0080771023927987511 -0.0060695175288169615 0 0.0072990445144393247 -0.0055543613887238039 0 0.0081673319492316446 -0.0053917593371941011 0 0.0088275558278158098 -0.0056680853973752913 0 0.0080771023927987511 -0.0060695175288169615 0 0.0080771023927987511 -0.0060695175288169615 0 0.0072990445144393247 -0.0055543613887238039 0 0.0067869586168291919 -0.0063397141574534034 0 0.0072990445144393247 -0.0055543613887238039 0 0.0065255085606680972 -0.0057396295114326866 0 0.0067869586168291919 -0.0063397141574534034 0 0.0072990445144393247 -0.0055543613887238039 0 0.0067270937389257773 -0.0050122794923096823 0 0.0065255085606680972 -0.0057396295114326866 0 0.0076741656238969525 -0.0047178564906439988 0 0.0072990445144393247 -0.0055543613887238039 0 0.0067270937389257773 -0.0050122794923096823 0 0.0067270937389257773 -0.0050122794923096823 0 0.0065255085606680972 -0.0057396295114326866 0 0.006024707182649411 -0.0054035068532012889 0 0.0062131267534795941 -0.004751279961115417 0 0.0067270937389257773 -0.0050122794923096823 0 0.006024707182649411 -0.0054035068532012889 0 0.0065255085606680972 -0.0057396295114326866 0 0.006024707182649411 -0.0054035068532012889 0 0.0058520469457988824 -0.0063251292527448351 0 0.0052983123171469939 -0.0057060875863975923 0 0.006024707182649411 -0.0054035068532012889 0 0.0058520469457988824 -0.0063251292527448351 0 0.0051013198898045616 -0.0061492547494452366 0 0.0056805249594130743 -0.0050343780916466147 0 0.0049748137160077512 -0.006587160954791416 0 0.0047033738463000676 -0.0055275217480011624 0 0.0057028067363794604 -0.004968090449070219 0 0.0049748137160077512 -0.006587160954791416 0 0.0047033738463000676 -0.0055275217480011624 0 0.0038959114617126448 -0.0059360702623345628 0 0.0052983123171469939 -0.0057060875863975923 0 0.006024707182649411 -0.0054035068532012889 0 0.0057028067363794604 -0.004968090449070219 0 0.0062131267534795941 -0.004751279961115417 0 0.006024707182649411 -0.0054035068532012889 0 0.0057028067363794604 -0.004968090449070219 0 0.0049748137160077512 -0.006587160954791416 0 0.0039432413377788597 -0.0069568236532719565 0 0.0038959114617126448 -0.0059360702623345628 0 0.0049748137160077512 -0.006587160954791416 0 0.0039432413377788597 -0.0069568236532719565 0 0.004248463611796505 -0.0078479876099806136 0 0.0029856842076633619 -0.0068388203430351478 0 0.0039432413377788597 -0.0069568236532719565 0 0.0038959114617126448 -0.0059360702623345628 0 0.0047033738463000676 -0.0055275217480011624 0 0.0038959114617126448 -0.0059360702623345628 0 0.0042844605483476081 -0.0046629277457144944 0 0.0029856842076633619 -0.0068388203430351478 0 0.0038959114617126448 -0.0059360702623345628 0 0.0028896956337614906 -0.005156056445431139 0 0.0028855170657825723 -0.010729260621063873 0 0.0034046802564807782 -0.010999980221037889 0 0.0026380469714543477 -0.0085550675239399916 0 0.0029960696000639968 -0.0087892768564282013 0 0.0035089935183797447 -0.0085300717682690128 0 0.0035089935183797447 -0.0085300717682690128 0 0.0038634402521537628 -0.0086272723647623055 0 0.0043863254232131416 -0.0085282059073859846 0 0.0029960696000639968 -0.0087892768564282013 0 0.0035089935183797447 -0.0085300717682690128 0 0.0038634402521537628 -0.0086272723647623055 0 0.0029244209079420849 -0.0069581676782508517 0 0.00420575992327046 -0.0067034379573941687 0 0.0038959114617126448 -0.0059360702623345628 0 0.0028896956337614906 -0.005156056445431139 0 0.0042844605483476081 -0.0046629277457144944 0 0.0034046802564807782 -0.010999980221037889 0 0.0043662174843400138 -0.0086686013230069092 0 0.003436002516456955 -0.012982336960397451 0 0.0033131533879451045 -0.012875538720366052 0 0.0034519934079232394 -0.012821563953726878 0 0.003436002516456955 -0.012982336960397451 0 0.0035700131848482495 -0.012881879352963473 0 0.0034519934079232394 -0.012821563953726878 0 0.0035700131848482495 -0.012881879352963473 0 0.0035756416176793687 -0.012787398093944576 0 0.0034519934079232394 -0.012821563953726878 0 0.0031452900040538087 -0.013015073297403002 0 0.003436002516456955 -0.012982336960397451 0 0.0032558442797789382 -0.012948312971209564 0 0.003436002516456955 -0.012982336960397451 0 0.0033131533879451045 -0.012875538720366052 0 0.0032558442797789382 -0.012948312971209564 0 0.0032051466684520197 -0.01282659266665835 0 0.0032164694590215686 -0.012899239494999234 0 0.0033131533879451045 -0.012875538720366052 0 0.0032164694590215686 -0.012899239494999234 0 0.0033131533879451045 -0.012875538720366052 0 0.0032558442797789382 -0.012948312971209564 0 0.0057028067363794604 -0.004968090449070219 0 0.0051985266722665638 -0.0043813202649216178 0 0.0057421179111721704 -0.0042745120866470648 0 0.0062131267534795941 -0.004751279961115417 0 0.0057028067363794604 -0.004968090449070219 0 0.0057421179111721704 -0.0042745120866470648 0 0.0047033738463000676 -0.0055275217480011624 0 0.0042844605483476081 -0.0046629277457144944 0 0.0057028067363794604 -0.004968090449070219 0 0.0042844605483476081 -0.0046629277457144944 0 0.0057028067363794604 -0.004968090449070219 0 0.0051985266722665638 -0.0043813202649216178 0 0.00420575992327046 -0.0067034379573941687 0 0.0043662174843400138 -0.0086686013230069092 0 0.0036989397919838019 -0.012956907309415731 0 0.0035700131848482495 -0.012881879352963473 0 0.0036927749229776615 -0.012825341007950731 0 0.003436002516456955 -0.012982336960397451 0 0.0036989397919838019 -0.012956907309415731 0 0.0035700131848482495 -0.012881879352963473 0 0.0035700131848482495 -0.012881879352963473 0 0.0036927749229776615 -0.012825341007950731 0 0.0035756416176793687 -0.012787398093944576 0 0.0036927749229776615 -0.012825341007950731 0 0.0038015401444596131 -0.012928693454182639 0 0.0038520490380198513 -0.012701106486313816 0 0.0036989397919838019 -0.012956907309415731 0 0.0036927749229776615 -0.012825341007950731 0 0.0038015401444596131 -0.012928693454182639 0 0.0043662174843400138 -0.0086686013230069092 0 0.0046157222385533291 -0.0085470009045502827 0 0.0036927749229776615 -0.012825341007950731 0 0.0038520490380198513 -0.012701106486313816 0 0.0036535578118165406 -0.012693710840837811 0 0.0036927749229776615 -0.012825341007950731 0 0.0036535578118165406 -0.012693710840837811 0 0.0035756416176793687 -0.012787398093944576 0 0.0036535578118165406 -0.012693710840837811 0 0.0035756416176793687 -0.012787398093944576 0 0.0034923019489565476 -0.012679751091412917 0 0.0036535578118165406 -0.012693710840837811 0 0.0034923019489565476 -0.012679751091412917 0 0.0036525047865687125 -0.012523759624823038 0 0.0038520490380198513 -0.012701106486313816 0 0.0036535578118165406 -0.012693710840837811 0 0.0036525047865687125 -0.012523759624823038 0 0.0049010675993409808 -0.014627068904312613 0 0.0047411883174858453 -0.01351687403134931 0 0.0059141490521943544 -0.014779352267611066 0 0.0058884273230671198 -0.014815517980171868 0 0.0059060570030703844 -0.01480576847044777 0 0.0033131533879451045 -0.012875538720366052 0 0.0033306040203107024 -0.012736321970725877 0 0.0034519934079232394 -0.012821563953726878 0 0.0032051466684520197 -0.01282659266665835 0 0.0031662670222264502 -0.012730506956977465 0 0.0033306040203107024 -0.012736321970725877 0 0.0032051466684520197 -0.01282659266665835 0 0.0033131533879451045 -0.012875538720366052 0 0.0033306040203107024 -0.012736321970725877 0 0.0033306040203107024 -0.012736321970725877 0 0.0034519934079232394 -0.012821563953726878 0 0.0034923019489565476 -0.012679751091412917 0 0.0035756416176793687 -0.012787398093944576 0 0.0034519934079232394 -0.012821563953726878 0 0.0034923019489565476 -0.012679751091412917 0 0.0033306040203107024 -0.012736321970725877 0 0.0034923019489565476 -0.012679751091412917 0 0.0034239171283863994 -0.012554350942534161 0 0.0034923019489565476 -0.012679751091412917 0 0.0034239171283863994 -0.012554350942534161 0 0.0036525047865687125 -0.012523759624823038 0 0.0031852416620156204 -0.012600940176774357 0 0.0033306040203107024 -0.012736321970725877 0 0.0034239171283863994 -0.012554350942534161 0 0.0031852416620156204 -0.012600940176774357 0 0.0032830092702481172 -0.01246742706275537 0 0.0034239171283863994 -0.012554350942534161 0 0.0032830092702481172 -0.01246742706275537 0 0.0034239171283863994 -0.012554350942534161 0 0.0034609053718785369 -0.012337766706630494 0 0.0034239171283863994 -0.012554350942534161 0 0.0034609053718785369 -0.012337766706630494 0 0.0036525047865687125 -0.012523759624823038 0 0.0032830092702481172 -0.01246742706275537 0 0.0034609053718785369 -0.012337766706630494 0 0.0032586206645146064 -0.012335354830308714 0 0.0058884273230671198 -0.014815517980171868 0 0.0058803486178734101 -0.014838452191765359 0 0.0059060570030703844 -0.01480576847044777 0 0.0058884273230671198 -0.014815517980171868 0 0.0058771696014712433 -0.014841233263212912 0 0.0058803486178734101 -0.014838452191765359 0 0.0058519960227178874 -0.01483989152288997 0 0.0058884273230671198 -0.014815517980171868 0 0.0058771696014712433 -0.014841233263212912 0 0.0046206646464068872 -0.013521988646327523 0 0.0047411883174858453 -0.01351687403134931 0 0.0058771696014712433 -0.014841233263212912 0 0.0058803486178734101 -0.014838452191765359 0 0.0058772784987558844 -0.014860422807425258 0 0.0058803486178734101 -0.014838452191765359 0 0.0058789351204191521 -0.014847482800228998 0 0.0059060570030703844 -0.01480576847044777 0 0.0058803486178734101 -0.014838452191765359 0 0.0058789351204191521 -0.014847482800228998 0 0.0058502832278472059 -0.014879660610319093 0 0.0058789351204191521 -0.014847482800228998 0 0.0059075634855379304 -0.014825548122881393 0 0.0058754901560655413 -0.014872242655703433 0 0.0059075634855379304 -0.014825548122881393 0 0.0059060570030703844 -0.01480576847044777 0 0.0059340776038134266 -0.014792961928074357 0 0.0058789351204191521 -0.014847482800228998 0 0.0059075634855379304 -0.014825548122881393 0 0.0059060570030703844 -0.01480576847044777 0 0.0059141490521943544 -0.014779352267611066 0 0.0059060570030703844 -0.01480576847044777 0 0.005936886351426935 -0.014767708012472729 0 0.0059060570030703844 -0.01480576847044777 0 0.0059340776038134266 -0.014792961928074357 0 0.005936886351426935 -0.014767708012472729 0 0.0059386656429464817 -0.014732445167714695 0 0.0059141490521943544 -0.014779352267611066 0 0.005936886351426935 -0.014767708012472729 0 0.0060618950566991656 -0.0089623477520112699 0 0.0049010675993409808 -0.014627068904312613 0 0.0060082811070947123 -0.014738031377372637 0 0.0059760305478554912 -0.014775626263122356 0 0.00601173270660443 -0.014758321302528096 0 0.0059663449901672565 -0.014746474990241646 0 0.0060082811070947123 -0.014738031377372637 0 0.0059760305478554912 -0.014775626263122356 0 0.0059663449901672565 -0.014746474990241646 0 0.005936886351426935 -0.014767708012472729 0 0.0059760305478554912 -0.014775626263122356 0 0.0059340776038134266 -0.014792961928074357 0 0.0059760305478554912 -0.014775626263122356 0 0.0059448394619094425 -0.014807864091532659 0 0.0059340776038134266 -0.014792961928074357 0 0.005936886351426935 -0.014767708012472729 0 0.0059760305478554912 -0.014775626263122356 0 0.0059760305478554912 -0.014775626263122356 0 0.0060257724063174437 -0.014823537725895151 0 0.00601173270660443 -0.014758321302528096 0 0.0059760305478554912 -0.014775626263122356 0 0.0060257724063174437 -0.014823537725895151 0 0.0059448394619094425 -0.014807864091532659 0 0.0060257724063174437 -0.014823537725895151 0 0.0059090618384727766 -0.014810138488044453 0 0.006281603899486606 -0.014451933676543934 0 0.0060257724063174437 -0.014823537725895151 0 0.0059448394619094425 -0.014807864091532659 0 0.0059090618384727766 -0.014810138488044453 0 0.0059075634855379304 -0.014825548122881393 0 0.0059340776038134266 -0.014792961928074357 0 0.0059448394619094425 -0.014807864091532659 0 0.0059075634855379304 -0.014825548122881393 0 0.0059448394619094425 -0.014807864091532659 0 0.0059090618384727766 -0.014810138488044453 0 0.0059075634855379304 -0.014825548122881393 0 0.0058989074566099817 -0.014871459727072458 0 0.0059090618384727766 -0.014810138488044453 0 0.0059075634855379304 -0.014825548122881393 0 0.0058989074566099817 -0.014871459727072458 0 0.0058754901560655413 -0.014872242655703433 0 0.0058989074566099817 -0.014871459727072458 0 0.0059090618384727766 -0.014810138488044453 0 0.0058851805131204813 -0.014938817256336416 0 0.0059090618384727766 -0.014810138488044453 0 0.0059947992159797127 -0.01493727238922762 0 0.0060731161632287846 -0.015072065881329448 0 0.0059635953634544162 -0.014799709004509207 0 0.0061981085619038411 -0.014764454501090086 0 0.0059090618384727766 -0.014810138488044453 0 0.0059947992159797127 -0.01493727238922762 0 0.0058851805131204813 -0.014938817256336416 0 0.0058851805131204813 -0.014938817256336416 0 0.0059206006500299143 -0.014855347928496403 0 0.0062214747927305369 -0.014958199268374835 0 0.0059206006500299143 -0.014855347928496403 0 0.0062214747927305369 -0.014958199268374835 0 0.0060516767996971234 -0.014703997014814212 0 0.0059206006500299143 -0.014855347928496403 0 0.0059001450419153487 -0.014828152297882044 0 0.0060516767996971234 -0.014703997014814212 0 0.0058613304431129817 -0.014879266894951346 0 0.0058385849518030391 -0.014910349105881132 0 0.0059001450419153487 -0.014828152297882044 0 0.0059206006500299143 -0.014855347928496403 0 0.0058613304431129817 -0.014879266894951346 0 0.0059001450419153487 -0.014828152297882044 0 0.0059206006500299143 -0.014855347928496403 0 0.0058613304431129817 -0.014879266894951346 0 0.0058695149442517386 -0.014896734627450243 0 0.0058613304431129817 -0.014879266894951346 0 0.0058695149442517386 -0.014896734627450243 0 0.0058436198636543212 -0.014898676806298312 0 0.0058851805131204813 -0.014938817256336416 0 0.0059206006500299143 -0.014855347928496403 0 0.0058695149442517386 -0.014896734627450243 0 0.0058989074566099817 -0.014871459727072458 0 0.0058851805131204813 -0.014938817256336416 0 0.0058695149442517386 -0.014896734627450243 0 0.0058989074566099817 -0.014871459727072458 0 0.0058695149442517386 -0.014896734627450243 0 0.0058754901560655413 -0.014872242655703433 0 0.0058695149442517386 -0.014896734627450243 0 0.0058754901560655413 -0.014872242655703433 0 0.0058436198636543212 -0.014898676806298312 0 0.0058789351204191521 -0.014847482800228998 0 0.0058754901560655413 -0.014872242655703433 0 0.0058498042446668884 -0.014884180397796078 0 0.0058754901560655413 -0.014872242655703433 0 0.0058498042446668884 -0.014884180397796078 0 0.0058436198636543212 -0.014898676806298312 0 0.0058789351204191521 -0.014847482800228998 0 0.0058498042446668884 -0.014884180397796078 0 0.0058502832278472059 -0.014879660610319093 0 0.0058498042446668884 -0.014884180397796078 0 0.0058502832278472059 -0.014879660610319093 0 0.0058101068742018912 -0.014937282674660315 0 0.0058502832278472059 -0.014879660610319093 0 0.0058101068742018912 -0.014937282674660315 0 0.0058235862094395529 -0.014929460227637329 0 0.0058101068742018912 -0.014937282674660315 0 0.0057809879561328999 -0.014996389444860446 0 0.0058235862094395529 -0.014929460227637329 0 0.0058101068742018912 -0.014937282674660315 0 0.0058436198636543212 -0.014898676806298312 0 0.0058385849518030391 -0.014910349105881132 0 0.0058498042446668884 -0.014884180397796078 0 0.0058101068742018912 -0.014937282674660315 0 0.0058436198636543212 -0.014898676806298312 0 0.0058613304431129817 -0.014879266894951346 0 0.0058436198636543212 -0.014898676806298312 0 0.0058385849518030391 -0.014910349105881132 0 0.0058101068742018912 -0.014937282674660315 0 0.0058385849518030391 -0.014910349105881132 0 0.0057818099580869845 -0.015014881984966822 0 0.0058385849518030391 -0.014910349105881132 0 0.0057818099580869845 -0.015014881984966822 0 0.0058429179505520863 -0.014954173092752649 0 0.0058101068742018912 -0.014937282674660315 0 0.0057809879561328999 -0.014996389444860446 0 0.0057818099580869845 -0.015014881984966822 0 0.0057809879561328999 -0.014996389444860446 0 0.0057818099580869845 -0.015014881984966822 0 0.0057431409922982018 -0.015075947556425372 0 0.0057818099580869845 -0.015014881984966822 0 0.0057254307693896762 -0.015134662329829371 0 0.0057431409922982018 -0.015075947556425372 0 0.0057818099580869845 -0.015014881984966822 0 0.0057254307693896762 -0.015134662329829371 0 0.0057831565601449099 -0.015057859259427615 0 0.0057831565601449099 -0.015057859259427615 0 0.0058429179505520863 -0.014954173092752649 0 0.0058338480693686644 -0.015000189064341758 0 0.0057818099580869845 -0.015014881984966822 0 0.0057831565601449099 -0.015057859259427615 0 0.0058429179505520863 -0.014954173092752649 0 0.0066190391046975147 -0.015286543616112827 0 0.0062385742914085746 -0.015776792956352141 0 0.0058429179505520863 -0.014954173092752649 0 0.0058407980554665388 -0.014916505423861274 0 0.0058338480693686644 -0.015000189064341758 0 0.0058429179505520863 -0.014954173092752649 0 0.0058407980554665388 -0.014916505423861274 0 0.005870204266273403 -0.014872012179791996 0 0.0072719951902168655 -0.016734618643560531 0 0.0072556871184432633 -0.016354508526156938 0 0.0073720271166249742 -0.016653245176110148 0 0.0070122061062725108 -0.015281113326922469 0 0.007037259181743789 -0.015292386160538147 0 0.0070371692673208289 -0.015263152889492274 0 0.0066190391046975147 -0.015286543616112827 0 0.0072746230361126624 -0.015622434408266691 0 0.0059169390316740431 -0.014840726002406858 0 0.0059315503414799978 -0.014817254737881917 0 0.005895313607405462 -0.014844946734648486 0 0.0066190391046975147 -0.015286543616112827 0 0.0066652350504776111 -0.014699639057871394 0 0.0066190391046975147 -0.015286543616112827 0 0.0058240837712975058 -0.014976712080495698 0 0.0059169390316740431 -0.014840726002406858 0 0.0059315503414799978 -0.014817254737881917 0 0.005870204266273403 -0.014872012179791996 0 0.0059315503414799978 -0.014817254737881917 0 0.0059001450419153487 -0.014828152297882044 0 0.005870204266273403 -0.014872012179791996 0 0.0059315503414799978 -0.014817254737881917 0 0.0059001450419153487 -0.014828152297882044 0 0.0060516767996971234 -0.014703997014814212 0 0.0059315503414799978 -0.014817254737881917 0 0.0060516767996971234 -0.014703997014814212 0 0.005895313607405462 -0.014844946734648486 0 0.0058385849518030391 -0.014910349105881132 0 0.0059001450419153487 -0.014828152297882044 0 0.005870204266273403 -0.014872012179791996 0 0.0058385849518030391 -0.014910349105881132 0 0.0058429179505520863 -0.014954173092752649 0 0.005870204266273403 -0.014872012179791996 0 0.0046933165148707809 -0.013936118359705941 0 0.006143692466045369 -0.014940621708250048 0 0.0059566403751515366 -0.014930262303379221 0 0.005933136286317987 -0.014934888165167302 0 0.0059471161642458683 -0.014906225823380114 0 0.004189967201184577 -0.014795692473404004 0 0.0050440138574499669 -0.015233786165679823 0 0.0058981870344143135 -0.014916936333248457 0 0.0059314729733247647 -0.014921751689298372 0 0.005933136286317987 -0.014934888165167302 0 0.0058981870344143135 -0.014916936333248457 0 0.0059314729733247647 -0.014921751689298372 0 0.0059330268608041876 -0.014902146392482045 0 0.0059314729733247647 -0.014921751689298372 0 0.0059566403751515366 -0.014930262303379221 0 0.0059330268608041876 -0.014902146392482045 0 0.0058144228192136497 -0.0151748785302557 0 0.0050440138574499669 -0.015233786165679823 0 0.0059314729733247647 -0.014921751689298372 0 0.0059566403751515366 -0.014930262303379221 0 0.005933136286317987 -0.014934888165167302 0 0.0034609053718785369 -0.012337766706630494 0 0.0032586206645146064 -0.012335354830308714 0 0.0032767846762521351 -0.012138375211488734 0 0.0046206646464068872 -0.013521988646327523 0 0.0046933165148707809 -0.013936118359705941 0 0.0058519960227178874 -0.01483989152288997 0 0.0058771696014712433 -0.014841233263212912 0 0.0058504350927704712 -0.014810660228933336 0 0.0058519960227178874 -0.01483989152288997 0 0.0057805391717920124 -0.01478955117517282 0 0.0058504350927704712 -0.014810660228933336 0 0.0059566403751515366 -0.014930262303379221 0 0.0059471161642458683 -0.014906225823380114 0 0.0059172824361187273 -0.014938633655517003 0 0.0059471161642458683 -0.014906225823380114 0 0.0059172824361187273 -0.014938633655517003 0 0.0058772784987558844 -0.014860422807425258 0 0.0059172824361187273 -0.014938633655517003 0 0.0058772784987558844 -0.014860422807425258 0 0.0058377824711539367 -0.014967448199215656 0 0.0058771696014712433 -0.014841233263212912 0 0.0058504350927704712 -0.014810660228933336 0 0.0058772784987558844 -0.014860422807425258 0 0.006143692466045369 -0.014940621708250048 0 0.0057801441354389631 -0.014836757536352546 0 0.0058502832278472059 -0.014879660610319093 0 0.0058772784987558844 -0.014860422807425258 0 0.0058235862094395529 -0.014929460227637329 0 0.0058803486178734101 -0.014838452191765359 0 0.0058502832278472059 -0.014879660610319093 0 0.0058772784987558844 -0.014860422807425258 0 0.0058772784987558844 -0.014860422807425258 0 0.0058235862094395529 -0.014929460227637329 0 0.0058377824711539367 -0.014967448199215656 0 0.0057809879561328999 -0.014996389444860446 0 0.0058377824711539367 -0.014967448199215656 0 0.0057431409922982018 -0.015075947556425372 0 0.0057809879561328999 -0.014996389444860446 0 0.0058235862094395529 -0.014929460227637329 0 0.0058377824711539367 -0.014967448199215656 0 0.0057431409922982018 -0.015075947556425372 0 0.0056728485945961964 -0.015238011684692876 0 0.0059323102885780691 -0.015041664306787926 0 0.0057254307693896762 -0.015134662329829371 0 0.0057431409922982018 -0.015075947556425372 0 0.0056728485945961964 -0.015238011684692876 0 0.0056462007768285074 -0.015249884831629302 0 0.0055488791308685058 -0.015408599091579335 0 0.0056728485945961964 -0.015238011684692876 0 0.0050979837692326346 -0.0157237223089297 0 0.0051522667474861233 -0.015316970759779601 0 0.0058377824711539367 -0.014967448199215656 0 0.0057431409922982018 -0.015075947556425372 0 0.0059323102885780691 -0.015041664306787926 0 0.0059172824361187273 -0.014938633655517003 0 0.0058377824711539367 -0.014967448199215656 0 0.0059323102885780691 -0.015041664306787926 0 0.0059566403751515366 -0.014930262303379221 0 0.0059172824361187273 -0.014938633655517003 0 0.0059323102885780691 -0.015041664306787926 0 0.0055488791308685058 -0.015408599091579335 0 0.0050440138574499669 -0.015233786165679823 0 0.0059566403751515366 -0.014930262303379221 0 0.0059323102885780691 -0.015041664306787926 0 0.0059825508945808873 -0.01496061375648941 0 0.0050979837692326346 -0.0157237223089297 0 0.0045806339705899346 -0.015560618059786063 0 0.004853375334500914 -0.015350215203082461 0 0.0050979837692326346 -0.0157237223089297 0 0.004853375334500914 -0.015350215203082461 0 0.0051522667474861233 -0.015316970759779601 0 0.0042340749365368871 -0.015676432787349991 0 0.0045806339705899346 -0.015560618059786063 0 0.0045837591654474472 -0.016005706731224822 0 0.0050979837692326346 -0.0157237223089297 0 0.0045806339705899346 -0.015560618059786063 0 0.0045837591654474472 -0.016005706731224822 0 0.0040906941036088591 -0.015326896467449785 0 0.0043008376463572438 -0.015290366384570089 0 0.0042085788225175004 -0.015242804980615535 0 0.004195225334162553 -0.015201877916583069 0 0.0046801000602855729 -0.015238785696992246 0 0.0040906941036088591 -0.015326896467449785 0 0.0043008376463572438 -0.015290366384570089 0 0.0044367454767676191 -0.015426655675086153 0 0.0042880406276261792 -0.015073400182908649 0 0.0045624986144689452 -0.015289167791220951 0 0.00489760725229415 -0.015082692528993635 0 0.0042677658706890467 -0.015388989758169956 0 0.0045806339705899346 -0.015560618059786063 0 0.0045624986144689452 -0.015289167791220951 0 0.0045806339705899346 -0.015560618059786063 0 0.0045624986144689452 -0.015289167791220951 0 0.004853375334500914 -0.015350215203082461 0 0.0045624986144689452 -0.015289167791220951 0 0.004853375334500914 -0.015350215203082461 0 0.00489760725229415 -0.015082692528993635 0 0.004853375334500914 -0.015350215203082461 0 0.00489760725229415 -0.015082692528993635 0 0.0051522667474861233 -0.015316970759779601 0 0.0043008376463572438 -0.015290366384570089 0 0.0044367454767676191 -0.015426655675086153 0 0.0045120700634626275 -0.015216752305406155 0 0.0044367454767676191 -0.015426655675086153 0 0.0045120700634626275 -0.015216752305406155 0 0.0047471671882702571 -0.015170756955396597 0 0.0047471671882702571 -0.015170756955396597 0 0.0054578869986841166 -0.015199332783634561 0 0.0054335945342447144 -0.014988873005813412 0 0.0045120700634626275 -0.015216752305406155 0 0.0048895529977327603 -0.015091307653067706 0 0.0047471671882702571 -0.015170756955396597 0 0.0048895529977327603 -0.015091307653067706 0 0.0047471671882702571 -0.015170756955396597 0 0.0049917861605297195 -0.015215329609495759 0 0.0044367454767676191 -0.015426655675086153 0 0.0047471671882702571 -0.015170756955396597 0 0.0054578869986841166 -0.015199332783634561 0 0.0048291494259821944 -0.015136341569701981 0 0.0052085796145810246 -0.01512139904100503 0 0.00489760725229415 -0.015082692528993635 0 0.0051522667474861233 -0.015316970759779601 0 0.0054578869986841166 -0.015199332783634561 0 0.0046801000602855729 -0.015238785696992246 0 0.0053893408424589648 -0.015223329016055403 0 0.0054578869986841166 -0.015199332783634561 0 0.0056029470565865172 -0.015097232448963365 0 0.0054335945342447144 -0.014988873005813412 0 0.0056728485945961964 -0.015238011684692876 0 0.0051522667474861233 -0.015316970759779601 0 0.0054578869986841166 -0.015199332783634561 0 0.0057254307693896762 -0.015134662329829371 0 0.0056728485945961964 -0.015238011684692876 0 0.0056355398572987209 -0.01517601815745017 0 0.0056728485945961964 -0.015238011684692876 0 0.0054578869986841166 -0.015199332783634561 0 0.0056355398572987209 -0.01517601815745017 0 0.0056355398572987209 -0.01517601815745017 0 0.0056029470565865172 -0.015097232448963365 0 0.0056993549522313738 -0.015089429016012844 0 0.0054578869986841166 -0.015199332783634561 0 0.0056355398572987209 -0.01517601815745017 0 0.0056029470565865172 -0.015097232448963365 0 0.0048895529977327603 -0.015091307653067706 0 0.0049917861605297195 -0.015215329609495759 0 0.0052550249551323496 -0.015265320888211772 0 0.0052085796145810246 -0.01512139904100503 0 0.0054274351380759409 -0.015384846632338868 0 0.004796093275654582 -0.015226702069949586 0 0.0054274351380759409 -0.015384846632338868 0 0.004794737740108951 -0.015325263644185823 0 0.0049822261056336808 -0.015310558157268388 0 0.0052567289885890201 -0.015542095380823474 0 0.0056029470565865172 -0.015097232448963365 0 0.0054335945342447144 -0.014988873005813412 0 0.0057506546436787691 -0.015029388054428602 0 0.0053908651889204868 -0.015914068304874303 0 0.0055048159332288064 -0.015606155981192601 0 0.0052621163446335299 -0.01537279463694574 0 0.0053908651889204868 -0.015914068304874303 0 0.0055048159332288064 -0.015606155981192601 0 0.0058088359053951599 -0.01573821041769501 0 0.0052621163446335299 -0.01537279463694574 0 0.0048227370739935896 -0.014999938917729159 0 0.00565701736785561 -0.014999976301913302 0 0.0055048159332288064 -0.015606155981192601 0 0.0052621163446335299 -0.01537279463694574 0 0.00565701736785561 -0.014999976301913302 0 0.0052621163446335299 -0.01537279463694574 0 0.0048227370739935896 -0.014999938917729159 0 0.0048837960939976241 -0.015326152489049573 0 0.0048227370739935896 -0.014999938917729159 0 0.0048837960939976241 -0.015326152489049573 0 0.0045942324152981103 -0.015267880644162443 0 0.004796093275654582 -0.015226702069949586 0 0.0044246841525559929 -0.015213608909718198 0 0.0053908651889204868 -0.015914068304874303 0 0.0052621163446335299 -0.01537279463694574 0 0.0047876255416667898 -0.015647871840993737 0 0.004794737740108951 -0.015325263644185823 0 0.0049822261056336808 -0.015310558157268388 0 0.0046204126678237797 -0.015218009057397083 0 0.0052621163446335299 -0.01537279463694574 0 0.0048837960939976241 -0.015326152489049573 0 0.0047876255416667898 -0.015647871840993737 0 0.0051480524094420395 -0.015601114114185438 0 0.0047173234050980131 -0.015438173683859075 0 0.0048837960939976241 -0.015326152489049573 0 0.0047876255416667898 -0.015647871840993737 0 0.0045942324152981103 -0.015267880644162443 0 0.004794737740108951 -0.015325263644185823 0 0.0046204126678237797 -0.015218009057397083 0 0.0043580893707039145 -0.015234768859671788 0 0.0047173234050980131 -0.015438173683859075 0 0.004308520109388236 -0.015284527791435449 0 0.0047876255416667898 -0.015647871840993737 0 0.0045942324152981103 -0.015267880644162443 0 0.0042539420002599537 -0.015266049065267037 0 0.0045120700634626275 -0.015216752305406155 0 0.0048895529977327603 -0.015091307653067706 0 0.0043580893707039145 -0.015234768859671788 0 0.0046204126678237797 -0.015218009057397083 0 0.0043580893707039145 -0.015234768859671788 0 0.0042539420002599537 -0.015266049065267037 0 0.0043008376463572438 -0.015290366384570089 0 0.0045120700634626275 -0.015216752305406155 0 0.0043051355735609902 -0.015249186035536554 0 0.0045120700634626275 -0.015216752305406155 0 0.0043580893707039145 -0.015234768859671788 0 0.0043051355735609902 -0.015249186035536554 0 0.0043580893707039145 -0.015234768859671788 0 0.0042877861056275788 -0.01525755006939607 0 0.0043051355735609902 -0.015249186035536554 0 0.0043580893707039145 -0.015234768859671788 0 0.0042539420002599537 -0.015266049065267037 0 0.0042877861056275788 -0.01525755006939607 0 0.0048227370739935896 -0.014999938917729159 0 0.0045942324152981103 -0.015267880644162443 0 0.0039888268442578164 -0.014999848168079774 0 0.0045942324152981103 -0.015267880644162443 0 0.0039888268442578164 -0.014999848168079774 0 0.0042539420002599537 -0.015266049065267037 0 0.004030928261373583 -0.015191199639774992 0 0.0042209148158270414 -0.015283061631230953 0 0.0042539420002599537 -0.015266049065267037 0 0.0039888268442578164 -0.014999848168079774 0 0.004030928261373583 -0.015191199639774992 0 0.0042539420002599537 -0.015266049065267037 0 0.0037880612438170522 -0.015203241578718782 0 0.0039888268442578164 -0.014999848168079774 0 0.004030928261373583 -0.015191199639774992 0 0.0037880612438170522 -0.015203241578718782 0 0.004030928261373583 -0.015191199639774992 0 0.0042209148158270414 -0.015283061631230953 0 0.0041166207671607833 -0.015190606155143406 0 0.0042209148158270414 -0.015283061631230953 0 0.0042085788225175004 -0.015242804980615535 0 0.0042209148158270414 -0.015283061631230953 0 0.0042539420002599537 -0.015266049065267037 0 0.0042877861056275788 -0.01525755006939607 0 0.0042209148158270414 -0.015283061631230953 0 0.0042877861056275788 -0.01525755006939607 0 0.0043051355735609902 -0.015249186035536554 0 0.0042209148158270414 -0.015283061631230953 0 0.0043051355735609902 -0.015249186035536554 0 0.0042085788225175004 -0.015242804980615535 0 0.0043008376463572438 -0.015290366384570089 0 0.0043051355735609902 -0.015249186035536554 0 0.0042085788225175004 -0.015242804980615535 0 0.0067968815777050889 -0.016093730424822254 0 0.0070096485020286039 -0.01612251177412195 0 0.0066776653105600665 -0.016269295959632914 0 0.0066358034109697261 -0.016044201548077969 0 0.0067968815777050889 -0.016093730424822254 0 0.0066776653105600665 -0.016269295959632914 0 0.0066358034109697261 -0.016044201548077969 0 0.0067968815777050889 -0.016093730424822254 0 0.0067845786787892907 -0.015782359806426366 0 0.0066358034109697261 -0.016044201548077969 0 0.0064464266774834651 -0.01588432838748903 0 0.0067845786787892907 -0.015782359806426366 0 0.0067968815777050889 -0.016093730424822254 0 0.0070096485020286039 -0.01612251177412195 0 0.0067845786787892907 -0.015782359806426366 0 0.0071847297703073508 -0.015865721829543104 0 0.0070096485020286039 -0.01612251177412195 0 0.0067845786787892907 -0.015782359806426366 0 0.0071847297703073508 -0.015865721829543104 0 0.0073614202417623927 -0.016122809157124801 0 0.0073831442945638641 -0.015591622822645736 0 0.0074871495472516331 -0.016361449073178491 0 0.0074520177986394358 -0.015547536209606137 0 0.0071847297703073508 -0.015865721829543104 0 0.007197354174214356 -0.016138190648208661 0 0.0073614202417623927 -0.016122809157124801 0 0.0071847297703073508 -0.015865721829543104 0 0.007197354174214356 -0.016138190648208661 0 0.0070096485020286039 -0.01612251177412195 0 0.0074871495472516331 -0.016361449073178491 0 0.0072746230361126624 -0.015622434408266691 0 0.0072719951902168655 -0.016734618643560531 0 0.0072556871184432633 -0.016354508526156938 0 0.0066179242895532267 -0.016430621877271481 0 0.0073614202417623927 -0.016122809157124801 0 0.0072556871184432633 -0.016354508526156938 0 0.0073720271166249742 -0.016653245176110148 0 0.007197354174214356 -0.016138190648208661 0 0.0070096485020286039 -0.01612251177412195 0 0.0072556871184432633 -0.016354508526156938 0 0.007197354174214356 -0.016138190648208661 0 0.0073614202417623927 -0.016122809157124801 0 0.0072556871184432633 -0.016354508526156938 0 0.0072556871184432633 -0.016354508526156938 0 0.0066179242895532267 -0.016430621877271481 0 0.0066089915621471169 -0.016202642693489089 0 0.0071929349977279686 -0.016333758299209831 0 0.0066933473299485109 -0.016289518899344872 0 0.0070096485020286039 -0.01612251177412195 0 0.0072556871184432633 -0.016354508526156938 0 0.0066776653105600665 -0.016269295959632914 0 0.0057831565601449099 -0.015057859259427615 0 0.0058338480693686644 -0.015000189064341758 0 0.0057521883024533853 -0.015054201246166223 0 0.0066933473299485109 -0.016289518899344872 0 0.0058263019523682926 -0.015630930132136643 0 0.0066179242895532267 -0.016430621877271481 0 0.0066089915621471169 -0.016202642693489089 0 0.0059161204645714642 -0.016060227085899999 0 0.0062385742914085746 -0.015776792956352141 0 0.0058263019523682926 -0.015630930132136643 0 0.0057831565601449099 -0.015057859259427615 0 0.005721359073941782 -0.015111008472334807 0 0.0057521883024533853 -0.015054201246166223 0 0.0057254307693896762 -0.015134662329829371 0 0.0056355398572987209 -0.01517601815745017 0 0.005721359073941782 -0.015111008472334807 0 0.0057254307693896762 -0.015134662329829371 0 0.0057831565601449099 -0.015057859259427615 0 0.005721359073941782 -0.015111008472334807 0 0.0058426557869879318 -0.015037167384744794 0 0.0058263019523682926 -0.015630930132136643 0 0.0056029470565865172 -0.015097232448963365 0 0.0056993549522313738 -0.015089429016012844 0 0.0057506546436787691 -0.015029388054428602 0 0.005721359073941782 -0.015111008472334807 0 0.0056993549522313738 -0.015089429016012844 0 0.0057787653422435277 -0.015043032508198752 0 0.0056355398572987209 -0.01517601815745017 0 0.005721359073941782 -0.015111008472334807 0 0.0056993549522313738 -0.015089429016012844 0 0.0053908651889204868 -0.015914068304874303 0 0.0059813433820405468 -0.016151495060726939 0 0.0058088359053951599 -0.01573821041769501 0 0.0051480524094420395 -0.015601114114185438 0 0.0058785449053880782 -0.015847009275152923 0 0.0049822261056336808 -0.015310558157268388 0 0.0052567289885890201 -0.015542095380823474 0 0.005360394708418331 -0.015458390767216281 0 0.0056993549522313738 -0.015089429016012844 0 0.0057506546436787691 -0.015029388054428602 0 0.0057787653422435277 -0.015043032508198752 0 0.0058263019523682926 -0.015630930132136643 0 0.0058785449053880782 -0.015847009275152923 0 0.0054274351380759409 -0.015384846632338868 0 0.0058263019523682926 -0.015630930132136643 0 0.0052567289885890201 -0.015542095380823474 0 0.0053199831515189401 -0.015554654555427951 0 0.005360394708418331 -0.015458390767216281 0 0.0061243217290239509 -0.016025692810461629 0 0.0064464266774834651 -0.01588432838748903 0 0.0063205935368065621 -0.015530038066465605 0 0.0066776653105600665 -0.016269295959632914 0 0.0060470733759637402 -0.016150798692595728 0 0.0064526739082756031 -0.016155307038385372 0 0.0066358034109697261 -0.016044201548077969 0 0.0066776653105600665 -0.016269295959632914 0 0.0064526739082756031 -0.016155307038385372 0 0.0066358034109697261 -0.016044201548077969 0 0.0064526739082756031 -0.016155307038385372 0 0.0064464266774834651 -0.01588432838748903 0 0.0058785449053880782 -0.015847009275152923 0 0.0064721328076442859 -0.016152597228253112 0 0.0060470733759637402 -0.016150798692595728 0 0.0061032734466220191 -0.016014141340778852 0 0.0064526739082756031 -0.016155307038385372 0 0.0061243217290239509 -0.016025692810461629 0 0.0064526739082756031 -0.016155307038385372 0 0.0064464266774834651 -0.01588432838748903 0 0.0058785449053880782 -0.015847009275152923 0 0.0062793623051797488 -0.015583039553809861 0 0.0064464266774834651 -0.01588432838748903 0 0.0063205935368065621 -0.015530038066465605 0 0.0067845786787892907 -0.015782359806426366 0 0.0059813433820405468 -0.016151495060726939 0 0.0062295976082950818 -0.015575193918344315 0 0.0058088359053951599 -0.01573821041769501 0 0.0055048159332288064 -0.015606155981192601 0 0.0058088359053951599 -0.01573821041769501 0 0.00565701736785561 -0.014999976301913302 0 0.0062295976082950818 -0.015575193918344315 0 0.0058088359053951599 -0.01573821041769501 0 0.00565701736785561 -0.014999976301913302 0 0.0062295976082950818 -0.015575193918344315 0 0.00565701736785561 -0.014999976301913302 0 0.0064911587712052363 -0.014999994784638388 0 0.0062793623051797488 -0.015583039553809861 0 0.0064911673167681403 -0.015000082382838868 0 0.0063205935368065621 -0.015530038066465605 0 0.0064913116202470729 -0.014999998710468799 0 0.0067383874556241948 -0.015372292708495019 0 0.0064913116202470729 -0.014999998710468799 0 0.0069668367996620706 -0.014999979682899735 0 0.0067383874556241948 -0.015372292708495019 0 0.0069668367996620706 -0.014999979682899735 0 0.0067383874556241948 -0.015372292708495019 0 0.0071273885016974866 -0.015346954241084827 0 0.0067383874556241948 -0.015372292708495019 0 0.0067845786787892907 -0.015782359806426366 0 0.0071273885016974866 -0.015346954241084827 0 0.0063205935368065621 -0.015530038066465605 0 0.0067383874556241948 -0.015372292708495019 0 0.0067845786787892907 -0.015782359806426366 0 0.0071847297703073508 -0.015865721829543104 0 0.0067845786787892907 -0.015782359806426366 0 0.0071273885016974866 -0.015346954241084827 0 0.0071847297703073508 -0.015865721829543104 0 0.0073831442945638641 -0.015591622822645736 0 0.0071273885016974866 -0.015346954241084827 0 0.0073831442945638641 -0.015591622822645736 0 0.007442427247329261 -0.015000001401044306 0 0.0071273885016974866 -0.015346954241084827 0 0.0069668367996620706 -0.014999979682899735 0 0.007442427247329261 -0.015000001401044306 0 0.0071273885016974866 -0.015346954241084827 0 0.0074520177986394358 -0.015547536209606137 0 0.0074425226173371198 -0.015000165319941151 0 0.0074426112118952271 -0.014999990839466589 0 0.0078548354668528716 -0.015376017838141052 0 0.008052904261653027 -0.014999993418275688 0 0.0075255979187051313 -0.01560867023033758 0 0.0074426112118952271 -0.014999990839466589 0 0.0078548354668528716 -0.015376017838141052 0 0.008052904261653027 -0.014999993418275688 0 0.0082732418722227495 -0.015499735891041519 0 0.0086632429950752009 -0.014999941971688698 0 0.0078548354668528716 -0.015376017838141052 0 0.008052904261653027 -0.014999993418275688 0 0.0082732418722227495 -0.015499735891041519 0 0.0080950547777081522 -0.016000350617600266 0 0.01008108255494625 -0.014445486631119333 0 0.0082732418722227495 -0.015499735891041519 0 0.0079677602746772644 -0.015869076864923143 0 0.0085026941231248748 -0.016036727873374033 0 0.0078548354668528716 -0.015376017838141052 0 0.0082732418722227495 -0.015499735891041519 0 0.0079677602746772644 -0.015869076864923143 0 0.0075255979187051313 -0.01560867023033758 0 0.0078548354668528716 -0.015376017838141052 0 0.0079677602746772644 -0.015869076864923143 0 0.0075725502367756234 -0.016169425446194111 0 0.0075255979187051313 -0.01560867023033758 0 0.0079677602746772644 -0.015869076864923143 0 0.0075725502367756234 -0.016169425446194111 0 0.0079677602746772644 -0.015869076864923143 0 0.0080357363166168455 -0.016379695200417661 0 0.0079677602746772644 -0.015869076864923143 0 0.0080357363166168455 -0.016379695200417661 0 0.0085026941231248748 -0.016036727873374033 0 0.0076835854070040031 -0.015520811525420314 0 0.01008108255494625 -0.014445486631119333 0 0.0075725502367756234 -0.016169425446194111 0 0.0080357363166168455 -0.016379695200417661 0 0.00759290776383222 -0.016704209086505856 0 0.0076835854070040031 -0.015520811525420314 0 0.0072746230361126624 -0.015622434408266691 0 0.015700876266453327 -0.013263924987873937 0 0.015891763520555345 -0.01319140091080194 0 0.015964201820294701 -0.013309111030978924 0 0.015700876266453327 -0.013263924987873937 0 0.015727559455649905 -0.013038038272280618 0 0.015891763520555345 -0.01319140091080194 0 0.015700876266453327 -0.013263924987873937 0 0.015503092788151585 -0.013028846344727863 0 0.015727559455649905 -0.013038038272280618 0 0.012015321370870458 -0.013728888025198114 0 0.01008108255494625 -0.014445486631119333 0 0.0078474876989736222 -0.014336810566255605 0 0.007995822013040086 -0.014379121080608103 0 0.0079581334622775678 -0.014265618045408237 0 0.01008108255494625 -0.014445486631119333 0 0.011465345621217815 -0.014974424658208594 0 0.015503092788151585 -0.013028846344727863 0 0.015727559455649905 -0.013038038272280618 0 0.015748305925116134 -0.01283988143685876 0 0.015727559455649905 -0.013038038272280618 0 0.015935955816058864 -0.013016934802461789 0 0.015891763520555345 -0.01319140091080194 0 0.011465345621217815 -0.014974424658208594 0 0.013597417912936066 -0.013990837650927734 0 0.015727559455649905 -0.013038038272280618 0 0.015748305925116134 -0.01283988143685876 0 0.015935955816058864 -0.013016934802461789 0 0.011465345621217815 -0.014974424658208594 0 0.0091186544741684236 -0.016004175487553788 0 0.0082732418722227495 -0.015499735891041519 0 0.008577122008170587 -0.016109516317115172 0 0.0091818513902023734 -0.015653172497971969 0 0.0082732418722227495 -0.015499735891041519 0 0.0091818513902023734 -0.015653172497971969 0 0.0086632429950752009 -0.014999941971688698 0 0.0086631673421507707 -0.015000081296676468 0 0.0094882623024126599 -0.014999881142647786 0 0.0094933322113962115 -0.015516059256651589 0 0.011465345621217815 -0.014974424658208594 0 0.0086614424163567356 -0.014999888655480895 0 0.0091860372281347448 -0.015751723080006524 0 0.0086631673421507707 -0.015000081296676468 0 0.0094933322113962115 -0.015516059256651589 0 0.0094882623024126599 -0.014999881142647786 0 0.0094933322113962115 -0.015516059256651589 0 0.0099629767974846652 -0.015706827482184282 0 0.0094882623024126599 -0.014999881142647786 0 0.0099629767974846652 -0.015706827482184282 0 0.010312400648070198 -0.01500067709448877 0 0.0099629767974846652 -0.015706827482184282 0 0.010335388172193302 -0.016125928363143187 0 0.0095666810585296608 -0.016279037826436166 0 0.0091907210201742761 -0.015776616285078093 0 0.0095548536923494281 -0.01582193245125053 0 0.0095666810585296608 -0.016279037826436166 0 0.0094933322113962115 -0.015516059256651589 0 0.0099629767974846652 -0.015706827482184282 0 0.0095548536923494281 -0.01582193245125053 0 0.0099629767974846652 -0.015706827482184282 0 0.0095548536923494281 -0.01582193245125053 0 0.0095666810585296608 -0.016279037826436166 0 0.0091907210201742761 -0.015776616285078093 0 0.0094933322113962115 -0.015516059256651589 0 0.0095548536923494281 -0.01582193245125053 0 0.011139923681332665 -0.014998033382329251 0 0.010730263705646125 -0.015488884221393143 0 0.011408299122240718 -0.016155351504332355 0 0.0099629767974846652 -0.015706827482184282 0 0.010730263705646125 -0.015488884221393143 0 0.010312400648070198 -0.01500067709448877 0 0.011139923681332665 -0.014998033382329251 0 0.010730263705646125 -0.015488884221393143 0 0.010312400648070198 -0.01500067709448877 0 0.0099629767974846652 -0.015706827482184282 0 0.010730263705646125 -0.015488884221393143 0 0.010335388172193302 -0.016125928363143187 0 0.010730263705646125 -0.015488884221393143 0 0.011408299122240718 -0.016155351504332355 0 0.010335388172193302 -0.016125928363143187 0 0.013593462307423919 -0.015195789168739733 0 0.013100133506222791 -0.015176494455921787 0 0.015702259600002526 -0.014372433052117035 0 0.015711270703318743 -0.013641963545134327 0 0.016157455050199235 -0.013881692099528711 0 0.015711270703318743 -0.013641963545134327 0 0.016157455050199235 -0.013881692099528711 0 0.016081173963416188 -0.013420525590842629 0 0.015711270703318743 -0.013641963545134327 0 0.016081173963416188 -0.013420525590842629 0 0.016070096788790171 -0.013038934270092412 0 0.015711270703318743 -0.013641963545134327 0 0.016070096788790171 -0.013038934270092412 0 0.01543278010031314 -0.013043235544312822 0 0.013100133506222791 -0.015176494455921787 0 0.013597417912936066 -0.013990837650927734 0 0.016157455050199235 -0.013881692099528711 0 0.016486139853249034 -0.013649403650247747 0 0.016211328883723834 -0.013554418463640578 0 0.016157455050199235 -0.013881692099528711 0 0.016081173963416188 -0.013420525590842629 0 0.016211328883723834 -0.013554418463640578 0 0.016081173963416188 -0.013420525590842629 0 0.016175353063799171 -0.013294459953494243 0 0.016104301997937578 -0.013212912856126299 0 0.016081173963416188 -0.013420525590842629 0 0.016211328883723834 -0.013554418463640578 0 0.016175353063799171 -0.013294459953494243 0 0.016486139853249034 -0.013649403650247747 0 0.016211328883723834 -0.013554418463640578 0 0.016175353063799171 -0.013294459953494243 0 0.016175353063799171 -0.013294459953494243 0 0.015891763520555345 -0.01319140091080194 0 0.015964201820294701 -0.013309111030978924 0 0.013597417912936066 -0.013990837650927734 0 0.016783180477004014 -0.013367661219024263 0 0.015935955816058864 -0.013016934802461789 0 0.016175353063799171 -0.013294459953494243 0 0.015891763520555345 -0.01319140091080194 0 0.016175353063799171 -0.013294459953494243 0 0.015964201820294701 -0.013309111030978924 0 0.016029323792883136 -0.013304753361393107 0 0.016175353063799171 -0.013294459953494243 0 0.016029323792883136 -0.013304753361393107 0 0.016104301997937578 -0.013212912856126299 0 0.016029323792883136 -0.013304753361393107 0 0.016104301997937578 -0.013212912856126299 0 0.01611541848515833 -0.013287081612525974 0 0.016029323792883136 -0.013304753361393107 0 0.015920126590987457 -0.013415133706936195 0 0.015873330765940431 -0.013363390776658908 0 0.015964201820294701 -0.013309111030978924 0 0.016029323792883136 -0.013304753361393107 0 0.015873330765940431 -0.013363390776658908 0 0.016081173963416188 -0.013420525590842629 0 0.016070096788790171 -0.013038934270092412 0 0.016104301997937578 -0.013212912856126299 0 0.016152745409810019 -0.01298984584240684 0 0.016340398170304225 -0.012845873457669096 0 0.016070096788790171 -0.013038934270092412 0 0.016104301997937578 -0.013212912856126299 0 0.01611541848515833 -0.013287081612525974 0 0.016070096788790171 -0.013038934270092412 0 0.016170145720912847 -0.012305962294854152 0 0.0156301425911409 -0.012335517141960886 0 0.016070096788790171 -0.013038934270092412 0 0.016807332313097893 -0.01219922128025922 0 0.016170145720912847 -0.012305962294854152 0 0.016700288813209577 -0.011607349313173787 0 0.016327428138406569 -0.011257916686444892 0 0.015993031326012014 -0.011742465095011222 0 0.016170145720912847 -0.012305962294854152 0 0.016700288813209577 -0.011607349313173787 0 0.015993031326012014 -0.011742465095011222 0 0.016807332313097893 -0.01219922128025922 0 0.016700288813209577 -0.011607349313173787 0 0.01723694094915772 -0.011477224866579178 0 0.016340398170304225 -0.012845873457669096 0 0.017167179704850218 -0.012043578769394971 0 0.016807332313097893 -0.01219922128025922 0 0.016170145720912847 -0.012305962294854152 0 0.016700288813209577 -0.011607349313173787 0 0.016700288813209577 -0.011607349313173787 0 0.016919448452099771 -0.011122525806648832 0 0.016327428138406569 -0.011257916686444892 0 0.016700288813209577 -0.011607349313173787 0 0.016919448452099771 -0.011122525806648832 0 0.01723694094915772 -0.011477224866579178 0 0.016919448452099771 -0.011122525806648832 0 0.016327428138406569 -0.011257916686444892 0 0.016569433900198081 -0.010953358501716564 0 0.016029323792883136 -0.013304753361393107 0 0.01611541848515833 -0.013287081612525974 0 0.016046480893239547 -0.013409908907469901 0 0.016029323792883136 -0.013304753361393107 0 0.015920126590987457 -0.013415133706936195 0 0.016046480893239547 -0.013409908907469901 0 0.016919448452099771 -0.011122525806648832 0 0.01723694094915772 -0.011477224866579178 0 0.017215416771479322 -0.010953156034128607 0 0.017167179704850218 -0.012043578769394971 0 0.01319121226938375 -0.013380905298148657 0 0.01723694094915772 -0.011477224866579178 0 0.017549940459295438 -0.010911549952521504 0 0.017215416771479322 -0.010953156034128607 0 0.0081427270931193549 -0.014732694436545034 0 0.0080898176261418216 -0.015095639872295601 0 0.0085144622580865352 -0.015370986729150922 0 0.011966842408782527 -0.014250019038738612 0 0.01319121226938375 -0.013380905298148657 0 0.015920126590987457 -0.013415133706936195 0 0.016046480893239547 -0.013409908907469901 0 0.015949672606663606 -0.013512086451889555 0 0.0080898176261418216 -0.015095639872295601 0 0.0078965476914062607 -0.015188887159939568 0 0.0078379200179462746 -0.014891806800424994 0 0.0080898176261418216 -0.015095639872295601 0 0.0078965476914062607 -0.015188887159939568 0 0.0080858419388329071 -0.015311458461444029 0 0.0078965476914062607 -0.015188887159939568 0 0.0075573065803583922 -0.015149073200473803 0 0.0075123784498925634 -0.015560941753470245 0 0.0078965476914062607 -0.015188887159939568 0 0.0078379200179462746 -0.014891806800424994 0 0.0075573065803583922 -0.015149073200473803 0 0.0078379200179462746 -0.014891806800424994 0 0.0074015318829326795 -0.014935642038360545 0 0.0075573065803583922 -0.015149073200473803 0 0.0081427270931193549 -0.014732694436545034 0 0.0080898176261418216 -0.015095639872295601 0 0.0078379200179462746 -0.014891806800424994 0 0.0081427270931193549 -0.014732694436545034 0 0.0080375995360953949 -0.014626860279013694 0 0.0080186683688899165 -0.014457013660956239 0 0.0080375995360953949 -0.014626860279013694 0 0.0075587121618956102 -0.014688375220987164 0 0.0073141000258745044 -0.014290119298057936 0 0.0080083719543529337 -0.014604106169206285 0 0.0076352698732964578 -0.014416425045839679 0 0.011966842408782527 -0.014250019038738612 0 0.0119253449249507 -0.013888924763088313 0 0.0081427270931193549 -0.014732694436545034 0 0.0078379200179462746 -0.014891806800424994 0 0.0080375995360953949 -0.014626860279013694 0 0.0078379200179462746 -0.014891806800424994 0 0.0075587121618956102 -0.014688375220987164 0 0.0074015318829326795 -0.014935642038360545 0 0.0078379200179462746 -0.014891806800424994 0 0.0080375995360953949 -0.014626860279013694 0 0.0075587121618956102 -0.014688375220987164 0 0.0070923322386929446 -0.014619304187763015 0 0.0075587121618956102 -0.014688375220987164 0 0.0073141000258745044 -0.014290119298057936 0 0.0070923322386929446 -0.014619304187763015 0 0.0075587121618956102 -0.014688375220987164 0 0.0074015318829326795 -0.014935642038360545 0 0.0070923322386929446 -0.014619304187763015 0 0.0074015318829326795 -0.014935642038360545 0 0.0069970036822322871 -0.014933291394619483 0 0.0074015318829326795 -0.014935642038360545 0 0.007126253257390849 -0.015190511946044566 0 0.0069970036822322871 -0.014933291394619483 0 0.0075573065803583922 -0.015149073200473803 0 0.007126253257390849 -0.015190511946044566 0 0.0075123784498925634 -0.015560941753470245 0 0.0074015318829326795 -0.014935642038360545 0 0.0075573065803583922 -0.015149073200473803 0 0.007126253257390849 -0.015190511946044566 0 0.007126253257390849 -0.015190511946044566 0 0.0066983448597488096 -0.015073311224732258 0 0.0064967821347891161 -0.015365330674600497 0 0.007126253257390849 -0.015190511946044566 0 0.0066983448597488096 -0.015073311224732258 0 0.0069970036822322871 -0.014933291394619483 0 0.0066983448597488096 -0.015073311224732258 0 0.0069970036822322871 -0.014933291394619483 0 0.0066156294465401586 -0.014771208212227186 0 0.0059239629712680942 -0.014959549101352169 0 0.0063737225665998253 -0.015105979080251309 0 0.0058851805131204813 -0.014938817256336416 0 0.0062214747927305369 -0.014958199268374835 0 0.0064967821347891161 -0.015365330674600497 0 0.0066983448597488096 -0.015073311224732258 0 0.0062214747927305369 -0.014958199268374835 0 0.0066156294465401586 -0.014771208212227186 0 0.0066983448597488096 -0.015073311224732258 0 0.0062214747927305369 -0.014958199268374835 0 0.0064967821347891161 -0.015365330674600497 0 0.0062214747927305369 -0.014958199268374835 0 0.0060516767996971234 -0.014703997014814212 0 0.0066156294465401586 -0.014771208212227186 0 0.0060516767996971234 -0.014703997014814212 0 0.0066156294465401586 -0.014771208212227186 0 0.0066826415596288463 -0.014066766074923288 0 0.0070923322386929446 -0.014619304187763015 0 0.0066156294465401586 -0.014771208212227186 0 0.0066826415596288463 -0.014066766074923288 0 0.0070923322386929446 -0.014619304187763015 0 0.0069970036822322871 -0.014933291394619483 0 0.0066156294465401586 -0.014771208212227186 0 0.0072737241211862178 -0.014218196844163195 0 0.0076352698732964578 -0.014416425045839679 0 0.007853505105373023 -0.014471719914085085 0 0.0079152947454902509 -0.014432421701231504 0 0.0079308606799913441 -0.014504221570258925 0 0.0070923322386929446 -0.014619304187763015 0 0.0066826415596288463 -0.014066766074923288 0 0.0073141000258745044 -0.014290119298057936 0 0.0060516767996971234 -0.014703997014814212 0 0.0066826415596288463 -0.014066766074923288 0 0.0060119293174415679 -0.013758610065404147 0 0.0058670015751483354 -0.014521354478336735 0 0.0066652350504776111 -0.014699639057871394 0 0.0078474876989736222 -0.014336810566255605 0 0.007821176743672666 -0.014414665172956542 0 0.0077414246457614948 -0.014407817865370889 0 0.0072737241211862178 -0.014218196844163195 0 0.0066652350504776111 -0.014699639057871394 0 0.007853505105373023 -0.014471719914085085 0 0.0077421157048330729 -0.014434938392959677 0 0.007821176743672666 -0.014414665172956542 0 0.0077421157048330729 -0.014434938392959677 0 0.007821176743672666 -0.014414665172956542 0 0.0077414246457614948 -0.014407817865370889 0 0.0066652350504776111 -0.014699639057871394 0 0.0072746230361126624 -0.015622434408266691 0 0.007853505105373023 -0.014471719914085085 0 0.007821176743672666 -0.014414665172956542 0 0.0079152947454902509 -0.014432421701231504 0 0.0078474876989736222 -0.014336810566255605 0 0.007821176743672666 -0.014414665172956542 0 0.0079152947454902509 -0.014432421701231504 0 0.007995822013040086 -0.014379121080608103 0 0.0079152947454902509 -0.014432421701231504 0 0.0080186683688899165 -0.014457013660956239 0 0.0078474876989736222 -0.014336810566255605 0 0.007995822013040086 -0.014379121080608103 0 0.0079152947454902509 -0.014432421701231504 0 0.015700876266453327 -0.013263924987873937 0 0.015964201820294701 -0.013309111030978924 0 0.015873330765940431 -0.013363390776658908 0 0.012015321370870458 -0.013728888025198114 0 0.0119253449249507 -0.013888924763088313 0 0.0080375995360953949 -0.014626860279013694 0 0.0080186683688899165 -0.014457013660956239 0 0.0079308606799913441 -0.014504221570258925 0 0.0079152947454902509 -0.014432421701231504 0 0.0080186683688899165 -0.014457013660956239 0 0.0079308606799913441 -0.014504221570258925 0 0.014999693676259408 -0.013133566661791196 0 0.015072980214126279 -0.01392541886351749 0 0.014937980724802437 -0.014514181190025522 0 0.014999887062988717 -0.013132131189056831 0 0.015153476226896693 -0.0132885366907963 0 0.014999693676259408 -0.013133566661791196 0 0.015107030506513498 -0.013546989738327938 0 0.015072980214126279 -0.01392541886351749 0 0.015318930348673496 -0.012836805363523459 0 0.015147107768371042 -0.012997122233748794 0 0.015398085008472905 -0.013101475147761506 0 0.015318930348673496 -0.012836805363523459 0 0.015147107768371042 -0.012997122233748794 0 0.015227008711988142 -0.012630820130714723 0 0.015107030506513498 -0.013546989738327938 0 0.015134564730332711 -0.013872803436593773 0 0.015273037487726378 -0.013841492292368984 0 0.015153476226896693 -0.0132885366907963 0 0.015056186160376482 -0.013231315724891651 0 0.015134564730332711 -0.013872803436593773 0 0.015072980214126279 -0.01392541886351749 0 0.015143344400983591 -0.014036637404953874 0 0.015107030506513498 -0.013546989738327938 0 0.015134564730332711 -0.013872803436593773 0 0.015072980214126279 -0.01392541886351749 0 0.015072980214126279 -0.01392541886351749 0 0.015143344400983591 -0.014036637404953874 0 0.014947969985939009 -0.014409655064781476 0 0.01501005875156523 -0.01393281714485415 0 0.015056186160376482 -0.013231315724891651 0 0.015134564730332711 -0.013872803436593773 0 0.015143344400983591 -0.014036637404953874 0 0.015273037487726378 -0.013841492292368984 0 0.014999693676259408 -0.013133566661791196 0 0.014937980724802437 -0.014514181190025522 0 0.014998503822181083 -0.014999593001873524 0 0.014937980724802437 -0.014514181190025522 0 0.014998503822181083 -0.014999593001873524 0 0.014111094344903064 -0.014999389220653334 0 0.014111094344903064 -0.014999389220653334 0 0.014947969985939009 -0.014409655064781476 0 0.015129194202183206 -0.014470476354901727 0 0.014937980724802437 -0.014514181190025522 0 0.014111094344903064 -0.014999389220653334 0 0.014947969985939009 -0.014409655064781476 0 0.015143344400983591 -0.014036637404953874 0 0.014947969985939009 -0.014409655064781476 0 0.015129194202183206 -0.014470476354901727 0 0.015072980214126279 -0.01392541886351749 0 0.014937980724802437 -0.014514181190025522 0 0.014947969985939009 -0.014409655064781476 0 0.014462156383831611 -0.015164880282816035 0 0.014097353155008648 -0.014151107223340686 0 0.013887394389014578 -0.015606220721303896 0 0.013372137780528431 -0.015612613049974893 0 0.013678502761850786 -0.016172419936778232 0 0.014107788032677935 -0.014999986311972345 0 0.013887394389014578 -0.015606220721303896 0 0.013311983472030968 -0.014999990164770277 0 0.01423624903420378 -0.014912257620088213 0 0.014462156383831611 -0.015164880282816035 0 0.013311983472030968 -0.014999990164770277 0 0.013372137780528431 -0.015612613049974893 0 0.012846811747874656 -0.015424282761520133 0 0.013887394389014578 -0.015606220721303896 0 0.013311983472030968 -0.014999990164770277 0 0.013372137780528431 -0.015612613049974893 0 0.013372137780528431 -0.015612613049974893 0 0.013678502761850786 -0.016172419936778232 0 0.013056812838284646 -0.015892520864721742 0 0.014097353155008648 -0.014151107223340686 0 0.013415546360101161 -0.015135838676081146 0 0.013286896169410846 -0.01390903103853265 0 0.013980660650447093 -0.013573423732921152 0 0.013923282861680977 -0.014230593708679318 0 0.015143344400983591 -0.014036637404953874 0 0.015129194202183206 -0.014470476354901727 0 0.015395984869403148 -0.014006169218225471 0 0.015143344400983591 -0.014036637404953874 0 0.015395984869403148 -0.014006169218225471 0 0.015190618092882467 -0.013897314637465529 0 0.014097353155008648 -0.014151107223340686 0 0.015056186160376482 -0.013231315724891651 0 0.014456814140101809 -0.012353131401399629 0 0.014215259418798597 -0.012526874055591605 0 0.014419121669132845 -0.011992768682278688 0 0.015318930348673496 -0.012836805363523459 0 0.015398085008472905 -0.013101475147761506 0 0.015511286291612662 -0.012609648822684331 0 0.014456814140101809 -0.012353131401399629 0 0.014659177053520048 -0.012162831918880465 0 0.014419121669132845 -0.011992768682278688 0 0.014505649281620648 -0.012671504365675263 0 0.014456814140101809 -0.012353131401399629 0 0.014215259418798597 -0.012526874055591605 0 0.015056186160376482 -0.013231315724891651 0 0.01494034603411809 -0.012230069532886721 0 0.014505649281620648 -0.012671504365675263 0 0.014456814140101809 -0.012353131401399629 0 0.014659177053520048 -0.012162831918880465 0 0.013286896169410846 -0.01390903103853265 0 0.013537139800192147 -0.013196370841416834 0 0.013980660650447093 -0.013573423732921152 0 0.013537139800192147 -0.013196370841416834 0 0.013980660650447093 -0.013573423732921152 0 0.014059025924983544 -0.012978888215240432 0 0.014097353155008648 -0.014151107223340686 0 0.014115157518738935 -0.012524687099808316 0 0.013980660650447093 -0.013573423732921152 0 0.014403584857251867 -0.013101955607343653 0 0.014059025924983544 -0.012978888215240432 0 0.013980660650447093 -0.013573423732921152 0 0.014409111833641939 -0.013803874466662302 0 0.014403584857251867 -0.013101955607343653 0 0.014409111833641939 -0.013803874466662302 0 0.0149065283406845 -0.013092254674013329 0 0.014403584857251867 -0.013101955607343653 0 0.014409111833641939 -0.013803874466662302 0 0.014437424831620145 -0.014202665878728874 0 0.013923282861680977 -0.014230593708679318 0 0.014409111833641939 -0.013803874466662302 0 0.014437424831620145 -0.014202665878728874 0 0.014636499109246097 -0.014203649157993038 0 0.013980660650447093 -0.013573423732921152 0 0.014409111833641939 -0.013803874466662302 0 0.013923282861680977 -0.014230593708679318 0 0.013311983472030968 -0.014999990164770277 0 0.012846811747874656 -0.015424282761520133 0 0.012062592075131899 -0.014999992569412764 0 0.013056812838284646 -0.015892520864721742 0 0.012846811747874656 -0.015424282761520133 0 0.012420655706203435 -0.015605101518498855 0 0.013372137780528431 -0.015612613049974893 0 0.013056812838284646 -0.015892520864721742 0 0.012846811747874656 -0.015424282761520133 0 0.013415546360101161 -0.015135838676081146 0 0.013434568234716586 -0.01510817889056232 0 0.012846811747874656 -0.015424282761520133 0 0.012420655706203435 -0.015605101518498855 0 0.012062592075131899 -0.014999992569412764 0 0.014437424831620145 -0.014202665878728874 0 0.013923282861680977 -0.014230593708679318 0 0.014443943954727222 -0.014580363075016575 0 0.014437424831620145 -0.014202665878728874 0 0.014443943954727222 -0.014580363075016575 0 0.014439262225723698 -0.014519243879261564 0 0.014443943954727222 -0.014580363075016575 0 0.014439262225723698 -0.014519243879261564 0 0.014160630056935309 -0.014990034563650173 0 0.014437424831620145 -0.014202665878728874 0 0.014439262225723698 -0.014519243879261564 0 0.014636499109246097 -0.014203649157993038 0 0.014439262225723698 -0.014519243879261564 0 0.014547723371443307 -0.014523214611863065 0 0.014636499109246097 -0.014203649157993038 0 0.014547723371443307 -0.014523214611863065 0 0.014982915886529788 -0.014327939352899895 0 0.014636499109246097 -0.014203649157993038 0 0.014547723371443307 -0.014523214611863065 0 0.014160630056935309 -0.014990034563650173 0 0.014982915886529788 -0.014327939352899895 0 0.014439262225723698 -0.014519243879261564 0 0.014547723371443307 -0.014523214611863065 0 0.014160630056935309 -0.014990034563650173 0 0.013434568234716586 -0.01510817889056232 0 0.012853136205397433 -0.01517128163003152 0 0.012420655706203435 -0.015605101518498855 0 0.012062592075131899 -0.014999992569412764 0 0.011778285325653387 -0.015305859458263049 0 0.014443943954727222 -0.014580363075016575 0 0.013901432435550809 -0.014946752084175128 0 0.014160630056935309 -0.014990034563650173 0 0.011137763285898921 -0.01500000096311227 0 0.012062592075131899 -0.014999992569412764 0 0.011778285325653387 -0.015305859458263049 0 0.011139923681332665 -0.014998033382329251 0 0.011408299122240718 -0.016155351504332355 0 0.013901432435550809 -0.014946752084175128 0 0.01113843054715811 -0.015000011545311512 0 0.012853136205397433 -0.01517128163003152 0 0.015702259600002526 -0.014372433052117035 0 0.014160630056935309 -0.014990034563650173 0 0.014982915886529788 -0.014327939352899895 0 0.011408299122240718 -0.016155351504332355 0 0.013901432435550809 -0.014946752084175128 0 0.014160630056935309 -0.014990034563650173 0 0.013593462307423919 -0.015195789168739733 0 0.014090375858403156 -0.015039919111374875 0 0.015711270703318743 -0.013641963545134327 0 0.014982915886529788 -0.014327939352899895 0 0.015011096912263704 -0.013647961996508725 0 0.015702259600002526 -0.014372433052117035 0 0.015711270703318743 -0.013641963545134327 0 0.014982915886529788 -0.014327939352899895 0 0.014409111833641939 -0.013803874466662302 0 0.014636499109246097 -0.014203649157993038 0 0.015011096912263704 -0.013647961996508725 0 0.014982915886529788 -0.014327939352899895 0 0.014636499109246097 -0.014203649157993038 0 0.015011096912263704 -0.013647961996508725 0 0.014409111833641939 -0.013803874466662302 0 0.015011096912263704 -0.013647961996508725 0 0.0149065283406845 -0.013092254674013329 0 0.015011096912263704 -0.013647961996508725 0 0.01543278010031314 -0.013043235544312822 0 0.0149065283406845 -0.013092254674013329 0 0.015711270703318743 -0.013641963545134327 0 0.015011096912263704 -0.013647961996508725 0 0.01543278010031314 -0.013043235544312822 0 0.016070096788790171 -0.013038934270092412 0 0.01543278010031314 -0.013043235544312822 0 0.0156301425911409 -0.012335517141960886 0 0.01543278010031314 -0.013043235544312822 0 0.0149065283406845 -0.013092254674013329 0 0.01506397353116483 -0.01244469156623028 0 0.01543278010031314 -0.013043235544312822 0 0.01506397353116483 -0.01244469156623028 0 0.0156301425911409 -0.012335517141960886 0 0.01506397353116483 -0.01244469156623028 0 0.0156301425911409 -0.012335517141960886 0 0.015221793975583136 -0.011934124869807832 0 0.016170145720912847 -0.012305962294854152 0 0.0156301425911409 -0.012335517141960886 0 0.015993031326012014 -0.011742465095011222 0 0.0156301425911409 -0.012335517141960886 0 0.015993031326012014 -0.011742465095011222 0 0.015560252219479815 -0.011623239965480248 0 0.016327428138406569 -0.011257916686444892 0 0.015993031326012014 -0.011742465095011222 0 0.015685482790489629 -0.011137843440766569 0 0.015993031326012014 -0.011742465095011222 0 0.015685482790489629 -0.011137843440766569 0 0.015560252219479815 -0.011623239965480248 0 0.016327428138406569 -0.011257916686444892 0 0.015685482790489629 -0.011137843440766569 0 0.015953762550684258 -0.010745556294019536 0 0.015685482790489629 -0.011137843440766569 0 0.015560252219479815 -0.011623239965480248 0 0.015284264619368415 -0.011121295546251873 0 0.015685482790489629 -0.011137843440766569 0 0.015284264619368415 -0.011121295546251873 0 0.015528372276028412 -0.01079930530326581 0 0.015560252219479815 -0.011623239965480248 0 0.015072801694749182 -0.011513422247829837 0 0.015284264619368415 -0.011121295546251873 0 0.0156301425911409 -0.012335517141960886 0 0.015560252219479815 -0.011623239965480248 0 0.015221793975583136 -0.011934124869807832 0 0.015560252219479815 -0.011623239965480248 0 0.015221793975583136 -0.011934124869807832 0 0.015072801694749182 -0.011513422247829837 0 0.015221793975583136 -0.011934124869807832 0 0.015072801694749182 -0.011513422247829837 0 0.014719115887859206 -0.012115460997825655 0 0.015072801694749182 -0.011513422247829837 0 0.015284264619368415 -0.011121295546251873 0 0.015084450336497314 -0.011064232545705172 0 0.015072801694749182 -0.011513422247829837 0 0.014903923068290564 -0.011265784394381901 0 0.01472568863648566 -0.011496763441339758 0 0.015072801694749182 -0.011513422247829837 0 0.015084450336497314 -0.011064232545705172 0 0.014903923068290564 -0.011265784394381901 0 0.014903923068290564 -0.011265784394381901 0 0.01472568863648566 -0.011496763441339758 0 0.014923765924963795 -0.011326148697910498 0 0.014662837479395351 -0.011547299227918384 0 0.014356909906365184 -0.01209338583244576 0 0.015072801694749182 -0.011513422247829837 0 0.01472568863648566 -0.011496763441339758 0 0.014719115887859206 -0.012115460997825655 0 0.014719115887859206 -0.012115460997825655 0 0.014398910053337844 -0.012632980613134302 0 0.013940733834020618 -0.012362750530808073 0 0.01472568863648566 -0.011496763441339758 0 0.014719115887859206 -0.012115460997825655 0 0.013940733834020618 -0.012362750530808073 0 0.01506397353116483 -0.01244469156623028 0 0.015221793975583136 -0.011934124869807832 0 0.014719115887859206 -0.012115460997825655 0 0.01506397353116483 -0.01244469156623028 0 0.014719115887859206 -0.012115460997825655 0 0.014713204437187615 -0.012697578750700898 0 0.014719115887859206 -0.012115460997825655 0 0.014713204437187615 -0.012697578750700898 0 0.014398910053337844 -0.012632980613134302 0 0.0149065283406845 -0.013092254674013329 0 0.01506397353116483 -0.01244469156623028 0 0.014713204437187615 -0.012697578750700898 0 0.0149065283406845 -0.013092254674013329 0 0.014713204437187615 -0.012697578750700898 0 0.014403584857251867 -0.013101955607343653 0 0.014059025924983544 -0.012978888215240432 0 0.014398910053337844 -0.012632980613134302 0 0.013940733834020618 -0.012362750530808073 0 0.014403584857251867 -0.013101955607343653 0 0.014059025924983544 -0.012978888215240432 0 0.014398910053337844 -0.012632980613134302 0 0.014713204437187615 -0.012697578750700898 0 0.014403584857251867 -0.013101955607343653 0 0.014398910053337844 -0.012632980613134302 0 0.014115157518738935 -0.012524687099808316 0 0.014356909906365184 -0.01209338583244576 0 0.014659177053520048 -0.012162831918880465 0 0.014419121669132845 -0.011992768682278688 0 0.014760589617003269 -0.011723015095644548 0 0.013537139800192147 -0.013196370841416834 0 0.014059025924983544 -0.012978888215240432 0 0.013940733834020618 -0.012362750530808073 0 0.015511286291612662 -0.012609648822684331 0 0.015312302508591379 -0.012225240160884724 0 0.015227008711988142 -0.012630820130714723 0 0.01494034603411809 -0.012230069532886721 0 0.014999982050085887 -0.011784562083911604 0 0.015511286291612662 -0.012609648822684331 0 0.015312302508591379 -0.012225240160884724 0 0.015434229603247239 -0.011897685263436732 0 0.015312302508591379 -0.012225240160884724 0 0.015434229603247239 -0.011897685263436732 0 0.0151838623227545 -0.011829684594033663 0 0.014419121669132845 -0.011992768682278688 0 0.014618787470729899 -0.01158604461871459 0 0.014760589617003269 -0.011723015095644548 0 0.015434229603247239 -0.011897685263436732 0 0.014923765924963795 -0.011326148697910498 0 0.015136778757919104 -0.011546297653698931 0 0.01472568863648566 -0.011496763441339758 0 0.014618787470729899 -0.01158604461871459 0 0.014760589617003269 -0.011723015095644548 0 0.01472568863648566 -0.011496763441339758 0 0.014618787470729899 -0.01158604461871459 0 0.014923765924963795 -0.011326148697910498 0 0.014999982050085887 -0.011784562083911604 0 0.014949002493506478 -0.011402495407653245 0 0.014923765924963795 -0.011326148697910498 0 0.01495093933084974 -0.011190813899701895 0 0.015136778757919104 -0.011546297653698931 0 0.014903923068290564 -0.011265784394381901 0 0.014923765924963795 -0.011326148697910498 0 0.014985478579780916 -0.010900882851330833 0 0.01495093933084974 -0.011190813899701895 0 0.015024389866509336 -0.011445853333466148 0 0.015136778757919104 -0.011546297653698931 0 0.01495093933084974 -0.011190813899701895 0 0.015024389866509336 -0.011445853333466148 0 0.014880557215752481 -0.011154592507957044 0 0.015024389866509336 -0.011445853333466148 0 0.015136778757919104 -0.011546297653698931 0 0.0151838623227545 -0.011829684594033663 0 0.015434229603247239 -0.011897685263436732 0 0.015136778757919104 -0.011546297653698931 0 0.0151838623227545 -0.011829684594033663 0 0.015041739741805407 -0.011729283689925039 0 0.015061500466564709 -0.012090235688330222 0 0.015177719936397544 -0.012159355903869367 0 0.015024389866509336 -0.011445853333466148 0 0.0151838623227545 -0.011829684594033663 0 0.015041739741805407 -0.011729283689925039 0 0.0151838623227545 -0.011829684594033663 0 0.015041739741805407 -0.011729283689925039 0 0.015177719936397544 -0.012159355903869367 0 0.015024389866509336 -0.011445853333466148 0 0.015041739741805407 -0.011729283689925039 0 0.014906695013554011 -0.011259082982286501 0 0.015024389866509336 -0.011445853333466148 0 0.014906695013554011 -0.011259082982286501 0 0.014880557215752481 -0.011154592507957044 0 0.015041739741805407 -0.011729283689925039 0 0.014906695013554011 -0.011259082982286501 0 0.014999734173805597 -0.011786226858786128 0 0.014906695013554011 -0.011259082982286501 0 0.014999734173805597 -0.011786226858786128 0 0.014999559484834153 -0.011114923056667426 0 0.015041739741805407 -0.011729283689925039 0 0.014999734173805597 -0.011786226858786128 0 0.015061500466564709 -0.012090235688330222 0 0.014999734173805597 -0.011786226858786128 0 0.015061500466564709 -0.012090235688330222 0 0.014999755127687364 -0.012459476666972818 0 0.015061500466564709 -0.012090235688330222 0 0.015177719936397544 -0.012159355903869367 0 0.015106604115776617 -0.012660272546424363 0 0.015061500466564709 -0.012090235688330222 0 0.014999755127687364 -0.012459476666972818 0 0.015106604115776617 -0.012660272546424363 0 0.015312302508591379 -0.012225240160884724 0 0.015177719936397544 -0.012159355903869367 0 0.015227008711988142 -0.012630820130714723 0 0.015177719936397544 -0.012159355903869367 0 0.015227008711988142 -0.012630820130714723 0 0.015106604115776617 -0.012660272546424363 0 0.015312302508591379 -0.012225240160884724 0 0.0151838623227545 -0.011829684594033663 0 0.015177719936397544 -0.012159355903869367 0 0.015147107768371042 -0.012997122233748794 0 0.015227008711988142 -0.012630820130714723 0 0.015106604115776617 -0.012660272546424363 0 0.015318930348673496 -0.012836805363523459 0 0.015511286291612662 -0.012609648822684331 0 0.015227008711988142 -0.012630820130714723 0 0.014999796256446544 -0.013131197219793229 0 0.015147107768371042 -0.012997122233748794 0 0.015106604115776617 -0.012660272546424363 0 0.014999796256446544 -0.013131197219793229 0 0.014999755127687364 -0.012459476666972818 0 0.015106604115776617 -0.012660272546424363 0 0.015430863063561985 -0.0097719109798738192 0 0.014999989871239577 -0.0093930146302573167 0 0.014999996607802244 -0.010253509688533488 0 0.014355269151354705 -0.0092878280651457826 0 0.01469962696883528 -0.0094185711177750438 0 0.01465504358941082 -0.0089511262302263642 0 0.014775481798197255 -0.010538695132507426 0 0.014584383750133901 -0.0096873356250117247 0 0.014355269151354705 -0.0092878280651457826 0 0.01436849059050653 -0.0098180989628268382 0 0.01469962696883528 -0.0094185711177750438 0 0.014908911424096762 -0.0094548751560293957 0 0.014775481798197255 -0.010538695132507426 0 0.015430863063561985 -0.0097719109798738192 0 0.014999996607802244 -0.010253509688533488 0 0.01544834790509913 -0.010598813471463861 0 0.014999996607802244 -0.010253509688533488 0 0.01544834790509913 -0.010598813471463861 0 0.01499999638994459 -0.011113992747307422 0 0.014775481798197255 -0.010538695132507426 0 0.015000169603527942 -0.011114084918891598 0 0.014846727434197848 -0.011377234061796488 0 0.014775481798197255 -0.010538695132507426 0 0.014906695013554011 -0.011259082982286501 0 0.014935116780906412 -0.011224136222557969 0 0.014999559484834153 -0.011114923056667426 0 0.014906695013554011 -0.011259082982286501 0 0.014447192484648744 -0.010730992218275962 0 0.01472415710153563 -0.010920787046089616 0 0.014906695013554011 -0.011259082982286501 0 0.01472415710153563 -0.010920787046089616 0 0.014880557215752481 -0.011154592507957044 0 0.014447192484648744 -0.010730992218275962 0 0.014694055377993381 -0.010598217943654316 0 0.014526750590636222 -0.010061000143365905 0 0.014447192484648744 -0.010730992218275962 0 0.01472415710153563 -0.010920787046089616 0 0.014694055377993381 -0.010598217943654316 0 0.014694055377993381 -0.010598217943654316 0 0.01490591586567068 -0.010445332552327272 0 0.014526750590636222 -0.010061000143365905 0 0.014694055377993381 -0.010598217943654316 0 0.014853513537672045 -0.010822753386884326 0 0.01490591586567068 -0.010445332552327272 0 0.01472415710153563 -0.010920787046089616 0 0.014694055377993381 -0.010598217943654316 0 0.014853513537672045 -0.010822753386884326 0 0.01472415710153563 -0.010920787046089616 0 0.014853513537672045 -0.010822753386884326 0 0.014880557215752481 -0.011154592507957044 0 0.01495093933084974 -0.011190813899701895 0 0.014853513537672045 -0.010822753386884326 0 0.014880557215752481 -0.011154592507957044 0 0.014923765924963795 -0.011326148697910498 0 0.01495093933084974 -0.011190813899701895 0 0.014985478579780916 -0.010900882851330833 0 0.01495093933084974 -0.011190813899701895 0 0.014853513537672045 -0.010822753386884326 0 0.014985478579780916 -0.010900882851330833 0 0.014985478579780916 -0.010900882851330833 0 0.01490591586567068 -0.010445332552327272 0 0.015125873711388658 -0.010279317751548795 0 0.014853513537672045 -0.010822753386884326 0 0.014985478579780916 -0.010900882851330833 0 0.01490591586567068 -0.010445332552327272 0 0.01490591586567068 -0.010445332552327272 0 0.014983242398207201 -0.0099063643181511712 0 0.015125873711388658 -0.010279317751548795 0 0.01490591586567068 -0.010445332552327272 0 0.014983242398207201 -0.0099063643181511712 0 0.014526750590636222 -0.010061000143365905 0 0.014983242398207201 -0.0099063643181511712 0 0.014526750590636222 -0.010061000143365905 0 0.014938973837792654 -0.0091317554585056571 0 0.014584383750133901 -0.0096873356250117247 0 0.014954913624241643 -0.0091751829500189112 0 0.01469962696883528 -0.0094185711177750438 0 0.014938973837792654 -0.0091317554585056571 0 0.01465504358941082 -0.0089511262302263642 0 0.014983242398207201 -0.0099063643181511712 0 0.014938973837792654 -0.0091317554585056571 0 0.015278974978274839 -0.0095332251135725795 0 0.014938973837792654 -0.0091317554585056571 0 0.015278974978274839 -0.0095332251135725795 0 0.015430295109193914 -0.0089709126555888655 0 0.015278974978274839 -0.0095332251135725795 0 0.01535033037977176 -0.0099280828751539853 0 0.015630552806953156 -0.0092516535026934531 0 0.015278974978274839 -0.0095332251135725795 0 0.015630552806953156 -0.0092516535026934531 0 0.015430295109193914 -0.0089709126555888655 0 0.01535033037977176 -0.0099280828751539853 0 0.015578792639185461 -0.009903771760535968 0 0.015630552806953156 -0.0092516535026934531 0 0.015278974978274839 -0.0095332251135725795 0 0.01535033037977176 -0.0099280828751539853 0 0.015125873711388658 -0.010279317751548795 0 0.014983242398207201 -0.0099063643181511712 0 0.015278974978274839 -0.0095332251135725795 0 0.015125873711388658 -0.010279317751548795 0 0.01535033037977176 -0.0099280828751539853 0 0.015125873711388658 -0.010279317751548795 0 0.015292621657437652 -0.010550958330276743 0 0.014985478579780916 -0.010900882851330833 0 0.015125873711388658 -0.010279317751548795 0 0.015292621657437652 -0.010550958330276743 0 0.015084450336497314 -0.011064232545705172 0 0.014985478579780916 -0.010900882851330833 0 0.015292621657437652 -0.010550958330276743 0 0.015084450336497314 -0.011064232545705172 0 0.014903923068290564 -0.011265784394381901 0 0.014985478579780916 -0.010900882851330833 0 0.015284264619368415 -0.011121295546251873 0 0.015084450336497314 -0.011064232545705172 0 0.015292621657437652 -0.010550958330276743 0 0.015284264619368415 -0.011121295546251873 0 0.015292621657437652 -0.010550958330276743 0 0.015528372276028412 -0.01079930530326581 0 0.01535033037977176 -0.0099280828751539853 0 0.015292621657437652 -0.010550958330276743 0 0.015578792639185461 -0.009903771760535968 0 0.015292621657437652 -0.010550958330276743 0 0.015780693210877238 -0.010219321592980697 0 0.015578792639185461 -0.009903771760535968 0 0.015292621657437652 -0.010550958330276743 0 0.015780693210877238 -0.010219321592980697 0 0.015528372276028412 -0.01079930530326581 0 0.015685482790489629 -0.011137843440766569 0 0.015528372276028412 -0.01079930530326581 0 0.015953762550684258 -0.010745556294019536 0 0.015780693210877238 -0.010219321592980697 0 0.015528372276028412 -0.01079930530326581 0 0.015953762550684258 -0.010745556294019536 0 0.015953762550684258 -0.010745556294019536 0 0.016152071872955094 -0.010330295653259398 0 0.016355598744294719 -0.010736875584256986 0 0.015780693210877238 -0.010219321592980697 0 0.016152071872955094 -0.010330295653259398 0 0.016233732280550361 -0.0097317438150343379 0 0.015780693210877238 -0.010219321592980697 0 0.015953762550684258 -0.010745556294019536 0 0.016152071872955094 -0.010330295653259398 0 0.015780693210877238 -0.010219321592980697 0 0.015899475348284623 -0.0095243331137216825 0 0.016233732280550361 -0.0097317438150343379 0 0.015899475348284623 -0.0095243331137216825 0 0.016233732280550361 -0.0097317438150343379 0 0.016224495701382496 -0.0092706123640678949 0 0.015899475348284623 -0.0095243331137216825 0 0.015578792639185461 -0.009903771760535968 0 0.015630552806953156 -0.0092516535026934531 0 0.015780693210877238 -0.010219321592980697 0 0.015899475348284623 -0.0095243331137216825 0 0.015578792639185461 -0.009903771760535968 0 0.015899475348284623 -0.0095243331137216825 0 0.015630552806953156 -0.0092516535026934531 0 0.015983384970579908 -0.0088875322045746281 0 0.015899475348284623 -0.0095243331137216825 0 0.015983384970579908 -0.0088875322045746281 0 0.016224495701382496 -0.0092706123640678949 0 0.015983384970579908 -0.0088875322045746281 0 0.015751411060650346 -0.0087683642113000268 0 0.015921268190332238 -0.0083460198398124571 0 0.015630552806953156 -0.0092516535026934531 0 0.015983384970579908 -0.0088875322045746281 0 0.015751411060650346 -0.0087683642113000268 0 0.015751411060650346 -0.0087683642113000268 0 0.015921268190332238 -0.0083460198398124571 0 0.015594784887114585 -0.0084800344175603292 0 0.015983384970579908 -0.0088875322045746281 0 0.015921268190332238 -0.0083460198398124571 0 0.016177036234064784 -0.0085100203079728539 0 0.015921268190332238 -0.0083460198398124571 0 0.015962435409877258 -0.0079029416832688062 0 0.016140522397705911 -0.0081049759982331597 0 0.015962435409877258 -0.0079029416832688062 0 0.015696840417746348 -0.008011217404166996 0 0.015769283078359873 -0.0076485516953385714 0 0.015921268190332238 -0.0083460198398124571 0 0.015962435409877258 -0.0079029416832688062 0 0.015696840417746348 -0.008011217404166996 0 0.015921268190332238 -0.0083460198398124571 0 0.015696840417746348 -0.008011217404166996 0 0.015594784887114585 -0.0084800344175603292 0 0.015696840417746348 -0.008011217404166996 0 0.01538660593280766 -0.0081429484526958085 0 0.015594784887114585 -0.0084800344175603292 0 0.015696840417746348 -0.008011217404166996 0 0.015483940783822189 -0.0075914101830784602 0 0.015769283078359873 -0.0076485516953385714 0 0.015696840417746348 -0.008011217404166996 0 0.01538660593280766 -0.0081429484526958085 0 0.015483940783822189 -0.0075914101830784602 0 0.01538660593280766 -0.0081429484526958085 0 0.015171571386855509 -0.0079443399198592113 0 0.015483940783822189 -0.0075914101830784602 0 0.01538660593280766 -0.0081429484526958085 0 0.01526719696102141 -0.0086208441754859703 0 0.015594784887114585 -0.0084800344175603292 0 0.01526719696102141 -0.0086208441754859703 0 0.015594784887114585 -0.0084800344175603292 0 0.015430295109193914 -0.0089709126555888655 0 0.015630552806953156 -0.0092516535026934531 0 0.015751411060650346 -0.0087683642113000268 0 0.015430295109193914 -0.0089709126555888655 0 0.015751411060650346 -0.0087683642113000268 0 0.015594784887114585 -0.0084800344175603292 0 0.015430295109193914 -0.0089709126555888655 0 0.014938973837792654 -0.0091317554585056571 0 0.01526719696102141 -0.0086208441754859703 0 0.015430295109193914 -0.0089709126555888655 0 0.014938973837792654 -0.0091317554585056571 0 0.01526719696102141 -0.0086208441754859703 0 0.014962210014828963 -0.0083976249973445848 0 0.014938973837792654 -0.0091317554585056571 0 0.014962210014828963 -0.0083976249973445848 0 0.01465504358941082 -0.0089511262302263642 0 0.014962210014828963 -0.0083976249973445848 0 0.014882743659204556 -0.0080743032124163464 0 0.01466926504810382 -0.0083952475533624459 0 0.014962210014828963 -0.0083976249973445848 0 0.01466926504810382 -0.0083952475533624459 0 0.01465504358941082 -0.0089511262302263642 0 0.01538660593280766 -0.0081429484526958085 0 0.01526719696102141 -0.0086208441754859703 0 0.014962210014828963 -0.0083976249973445848 0 0.01538660593280766 -0.0081429484526958085 0 0.014962210014828963 -0.0083976249973445848 0 0.015171571386855509 -0.0079443399198592113 0 0.015171571386855509 -0.0079443399198592113 0 0.015222667136703328 -0.0075737610611299466 0 0.015483940783822189 -0.0075914101830784602 0 0.015222667136703328 -0.0075737610611299466 0 0.015011034220619415 -0.0076911276818891518 0 0.015028070064351223 -0.0073947740016083799 0 0.015171571386855509 -0.0079443399198592113 0 0.015222667136703328 -0.0075737610611299466 0 0.015011034220619415 -0.0076911276818891518 0 0.015171571386855509 -0.0079443399198592113 0 0.015011034220619415 -0.0076911276818891518 0 0.014882743659204556 -0.0080743032124163464 0 0.014962210014828963 -0.0083976249973445848 0 0.015171571386855509 -0.0079443399198592113 0 0.014882743659204556 -0.0080743032124163464 0 0.015011034220619415 -0.0076911276818891518 0 0.014882743659204556 -0.0080743032124163464 0 0.014541053387986124 -0.0079552867761397434 0 0.014882743659204556 -0.0080743032124163464 0 0.014541053387986124 -0.0079552867761397434 0 0.01466926504810382 -0.0083952475533624459 0 0.014541053387986124 -0.0079552867761397434 0 0.015037372702080061 -0.0073387282391199349 0 0.015028070064351223 -0.0073947740016083799 0 0.015011034220619415 -0.0076911276818891518 0 0.014541053387986124 -0.0079552867761397434 0 0.015028070064351223 -0.0073947740016083799 0 0.014999758996496764 -0.0076717418887123096 0 0.015363863884525816 -0.0080911932235541092 0 0.015037372702080061 -0.0073387282391199349 0 0.014955344671559817 -0.0080395372090511577 0 0.015021976158536121 -0.0074172987654676529 0 0.014999758996496764 -0.0076717418887123096 0 0.015363863884525816 -0.0080911932235541092 0 0.015000020547554577 -0.0085325540118524109 0 0.015363863884525816 -0.0080911932235541092 0 0.015000020547554577 -0.0085325540118524109 0 0.015413041806743794 -0.0089458562432877791 0 0.014955344671559817 -0.0080395372090511577 0 0.014886255059095055 -0.0088434962861310348 0 0.014541053387986124 -0.0079552867761397434 0 0.01466926504810382 -0.0083952475533624459 0 0.01434972906809363 -0.0087049419749171669 0 0.01466926504810382 -0.0083952475533624459 0 0.01465504358941082 -0.0089511262302263642 0 0.01434972906809363 -0.0087049419749171669 0 0.014355269151354705 -0.0092878280651457826 0 0.01465504358941082 -0.0089511262302263642 0 0.01434972906809363 -0.0087049419749171669 0 0.014999989871239577 -0.0093930146302573167 0 0.015000020547554577 -0.0085325540118524109 0 0.015413041806743794 -0.0089458562432877791 0 0.014908911424096762 -0.0094548751560293957 0 0.014886255059095055 -0.0088434962861310348 0 0.015430863063561985 -0.0097719109798738192 0 0.014999989871239577 -0.0093930146302573167 0 0.015413041806743794 -0.0089458562432877791 0 0.011210998278774321 -0.0092589301267818822 0 0.010568383966589432 -0.0098632037837103927 0 0.011931022290748531 -0.0099536499514293903 0 0.011210998278774321 -0.0092589301267818822 0 0.010568383966589432 -0.0098632037837103927 0 0.010208922662839849 -0.0092264285298276887 0 0.010568383966589432 -0.0098632037837103927 0 0.010208922662839849 -0.0092264285298276887 0 0.0092228282985841892 -0.0098013340032666769 0 0.01054244877581679 -0.0086395736699954821 0 0.0096183434606948431 -0.0088007096598100888 0 0.010027059821529717 -0.0077739459201810685 0 0.010208922662839849 -0.0092264285298276887 0 0.01054244877581679 -0.0086395736699954821 0 0.0096183434606948431 -0.0088007096598100888 0 0.01054244877581679 -0.0086395736699954821 0 0.011131931329291311 -0.0085342758700252819 0 0.010737614488801603 -0.0082284653045321312 0 0.011210998278774321 -0.0092589301267818822 0 0.010208922662839849 -0.0092264285298276887 0 0.01054244877581679 -0.0086395736699954821 0 0.011210998278774321 -0.0092589301267818822 0 0.01054244877581679 -0.0086395736699954821 0 0.011131931329291311 -0.0085342758700252819 0 0.011811478839354879 -0.0085872482427684846 0 0.011931028758084371 -0.008564762961666644 0 0.011931022290748531 -0.0099536499514293903 0 0.0096074350162727324 -0.0089549549629685827 0 0.0089210526936350891 -0.0090848543102526151 0 0.011210998278774321 -0.0092589301267818822 0 0.011131931329291311 -0.0085342758700252819 0 0.011811478839354879 -0.0085872482427684846 0 0.007379630512734256 -0.0089570958857577397 0 0.0089210526936350891 -0.0090848543102526151 0 0.0060082811070947123 -0.014738031377372637 0 0.0060185998774227121 -0.014705975609539415 0 0.00601173270660443 -0.014758321302528096 0 0.0060257724063174437 -0.014823537725895151 0 0.00601173270660443 -0.014758321302528096 0 0.006005134334824992 -0.014774177865569383 0 0.0060185998774227121 -0.014705975609539415 0 0.00601173270660443 -0.014758321302528096 0 0.006005134334824992 -0.014774177865569383 0 0.0089210526936350891 -0.0090848543102526151 0 0.0084329083377588567 -0.013460169758185453 0 0.011210998278774321 -0.0092589301267818822 0 0.011811478839354879 -0.0085872482427684846 0 0.011931022290748531 -0.0099536499514293903 0 0.0066591342139635107 -0.014697146661379324 0 0.006281603899486606 -0.014451933676543934 0 0.0074713910782148018 -0.014182439184851266 0 0.0066591852032341619 -0.015183332818532897 0 0.0066591342139635107 -0.014697146661379324 0 0.0074713910782148018 -0.014182439184851266 0 0.0084329083377588567 -0.013460169758185453 0 0.0075583879177370849 -0.014799247715425916 0 0.0060257724063174437 -0.014823537725895151 0 0.0066591342139635107 -0.014697146661379324 0 0.006281603899486606 -0.014451933676543934 0 0.0052968302465408925 -0.014939870521219133 0 0.0084329083377588567 -0.013460169758185453 0 0.0060257724063174437 -0.014823537725895151 0 0.0066640189279350542 -0.014935052246534896 0 0.0066591342139635107 -0.014697146661379324 0 0.0059947992159797127 -0.01493727238922762 0 0.0058851805131204813 -0.014938817256336416 0 0.0062203311657934657 -0.01485038748681252 0 0.0059947992159797127 -0.01493727238922762 0 0.0060731161632287846 -0.015072065881329448 0 0.0062203311657934657 -0.01485038748681252 0 0.0061981085619038411 -0.014764454501090086 0 0.0072893967747536146 -0.014736331822440794 0 0.0060731161632287846 -0.015072065881329448 0 0.0062203311657934657 -0.01485038748681252 0 0.0068014450738377264 -0.015291215993803056 0 0.0063737225665998253 -0.015105979080251309 0 0.0073961615505216786 -0.015338454057414418 0 0.0062203311657934657 -0.01485038748681252 0 0.0068014450738377264 -0.015291215993803056 0 0.0072810411886466376 -0.015116378961676018 0 0.0072893967747536146 -0.014736331822440794 0 0.0078037796046935915 -0.014926065291596917 0 0.0068014450738377264 -0.015291215993803056 0 0.0072810411886466376 -0.015116378961676018 0 0.0077522757273382975 -0.015498597622569799 0 0.007126253257390849 -0.015190511946044566 0 0.0064967821347891161 -0.015365330674600497 0 0.0075123784498925634 -0.015560941753470245 0 0.0084565818478169776 -0.015244047622732468 0 0.0074713910782148018 -0.014182439184851266 0 0.0090247714994691752 -0.01410346879264196 0 0.0093892305604198773 -0.01260533259837901 0 0.0084329083377588567 -0.013460169758185453 0 0.0084565818478169776 -0.015244047622732468 0 0.0066591852032341619 -0.015183332818532897 0 0.0074713910782148018 -0.014182439184851266 0 0.0084565818478169776 -0.015244047622732468 0 0.0090247714994691752 -0.01410346879264196 0 0.0098297665438908718 -0.014522166607259272 0 0.0078965476914062607 -0.015188887159939568 0 0.0075123784498925634 -0.015560941753470245 0 0.0080858419388329071 -0.015311458461444029 0 0.0075123784498925634 -0.015560941753470245 0 0.0080858419388329071 -0.015311458461444029 0 0.0084205687410013937 -0.015493492543236564 0 0.0073961615505216786 -0.015338454057414418 0 0.0084323720797803547 -0.015544066388412475 0 0.0072810411886466376 -0.015116378961676018 0 0.0077522757273382975 -0.015498597622569799 0 0.0085003898330491927 -0.015560625632200399 0 0.0078037796046935915 -0.014926065291596917 0 0.012554087167697139 -0.013490383375611687 0 0.0080858419388329071 -0.015311458461444029 0 0.0084205687410013937 -0.015493492543236564 0 0.0085144622580865352 -0.015370986729150922 0 0.0075123784498925634 -0.015560941753470245 0 0.0085003898330491927 -0.015560625632200399 0 0.0084205687410013937 -0.015493492543236564 0 0.0077522757273382975 -0.015498597622569799 0 0.0085003898330491927 -0.015560625632200399 0 0.00874947221893921 -0.01569594900373519 0 0.0080898176261418216 -0.015095639872295601 0 0.0080858419388329071 -0.015311458461444029 0 0.0085144622580865352 -0.015370986729150922 0 0.0085003898330491927 -0.015560625632200399 0 0.0085667323975021133 -0.015264190739393928 0 0.00874947221893921 -0.01569594900373519 0 0.01319121226938375 -0.013380905298148657 0 0.012554087167697139 -0.013490383375611687 0 0.0085003898330491927 -0.015560625632200399 0 0.0084205687410013937 -0.015493492543236564 0 0.0085667323975021133 -0.015264190739393928 0 0.010610791477239024 -0.015633919620407683 0 0.01319121226938375 -0.013380905298148657 0 0.012554087167697139 -0.013490383375611687 0 0.016886260009329062 -0.010765724963958686 0 0.017549940459295438 -0.010911549952521504 0 0.017215416771479322 -0.010953156034128607 0 0.017416127323744705 -0.010631730260371626 0 0.01710630251548248 -0.01075966899564362 0 0.017416127323744705 -0.010631730260371626 0 0.016959124260569242 -0.01059597593999077 0 0.017215416771479322 -0.010953156034128607 0 0.01710630251548248 -0.01075966899564362 0 0.01699508648861834 -0.01089079501446126 0 0.017215416771479322 -0.010953156034128607 0 0.01710630251548248 -0.01075966899564362 0 0.017416127323744705 -0.010631730260371626 0 0.014505017918069404 -0.011480191979194504 0 0.015037165993698703 -0.011486158515963855 0 0.014750941158878862 -0.01200278425209173 0 0.015037165993698703 -0.011486158515963855 0 0.014862926367983554 -0.012005710522874908 0 0.014750941158878862 -0.01200278425209173 0 0.012554087167697139 -0.013490383375611687 0 0.013978966698762484 -0.011666343394730137 0 0.010661087063697594 -0.014093080822372013 0 0.010660276319995957 -0.014900291613092701 0 0.01120588014846295 -0.015277400152284147 0 0.010661087063697594 -0.014093080822372013 0 0.010660276319995957 -0.014900291613092701 0 0.01037469510755799 -0.014575463389375437 0 0.010660276319995957 -0.014900291613092701 0 0.010518178520037702 -0.015241862360200321 0 0.01120588014846295 -0.015277400152284147 0 0.010449931453873042 -0.013909144730330515 0 0.011297348558298064 -0.011274820589357748 0 0.0098297665438908718 -0.014522166607259272 0 0.01037469510755799 -0.014575463389375437 0 0.010497022063100383 -0.015283259373967724 0 0.010660276319995957 -0.014900291613092701 0 0.01037469510755799 -0.014575463389375437 0 0.010497022063100383 -0.015283259373967724 0 0.0084565818478169776 -0.015244047622732468 0 0.0098297665438908718 -0.014522166607259272 0 0.010497022063100383 -0.015283259373967724 0 0.0090247714994691752 -0.01410346879264196 0 0.010661087063697594 -0.014093080822372013 0 0.0098297665438908718 -0.014522166607259272 0 0.010661087063697594 -0.014093080822372013 0 0.0098297665438908718 -0.014522166607259272 0 0.01037469510755799 -0.014575463389375437 0 0.016327428138406569 -0.011257916686444892 0 0.015953762550684258 -0.010745556294019536 0 0.016355598744294719 -0.010736875584256986 0 0.016327428138406569 -0.011257916686444892 0 0.016355598744294719 -0.010736875584256986 0 0.016569433900198081 -0.010953358501716564 0 0.016152071872955094 -0.010330295653259398 0 0.016355598744294719 -0.010736875584256986 0 0.016598969134091181 -0.010486744236326695 0 0.016355598744294719 -0.010736875584256986 0 0.016569433900198081 -0.010953358501716564 0 0.016706618460477596 -0.010705102638134638 0 0.016355598744294719 -0.010736875584256986 0 0.016706618460477596 -0.010705102638134638 0 0.016598969134091181 -0.010486744236326695 0 0.016706618460477596 -0.010705102638134638 0 0.016972723364090527 -0.01055353889240635 0 0.016598969134091181 -0.010486744236326695 0 0.016706618460477596 -0.010705102638134638 0 0.016919150314473327 -0.01071674237645804 0 0.016972723364090527 -0.01055353889240635 0 0.016706618460477596 -0.010705102638134638 0 0.016825301372498217 -0.010876223178942964 0 0.016919150314473327 -0.01071674237645804 0 0.016919448452099771 -0.011122525806648832 0 0.016569433900198081 -0.010953358501716564 0 0.016825301372498217 -0.010876223178942964 0 0.016569433900198081 -0.010953358501716564 0 0.016706618460477596 -0.010705102638134638 0 0.016825301372498217 -0.010876223178942964 0 0.016919448452099771 -0.011122525806648832 0 0.017215416771479322 -0.010953156034128607 0 0.01699508648861834 -0.01089079501446126 0 0.016919448452099771 -0.011122525806648832 0 0.016825301372498217 -0.010876223178942964 0 0.01699508648861834 -0.01089079501446126 0 0.016825301372498217 -0.010876223178942964 0 0.01699508648861834 -0.01089079501446126 0 0.016919150314473327 -0.01071674237645804 0 0.01710630251548248 -0.01075966899564362 0 0.01699508648861834 -0.01089079501446126 0 0.016919150314473327 -0.01071674237645804 0 0.016912445817834073 -0.010698497094363487 0 0.016886260009329062 -0.010765724963958686 0 0.01710630251548248 -0.01075966899564362 0 0.016919150314473327 -0.01071674237645804 0 0.016959124260569242 -0.01059597593999077 0 0.016814411522016279 -0.010132473736023138 0 0.016233732280550361 -0.0097317438150343379 0 0.017312217548423943 -0.0098228714814644399 0 0.017103568033450072 -0.010490522364340032 0 0.016814411522016279 -0.010132473736023138 0 0.017312217548423943 -0.0098228714814644399 0 0.016886260009329062 -0.010765724963958686 0 0.015731024075790197 -0.010727442540471012 0 0.016886260009329062 -0.010765724963958686 0 0.016700846287282058 -0.010547140336034476 0 0.017103568033450072 -0.010490522364340032 0 0.016814411522016279 -0.010132473736023138 0 0.016598969134091181 -0.010486744236326695 0 0.016814411522016279 -0.010132473736023138 0 0.016598969134091181 -0.010486744236326695 0 0.016233732280550361 -0.0097317438150343379 0 0.016152071872955094 -0.010330295653259398 0 0.016598969134091181 -0.010486744236326695 0 0.016233732280550361 -0.0097317438150343379 0 0.016233732280550361 -0.0097317438150343379 0 0.016445085822369823 -0.0094188922258919647 0 0.016224495701382496 -0.0092706123640678949 0 0.016233732280550361 -0.0097317438150343379 0 0.016445085822369823 -0.0094188922258919647 0 0.016643223789531699 -0.0095071070107540425 0 0.016785171151061207 -0.0094320729396580906 0 0.015731024075790197 -0.010727442540471012 0 0.016445085822369823 -0.0094188922258919647 0 0.016528930419046652 -0.0093111684011043354 0 0.016438587430251856 -0.0091732140562679563 0 0.016445085822369823 -0.0094188922258919647 0 0.016582324351325763 -0.0094144614774229005 0 0.016643223789531699 -0.0095071070107540425 0 0.016445085822369823 -0.0094188922258919647 0 0.016582324351325763 -0.0094144614774229005 0 0.016528930419046652 -0.0093111684011043354 0 0.016582324351325763 -0.0094144614774229005 0 0.016528930419046652 -0.0093111684011043354 0 0.016597098986273394 -0.0093169540328934229 0 0.016528930419046652 -0.0093111684011043354 0 0.016597098986273394 -0.0093169540328934229 0 0.016565556960107287 -0.009199391290101706 0 0.016565556960107287 -0.009199391290101706 0 0.016553162919957499 -0.0090542892229421891 0 0.016438587430251856 -0.0091732140562679563 0 0.016528930419046652 -0.0093111684011043354 0 0.016565556960107287 -0.009199391290101706 0 0.016438587430251856 -0.0091732140562679563 0 0.016565556960107287 -0.009199391290101706 0 0.016553162919957499 -0.0090542892229421891 0 0.016600385485735301 -0.0091208796470417606 0 0.016553162919957499 -0.0090542892229421891 0 0.016449834858872244 -0.008927953979464949 0 0.016438587430251856 -0.0091732140562679563 0 0.016553162919957499 -0.0090542892229421891 0 0.016449834858872244 -0.008927953979464949 0 0.016569409864045606 -0.0088563655328783297 0 0.016449834858872244 -0.008927953979464949 0 0.016438587430251856 -0.0091732140562679563 0 0.016292433337117714 -0.0089173713665954089 0 0.016445085822369823 -0.0094188922258919647 0 0.016438587430251856 -0.0091732140562679563 0 0.016224495701382496 -0.0092706123640678949 0 0.015983384970579908 -0.0088875322045746281 0 0.016292433337117714 -0.0089173713665954089 0 0.016224495701382496 -0.0092706123640678949 0 0.016438587430251856 -0.0091732140562679563 0 0.016292433337117714 -0.0089173713665954089 0 0.016224495701382496 -0.0092706123640678949 0 0.0093892305604198773 -0.01260533259837901 0 0.011297348558298064 -0.011274820589357748 0 0.010208922662839849 -0.0092264285298276887 0 0.0092228282985841892 -0.0098013340032666769 0 0.0096183434606948431 -0.0088007096598100888 0 0.015045848619097359 -0.0083267106763806002 0 0.015001642797373585 -0.0076817058245927479 0 0.015373619132707383 -0.0074693569285830394 0 0.011297348558298064 -0.011274820589357748 0 0.012541622310809393 -0.0078638413268528832 0 0.015045848619097359 -0.0083267106763806002 0 0.01462896441822787 -0.0083145791278510846 0 0.014730731059658497 -0.0081622453315367601 0 0.011297348558298064 -0.011274820589357748 0 0.013978966698762484 -0.011666343394730137 0 0.015045848619097359 -0.0083267106763806002 0 0.014830703322673269 -0.0080418030097542132 0 0.015001642797373585 -0.0076817058245927479 0 0.015045848619097359 -0.0083267106763806002 0 0.014730731059658497 -0.0081622453315367601 0 0.014830703322673269 -0.0080418030097542132 0 0.014551365640516447 -0.011270810227128327 0 0.015129145964299139 -0.011296005528509467 0 0.014790232277962171 -0.010528973922954731 0 0.015731024075790197 -0.010727442540471012 0 0.013978966698762484 -0.011666343394730137 0 0.01462896441822787 -0.0083145791278510846 0 0.014730731059658497 -0.0081622453315367601 0 0.014537270971968667 -0.0080962931266581571 0 0.013978966698762484 -0.011666343394730137 0 0.01516707400324461 -0.0095026104295485546 0 0.014730731059658497 -0.0081622453315367601 0 0.014537270971968667 -0.0080962931266581571 0 0.014724874865088696 -0.0080206527150530685 0 0.016582324351325763 -0.0094144614774229005 0 0.016643223789531699 -0.0095071070107540425 0 0.016680236537995243 -0.0094484161206854368 0 0.015731024075790197 -0.010727442540471012 0 0.01516707400324461 -0.0095026104295485546 0 0.016597098986273394 -0.0093169540328934229 0 0.016680236537995243 -0.0094484161206854368 0 0.016655868638232395 -0.0092237923303376875 0 0.014537270971968667 -0.0080962931266581571 0 0.014724874865088696 -0.0080206527150530685 0 0.014800837979520701 -0.0077873612573252024 0 0.016582324351325763 -0.0094144614774229005 0 0.016597098986273394 -0.0093169540328934229 0 0.016680236537995243 -0.0094484161206854368 0 0.014830703322673269 -0.0080418030097542132 0 0.014800837979520701 -0.0077873612573252024 0 0.015001642797373585 -0.0076817058245927479 0 0.014724874865088696 -0.0080206527150530685 0 0.014830703322673269 -0.0080418030097542132 0 0.014800837979520701 -0.0077873612573252024 0 0.014730731059658497 -0.0081622453315367601 0 0.014724874865088696 -0.0080206527150530685 0 0.014830703322673269 -0.0080418030097542132 0 0.016655868638232395 -0.0092237923303376875 0 0.016625852475614648 -0.0090056227242446309 0 0.016738719245084625 -0.0087650393369324963 0 0.014800837979520701 -0.0077873612573252024 0 0.015001642797373585 -0.0076817058245927479 0 0.014996249360293467 -0.0071014794450755406 0 0.014537270971968667 -0.0080962931266581571 0 0.014800837979520701 -0.0077873612573252024 0 0.014996249360293467 -0.0071014794450755406 0 0.016680236537995243 -0.0094484161206854368 0 0.016655868638232395 -0.0092237923303376875 0 0.016738719245084625 -0.0087650393369324963 0 0.015001642797373585 -0.0076817058245927479 0 0.015113064793237745 -0.0072696038643717056 0 0.014996249360293467 -0.0071014794450755406 0 0.01516707400324461 -0.0095026104295485546 0 0.015936279261480436 -0.0077818517388810087 0 0.016655868638232395 -0.0092237923303376875 0 0.016600385485735301 -0.0091208796470417606 0 0.016625852475614648 -0.0090056227242446309 0 0.016597098986273394 -0.0093169540328934229 0 0.016565556960107287 -0.009199391290101706 0 0.016655868638232395 -0.0092237923303376875 0 0.016565556960107287 -0.009199391290101706 0 0.016655868638232395 -0.0092237923303376875 0 0.016600385485735301 -0.0091208796470417606 0 0.016553162919957499 -0.0090542892229421891 0 0.016600385485735301 -0.0091208796470417606 0 0.016625852475614648 -0.0090056227242446309 0 0.016625852475614648 -0.0090056227242446309 0 0.016569409864045606 -0.0088563655328783297 0 0.016738719245084625 -0.0087650393369324963 0 0.016553162919957499 -0.0090542892229421891 0 0.016625852475614648 -0.0090056227242446309 0 0.016569409864045606 -0.0088563655328783297 0 0.015001642797373585 -0.0076817058245927479 0 0.015113064793237745 -0.0072696038643717056 0 0.015373619132707383 -0.0074693569285830394 0 0.015113064793237745 -0.0072696038643717056 0 0.015373619132707383 -0.0074693569285830394 0 0.015610804925272167 -0.0067861675459709682 0 0.015113064793237745 -0.0072696038643717056 0 0.014996249360293467 -0.0071014794450755406 0 0.015375338666243347 -0.006856536720064082 0 0.014996249360293467 -0.0071014794450755406 0 0.015367920338214545 -0.0067208240657369786 0 0.015375338666243347 -0.006856536720064082 0 0.012541622310809393 -0.0078638413268528832 0 0.013807377331311819 -0.0066020969829770652 0 0.015595407607477322 -0.0071030289464085036 0 0.013807377331311819 -0.0066020969829770652 0 0.016569409864045606 -0.0088563655328783297 0 0.016543271593123219 -0.0086570932668522931 0 0.01640554447358886 -0.0086394077430339868 0 0.016569409864045606 -0.0088563655328783297 0 0.016738719245084625 -0.0087650393369324963 0 0.016543271593123219 -0.0086570932668522931 0 0.016738719245084625 -0.0087650393369324963 0 0.016543271593123219 -0.0086570932668522931 0 0.016486440760600407 -0.0083789711586458211 0 0.016543271593123219 -0.0086570932668522931 0 0.016486440760600407 -0.0083789711586458211 0 0.01640554447358886 -0.0086394077430339868 0 0.016738719245084625 -0.0087650393369324963 0 0.016486440760600407 -0.0083789711586458211 0 0.01648755938471649 -0.0080101230134837272 0 0.016486440760600407 -0.0083789711586458211 0 0.016305697405677007 -0.0082632039860820738 0 0.016330695237843293 -0.0080340033872412318 0 0.016486440760600407 -0.0083789711586458211 0 0.01648755938471649 -0.0080101230134837272 0 0.016330695237843293 -0.0080340033872412318 0 0.015936279261480436 -0.0077818517388810087 0 0.015879504873055582 -0.0074699240139150559 0 0.015983384970579908 -0.0088875322045746281 0 0.016292433337117714 -0.0089173713665954089 0 0.016177036234064784 -0.0085100203079728539 0 0.016292433337117714 -0.0089173713665954089 0 0.01640554447358886 -0.0086394077430339868 0 0.016177036234064784 -0.0085100203079728539 0 0.016449834858872244 -0.008927953979464949 0 0.016292433337117714 -0.0089173713665954089 0 0.01640554447358886 -0.0086394077430339868 0 0.016449834858872244 -0.008927953979464949 0 0.016569409864045606 -0.0088563655328783297 0 0.01640554447358886 -0.0086394077430339868 0 0.01640554447358886 -0.0086394077430339868 0 0.016305697405677007 -0.0082632039860820738 0 0.016177036234064784 -0.0085100203079728539 0 0.016486440760600407 -0.0083789711586458211 0 0.01640554447358886 -0.0086394077430339868 0 0.016305697405677007 -0.0082632039860820738 0 0.016305697405677007 -0.0082632039860820738 0 0.016177036234064784 -0.0085100203079728539 0 0.016140522397705911 -0.0081049759982331597 0 0.015921268190332238 -0.0083460198398124571 0 0.016177036234064784 -0.0085100203079728539 0 0.016140522397705911 -0.0081049759982331597 0 0.016140522397705911 -0.0081049759982331597 0 0.016238737371290588 -0.0079116788665931637 0 0.016138145416134744 -0.0078165073478877137 0 0.016305697405677007 -0.0082632039860820738 0 0.016140522397705911 -0.0081049759982331597 0 0.016238737371290588 -0.0079116788665931637 0 0.016305697405677007 -0.0082632039860820738 0 0.016238737371290588 -0.0079116788665931637 0 0.016330695237843293 -0.0080340033872412318 0 0.016238737371290588 -0.0079116788665931637 0 0.016138145416134744 -0.0078165073478877137 0 0.016184901814410728 -0.0077663117913650019 0 0.015962435409877258 -0.0079029416832688062 0 0.016140522397705911 -0.0081049759982331597 0 0.016138145416134744 -0.0078165073478877137 0 0.015962435409877258 -0.0079029416832688062 0 0.016138145416134744 -0.0078165073478877137 0 0.015990066368182652 -0.0075813567479463585 0 0.015879504873055582 -0.0074699240139150559 0 0.015701152773620764 -0.0075297245771514792 0 0.015367920338214545 -0.0067208240657369786 0 0.015678118018474945 -0.0074852935774129738 0 0.015197537003562623 -0.0070500924844231682 0 0.01648755938471649 -0.0080101230134837272 0 0.016151374241888262 -0.007737739288351142 0 0.015678118018474945 -0.0074852935774129738 0 0.016238737371290588 -0.0079116788665931637 0 0.016151374241888262 -0.007737739288351142 0 0.016330695237843293 -0.0080340033872412318 0 0.01648755938471649 -0.0080101230134837272 0 0.016151374241888262 -0.007737739288351142 0 0.016330695237843293 -0.0080340033872412318 0 0.016238737371290588 -0.0079116788665931637 0 0.016151374241888262 -0.007737739288351142 0 0.016184901814410728 -0.0077663117913650019 0 0.016151374241888262 -0.007737739288351142 0 0.016184901814410728 -0.0077663117913650019 0 0.015678118018474945 -0.0074852935774129738 0 0.014602574119370132 -0.0071471929832118176 0 0.015197537003562623 -0.0070500924844231682 0 0.015003122733928384 -0.0077366117407572281 0 0.015678118018474945 -0.0074852935774129738 0 0.015197537003562623 -0.0070500924844231682 0 0.015003122733928384 -0.0077366117407572281 0 0.013960928255044918 -0.0062844970486136496 0 0.013001883765189296 -0.0070525925986584265 0 0.012273084375130331 -0.0060649889168221862 0 0.013960928255044918 -0.0062844970486136496 0 0.013001883765189296 -0.0070525925986584265 0 0.013571419318468213 -0.0079792099454604887 0 0.014215859103216964 -0.0068510096046058315 0 0.013645700994048054 -0.0079103858563396197 0 0.013960928255044918 -0.0062844970486136496 0 0.013708185366173952 -0.0049418033793558452 0 0.012273084375130331 -0.0060649889168221862 0 0.013960928255044918 -0.0062844970486136496 0 0.01436207703998648 -0.0050445773515964895 0 0.013708185366173952 -0.0049418033793558452 0 0.014602574119370132 -0.0071471929832118176 0 0.015197537003562623 -0.0070500924844231682 0 0.015185314156439327 -0.0067821965697151022 0 0.014215859103216964 -0.0068510096046058315 0 0.01492425539918182 -0.0056685353991872134 0 0.015367920338214545 -0.0067208240657369786 0 0.015197537003562623 -0.0070500924844231682 0 0.015185314156439327 -0.0067821965697151022 0 0.01492425539918182 -0.0056685353991872134 0 0.013807377331311819 -0.0066020969829770652 0 0.012201486416173664 -0.0058614614180982592 0 0.013807377331311819 -0.0066020969829770652 0 0.01436207703998648 -0.0050445773515964895 0 0.013708185366173952 -0.0049418033793558452 0 0.014790790084064989 -0.004067730363029546 0 0.015367920338214545 -0.0067208240657369786 0 0.015185314156439327 -0.0067821965697151022 0 0.015375338666243347 -0.006856536720064082 0 0.010952066097974051 -0.0068768572490854728 0 0.011248652316233908 -0.007965059404319106 0 0.010027059821529717 -0.0077739459201810685 0 0.011248652316233908 -0.007965059404319106 0 0.010737614488801603 -0.0082284653045321312 0 0.010027059821529717 -0.0077739459201810685 0 0.011131931329291311 -0.0085342758700252819 0 0.011248652316233908 -0.007965059404319106 0 0.010737614488801603 -0.0082284653045321312 0 0.01054244877581679 -0.0086395736699954821 0 0.010737614488801603 -0.0082284653045321312 0 0.010027059821529717 -0.0077739459201810685 0 0.0091039949368058922 -0.0031673884426477801 0 0.010172492326263917 -0.0030161376740813783 0 0.0095373870848109044 -0.0038531651869617586 0 0.010172492326263917 -0.0030161376740813783 0 0.0095373870848109044 -0.0038531651869617586 0 0.010269082538818225 -0.0042159254719771931 0 0.0089210526936350891 -0.0090848543102526151 0 0.011317946440070325 -0.0050145742103925427 0 0.011936537519983033 -0.0085612016000403551 0 0.011248652316233908 -0.007965059404319106 0 0.011934481251735123 -0.007260912101329624 0 0.011131931329291311 -0.0085342758700252819 0 0.011811478839354879 -0.0085872482427684846 0 0.011248652316233908 -0.007965059404319106 0 0.011811478839354879 -0.0085872482427684846 0 0.011936537519983033 -0.0085612016000403551 0 0.011248652316233908 -0.007965059404319106 0 0.010952066097974051 -0.0068768572490854728 0 0.011248652316233908 -0.007965059404319106 0 0.011934481251735123 -0.007260912101329624 0 0.0087031568566998084 -0.0041045128821366418 0 0.0095373870848109044 -0.0038531651869617586 0 0.0095874248156406078 -0.0046455301926054161 0 0.0095373870848109044 -0.0038531651869617586 0 0.010269082538818225 -0.0042159254719771931 0 0.0095874248156406078 -0.0046455301926054161 0 0.0095874248156406078 -0.0046455301926054161 0 0.010596356554735521 -0.0054332451857754139 0 0.009613039802962688 -0.0053818634388485935 0 0.010269082538818225 -0.0042159254719771931 0 0.0095874248156406078 -0.0046455301926054161 0 0.010596356554735521 -0.0054332451857754139 0 0.0088618469507632681 -0.0049991356822473056 0 0.0095874248156406078 -0.0046455301926054161 0 0.009613039802962688 -0.0053818634388485935 0 0.011317946440070325 -0.0050145742103925427 0 0.011536702487472085 -0.0059057548142773158 0 0.010952066097974051 -0.0068768572490854728 0 0.011934481251735123 -0.007260912101329624 0 0.011905033341565566 -0.0059773456493388945 0 0.012201486416173664 -0.0058614614180982592 0 0.011536702487472085 -0.0059057548142773158 0 0.010845917904604402 -0.0051759613374819163 0 0.010457747720379728 -0.0056013509203669291 0 0.011878359462067554 -0.0085037963203568982 0 0.011536702487472085 -0.0059057548142773158 0 0.011146576558229199 -0.0059307700269589222 0 0.009613039802962688 -0.0053818634388485935 0 0.010022692313081585 -0.0056789762484267909 0 0.0094590259525279725 -0.005930756068533943 0 0.010596356554735521 -0.0054332451857754139 0 0.010457747720379728 -0.0056013509203669291 0 0.010022692313081585 -0.0056789762484267909 0 0.010596356554735521 -0.0054332451857754139 0 0.009613039802962688 -0.0053818634388485935 0 0.010022692313081585 -0.0056789762484267909 0 0.010457747720379728 -0.0056013509203669291 0 0.010022692313081585 -0.0056789762484267909 0 0.010000343633433514 -0.006231826038456555 0 0.010000343633433514 -0.006231826038456555 0 0.0094590259525279725 -0.005930756068533943 0 0.009394111876432628 -0.0064353856795937858 0 0.010022692313081585 -0.0056789762484267909 0 0.010000343633433514 -0.006231826038456555 0 0.0094590259525279725 -0.005930756068533943 0 0.010000343633433514 -0.006231826038456555 0 0.0099698375556084521 -0.0080259783748852648 0 0.011878359462067554 -0.0085037963203568982 0 0.010000343633433514 -0.006231826038456555 0 0.009394111876432628 -0.0064353856795937858 0 0.009572987599159373 -0.0068241098396524371 0 0.010009659884318036 -0.0062687901790206965 0 0.0097929007292326883 -0.0076339750000105179 0 0.009394111876432628 -0.0064353856795937858 0 0.009572987599159373 -0.0068241098396524371 0 0.0087824194000251966 -0.0067611972270206887 0 0.011536702487472085 -0.0059057548142773158 0 0.011847641982035395 -0.0083463572244000563 0 0.013001883765189296 -0.0070525925986584265 0 0.011878359462067554 -0.0085037963203568982 0 0.013571419318468213 -0.0079792099454604887 0 0.010457747720379728 -0.0056013509203669291 0 0.010000343633433514 -0.006231826038456555 0 0.011878359462067554 -0.0085037963203568982 0 0.013001883765189296 -0.0070525925986584265 0 0.012273084375130331 -0.0060649889168221862 0 0.011878359462067554 -0.0085037963203568982 0 0.011878359462067554 -0.0085037963203568982 0 0.013255771120180131 -0.0094401111247942766 0 0.013571419318468213 -0.0079792099454604887 0 0.011878359462067554 -0.0085037963203568982 0 0.0096670222891291364 -0.0099317651729753671 0 0.013255771120180131 -0.0094401111247942766 0 0.016444549623915082 -0.0071416813124971102 0 0.016366491379447255 -0.0071074120126495607 0 0.016350971763106951 -0.0071660418134832137 0 0.011694099529597449 -0.0075692906154917411 0 0.015080210265260647 -0.0084249075006400612 0 0.0099698375556084521 -0.0080259783748852648 0 0.011878359462067554 -0.0085037963203568982 0 0.0096670222891291364 -0.0099317651729753671 0 0.009572987599159373 -0.0068241098396524371 0 0.0093731833684106841 -0.0075102472831106238 0 0.0087824194000251966 -0.0067611972270206887 0 0.0097929007292326883 -0.0076339750000105179 0 0.011694099529597449 -0.0075692906154917411 0 0.016444549623915082 -0.0071416813124971102 0 0.016435548227853067 -0.0069981597097098416 0 0.016497507149917632 -0.0070000624080175889 0 0.011694099529597449 -0.0075692906154917411 0 0.013152510268887937 -0.0080244768830674742 0 0.016444549623915082 -0.0071416813124971102 0 0.016406219529452211 -0.0070613803392984287 0 0.016435548227853067 -0.0069981597097098416 0 0.016444549623915082 -0.0071416813124971102 0 0.016366491379447255 -0.0071074120126495607 0 0.016406219529452211 -0.0070613803392984287 0 0.016366491379447255 -0.0071074120126495607 0 0.016388895896024151 -0.0069935772484965297 0 0.016345006990411068 -0.0070829517010862824 0 0.016366491379447255 -0.0071074120126495607 0 0.016406219529452211 -0.0070613803392984287 0 0.016388895896024151 -0.0069935772484965297 0 0.016406219529452211 -0.0070613803392984287 0 0.016388895896024151 -0.0069935772484965297 0 0.016435548227853067 -0.0069981597097098416 0 0.016388895896024151 -0.0069935772484965297 0 0.016435548227853067 -0.0069981597097098416 0 0.016429054376254394 -0.006905282247545645 0 0.016435548227853067 -0.0069981597097098416 0 0.016429054376254394 -0.006905282247545645 0 0.016497507149917632 -0.0070000624080175889 0 0.016429054376254394 -0.006905282247545645 0 0.016468066698198121 -0.0068609271122325455 0 0.016497507149917632 -0.0070000624080175889 0 0.016256402745021575 -0.0070923439638505758 0 0.016345006990411068 -0.0070829517010862824 0 0.016269595113657106 -0.0069266526523080931 0 0.016345006990411068 -0.0070829517010862824 0 0.016340439489126772 -0.0069150294016915572 0 0.016269595113657106 -0.0069266526523080931 0 0.016388895896024151 -0.0069935772484965297 0 0.016345006990411068 -0.0070829517010862824 0 0.016340439489126772 -0.0069150294016915572 0 0.016366491379447255 -0.0071074120126495607 0 0.016345006990411068 -0.0070829517010862824 0 0.016350971763106951 -0.0071660418134832137 0 0.016345006990411068 -0.0070829517010862824 0 0.016305016069240955 -0.0071682785683985506 0 0.016350971763106951 -0.0071660418134832137 0 0.016256402745021575 -0.0070923439638505758 0 0.016345006990411068 -0.0070829517010862824 0 0.016305016069240955 -0.0071682785683985506 0 0.015786920764919575 -0.0079721324269604044 0 0.015080210265260647 -0.0084249075006400612 0 0.016305016069240955 -0.0071682785683985506 0 0.016293511142676895 -0.0072826474331460743 0 0.016350971763106951 -0.0071660418134832137 0 0.015547963212113056 -0.0087064176633595714 0 0.013255771120180131 -0.0094401111247942766 0 0.013571419318468213 -0.0079792099454604887 0 0.014602574119370132 -0.0071471929832118176 0 0.013571419318468213 -0.0079792099454604887 0 0.015003122733928384 -0.0077366117407572281 0 0.015547963212113056 -0.0087064176633595714 0 0.013571419318468213 -0.0079792099454604887 0 0.015003122733928384 -0.0077366117407572281 0 0.015547963212113056 -0.0087064176633595714 0 0.015003122733928384 -0.0077366117407572281 0 0.015878981048489012 -0.0079117128321724572 0 0.016184901814410728 -0.0077663117913650019 0 0.015678118018474945 -0.0074852935774129738 0 0.015878981048489012 -0.0079117128321724572 0 0.015678118018474945 -0.0074852935774129738 0 0.015003122733928384 -0.0077366117407572281 0 0.015878981048489012 -0.0079117128321724572 0 0.016184901814410728 -0.0077663117913650019 0 0.015878981048489012 -0.0079117128321724572 0 0.016175515224808725 -0.0076798084739796765 0 0.015547963212113056 -0.0087064176633595714 0 0.015878981048489012 -0.0079117128321724572 0 0.016175515224808725 -0.0076798084739796765 0 0.016293511142676895 -0.0072826474331460743 0 0.016175515224808725 -0.0076798084739796765 0 0.016232077518794807 -0.0072668601903056462 0 0.015786920764919575 -0.0079721324269604044 0 0.016140345664737842 -0.0077356435429044405 0 0.016138145416134744 -0.0078165073478877137 0 0.016119968644747962 -0.0076792015766702307 0 0.015990066368182652 -0.0075813567479463585 0 0.016184901814410728 -0.0077663117913650019 0 0.016175515224808725 -0.0076798084739796765 0 0.016119968644747962 -0.0076792015766702307 0 0.016138145416134744 -0.0078165073478877137 0 0.016184901814410728 -0.0077663117913650019 0 0.016119968644747962 -0.0076792015766702307 0 0.016175515224808725 -0.0076798084739796765 0 0.016119968644747962 -0.0076792015766702307 0 0.01601828610257456 -0.0074525702118167884 0 0.016175515224808725 -0.0076798084739796765 0 0.01601828610257456 -0.0074525702118167884 0 0.016116441453215564 -0.0073361399023709074 0 0.016119968644747962 -0.0076792015766702307 0 0.01601828610257456 -0.0074525702118167884 0 0.015990066368182652 -0.0075813567479463585 0 0.016018224952635812 -0.0074276329010181533 0 0.015841345496985435 -0.0072698440284852239 0 0.01601828610257456 -0.0074525702118167884 0 0.015990066368182652 -0.0075813567479463585 0 0.01594945724197051 -0.0073558818598253002 0 0.01601828610257456 -0.0074525702118167884 0 0.0158971632793438 -0.0070562244585874422 0 0.015766891996528861 -0.0070521108844210619 0 0.01601828610257456 -0.0074525702118167884 0 0.015720041133267224 -0.0071809925644647698 0 0.015766891996528861 -0.0070521108844210619 0 0.01601828610257456 -0.0074525702118167884 0 0.01603082808343019 -0.0071903584840315796 0 0.016116441453215564 -0.0073361399023709074 0 0.01601828610257456 -0.0074525702118167884 0 0.01603082808343019 -0.0071903584840315796 0 0.0158971632793438 -0.0070562244585874422 0 0.01603082808343019 -0.0071903584840315796 0 0.016002777657418806 -0.0070103458282456078 0 0.016102655748400783 -0.0071260113488454489 0 0.016002777657418806 -0.0070103458282456078 0 0.0158971632793438 -0.0070562244585874422 0 0.015904525736391471 -0.0069443725365447269 0 0.016002777657418806 -0.0070103458282456078 0 0.015904525736391471 -0.0069443725365447269 0 0.01598316592912951 -0.0069405886062177211 0 0.01603082808343019 -0.0071903584840315796 0 0.016002777657418806 -0.0070103458282456078 0 0.0158971632793438 -0.0070562244585874422 0 0.0158971632793438 -0.0070562244585874422 0 0.015804263962704273 -0.006957533853427636 0 0.015904525736391471 -0.0069443725365447269 0 0.0158971632793438 -0.0070562244585874422 0 0.015804263962704273 -0.006957533853427636 0 0.015766891996528861 -0.0070521108844210619 0 0.016256402745021575 -0.0070923439638505758 0 0.016305016069240955 -0.0071682785683985506 0 0.016232077518794807 -0.0072668601903056462 0 0.016305016069240955 -0.0071682785683985506 0 0.016293511142676895 -0.0072826474331460743 0 0.016232077518794807 -0.0072668601903056462 0 0.016175515224808725 -0.0076798084739796765 0 0.016232077518794807 -0.0072668601903056462 0 0.016116441453215564 -0.0073361399023709074 0 0.016232077518794807 -0.0072668601903056462 0 0.016116441453215564 -0.0073361399023709074 0 0.016102655748400783 -0.0071260113488454489 0 0.01603082808343019 -0.0071903584840315796 0 0.016116441453215564 -0.0073361399023709074 0 0.016102655748400783 -0.0071260113488454489 0 0.016002777657418806 -0.0070103458282456078 0 0.016102655748400783 -0.0071260113488454489 0 0.016068202042913704 -0.0069176180407980207 0 0.016102655748400783 -0.0071260113488454489 0 0.016159451379939432 -0.0070210107781026434 0 0.016068202042913704 -0.0069176180407980207 0 0.016232077518794807 -0.0072668601903056462 0 0.016102655748400783 -0.0071260113488454489 0 0.016159451379939432 -0.0070210107781026434 0 0.016256402745021575 -0.0070923439638505758 0 0.016232077518794807 -0.0072668601903056462 0 0.016159451379939432 -0.0070210107781026434 0 0.016256402745021575 -0.0070923439638505758 0 0.016159451379939432 -0.0070210107781026434 0 0.016269595113657106 -0.0069266526523080931 0 0.016159451379939432 -0.0070210107781026434 0 0.016113442438346816 -0.0067895263379443987 0 0.016068202042913704 -0.0069176180407980207 0 0.016159451379939432 -0.0070210107781026434 0 0.016113442438346816 -0.0067895263379443987 0 0.016269595113657106 -0.0069266526523080931 0 0.016113442438346816 -0.0067895263379443987 0 0.016068202042913704 -0.0069176180407980207 0 0.015993133392873757 -0.0068915198590452148 0 0.016113442438346816 -0.0067895263379443987 0 0.015854019659201139 -0.006545220931109901 0 0.015697422039476029 -0.0065920742645780885 0 0.016115576532742815 -0.0067826285395425423 0 0.015857900149762932 -0.0067342675998996243 0 0.015854019659201139 -0.006545220931109901 0 0.016000099849897108 -0.006487067250705106 0 0.015727867469532586 -0.0063467634163270649 0 0.016113442438346816 -0.0067895263379443987 0 0.015854019659201139 -0.006545220931109901 0 0.016000099849897108 -0.006487067250705106 0 0.016113442438346816 -0.0067895263379443987 0 0.016000099849897108 -0.006487067250705106 0 0.016282139798024311 -0.0067092181929085098 0 0.015804263962704273 -0.006957533853427636 0 0.015904525736391471 -0.0069443725365447269 0 0.015753437373164498 -0.0068490695955699876 0 0.015697422039476029 -0.0065920742645780885 0 0.015663441854242892 -0.006485229076990463 0 0.01532153713341864 -0.0063305591416707562 0 0.015857900149762932 -0.0067342675998996243 0 0.015546819263845112 -0.006590950351160774 0 0.015904525736391471 -0.0069443725365447269 0 0.015993133392873757 -0.0068915198590452148 0 0.015753437373164498 -0.0068490695955699876 0 0.015904525736391471 -0.0069443725365447269 0 0.01598316592912951 -0.0069405886062177211 0 0.015993133392873757 -0.0068915198590452148 0 0.01598316592912951 -0.0069405886062177211 0 0.016012251008940936 -0.0069371722761502001 0 0.015993133392873757 -0.0068915198590452148 0 0.016002777657418806 -0.0070103458282456078 0 0.016068202042913704 -0.0069176180407980207 0 0.016012251008940936 -0.0069371722761502001 0 0.016068202042913704 -0.0069176180407980207 0 0.016012251008940936 -0.0069371722761502001 0 0.015993133392873757 -0.0068915198590452148 0 0.016002777657418806 -0.0070103458282456078 0 0.01598316592912951 -0.0069405886062177211 0 0.016012251008940936 -0.0069371722761502001 0 0.015854019659201139 -0.006545220931109901 0 0.015663441854242892 -0.006485229076990463 0 0.015727867469532586 -0.0063467634163270649 0 0.015663441854242892 -0.006485229076990463 0 0.015527180426354812 -0.0062941497218765626 0 0.015727867469532586 -0.0063467634163270649 0 0.015854019659201139 -0.006545220931109901 0 0.015697422039476029 -0.0065920742645780885 0 0.015663441854242892 -0.006485229076990463 0 0.015663441854242892 -0.006485229076990463 0 0.015527180426354812 -0.0062941497218765626 0 0.015362928946969041 -0.0063517008180291592 0 0.015663441854242892 -0.006485229076990463 0 0.01532153713341864 -0.0063305591416707562 0 0.015337474574100059 -0.0061958878713553305 0 0.015638421467623898 -0.0064489424740481454 0 0.015351564980453765 -0.0062805419786293179 0 0.015527180426354812 -0.0062941497218765626 0 0.015727867469532586 -0.0063467634163270649 0 0.015470770178276414 -0.0060741252480815992 0 0.015527180426354812 -0.0062941497218765626 0 0.015470770178276414 -0.0060741252480815992 0 0.01534986545600658 -0.0061686264331356705 0 0.015727867469532586 -0.0063467634163270649 0 0.015470770178276414 -0.0060741252480815992 0 0.0158034022342734 -0.0061948622233357412 0 0.014530646405506274 -0.0032872749669567119 0 0.014445197909901418 -0.0033225238525412706 0 0.014506034211801246 -0.0032856579602871376 0 0.014924593375625567 -0.0047397298185719661 0 0.015139267618864987 -0.00473902971692649 0 0.014386474127056192 -0.0034086401167051357 0 0.014530646405506274 -0.0032872749669567119 0 0.014445197909901418 -0.0033225238525412706 0 0.014386474127056192 -0.0034086401167051357 0 0.014331789942301621 -0.0034047194649865055 0 0.014445197909901418 -0.0033225238525412706 0 0.016000099849897108 -0.006487067250705106 0 0.016106777787858031 -0.0063519086476024611 0 0.016282139798024311 -0.0067092181929085098 0 0.016000099849897108 -0.006487067250705106 0 0.015727867469532586 -0.0063467634163270649 0 0.0158034022342734 -0.0061948622233357412 0 0.016000099849897108 -0.006487067250705106 0 0.0158034022342734 -0.0061948622233357412 0 0.016106777787858031 -0.0063519086476024611 0 0.015139267618864987 -0.00473902971692649 0 0.015234438049109683 -0.0047180243940814328 0 0.014530646405506274 -0.0032872749669567119 0 0.014494451560730386 -0.0032800963211707325 0 0.014418971416711711 -0.0032372094002962211 0 0.014530646405506274 -0.0032872749669567119 0 0.014494451560730386 -0.0032800963211707325 0 0.014506034211801246 -0.0032856579602871376 0 0.014328954327702311 -0.0030790840452718238 0 0.014418971416711711 -0.0032372094002962211 0 0.014252710814463868 -0.0033355539337915252 0 0.014530646405506274 -0.0032872749669567119 0 0.014328954327702311 -0.0030790840452718238 0 0.014418971416711711 -0.0032372094002962211 0 0.014328954327702311 -0.0030790840452718238 0 0.013762521720174227 -0.0029810308489064182 0 0.014252710814463868 -0.0033355539337915252 0 0.015234438049109683 -0.0047180243940814328 0 0.014863932979679856 -0.0047424355978446884 0 0.016106777787858031 -0.0063519086476024611 0 0.016309861969598875 -0.0064851711795144542 0 0.016282139798024311 -0.0067092181929085098 0 0.016309861969598875 -0.0064851711795144542 0 0.016386023076897994 -0.0066896507517656308 0 0.016282139798024311 -0.0067092181929085098 0 0.014863932979679856 -0.0047424355978446884 0 0.015445722849253647 -0.0046667309599990429 0 0.013762521720174227 -0.0029810308489064182 0 0.013052123545667866 -0.0029135502367850191 0 0.013341484946435807 -0.0033446380280659914 0 0.016415044950836229 -0.0065670192172374558 0 0.016440550356435598 -0.0066940171059258263 0 0.01649059172771572 -0.0066765642065221842 0 0.016415044950836229 -0.0065670192172374558 0 0.016386023076897994 -0.0066896507517656308 0 0.016440550356435598 -0.0066940171059258263 0 0.016309861969598875 -0.0064851711795144542 0 0.016415044950836229 -0.0065670192172374558 0 0.016386023076897994 -0.0066896507517656308 0 0.016386023076897994 -0.0066896507517656308 0 0.016427114369478246 -0.0067871339097877407 0 0.016392251910741399 -0.0068450372117596593 0 0.016386023076897994 -0.0066896507517656308 0 0.016440550356435598 -0.0066940171059258263 0 0.016427114369478246 -0.0067871339097877407 0 0.016440550356435598 -0.0066940171059258263 0 0.016427114369478246 -0.0067871339097877407 0 0.016479058766622926 -0.0067960426816572484 0 0.016427114369478246 -0.0067871339097877407 0 0.016468066698198121 -0.0068609271122325455 0 0.016479058766622926 -0.0067960426816572484 0 0.016427114369478246 -0.0067871339097877407 0 0.016429054376254394 -0.006905282247545645 0 0.016468066698198121 -0.0068609271122325455 0 0.016388895896024151 -0.0069935772484965297 0 0.016392251910741399 -0.0068450372117596593 0 0.016340439489126772 -0.0069150294016915572 0 0.016388895896024151 -0.0069935772484965297 0 0.016429054376254394 -0.006905282247545645 0 0.016392251910741399 -0.0068450372117596593 0 0.016427114369478246 -0.0067871339097877407 0 0.016429054376254394 -0.006905282247545645 0 0.016392251910741399 -0.0068450372117596593 0 0.016392251910741399 -0.0068450372117596593 0 0.016340439489126772 -0.0069150294016915572 0 0.016282139798024311 -0.0067092181929085098 0 0.016340439489126772 -0.0069150294016915572 0 0.016269595113657106 -0.0069266526523080931 0 0.016282139798024311 -0.0067092181929085098 0 0.016113442438346816 -0.0067895263379443987 0 0.016269595113657106 -0.0069266526523080931 0 0.016282139798024311 -0.0067092181929085098 0 0.016386023076897994 -0.0066896507517656308 0 0.016392251910741399 -0.0068450372117596593 0 0.016282139798024311 -0.0067092181929085098 0 0.015204316916249693 -0.0061600675936559221 0 0.015328340662394814 -0.0062488425597986069 0 0.014999948355732736 -0.0055184361575348331 0 0.015204316916249693 -0.0061600675936559221 0 0.014999805497712565 -0.006164824376776421 0 0.014999948355732736 -0.0055184361575348331 0 0.015204316916249693 -0.0061600675936559221 0 0.015300868758788257 -0.006422723692846531 0 0.015328340662394814 -0.0062488425597986069 0 0.015204316916249693 -0.0061600675936559221 0 0.015300868758788257 -0.006422723692846531 0 0.015224160077854565 -0.0065156532192917095 0 0.015300868758788257 -0.006422723692846531 0 0.015224160077854565 -0.0065156532192917095 0 0.015316817801446654 -0.0067122692973277326 0 0.015224160077854565 -0.0065156532192917095 0 0.01522443206207344 -0.0068755074409678606 0 0.015316817801446654 -0.0067122692973277326 0 0.015204316916249693 -0.0061600675936559221 0 0.015224160077854565 -0.0065156532192917095 0 0.014999805497712565 -0.006164824376776421 0 0.015224160077854565 -0.0065156532192917095 0 0.014999805497712565 -0.006164824376776421 0 0.014999911305141281 -0.0068112174234240194 0 0.015224160077854565 -0.0065156532192917095 0 0.014999911305141281 -0.0068112174234240194 0 0.01522443206207344 -0.0068755074409678606 0 0.014999688089227322 -0.0068124491162715297 0 0.015037372702080061 -0.0073387282391199349 0 0.015068406183748816 -0.0072154854412734438 0 0.014999940183999253 -0.0068116412497551413 0 0.015142757496236257 -0.0070400529591263371 0 0.014999758996496764 -0.0076717418887123096 0 0.014999688089227322 -0.0068124491162715297 0 0.015037372702080061 -0.0073387282391199349 0 0.015037372702080061 -0.0073387282391199349 0 0.015028070064351223 -0.0073947740016083799 0 0.015068406183748816 -0.0072154854412734438 0 0.015142757496236257 -0.0070400529591263371 0 0.01530436136374112 -0.0071804004248002488 0 0.01522443206207344 -0.0068755074409678606 0 0.015281881096150285 -0.0072046842486484103 0 0.015316817801446654 -0.0067122692973277326 0 0.015028070064351223 -0.0073947740016083799 0 0.015068406183748816 -0.0072154854412734438 0 0.015281881096150285 -0.0072046842486484103 0 0.015222667136703328 -0.0075737610611299466 0 0.015028070064351223 -0.0073947740016083799 0 0.015281881096150285 -0.0072046842486484103 0 0.015222667136703328 -0.0075737610611299466 0 0.015281881096150285 -0.0072046842486484103 0 0.015483940783822189 -0.0075914101830784602 0 0.015281881096150285 -0.0072046842486484103 0 0.015488914790295486 -0.0068053304000948289 0 0.015600002064516038 -0.0072698731769292391 0 0.015281881096150285 -0.0072046842486484103 0 0.015316817801446654 -0.0067122692973277326 0 0.015488914790295486 -0.0068053304000948289 0 0.015316817801446654 -0.0067122692973277326 0 0.015391710887571956 -0.0065494636448946413 0 0.015488914790295486 -0.0068053304000948289 0 0.015300868758788257 -0.006422723692846531 0 0.015391710887571956 -0.0065494636448946413 0 0.015328340662394814 -0.0062488425597986069 0 0.015300868758788257 -0.006422723692846531 0 0.015316817801446654 -0.0067122692973277326 0 0.015391710887571956 -0.0065494636448946413 0 0.015391710887571956 -0.0065494636448946413 0 0.015488914790295486 -0.0068053304000948289 0 0.015467329221464531 -0.0065821025039864544 0 0.015538078376333206 -0.00676019550724225 0 0.015488914790295486 -0.0068053304000948289 0 0.015467329221464531 -0.0065821025039864544 0 0.015538078376333206 -0.00676019550724225 0 0.015592017142785157 -0.0068567763622458767 0 0.015585521617885728 -0.0069640243779129701 0 0.015538078376333206 -0.00676019550724225 0 0.015592017142785157 -0.0068567763622458767 0 0.015590999959172805 -0.0067713534119551218 0 0.015538078376333206 -0.00676019550724225 0 0.015585521617885728 -0.0069640243779129701 0 0.015488914790295486 -0.0068053304000948289 0 0.015743781043682403 -0.0071225368081651334 0 0.015488914790295486 -0.0068053304000948289 0 0.015600002064516038 -0.0072698731769292391 0 0.015658844961092183 -0.0070367478478481479 0 0.015487396060884858 -0.006840519568594901 0 0.015281881096150285 -0.0072046842486484103 0 0.015600002064516038 -0.0072698731769292391 0 0.015483940783822189 -0.0075914101830784602 0 0.015600002064516038 -0.0072698731769292391 0 0.015483940783822189 -0.0075914101830784602 0 0.015769283078359873 -0.0076485516953385714 0 0.015600002064516038 -0.0072698731769292391 0 0.015825571651853859 -0.007393471325387411 0 0.015769283078359873 -0.0076485516953385714 0 0.015743781043682403 -0.0071225368081651334 0 0.015600002064516038 -0.0072698731769292391 0 0.015825571651853859 -0.007393471325387411 0 0.015825571651853859 -0.007393471325387411 0 0.015769283078359873 -0.0076485516953385714 0 0.015990066368182652 -0.0075813567479463585 0 0.015962435409877258 -0.0079029416832688062 0 0.015769283078359873 -0.0076485516953385714 0 0.015990066368182652 -0.0075813567479463585 0 0.015825571651853859 -0.007393471325387411 0 0.015990066368182652 -0.0075813567479463585 0 0.01594945724197051 -0.0073558818598253002 0 0.015720041133267224 -0.0071809925644647698 0 0.015654878616625317 -0.006943622616776517 0 0.015766891996528861 -0.0070521108844210619 0 0.015743781043682403 -0.0071225368081651334 0 0.015825571651853859 -0.007393471325387411 0 0.01594945724197051 -0.0073558818598253002 0 0.015658844961092183 -0.0070367478478481479 0 0.015841345496985435 -0.0072698440284852239 0 0.015585521617885728 -0.0069640243779129701 0 0.015720041133267224 -0.0071809925644647698 0 0.015654878616625317 -0.006943622616776517 0 0.015592017142785157 -0.0068567763622458767 0 0.015585521617885728 -0.0069640243779129701 0 0.015654878616625317 -0.006943622616776517 0 0.015592017142785157 -0.0068567763622458767 0 0.015654878616625317 -0.006943622616776517 0 0.015590999959172805 -0.0067713534119551218 0 0.015654878616625317 -0.006943622616776517 0 0.015707941977111513 -0.0069097995369558915 0 0.015590999959172805 -0.0067713534119551218 0 0.015654878616625317 -0.006943622616776517 0 0.015707941977111513 -0.0069097995369558915 0 0.015766891996528861 -0.0070521108844210619 0 0.015804263962704273 -0.006957533853427636 0 0.015707941977111513 -0.0069097995369558915 0 0.015766891996528861 -0.0070521108844210619 0 0.015804263962704273 -0.006957533853427636 0 0.015707941977111513 -0.0069097995369558915 0 0.015753437373164498 -0.0068490695955699876 0 0.015546819263845112 -0.006590950351160774 0 0.015318814757383004 -0.0064341367439812482 0 0.015707941977111513 -0.0069097995369558915 0 0.015753437373164498 -0.0068490695955699876 0 0.015590999959172805 -0.0067713534119551218 0 0.01532153713341864 -0.0063305591416707562 0 0.015198888552641992 -0.006165086263811485 0 0.015037005466857011 -0.0061026390570082627 0 0.015097919810231621 -0.0061615760017023702 0 0.015362928946969041 -0.0063517008180291592 0 0.015236817999899215 -0.0061585436590665772 0 0.015198888552641992 -0.006165086263811485 0 0.015081767916273605 -0.0060301627884258727 0 0.015337474574100059 -0.0061958878713553305 0 0.015198888552641992 -0.006165086263811485 0 0.015081767916273605 -0.0060301627884258727 0 0.015037005466857011 -0.0061026390570082627 0 0.015095320044086168 -0.0060929306074301226 0 0.015351564980453765 -0.0062805419786293179 0 0.015362928946969041 -0.0063517008180291592 0 0.01534986545600658 -0.0061686264331356705 0 0.015236817999899215 -0.0061585436590665772 0 0.01532153713341864 -0.0063305591416707562 0 0.015198888552641992 -0.006165086263811485 0 0.015337474574100059 -0.0061958878713553305 0 0.015527180426354812 -0.0062941497218765626 0 0.015362928946969041 -0.0063517008180291592 0 0.01534986545600658 -0.0061686264331356705 0 0.01534986545600658 -0.0061686264331356705 0 0.015168207378175607 -0.005983914809831313 0 0.015236817999899215 -0.0061585436590665772 0 0.015470770178276414 -0.0060741252480815992 0 0.01534986545600658 -0.0061686264331356705 0 0.015168207378175607 -0.005983914809831313 0 0.014386474127056192 -0.0034086401167051357 0 0.014331789942301621 -0.0034047194649865055 0 0.014400805051152364 -0.0034589234273547918 0 0.014924593375625567 -0.0047397298185719661 0 0.014781142912900575 -0.0047255843141190195 0 0.014331789942301621 -0.0034047194649865055 0 0.014400805051152364 -0.0034589234273547918 0 0.014526613453748196 -0.0037021700253735048 0 0.015097919810231621 -0.0061615760017023702 0 0.015168207378175607 -0.005983914809831313 0 0.015026293809797113 -0.0060099957146221069 0 0.015097919810231621 -0.0061615760017023702 0 0.015168207378175607 -0.005983914809831313 0 0.015236817999899215 -0.0061585436590665772 0 0.015168207378175607 -0.005983914809831313 0 0.015026293809797113 -0.0060099957146221069 0 0.014976983152695354 -0.0059171751629139846 0 0.014781142912900575 -0.0047255843141190195 0 0.014847035299971462 -0.004739147441276792 0 0.014400805051152364 -0.0034589234273547918 0 0.014730152239667728 -0.0035638688094531083 0 0.014526613453748196 -0.0037021700253735048 0 0.014750245994841298 -0.0037229066964284433 0 0.014730152239667728 -0.0035638688094531083 0 0.014526613453748196 -0.0037021700253735048 0 0.014889721676338898 -0.0037395994194808404 0 0.014730152239667728 -0.0035638688094531083 0 0.015063438699379962 -0.0037149846996144572 0 0.014889721676338898 -0.0037395994194808404 0 0.014750245994841298 -0.0037229066964284433 0 0.014730152239667728 -0.0035638688094531083 0 0.015026293809797113 -0.0060099957146221069 0 0.014976983152695354 -0.0059171751629139846 0 0.014956577327776888 -0.0059356414156107526 0 0.014976983152695354 -0.0059171751629139846 0 0.014956577327776888 -0.0059356414156107526 0 0.014937059200598691 -0.005852073399584449 0 0.015081767916273605 -0.0060301627884258727 0 0.014956577327776888 -0.0059356414156107526 0 0.015037005466857011 -0.0061026390570082627 0 0.015095320044086168 -0.0060929306074301226 0 0.014967918912890347 -0.0059643103259469227 0 0.015097919810231621 -0.0061615760017023702 0 0.015026293809797113 -0.0060099957146221069 0 0.014956577327776888 -0.0059356414156107526 0 0.014956577327776888 -0.0059356414156107526 0 0.015037005466857011 -0.0061026390570082627 0 0.014943637731004695 -0.0058924851404428737 0 0.015318814757383004 -0.0064341367439812482 0 0.015208353327548704 -0.0062330767065131836 0 0.015538078376333206 -0.00676019550724225 0 0.015590999959172805 -0.0067713534119551218 0 0.015467329221464531 -0.0065821025039864544 0 0.014943637731004695 -0.0058924851404428737 0 0.014948167570499337 -0.0058261251134756834 0 0.014994302329624828 -0.0056549029709787868 0 0.015208353327548704 -0.0062330767065131836 0 0.015136499764498932 -0.0059424535795343878 0 0.015391710887571956 -0.0065494636448946413 0 0.015467329221464531 -0.0065821025039864544 0 0.015328340662394814 -0.0062488425597986069 0 0.014948167570499337 -0.0058261251134756834 0 0.01497524522299446 -0.0057465228681169711 0 0.014994302329624828 -0.0056549029709787868 0 0.014956577327776888 -0.0059356414156107526 0 0.014943637731004695 -0.0058924851404428737 0 0.014948167570499337 -0.0058261251134756834 0 0.014956577327776888 -0.0059356414156107526 0 0.014948167570499337 -0.0058261251134756834 0 0.014937059200598691 -0.005852073399584449 0 0.014847035299971462 -0.004739147441276792 0 0.014980763778289006 -0.004809863321628997 0 0.015063438699379962 -0.0037149846996144572 0 0.015006986740665182 -0.0038252714856132578 0 0.01510653541889396 -0.0038586791219789012 0 0.014889721676338898 -0.0037395994194808404 0 0.015063438699379962 -0.0037149846996144572 0 0.015006986740665182 -0.0038252714856132578 0 0.015063438699379962 -0.0037149846996144572 0 0.015159928791508195 -0.0038783433687638487 0 0.015183261074323936 -0.0038959874942689657 0 0.015063438699379962 -0.0037149846996144572 0 0.015215462667962205 -0.0039423474886162808 0 0.015183261074323936 -0.0038959874942689657 0 0.015159928791508195 -0.0038783433687638487 0 0.01510653541889396 -0.0038586791219789012 0 0.015149191149825778 -0.0038867542185712571 0 0.015159928791508195 -0.0038783433687638487 0 0.015175817511067665 -0.0038975531096255545 0 0.01516510174418882 -0.0038938399261004238 0 0.015063438699379962 -0.0037149846996144572 0 0.015159928791508195 -0.0038783433687638487 0 0.01510653541889396 -0.0038586791219789012 0 0.014948167570499337 -0.0058261251134756834 0 0.014937059200598691 -0.005852073399584449 0 0.01497524522299446 -0.0057465228681169711 0 0.014980763778289006 -0.004809863321628997 0 0.015128690545125093 -0.004698247047404549 0 0.014937059200598691 -0.005852073399584449 0 0.015009988486368838 -0.0058082799017881871 0 0.01497524522299446 -0.0057465228681169711 0 0.015009988486368838 -0.0058082799017881871 0 0.015054140919783124 -0.005692470244438687 0 0.01497524522299446 -0.0057465228681169711 0 0.015128690545125093 -0.004698247047404549 0 0.015177152279132874 -0.0052726412808095403 0 0.015215462667962205 -0.0039423474886162808 0 0.015183261074323936 -0.0038959874942689657 0 0.015199316075547651 -0.0039390016453245058 0 0.015215462667962205 -0.0039423474886162808 0 0.015199316075547651 -0.0039390016453245058 0 0.015177439650169376 -0.0039779754219419301 0 0.015183261074323936 -0.0038959874942689657 0 0.015199316075547651 -0.0039390016453245058 0 0.015193473482934119 -0.0039237758570880221 0 0.015199316075547651 -0.0039390016453245058 0 0.015193473482934119 -0.0039237758570880221 0 0.015177439650169376 -0.0039779754219419301 0 0.015159928791508195 -0.0038783433687638487 0 0.015185506170900016 -0.003905028516143356 0 0.015175817511067665 -0.0038975531096255545 0 0.015159928791508195 -0.0038783433687638487 0 0.015183261074323936 -0.0038959874942689657 0 0.015185506170900016 -0.003905028516143356 0 0.015183261074323936 -0.0038959874942689657 0 0.015193473482934119 -0.0039237758570880221 0 0.015185506170900016 -0.003905028516143356 0 0.015193473482934119 -0.0039237758570880221 0 0.015185506170900016 -0.003905028516143356 0 0.015185180122355446 -0.0039030811185064959 0 0.015215462667962205 -0.0039423474886162808 0 0.015177439650169376 -0.0039779754219419301 0 0.015113041237856166 -0.0042086549948438861 0 0.015000088543313861 -0.0039751952413039516 0 0.015260410723225771 -0.0037538718592549651 0 0.015000027263193074 -0.0039752116614571124 0 0.015177439650169376 -0.0039779754219419301 0 0.015172491423093548 -0.0038800932797953373 0 0.015193473482934119 -0.0039237758570880221 0 0.015177439650169376 -0.0039779754219419301 0 0.015172491423093548 -0.0038800932797953373 0 0.015000027263193074 -0.0039752116614571124 0 0.015177439650169376 -0.0039779754219419301 0 0.015113041237856166 -0.0042086549948438861 0 0.015000027263193074 -0.0039752116614571124 0 0.015113041237856166 -0.0042086549948438861 0 0.014999939878721747 -0.0046486173970707242 0 0.015674221268948293 -0.0042108215833601692 0 0.015274948660830776 -0.004464485289812083 0 0.015325396506156549 -0.0047824782807681619 0 0.015128690545125093 -0.004698247047404549 0 0.015231975127720484 -0.0041665726849111186 0 0.015674221268948293 -0.0042108215833601692 0 0.015113041237856166 -0.0042086549948438861 0 0.015274948660830776 -0.004464485289812083 0 0.015113041237856166 -0.0042086549948438861 0 0.015274948660830776 -0.004464485289812083 0 0.014999939878721747 -0.0046486173970707242 0 0.015274948660830776 -0.004464485289812083 0 0.014999939878721747 -0.0046486173970707242 0 0.015325396506156549 -0.0047824782807681619 0 0.015054140919783124 -0.005692470244438687 0 0.015013772098379181 -0.0055654431110967713 0 0.014999906395172959 -0.0053236887125790054 0 0.015177152279132874 -0.0052726412808095403 0 0.015000057746423247 -0.0053221396516200097 0 0.014999939878721747 -0.0046486173970707242 0 0.015325396506156549 -0.0047824782807681619 0 0.015000028121487608 -0.0053221690094630743 0 0.015054140919783124 -0.005692470244438687 0 0.01497524522299446 -0.0057465228681169711 0 0.015013772098379181 -0.0055654431110967713 0 0.01497524522299446 -0.0057465228681169711 0 0.015013772098379181 -0.0055654431110967713 0 0.014994302329624828 -0.0056549029709787868 0 0.015136499764498932 -0.0059424535795343878 0 0.014999923034801719 -0.0055176827405503861 0 0.015013772098379181 -0.0055654431110967713 0 0.014994302329624828 -0.0056549029709787868 0 0.015000128506431802 -0.0055163445104731866 0 0.015013772098379181 -0.0055654431110967713 0 0.015000128506431802 -0.0055163445104731866 0 0.014999906395172959 -0.0053236887125790054 0 0.015318103698559318 -0.0019795068139309194 0 0.0154504616578143 -0.0024108102811615101 0 0.014999986536502712 -0.0025426738408634514 0 0.015318103698559318 -0.0019795068139309194 0 0.014999986536502712 -0.0025426738408634514 0 0.014999983630882367 -0.0016718957892779981 0 0.015318103698559318 -0.0019795068139309194 0 0.015838162959442348 -0.0020744676866832055 0 0.0154504616578143 -0.0024108102811615101 0 0.015318103698559318 -0.0019795068139309194 0 0.015838162959442348 -0.0020744676866832055 0 0.015473731418242443 -0.0017356877948347203 0 0.015838162959442348 -0.0020744676866832055 0 0.0154504616578143 -0.0024108102811615101 0 0.015703163821728355 -0.0026379659951158039 0 0.015838162959442348 -0.0020744676866832055 0 0.015703163821728355 -0.0026379659951158039 0 0.016031945954941292 -0.0028148004676901784 0 0.0154504616578143 -0.0024108102811615101 0 0.015703163821728355 -0.0026379659951158039 0 0.015386912508723422 -0.0028071271070417088 0 0.0154504616578143 -0.0024108102811615101 0 0.014999986536502712 -0.0025426738408634514 0 0.015386912508723422 -0.0028071271070417088 0 0.014999996172793495 -0.0025427793971949594 0 0.014999996255484774 -0.0030296838903998867 0 0.015397394443048917 -0.0028468594431622133 0 0.015000066221712462 -0.0025427973997601471 0 0.015442237760349887 -0.0028667828397744418 0 0.015000720923991167 -0.0030297694624418481 0 0.015356452784659108 -0.0032939108175569724 0 0.014999996255484774 -0.0030296838903998867 0 0.015397394443048917 -0.0028468594431622133 0 0.01574224075455322 -0.0031798044706588895 0 0.014999999715425328 -0.0030297287067859776 0 0.015383466329603484 -0.0035830342729085652 0 0.015763311947643098 -0.0031971873574974333 0 0.01500000083819298 -0.0039752635771650689 0 0.014999994863977909 -0.0035024838567608565 0 0.015383466329603484 -0.0035830342729085652 0 0.014999999715425328 -0.0030297287067859776 0 0.014999994863977909 -0.0035024838567608565 0 0.015383466329603484 -0.0035830342729085652 0 0.015173019970794588 -0.0039007517987086665 0 0.015185180122355446 -0.0039030811185064959 0 0.015176586206045719 -0.0039050432081771873 0 0.015173019970794588 -0.0039007517987086665 0 0.015176586206045719 -0.0039050432081771873 0 0.015159271200567119 -0.0039024751558555211 0 0.015173019970794588 -0.0039007517987086665 0 0.015175817511067665 -0.0038975531096255545 0 0.015185180122355446 -0.0039030811185064959 0 0.015173019970794588 -0.0039007517987086665 0 0.015175817511067665 -0.0038975531096255545 0 0.01516510174418882 -0.0038938399261004238 0 0.015185506170900016 -0.003905028516143356 0 0.015175817511067665 -0.0038975531096255545 0 0.015185180122355446 -0.0039030811185064959 0 0.015193473482934119 -0.0039237758570880221 0 0.015172491423093548 -0.0038800932797953373 0 0.015185180122355446 -0.0039030811185064959 0 0.015172491423093548 -0.0038800932797953373 0 0.015185180122355446 -0.0039030811185064959 0 0.015176586206045719 -0.0039050432081771873 0 0.015260410723225771 -0.0037538718592549651 0 0.015356452784659108 -0.0032939108175569724 0 0.015172491423093548 -0.0038800932797953373 0 0.015176586206045719 -0.0039050432081771873 0 0.015176845049878941 -0.0039157492654864493 0 0.015176586206045719 -0.0039050432081771873 0 0.015176845049878941 -0.0039157492654864493 0 0.015163426374293763 -0.0039161748359723284 0 0.015170801334958243 -0.0033244216316088253 0 0.015062017985667222 -0.0034334762267151674 0 0.014805909566511486 -0.0032480385224103398 0 0.015176845049878941 -0.0039157492654864493 0 0.015165059753558514 -0.003919580470537992 0 0.015163426374293763 -0.0039161748359723284 0 0.015703163821728355 -0.0026379659951158039 0 0.015386912508723422 -0.0028071271070417088 0 0.015764223846196732 -0.0030838287075815882 0 0.015356452784659108 -0.0032939108175569724 0 0.014520050731222459 -0.0032354674182969645 0 0.015703163821728355 -0.0026379659951158039 0 0.015764223846196732 -0.0030838287075815882 0 0.016031945954941292 -0.0028148004676901784 0 0.01521538489862187 -0.003199548201612226 0 0.014520050731222459 -0.0032354674182969645 0 0.015356452784659108 -0.0032939108175569724 0 0.01521538489862187 -0.003199548201612226 0 0.015397394443048917 -0.0028468594431622133 0 0.01574224075455322 -0.0031798044706588895 0 0.015787936339460289 -0.0031335040309344348 0 0.015442237760349887 -0.0028667828397744418 0 0.01521538489862187 -0.003199548201612226 0 0.01521538489862187 -0.003199548201612226 0 0.014225808134997783 -0.002823885286286092 0 0.013917807901796675 -0.0031123376772461213 0 0.013661923381794205 -0.0031470542673947008 0 0.014086722695085584 -0.0031987605523105186 0 0.013702467268755507 -0.0028750542397071536 0 0.013944670738270035 -0.0029956223084091726 0 0.014110140453479069 -0.0027737936063578898 0 0.014225808134997783 -0.002823885286286092 0 0.013991897279419581 -0.0029520253281301485 0 0.013702467268755507 -0.0028750542397071536 0 0.013801423820353912 -0.0030763607882638364 0 0.013944670738270035 -0.0029956223084091726 0 0.013801423820353912 -0.0030763607882638364 0 0.013917807901796675 -0.0031123376772461213 0 0.013944670738270035 -0.0029956223084091726 0 0.013801423820353912 -0.0030763607882638364 0 0.013917807901796675 -0.0031123376772461213 0 0.013661923381794205 -0.0031470542673947008 0 0.013599242555109161 -0.0030992361659456496 0 0.013762364837543829 -0.0029279119900242059 0 0.013661923381794205 -0.0031470542673947008 0 0.013762364837543829 -0.0029279119900242059 0 0.013801423820353912 -0.0030763607882638364 0 0.013661923381794205 -0.0031470542673947008 0 0.014083927912243801 -0.0032819613233726593 0 0.014086054446461998 -0.0032854876141730168 0 0.014094666574409413 -0.0032881102098674688 0 0.014520050731222459 -0.0032354674182969645 0 0.01479603826164246 -0.0036990603678174979 0 0.015165059753558514 -0.003919580470537992 0 0.015163426374293763 -0.0039161748359723284 0 0.015150093976586915 -0.003914748469340968 0 0.014520050731222459 -0.0032354674182969645 0 0.013944741647826565 -0.003227145991597259 0 0.015071069230534223 -0.0037931058851676013 0 0.01479603826164246 -0.0036990603678174979 0 0.015163426374293763 -0.0039161748359723284 0 0.01515563222915165 -0.0039136732185063297 0 0.015139804844002182 -0.0039279427461996501 0 0.015176586206045719 -0.0039050432081771873 0 0.01515563222915165 -0.0039136732185063297 0 0.015159271200567119 -0.0039024751558555211 0 0.015176586206045719 -0.0039050432081771873 0 0.015163426374293763 -0.0039161748359723284 0 0.01515563222915165 -0.0039136732185063297 0 0.01515563222915165 -0.0039136732185063297 0 0.015139804844002182 -0.0039279427461996501 0 0.015138866251693386 -0.0039039677664036367 0 0.015139804844002182 -0.0039279427461996501 0 0.015102146222373436 -0.0039184830106188829 0 0.015138866251693386 -0.0039039677664036367 0 0.01479603826164246 -0.0036990603678174979 0 0.015059542020948478 -0.0038887742491365155 0 0.01510653541889396 -0.0038586791219789012 0 0.015102146222373436 -0.0039184830106188829 0 0.015138866251693386 -0.0039039677664036367 0 0.015006986740665182 -0.0038252714856132578 0 0.01510653541889396 -0.0038586791219789012 0 0.015102146222373436 -0.0039184830106188829 0 0.01510653541889396 -0.0038586791219789012 0 0.015149191149825778 -0.0038867542185712571 0 0.015138866251693386 -0.0039039677664036367 0 0.015149191149825778 -0.0038867542185712571 0 0.01516510174418882 -0.0038938399261004238 0 0.015159271200567119 -0.0039024751558555211 0 0.015159928791508195 -0.0038783433687638487 0 0.015149191149825778 -0.0038867542185712571 0 0.01516510174418882 -0.0038938399261004238 0 0.015173019970794588 -0.0039007517987086665 0 0.01516510174418882 -0.0038938399261004238 0 0.015159271200567119 -0.0039024751558555211 0 0.01515563222915165 -0.0039136732185063297 0 0.015159271200567119 -0.0039024751558555211 0 0.015138866251693386 -0.0039039677664036367 0 0.015149191149825778 -0.0038867542185712571 0 0.015159271200567119 -0.0039024751558555211 0 0.015138866251693386 -0.0039039677664036367 0 0.01479603826164246 -0.0036990603678174979 0 0.014454046477626024 -0.0035784869375736898 0 0.014086054446461998 -0.0032854876141730168 0 0.014094666574409413 -0.0032881102098674688 0 0.014105066426306956 -0.0032958204209014856 0 0.015159880625891816 -0.0039651519489566113 0 0.015102146222373436 -0.0039184830106188829 0 0.014876591415038779 -0.0038913196196544804 0 0.015006986740665182 -0.0038252714856132578 0 0.015102146222373436 -0.0039184830106188829 0 0.014876591415038779 -0.0038913196196544804 0 0.014889721676338898 -0.0037395994194808404 0 0.015006986740665182 -0.0038252714856132578 0 0.014876591415038779 -0.0038913196196544804 0 0.014137537980241439 -0.0030798127144004896 0 0.014255492256605868 -0.0029507261488886031 0 0.014097155645228499 -0.003143641024065994 0 0.014110140453479069 -0.0027737936063578898 0 0.01453370108651629 -0.0025677474271996229 0 0.014086722695085584 -0.0031987605523105186 0 0.014097155645228499 -0.003143641024065994 0 0.014091641454658535 -0.0031820796012894765 0 0.013917807901796675 -0.0031123376772461213 0 0.014097155645228499 -0.003143641024065994 0 0.013944670738270035 -0.0029956223084091726 0 0.013917807901796675 -0.0031123376772461213 0 0.014086722695085584 -0.0031987605523105186 0 0.014097155645228499 -0.003143641024065994 0 0.014097155645228499 -0.003143641024065994 0 0.013944670738270035 -0.0029956223084091726 0 0.014110140453479069 -0.0027737936063578898 0 0.014225808134997783 -0.002823885286286092 0 0.014061147288522188 -0.0023607133769615735 0 0.013702467268755507 -0.0028750542397071536 0 0.014110140453479069 -0.0027737936063578898 0 0.014253392495087397 -0.0023033258743088039 0 0.014110140453479069 -0.0027737936063578898 0 0.014253392495087397 -0.0023033258743088039 0 0.01453370108651629 -0.0025677474271996229 0 0.014760487675103838 -0.0021823835905684995 0 0.014225808134997783 -0.002823885286286092 0 0.013789684318469515 -0.0027671455907715236 0 0.013912823712003029 -0.0023371996129517253 0 0.014253392495087397 -0.0023033258743088039 0 0.013610907334617254 -0.0021762040528278915 0 0.013789684318469515 -0.0027671455907715236 0 0.013912823712003029 -0.0023371996129517253 0 0.013610907334617254 -0.0021762040528278915 0 0.013912823712003029 -0.0023371996129517253 0 0.014020000415636393 -0.002061853185227587 0 0.014020000415636393 -0.002061853185227587 0 0.014253392495087397 -0.0023033258743088039 0 0.01445906134682589 -0.0019840069904680387 0 0.013912823712003029 -0.0023371996129517253 0 0.014020000415636393 -0.002061853185227587 0 0.014253392495087397 -0.0023033258743088039 0 0.01453370108651629 -0.0025677474271996229 0 0.014879844614532539 -0.0020004768032333632 0 0.01445906134682589 -0.0019840069904680387 0 0.014253392495087397 -0.0023033258743088039 0 0.01453370108651629 -0.0025677474271996229 0 0.01445906134682589 -0.0019840069904680387 0 0.014255492256605868 -0.0029507261488886031 0 0.014634255330149946 -0.0020434452256982462 0 0.014098958627293483 -0.0031027880370236502 0 0.014088599877875283 -0.0028101031886103023 0 0.013643524821782835 -0.0026473183474377249 0 0.013888591947053908 -0.0033660118416875321 0 0.014634255330149946 -0.0020434452256982462 0 0.014091552515515148 -0.0031223272773452937 0 0.014098958627293483 -0.0031027880370236502 0 0.014097347688116746 -0.003077134191014469 0 0.014091552515515148 -0.0031223272773452937 0 0.014078065685569293 -0.0031204761464792394 0 0.014097347688116746 -0.003077134191014469 0 0.014091552515515148 -0.0031223272773452937 0 0.014078065685569293 -0.0031204761464792394 0 0.014087397518556198 -0.0031540063769949431 0 0.014097155645228499 -0.003143641024065994 0 0.014078065685569293 -0.0031204761464792394 0 0.014087397518556198 -0.0031540063769949431 0 0.014097155645228499 -0.003143641024065994 0 0.014087397518556198 -0.0031540063769949431 0 0.014091641454658535 -0.0031820796012894765 0 0.014087397518556198 -0.0031540063769949431 0 0.014091641454658535 -0.0031820796012894765 0 0.014099985771997713 -0.0031824271082689102 0 0.014094666574409413 -0.0032881102098674688 0 0.014105066426306956 -0.0032958204209014856 0 0.014137789238844888 -0.003302204627561612 0 0.014454046477626024 -0.0035784869375736898 0 0.014375813485408472 -0.0035127710849931623 0 0.013944741647826565 -0.003227145991597259 0 0.014152678083483266 -0.0032753748476969475 0 0.014086722695085584 -0.0031987605523105186 0 0.014091641454658535 -0.0031820796012894765 0 0.014089548802600233 -0.0032242973558397089 0 0.014750245994841298 -0.0037229066964284433 0 0.014876591415038779 -0.0038913196196544804 0 0.014526613453748196 -0.0037021700253735048 0 0.014091641454658535 -0.0031820796012894765 0 0.014089548802600233 -0.0032242973558397089 0 0.014099985771997713 -0.0031824271082689102 0 0.014889721676338898 -0.0037395994194808404 0 0.014750245994841298 -0.0037229066964284433 0 0.014876591415038779 -0.0038913196196544804 0 0.01417741910118287 -0.0033261917918770271 0 0.014137789238844888 -0.003302204627561612 0 0.014238594438838735 -0.0033462896714615367 0 0.014089548802600233 -0.0032242973558397089 0 0.014143646014767128 -0.0031994495798251628 0 0.014238594438838735 -0.0033462896714615367 0 0.014105066426306956 -0.0032958204209014856 0 0.01417741910118287 -0.0033261917918770271 0 0.014137789238844888 -0.003302204627561612 0 0.014152678083483266 -0.0032753748476969475 0 0.014221308654171524 -0.0033305495746288119 0 0.014089548802600233 -0.0032242973558397089 0 0.014099985771997713 -0.0031824271082689102 0 0.014143646014767128 -0.0031994495798251628 0 0.014091552515515148 -0.0031223272773452937 0 0.014143646014767128 -0.0031994495798251628 0 0.014098958627293483 -0.0031027880370236502 0 0.014091552515515148 -0.0031223272773452937 0 0.014099985771997713 -0.0031824271082689102 0 0.014143646014767128 -0.0031994495798251628 0 0.014091552515515148 -0.0031223272773452937 0 0.014087397518556198 -0.0031540063769949431 0 0.014099985771997713 -0.0031824271082689102 0 0.014143646014767128 -0.0031994495798251628 0 0.014273222579871469 -0.0032710466006507411 0 0.014269170856654899 -0.0031497931750866393 0 0.014143646014767128 -0.0031994495798251628 0 0.014269170856654899 -0.0031497931750866393 0 0.014098958627293483 -0.0031027880370236502 0 0.014340523128708836 -0.0034255996259447497 0 0.014375813485408472 -0.0035127710849931623 0 0.014143646014767128 -0.0031994495798251628 0 0.014238594438838735 -0.0033462896714615367 0 0.014273222579871469 -0.0032710466006507411 0 0.014331789942301621 -0.0034047194649865055 0 0.01417741910118287 -0.0033261917918770271 0 0.014238594438838735 -0.0033462896714615367 0 0.014331789942301621 -0.0034047194649865055 0 0.014273222579871469 -0.0032710466006507411 0 0.01439422586128449 -0.0032357472677365783 0 0.014331789942301621 -0.0034047194649865055 0 0.014238594438838735 -0.0033462896714615367 0 0.014273222579871469 -0.0032710466006507411 0 0.014273222579871469 -0.0032710466006507411 0 0.014269170856654899 -0.0031497931750866393 0 0.01439422586128449 -0.0032357472677365783 0 0.014269170856654899 -0.0031497931750866393 0 0.01426386325696468 -0.0029502735920178781 0 0.014426460062401733 -0.0030440352521320289 0 0.014269170856654899 -0.0031497931750866393 0 0.01426386325696468 -0.0029502735920178781 0 0.014098958627293483 -0.0031027880370236502 0 0.01426386325696468 -0.0029502735920178781 0 0.014098958627293483 -0.0031027880370236502 0 0.014088599877875283 -0.0028101031886103023 0 0.01426386325696468 -0.0029502735920178781 0 0.014088599877875283 -0.0028101031886103023 0 0.014220438200122714 -0.0027291368824270967 0 0.014088599877875283 -0.0028101031886103023 0 0.014060403757532359 -0.0025512043764115834 0 0.013643524821782835 -0.0026473183474377249 0 0.014088599877875283 -0.0028101031886103023 0 0.014220438200122714 -0.0027291368824270967 0 0.014060403757532359 -0.0025512043764115834 0 0.01426386325696468 -0.0029502735920178781 0 0.014220438200122714 -0.0027291368824270967 0 0.014356137656427976 -0.0027812776245055727 0 0.01426386325696468 -0.0029502735920178781 0 0.014356137656427976 -0.0027812776245055727 0 0.014426460062401733 -0.0030440352521320289 0 0.014356137656427976 -0.0027812776245055727 0 0.014250792293204818 -0.0025958494211900194 0 0.014406250988190284 -0.002544511909491376 0 0.014376712478906614 -0.002418682218817038 0 0.014523086181032735 -0.0023368030787115639 0 0.014220438200122714 -0.0027291368824270967 0 0.014356137656427976 -0.0027812776245055727 0 0.014250792293204818 -0.0025958494211900194 0 0.014220438200122714 -0.0027291368824270967 0 0.014250792293204818 -0.0025958494211900194 0 0.014060403757532359 -0.0025512043764115834 0 0.014376712478906614 -0.002418682218817038 0 0.01407934304984336 -0.0025518056993001914 0 0.014486152535175136 -0.0022605109759542439 0 0.014060403757532359 -0.0025512043764115834 0 0.014352980582672349 -0.0018604891817448027 0 0.014060403757532359 -0.0025512043764115834 0 0.013955318047820268 -0.0018682394819376548 0 0.014352980582672349 -0.0018604891817448027 0 0.014352980582672349 -0.0018604891817448027 0 0.014606680583477699 -0.0015563550371889227 0 0.014942480850029057 -0.0020073551988356105 0 0.014486152535175136 -0.0022605109759542439 0 0.014352980582672349 -0.0018604891817448027 0 0.014942480850029057 -0.0020073551988356105 0 0.014572619582885062 -0.0015345490100833635 0 0.014523086181032735 -0.0023368030787115639 0 0.014606680583477699 -0.0015563550371889227 0 0.014644632371046509 -0.00114167932889024 0 0.014366329915693534 -0.0011701092408110988 0 0.014352980582672349 -0.0018604891817448027 0 0.014606680583477699 -0.0015563550371889227 0 0.014366329915693534 -0.0011701092408110988 0 0.014606680583477699 -0.0015563550371889227 0 0.014644632371046509 -0.00114167932889024 0 0.014752681394185329 -0.0013469144321013318 0 0.016094539052778814 0.00055772980052926752 0 0.015907644825816313 0.00051741047304297019 0 0.015989011092178783 0.00034750357211988769 0 0.015490647632130735 9.2436652710207396e-05 0 0.015143782236910406 -0.00047535557772546404 0 0.014679419859322813 -0.00066950736382544629 0 0.014644632371046509 -0.00114167932889024 0 0.014366329915693534 -0.0011701092408110988 0 0.015907644825816313 0.00051741047304297019 0 0.015824163635687876 0.00052838026183991884 0 0.015833090639349328 0.00038780849210899977 0 0.015907644825816313 0.00051741047304297019 0 0.015989011092178783 0.00034750357211988769 0 0.015833090639349328 0.00038780849210899977 0 0.013955318047820268 -0.0018682394819376548 0 0.014352980582672349 -0.0018604891817448027 0 0.014366329915693534 -0.0011701092408110988 0 0.015890186984544835 9.0376207762539611e-05 0 0.015989011092178783 0.00034750357211988769 0 0.015789308533032686 0.00023103018155993803 0 0.015989011092178783 0.00034750357211988769 0 0.015789308533032686 0.00023103018155993803 0 0.015833090639349328 0.00038780849210899977 0 0.014966363888776004 -0.00075890858620826951 0 0.015143782236910406 -0.00047535557772546404 0 0.015789308533032686 0.00023103018155993803 0 0.015833090639349328 0.00038780849210899977 0 0.015685756577940413 0.00034301562509062684 0 0.015789308533032686 0.00023103018155993803 0 0.015685756577940413 0.00034301562509062684 0 0.015652597333027495 0.00021616699319213493 0 0.015833090639349328 0.00038780849210899977 0 0.01575461385106363 0.00045448150672462815 0 0.015685756577940413 0.00034301562509062684 0 0.015824163635687876 0.00052838026183991884 0 0.015833090639349328 0.00038780849210899977 0 0.01575461385106363 0.00045448150672462815 0 0.01575461385106363 0.00045448150672462815 0 0.015676834845692732 0.00044706092144495944 0 0.015685756577940413 0.00034301562509062684 0 0.015676834845692732 0.00044706092144495944 0 0.015649471080962676 0.00037370599716852657 0 0.015685756577940413 0.00034301562509062684 0 0.015676834845692732 0.00044706092144495944 0 0.015649471080962676 0.00037370599716852657 0 0.01560197691576003 0.00039037569309147141 0 0.015773393161643105 0.00036885610174895153 0 0.015260897383502689 -7.3465806668208936e-06 0 0.015649471080962676 0.00037370599716852657 0 0.015685756577940413 0.00034301562509062684 0 0.015633507990946136 0.00032761888616299114 0 0.015685756577940413 0.00034301562509062684 0 0.015652597333027495 0.00021616699319213493 0 0.015505386885033719 0.00026343796629764552 0 0.015789308533032686 0.00023103018155993803 0 0.015652597333027495 0.00021616699319213493 0 0.015614647844069574 3.0232214083020982e-05 0 0.015126939089822699 -0.00067905675179380889 0 0.015260897383502689 -7.3465806668208936e-06 0 0.015652597333027495 0.00021616699319213493 0 0.015614647844069574 3.0232214083020982e-05 0 0.015505386885033719 0.00026343796629764552 0 0.01462678008026717 -0.0015277631611163953 0 0.014277937360647083 -0.0014225908214811325 0 0.014386581849654134 -0.0010620665713461811 0 0.015890186984544835 9.0376207762539611e-05 0 0.015789308533032686 0.00023103018155993803 0 0.015614647844069574 3.0232214083020982e-05 0 0.015890186984544835 9.0376207762539611e-05 0 0.015614647844069574 3.0232214083020982e-05 0 0.015722978691709272 -0.0002210512927335424 0 0.014966363888776004 -0.00075890858620826951 0 0.014634255330149946 -0.0020434452256982462 0 0.014060403757532359 -0.0025512043764115834 0 0.013955318047820268 -0.0018682394819376548 0 0.013643524821782835 -0.0026473183474377249 0 0.01462678008026717 -0.0015277631611163953 0 0.014879844614532539 -0.0020004768032333632 0 0.01445906134682589 -0.0019840069904680387 0 0.015126939089822699 -0.00067905675179380889 0 0.014634255330149946 -0.0020434452256982462 0 0.01462678008026717 -0.0015277631611163953 0 0.01445906134682589 -0.0019840069904680387 0 0.014149177894939927 -0.0017767603486430849 0 0.014020000415636393 -0.002061853185227587 0 0.01445906134682589 -0.0019840069904680387 0 0.014149177894939927 -0.0017767603486430849 0 0.013610907334617254 -0.0021762040528278915 0 0.014020000415636393 -0.002061853185227587 0 0.013790464919905649 -0.0017762245196604506 0 0.014020000415636393 -0.002061853185227587 0 0.014149177894939927 -0.0017767603486430849 0 0.013790464919905649 -0.0017762245196604506 0 0.015495393737377339 0.00018537261325511946 0 0.015397287444513623 0.00026255142604211584 0 0.015319543401849713 8.6113616643633732e-05 0 0.014149177894939927 -0.0017767603486430849 0 0.013790464919905649 -0.0017762245196604506 0 0.013904720055524919 -0.0013074146935705283 0 0.013790464919905649 -0.0017762245196604506 0 0.013904720055524919 -0.0013074146935705283 0 0.013435289429544925 -0.0015466647145407344 0 0.014555035496574827 -0.00059871540853366511 0 0.014983732032141997 -0.0011442968945188361 0 0.01462678008026717 -0.0015277631611163953 0 0.014149177894939927 -0.0017767603486430849 0 0.014277937360647083 -0.0014225908214811325 0 0.013904720055524919 -0.0013074146935705283 0 0.014277937360647083 -0.0014225908214811325 0 0.014386581849654134 -0.0010620665713461811 0 0.014149177894939927 -0.0017767603486430849 0 0.013904720055524919 -0.0013074146935705283 0 0.014277937360647083 -0.0014225908214811325 0 0.015660961052713418 0.00027914251596682343 0 0.01560197691576003 0.00039037569309147141 0 0.015516081831879136 0.000330674261140735 0 0.014555035496574827 -0.00059871540853366511 0 0.015260897383502689 -7.3465806668208936e-06 0 0.015495393737377339 0.00018537261325511946 0 0.015660961052713418 0.00027914251596682343 0 0.015516081831879136 0.000330674261140735 0 0.015260897383502689 -7.3465806668208936e-06 0 0.015532899821487978 0.00036133667118303848 0 0.015649471080962676 0.00037370599716852657 0 0.015633507990946136 0.00032761888616299114 0 0.01560197691576003 0.00039037569309147141 0 0.015602348410467256 0.00057139975589490005 0 0.01560197691576003 0.00039037569309147141 0 0.015510985603853717 0.00046264037055875962 0 0.015602348410467256 0.00057139975589490005 0 0.015676834845692732 0.00044706092144495944 0 0.01560197691576003 0.00039037569309147141 0 0.01560197691576003 0.00039037569309147141 0 0.015510985603853717 0.00046264037055875962 0 0.015516081831879136 0.000330674261140735 0 0.015401831739377711 0.00050003626019223585 0 0.015510985603853717 0.00046264037055875962 0 0.01543007624707733 0.00039578195905355895 0 0.015510985603853717 0.00046264037055875962 0 0.01543007624707733 0.00039578195905355895 0 0.015516081831879136 0.000330674261140735 0 0.01543007624707733 0.00039578195905355895 0 0.015516081831879136 0.000330674261140735 0 0.015397287444513623 0.00026255142604211584 0 0.015495393737377339 0.00018537261325511946 0 0.015516081831879136 0.000330674261140735 0 0.015397287444513623 0.00026255142604211584 0 0.015397287444513623 0.00026255142604211584 0 0.015268095322859138 0.00030900275690865078 0 0.015319543401849713 8.6113616643633732e-05 0 0.01543007624707733 0.00039578195905355895 0 0.015397287444513623 0.00026255142604211584 0 0.015268095322859138 0.00030900275690865078 0 0.01543007624707733 0.00039578195905355895 0 0.015309221997065171 0.00043514037374325925 0 0.015268095322859138 0.00030900275690865078 0 0.015318221760665008 0.00052877445379859449 0 0.015401831739377711 0.00050003626019223585 0 0.015309221997065171 0.00043514037374325925 0 0.015401831739377711 0.00050003626019223585 0 0.01543007624707733 0.00039578195905355895 0 0.015309221997065171 0.00043514037374325925 0 0.015000007016683584 6.994627046771433e-05 0 0.015248378715308278 0.00013204984753520098 0 0.015453497532596779 -0.00058011052884608086 0 0.015219626504266837 0.00031381744358908092 0 0.015401673879211155 -4.130684272556804e-05 0 0.015208278249257847 0.0005143114563306788 0 0.015309221997065171 0.00043514037374325925 0 0.015268095322859138 0.00030900275690865078 0 0.015000007016683584 6.994627046771433e-05 0 0.015453497532596779 -0.00058011052884608086 0 0.014999995132421349 -0.00080095515617372305 0 0.015453497532596779 -0.00058011052884608086 0 0.014999995132421349 -0.00080095515617372305 0 0.015304534925669099 -0.0010602167240855384 0 0.015304534925669099 -0.0010602167240855384 0 0.015657171252573449 -0.0012933687575077514 0 0.015107022105335528 -0.0015670133885369063 0 0.014999995132421349 -0.00080095515617372305 0 0.014999983630882367 -0.0016718957892779981 0 0.015107022105335528 -0.0015670133885369063 0 0.014999995132421349 -0.00080095515617372305 0 0.015304534925669099 -0.0010602167240855384 0 0.015107022105335528 -0.0015670133885369063 0 0.015453497532596779 -0.00058011052884608086 0 0.015304534925669099 -0.0010602167240855384 0 0.015657171252573449 -0.0012933687575077514 0 0.015401673879211155 -4.130684272556804e-05 0 0.014983732032141997 -0.0011442968945188361 0 0.013610907334617254 -0.0021762040528278915 0 0.013790464919905649 -0.0017762245196604506 0 0.013435289429544925 -0.0015466647145407344 0 0.015838162959442348 -0.0020744676866832055 0 0.015627305248880927 -0.0013206952248573829 0 0.015473731418242443 -0.0017356877948347203 0 0.014760487675103838 -0.0021823835905684995 0 0.014983732032141997 -0.0011442968945188361 0 0.015627305248880927 -0.0013206952248573829 0 0.015473731418242443 -0.0017356877948347203 0 0.015107022105335528 -0.0015670133885369063 0 0.015318103698559318 -0.0019795068139309194 0 0.015473731418242443 -0.0017356877948347203 0 0.015107022105335528 -0.0015670133885369063 0 0.014983732032141997 -0.0011442968945188361 0 0.015346891870940006 -0.0015018148428378379 0 0.015318103698559318 -0.0019795068139309194 0 0.014999983630882367 -0.0016718957892779981 0 0.015107022105335528 -0.0015670133885369063 0 0.014478667176301082 -0.0030771619228800178 0 0.014440445356780388 -0.0030844025565241184 0 0.014383823979731371 -0.0030592003978162966 0 0.014478667176301082 -0.0030771619228800178 0 0.014500985759118982 -0.0030749289217814513 0 0.014440445356780388 -0.0030844025565241184 0 0.014478667176301082 -0.0030771619228800178 0 0.014497018933086431 -0.003109690447138309 0 0.014500985759118982 -0.0030749289217814513 0 0.014500985759118982 -0.0030749289217814513 0 0.014444610859558822 -0.0030572997228940761 0 0.014478230285089586 -0.0029789529153246841 0 0.014497018933086431 -0.003109690447138309 0 0.014500985759118982 -0.0030749289217814513 0 0.014444610859558822 -0.0030572997228940761 0 0.014500985759118982 -0.0030749289217814513 0 0.014440445356780388 -0.0030844025565241184 0 0.014439810909864952 -0.0031282472755690708 0 0.014440445356780388 -0.0030844025565241184 0 0.014383823979731371 -0.0030592003978162966 0 0.014384985316407223 -0.0031057841100913426 0 0.012740334340865156 -0.0046129386034618565 0 0.013231348209685826 -0.0043445397922703402 0 0.012589235604980277 -0.0042386453190482957 0 0.011316540984287903 -0.0027864487211356772 0 0.014136226989713521 -0.003704583393221399 0 0.014298514962668207 -0.0030788769686044683 0 0.014383823979731371 -0.0030592003978162966 0 0.014384985316407223 -0.0031057841100913426 0 0.013231348209685826 -0.0043445397922703402 0 0.012871557790561322 -0.0039271292518810253 0 0.012589235604980277 -0.0042386453190482957 0 0.013231348209685826 -0.0043445397922703402 0 0.01327231733663374 -0.0037787549364560794 0 0.012871557790561322 -0.0039271292518810253 0 0.014042890176579503 -0.0035815246314719238 0 0.014136226989713521 -0.003704583393221399 0 0.013736797108462411 -0.0040438203003255249 0 0.013231348209685826 -0.0043445397922703402 0 0.01327231733663374 -0.0037787549364560794 0 0.01327231733663374 -0.0037787549364560794 0 0.012871557790561322 -0.0039271292518810253 0 0.01276624179256744 -0.0035508384039703014 0 0.013052123545667866 -0.0029135502367850191 0 0.01276624179256744 -0.0035508384039703014 0 0.012316701337441352 -0.0033275935269965716 0 0.01327231733663374 -0.0037787549364560794 0 0.01276624179256744 -0.0035508384039703014 0 0.013341484946435807 -0.0033446380280659914 0 0.013052123545667866 -0.0029135502367850191 0 0.01276624179256744 -0.0035508384039703014 0 0.013341484946435807 -0.0033446380280659914 0 0.01327231733663374 -0.0037787549364560794 0 0.013341484946435807 -0.0033446380280659914 0 0.013773865380964329 -0.0035068959495115955 0 0.013762521720174227 -0.0029810308489064182 0 0.013341484946435807 -0.0033446380280659914 0 0.013773865380964329 -0.0035068959495115955 0 0.013736797108462411 -0.0040438203003255249 0 0.013773865380964329 -0.0035068959495115955 0 0.014195868007520812 -0.0037024596299785138 0 0.013736797108462411 -0.0040438203003255249 0 0.01327231733663374 -0.0037787549364560794 0 0.013773865380964329 -0.0035068959495115955 0 0.014042890176579503 -0.0035815246314719238 0 0.014352158984361398 -0.0034329382289462048 0 0.014478667176301082 -0.0030771619228800178 0 0.014497018933086431 -0.003109690447138309 0 0.01451336805369762 -0.0031710375184765293 0 0.013773865380964329 -0.0035068959495115955 0 0.014195868007520812 -0.0037024596299785138 0 0.014252710814463868 -0.0033355539337915252 0 0.013762521720174227 -0.0029810308489064182 0 0.013773865380964329 -0.0035068959495115955 0 0.014252710814463868 -0.0033355539337915252 0 0.01451336805369762 -0.0031710375184765293 0 0.014501060754786764 -0.0032677295002504548 0 0.014499157436533374 -0.0033195121941276954 0 0.014195868007520812 -0.0037024596299785138 0 0.014252710814463868 -0.0033355539337915252 0 0.014499157436533374 -0.0033195121941276954 0 0.014418971416711711 -0.0032372094002962211 0 0.014252710814463868 -0.0033355539337915252 0 0.014499157436533374 -0.0033195121941276954 0 0.014494451560730386 -0.0032800963211707325 0 0.014418971416711711 -0.0032372094002962211 0 0.014499157436533374 -0.0033195121941276954 0 0.014501060754786764 -0.0032677295002504548 0 0.014499157436533374 -0.0033195121941276954 0 0.014517140937008479 -0.0032399912505036159 0 0.014494451560730386 -0.0032800963211707325 0 0.014499157436533374 -0.0033195121941276954 0 0.014506034211801246 -0.0032856579602871376 0 0.014499157436533374 -0.0033195121941276954 0 0.014517140937008479 -0.0032399912505036159 0 0.014506034211801246 -0.0032856579602871376 0 0.014501060754786764 -0.0032677295002504548 0 0.014517140937008479 -0.0032399912505036159 0 0.01458375342462768 -0.003113127570714649 0 0.014502268313021901 -0.0032527623114697625 0 0.014467935248472648 -0.0031014176337975405 0 0.014501060754786764 -0.0032677295002504548 0 0.014471545597996033 -0.003144149760714865 0 0.014363789527043843 -0.0031230511462076527 0 0.01451336805369762 -0.0031710375184765293 0 0.014501060754786764 -0.0032677295002504548 0 0.014471545597996033 -0.003144149760714865 0 0.014497018933086431 -0.003109690447138309 0 0.01451336805369762 -0.0031710375184765293 0 0.014471545597996033 -0.003144149760714865 0 0.014352158984361398 -0.0034329382289462048 0 0.014472613577561697 -0.0033431643745720462 0 0.014445197909901418 -0.0033225238525412706 0 0.014471156589388289 -0.003252755087040799 0 0.01439422586128449 -0.0032357472677365783 0 0.014331789942301621 -0.0034047194649865055 0 0.014445197909901418 -0.0033225238525412706 0 0.01439422586128449 -0.0032357472677365783 0 0.014445197909901418 -0.0033225238525412706 0 0.014471156589388289 -0.003252755087040799 0 0.014506034211801246 -0.0032856579602871376 0 0.014517140937008479 -0.0032399912505036159 0 0.014471156589388289 -0.003252755087040799 0 0.014506034211801246 -0.0032856579602871376 0 0.014517140937008479 -0.0032399912505036159 0 0.01448874481648918 -0.0031689188245643159 0 0.01458375342462768 -0.003113127570714649 0 0.014517140937008479 -0.0032399912505036159 0 0.014471156589388289 -0.003252755087040799 0 0.01448874481648918 -0.0031689188245643159 0 0.014269170856654899 -0.0031497931750866393 0 0.01439422586128449 -0.0032357472677365783 0 0.014426460062401733 -0.0030440352521320289 0 0.014471156589388289 -0.003252755087040799 0 0.01448874481648918 -0.0031689188245643159 0 0.01439422586128449 -0.0032357472677365783 0 0.01448874481648918 -0.0031689188245643159 0 0.01439422586128449 -0.0032357472677365783 0 0.014426460062401733 -0.0030440352521320289 0 0.014426460062401733 -0.0030440352521320289 0 0.014537254224060138 -0.0028339611804994802 0 0.01458375342462768 -0.003113127570714649 0 0.01448874481648918 -0.0031689188245643159 0 0.014426460062401733 -0.0030440352521320289 0 0.01458375342462768 -0.003113127570714649 0 0.01438795996890614 -0.0029841394352579124 0 0.014467935248472648 -0.0031014176337975405 0 0.014356137656427976 -0.0027812776245055727 0 0.014426460062401733 -0.0030440352521320289 0 0.014537254224060138 -0.0028339611804994802 0 0.01428181981249362 -0.0030139504045627965 0 0.014363789527043843 -0.0031230511462076527 0 0.014444610859558822 -0.0030572997228940761 0 0.01428181981249362 -0.0030139504045627965 0 0.014444610859558822 -0.0030572997228940761 0 0.014386220730025394 -0.0029276408280501506 0 0.014471545597996033 -0.003144149760714865 0 0.014363789527043843 -0.0031230511462076527 0 0.014444610859558822 -0.0030572997228940761 0 0.014497018933086431 -0.003109690447138309 0 0.014471545597996033 -0.003144149760714865 0 0.014444610859558822 -0.0030572997228940761 0 0.014444610859558822 -0.0030572997228940761 0 0.014478230285089586 -0.0029789529153246841 0 0.014386220730025394 -0.0029276408280501506 0 0.014478230285089586 -0.0029789529153246841 0 0.014386220730025394 -0.0029276408280501506 0 0.014493532527732755 -0.0028649153471131815 0 0.014386220730025394 -0.0029276408280501506 0 0.014305356567188619 -0.0028463126680310824 0 0.014406110206261067 -0.0027889614419004173 0 0.014386220730025394 -0.0029276408280501506 0 0.014406110206261067 -0.0027889614419004173 0 0.014493532527732755 -0.0028649153471131815 0 0.01428181981249362 -0.0030139504045627965 0 0.014290264457343355 -0.002923331483792967 0 0.01420339309856305 -0.002896798288290839 0 0.01438795996890614 -0.0029841394352579124 0 0.014523086181032735 -0.0023368030787115639 0 0.014356137656427976 -0.0027812776245055727 0 0.014537254224060138 -0.0028339611804994802 0 0.014406250988190284 -0.002544511909491376 0 0.01428181981249362 -0.0030139504045627965 0 0.014386220730025394 -0.0029276408280501506 0 0.014290264457343355 -0.002923331483792967 0 0.014386220730025394 -0.0029276408280501506 0 0.014290264457343355 -0.002923331483792967 0 0.014305356567188619 -0.0028463126680310824 0 0.014290264457343355 -0.002923331483792967 0 0.014305356567188619 -0.0028463126680310824 0 0.01420339309856305 -0.002896798288290839 0 0.014918473088906588 -0.0014594994253666691 0 0.01474311910203927 -0.0015067129714358763 0 0.014722091128669601 -0.0016220271667446683 0 0.014605067101433196 -0.0021461253277950325 0 0.014523086181032735 -0.0023368030787115639 0 0.014606680583477699 -0.0015563550371889227 0 0.01474311910203927 -0.0015067129714358763 0 0.014722091128669601 -0.0016220271667446683 0 0.014918473088906588 -0.0014594994253666691 0 0.01474311910203927 -0.0015067129714358763 0 0.014752681394185329 -0.0013469144321013318 0 0.014606680583477699 -0.0015563550371889227 0 0.01474311910203927 -0.0015067129714358763 0 0.014752681394185329 -0.0013469144321013318 0 0.014918473088906588 -0.0014594994253666691 0 0.014752681394185329 -0.0013469144321013318 0 0.014860272334687098 -0.0012426016984522607 0 0.014918473088906588 -0.0014594994253666691 0 0.014860272334687098 -0.0012426016984522607 0 0.014994763890879489 -0.0011782742218429422 0 0.014891618763010631 -0.0010731649949777262 0 0.014860272334687098 -0.0012426016984522607 0 0.014994763890879489 -0.0011782742218429422 0 0.014891618763010631 -0.0010731649949777262 0 0.014860272334687098 -0.0012426016984522607 0 0.014738280698494734 -0.0011477490468098533 0 0.014752681394185329 -0.0013469144321013318 0 0.014860272334687098 -0.0012426016984522607 0 0.014738280698494734 -0.0011477490468098533 0 0.014762098368207587 -0.001279413470349988 0 0.014785685808582905 -0.0011407092587842219 0 0.014644632371046509 -0.00114167932889024 0 0.014752681394185329 -0.0013469144321013318 0 0.014845523278488738 -0.0009776723826453134 0 0.014679419859322813 -0.00066950736382544629 0 0.014644632371046509 -0.00114167932889024 0 0.014845523278488738 -0.0009776723826453134 0 0.014722175859621885 -0.002058407389654677 0 0.015011583134535473 -0.0019063298796819306 0 0.014406110206261067 -0.0027889614419004173 0 0.014517547931328345 -0.0027193052966259131 0 0.014493532527732755 -0.0028649153471131815 0 0.014918473088906588 -0.0014594994253666691 0 0.015088842163225334 -0.001303127481087305 0 0.014994763890879489 -0.0011782742218429422 0 0.014605067101433196 -0.0021461253277950325 0 0.014722175859621885 -0.002058407389654677 0 0.015088842163225334 -0.001303127481087305 0 0.014994763890879489 -0.0011782742218429422 0 0.015084518849620514 -0.0010496933927250283 0 0.014891618763010631 -0.0010731649949777262 0 0.014994763890879489 -0.0011782742218429422 0 0.015084518849620514 -0.0010496933927250283 0 0.015230207951426595 -0.00095429870758067224 0 0.015084518849620514 -0.0010496933927250283 0 0.015260729366555236 -0.0011704127069698401 0 0.015088842163225334 -0.001303127481087305 0 0.015084518849620514 -0.0010496933927250283 0 0.015260729366555236 -0.0011704127069698401 0 0.015011583134535473 -0.0019063298796819306 0 0.014425449202256704 -0.0019311235821907586 0 0.014425449202256704 -0.0019311235821907586 0 0.014490286452359443 -0.0031760378867473392 0 0.014357690768485051 -0.003165470166876815 0 0.014369171199439579 -0.0031622703688208216 0 0.014372665450914668 -0.0031586516170604528 0 0.014517547931328345 -0.0027193052966259131 0 0.014646753945324727 -0.0026454448632704732 0 0.014613143480369309 -0.002801734176278541 0 0.014369171199439579 -0.0031622703688208216 0 0.01439499363912789 -0.0031538631692000943 0 0.014372665450914668 -0.0031586516170604528 0 0.015384584507723825 -0.00092271616973945043 0 0.015260729366555236 -0.0011704127069698401 0 0.015469070027684832 -0.0010480476577457419 0 0.01243668617539706 -0.0030174428950175188 0 0.014425449202256704 -0.0019311235821907586 0 0.01439499363912789 -0.0031538631692000943 0 0.014372665450914668 -0.0031586516170604528 0 0.014381556455867629 -0.0031438638643851327 0 0.014517547931328345 -0.0027193052966259131 0 0.014613143480369309 -0.002801734176278541 0 0.014493532527732755 -0.0028649153471131815 0 0.014613143480369309 -0.002801734176278541 0 0.014493532527732755 -0.0028649153471131815 0 0.014571273726005748 -0.002942704282869104 0 0.01439499363912789 -0.0031538631692000943 0 0.014439810909864952 -0.0031282472755690708 0 0.014381556455867629 -0.0031438638643851327 0 0.014490286452359443 -0.0031760378867473392 0 0.014511793375965993 -0.0029877748835610029 0 0.014439810909864952 -0.0031282472755690708 0 0.014384985316407223 -0.0031057841100913426 0 0.014381556455867629 -0.0031438638643851327 0 0.014440445356780388 -0.0030844025565241184 0 0.014439810909864952 -0.0031282472755690708 0 0.014384985316407223 -0.0031057841100913426 0 0.014498840594571251 -0.0030850179312596543 0 0.014511793375965993 -0.0029877748835610029 0 0.014478230285089586 -0.0029789529153246841 0 0.014493532527732755 -0.0028649153471131815 0 0.014571273726005748 -0.002942704282869104 0 0.014500985759118982 -0.0030749289217814513 0 0.014478230285089586 -0.0029789529153246841 0 0.014571273726005748 -0.002942704282869104 0 0.0084807940698227932 -0.00017721233690486254 0 0.0090260419674389157 -0.0015475089074224433 0 0.0079747802784741247 -0.0014010274590580962 0 0.014298514962668207 -0.0030788769686044683 0 0.014384985316407223 -0.0031057841100913426 0 0.014334891411714963 -0.0031296258069388461 0 0.011316540984287903 -0.0027864487211356772 0 0.011640134194932756 -0.0020792229403017578 0 0.014384985316407223 -0.0031057841100913426 0 0.014381556455867629 -0.0031438638643851327 0 0.014334891411714963 -0.0031296258069388461 0 0.014381556455867629 -0.0031438638643851327 0 0.014334891411714963 -0.0031296258069388461 0 0.014355769187450358 -0.0031566428185779566 0 0.011640134194932756 -0.0020792229403017578 0 0.011984872309519069 -0.0032225772229640941 0 0.0090260419674389157 -0.0015475089074224433 0 0.0084870221046335695 -0.0024301764119532871 0 0.0095808744922930601 -0.0029213888386901243 0 0.0090260419674389157 -0.0015475089074224433 0 0.0084870221046335695 -0.0024301764119532871 0 0.0079747802784741247 -0.0014010274590580962 0 0.0084870221046335695 -0.0024301764119532871 0 0.0086967608116197328 -0.0032563817981900306 0 0.0095808744922930601 -0.0029213888386901243 0 0.014372665450914668 -0.0031586516170604528 0 0.014381556455867629 -0.0031438638643851327 0 0.014355769187450358 -0.0031566428185779566 0 0.014357690768485051 -0.003165470166876815 0 0.014372665450914668 -0.0031586516170604528 0 0.014355769187450358 -0.0031566428185779566 0 0.01243668617539706 -0.0030174428950175188 0 0.011984872309519069 -0.0032225772229640941 0 0.010144773406276357 -0.0042911316831713399 0 0.0095808744922930601 -0.0029213888386901243 0 0.0091872326237021368 -0.0038549167489941613 0 0.0086967608116197328 -0.0032563817981900306 0 0.0095808744922930601 -0.0029213888386901243 0 0.0091872326237021368 -0.0038549167489941613 0 0.0086967608116197328 -0.0032563817981900306 0 0.0091872326237021368 -0.0038549167489941613 0 0.0084250497181331853 -0.0040463454449741953 0 0.0077298498013875158 -0.0041332890167909368 0 0.0070770885453040819 -0.0035896903172566593 0 0.007868900168165863 -0.0031879920484961487 0 0.0077298498013875158 -0.0041332890167909368 0 0.0084250497181331853 -0.0040463454449741953 0 0.007868900168165863 -0.0031879920484961487 0 0.0086967608116197328 -0.0032563817981900306 0 0.0084250497181331853 -0.0040463454449741953 0 0.007868900168165863 -0.0031879920484961487 0 0.0072234656794855703 -0.0045525266407212949 0 0.0077298498013875158 -0.0041332890167909368 0 0.0070770885453040819 -0.0035896903172566593 0 0.0072234656794855703 -0.0045525266407212949 0 0.0070770885453040819 -0.0035896903172566593 0 0.0063984160207387368 -0.0038217021042303489 0 0.0062625934790802255 -0.002357988211236302 0 0.0053268777169397227 -0.0025555616594074588 0 0.0070770885453040819 -0.0035896903172566593 0 0.006345170404824063 -0.0038667475140613796 0 0.0063356779945725021 -0.0029435884242347303 0 0.0069062859900899561 -0.0032391454144357155 0 0.0053268777169397227 -0.0025555616594074588 0 0.0070770885453040819 -0.0035896903172566593 0 0.0071377194070680857 -0.0028918286922597829 0 0.007868900168165863 -0.0031879920484961487 0 0.0070770885453040819 -0.0035896903172566593 0 0.0071377194070680857 -0.0028918286922597829 0 0.0063356779945725021 -0.0029435884242347303 0 0.0071377194070680857 -0.0028918286922597829 0 0.0066890212819173582 -0.0024577601172234018 0 0.0063356779945725021 -0.0029435884242347303 0 0.0071377194070680857 -0.0028918286922597829 0 0.0066890212819173582 -0.0024577601172234018 0 0.0075532165234123297 -0.0023173450420608407 0 0.0084870221046335695 -0.0024301764119532871 0 0.007868900168165863 -0.0031879920484961487 0 0.0075532165234123297 -0.0023173450420608407 0 0.0071377194070680857 -0.0028918286922597829 0 0.007868900168165863 -0.0031879920484961487 0 0.0075532165234123297 -0.0023173450420608407 0 0.0084870221046335695 -0.0024301764119532871 0 0.0086967608116197328 -0.0032563817981900306 0 0.007868900168165863 -0.0031879920484961487 0 0.0017637491981612346 -0.0032779081004942999 0 0.0026731456973635805 -0.0010600966010844779 0 0.00039291723969091968 -0.0021148395669568372 0 0.0017637491981612346 -0.0032779081004942999 0 0.0041906569173158579 -0.0024188064161341522 0 0.0026731456973635805 -0.0010600966010844779 0 0.0019649247918252363 -0.00018075064575200013 0 0.0053268777169397227 -0.0025555616594074588 0 0.0053268777169397227 -0.0025555616594074588 0 0.004269145090732839 -0.0022038032236424195 0 0.006345170404824063 -0.0038667475140613796 0 0.0063356779945725021 -0.0029435884242347303 0 0.0054608685346206869 -0.0031114539754174817 0 0.0066890212819173582 -0.0024577601172234018 0 0.0063356779945725021 -0.0029435884242347303 0 0.0061049866603333763 -0.0022045764242163536 0 0.0063356779945725021 -0.0029435884242347303 0 0.0055003668114335692 -0.0024694160457049527 0 0.0061049866603333763 -0.0022045764242163536 0 0.0063356779945725021 -0.0029435884242347303 0 0.0054608685346206869 -0.0031114539754174817 0 0.0055003668114335692 -0.0024694160457049527 0 0.0026731456973635805 -0.0010600966010844779 0 0.0011533732760222748 0.00029726939618888141 0 0.00039291723969091968 -0.0021148395669568372 0 0.0054608685346206869 -0.0031114539754174817 0 0.0055003668114335692 -0.0024694160457049527 0 0.0045420858353608677 -0.0023264525182265104 0 0.004269145090732839 -0.0022038032236424195 0 0.00049129442335743795 -0.0021866781871265331 0 0.0014314051741410212 -0.0048332781780300151 0 0.0019439545449159599 -0.0050314345555311883 0 0.0015630752105565881 -0.0043533382326956587 0 0.0014314051741410212 -0.0048332781780300151 0 0.0013557124778340258 -0.0053149227981750882 0 0.0019439545449159599 -0.0050314345555311883 0 0.00049129442335743795 -0.0021866781871265331 0 0.0037142002604870525 -0.0033257480426019848 0 0.0055003668114335692 -0.0024694160457049527 0 0.0045420858353608677 -0.0023264525182265104 0 0.0054297906774476478 -0.0018247381496594944 0 0.0054297906774476478 -0.0018247381496594944 0 0.0061049866603333763 -0.0022045764242163536 0 0.0062828139496288009 -0.0013404112385721086 0 0.0037142002604870525 -0.0033257480426019848 0 0.0054148736235371678 -0.0030739414024004499 0 0.0055003668114335692 -0.0024694160457049527 0 0.0054297906774476478 -0.0018247381496594944 0 0.0061049866603333763 -0.0022045764242163536 0 0.0061775838816780981 -0.0015780723574664146 0 0.0054148736235371678 -0.0030739414024004499 0 0.0061049866603333763 -0.0022045764242163536 0 0.0063176749835504231 -0.0013790402144222222 0 0.0069142135555990882 -0.0018547367846438378 0 0.0019439545449159599 -0.0050314345555311883 0 0.002599275532450217 -0.0046976097852952526 0 0.0022228751228448055 -0.0043473427960112523 0 0.002599275532450217 -0.0046976097852952526 0 0.0022228751228448055 -0.0043473427960112523 0 0.0028076430522643451 -0.0039129785926741547 0 0.0054148736235371678 -0.0030739414024004499 0 0.0046806961747466805 -0.0037417990441982094 0 0.0019439545449159599 -0.0050314345555311883 0 0.0022228751228448055 -0.0043473427960112523 0 0.0015630752105565881 -0.0043533382326956587 0 0.0022228751228448055 -0.0043473427960112523 0 0.0015630752105565881 -0.0043533382326956587 0 0.0022227607847989505 -0.0036652602619829441 0 0.0016813424205041067 -0.0042380220019271131 0 0.0018864549109425151 -0.0039175596463810651 0 0.0084870221046335695 -0.0024301764119532871 0 0.0075532165234123297 -0.0023173450420608407 0 0.0079747802784741247 -0.0014010274590580962 0 0.0075532165234123297 -0.0023173450420608407 0 0.0069142135555990882 -0.0018547367846438378 0 0.0079747802784741247 -0.0014010274590580962 0 0.0066890212819173582 -0.0024577601172234018 0 0.0075532165234123297 -0.0023173450420608407 0 0.0069142135555990882 -0.0018547367846438378 0 0.0066890212819173582 -0.0024577601172234018 0 0.0061049866603333763 -0.0022045764242163536 0 0.0069142135555990882 -0.0018547367846438378 0 0.006482923810824181 -0.0037562380217841971 0 0.0068705832967936222 -0.0035370570664691966 0 0.0065956308487762055 -0.003290693118789607 0 0.0068705832967936222 -0.0035370570664691966 0 0.0072531033604124372 -0.0033123917165664217 0 0.0065956308487762055 -0.003290693118789607 0 0.0069142135555990882 -0.0018547367846438378 0 0.0071405574054261688 -0.00092015651697795122 0 0.0079747802784741247 -0.0014010274590580962 0 0.0063176749835504231 -0.0013790402144222222 0 0.0069142135555990882 -0.0018547367846438378 0 0.0071405574054261688 -0.00092015651697795122 0 0.0054148736235371678 -0.0030739414024004499 0 0.0071105877840066754 -0.0022288585868076201 0 0.0071105877840066754 -0.0022288585868076201 0 0.0087565283419301868 -0.0028876772692397355 0 0.0084807940698227932 -0.00017721233690486254 0 0.0079747802784741247 -0.0014010274590580962 0 0.0079537338697818847 -0.00046585655535332361 0 0.0071405574054261688 -0.00092015651697795122 0 0.0079747802784741247 -0.0014010274590580962 0 0.0079537338697818847 -0.00046585655535332361 0 0.011316540984287903 -0.0027864487211356772 0 0.011194637347660545 -0.0040242488766883749 0 0.011316540984287903 -0.0027864487211356772 0 0.0087565283419301868 -0.0028876772692397355 0 0.0096427450633187178 -0.0036816008821948798 0 0.0096518666654088776 -0.003594501584774706 0 0.0095738385394842761 -0.0035411363918611701 0 0.0097205676897647829 -0.0036391364701533428 0 0.0096427450633187178 -0.0036816008821948798 0 0.0096518666654088776 -0.003594501584774706 0 0.0097205676897647829 -0.0036391364701533428 0 0.0096518666654088776 -0.003594501584774706 0 0.0096690300297896138 -0.0035157141391752504 0 0.0096690300297896138 -0.0035157141391752504 0 0.0095738385394842761 -0.0035411363918611701 0 0.0096233025307011309 -0.0033847354732693918 0 0.011194637347660545 -0.0040242488766883749 0 0.011607896661168016 -0.0036526345616619696 0 0.0096518666654088776 -0.003594501584774706 0 0.0096690300297896138 -0.0035157141391752504 0 0.0095738385394842761 -0.0035411363918611701 0 0.0095738385394842761 -0.0035411363918611701 0 0.0094845502831004957 -0.0035029306366027493 0 0.0096233025307011309 -0.0033847354732693918 0 0.0061632031335406316 -0.0061945534168030931 0 0.0060044179354107122 -0.0063516698701626909 0 0.0059298192495429464 -0.0055687665516087632 0 0.0080388583477314559 -0.0044335976414086788 0 0.011607896661168016 -0.0036526345616619696 0 0.0095738385394842761 -0.0035411363918611701 0 0.0094845502831004957 -0.0035029306366027493 0 0.009472606113537228 -0.0035443391739153267 0 0.0080388583477314559 -0.0044335976414086788 0 0.0067073939253330999 -0.0038114988196560535 0 0.0072147867723180966 -0.0046177790124476399 0 0.0076376032787620549 -0.0041885523050922118 0 0.0073619494118935761 -0.0039342713201113069 0 0.0080388583477314559 -0.0044335976414086788 0 0.0053382902979145306 -0.004106552527917624 0 0.0053382902979145306 -0.004106552527917624 0 0.0067073939253330999 -0.0038114988196560535 0 0.0087565283419301868 -0.0028876772692397355 0 0.0067073939253330999 -0.0038114988196560535 0 0.0072531033604124372 -0.0033123917165664217 0 0.0067029649035286144 -0.0028258500562621646 0 0.0065956308487762055 -0.003290693118789607 0 0.0067073939253330999 -0.0038114988196560535 0 0.0046806961747466805 -0.0037417990441982094 0 0.0096427450633187178 -0.0036816008821948798 0 0.0095738385394842761 -0.0035411363918611701 0 0.009472606113537228 -0.0035443391739153267 0 0.0030176932569809032 -0.0030898537560469972 0 0.0028076430522643451 -0.0039129785926741547 0 0.0022227607847989505 -0.0036652602619829441 0 0.0022228751228448055 -0.0043473427960112523 0 0.0028076430522643451 -0.0039129785926741547 0 0.0022227607847989505 -0.0036652602619829441 0 0.0053382902979145306 -0.004106552527917624 0 0.0018864549109425151 -0.0039175596463810651 0 0.0029185652479401321 -0.0029982748358176655 0 0.0030176932569809032 -0.0030898537560469972 0 0.0022227607847989505 -0.0036652602619829441 0 0.0015630752105565881 -0.0043533382326956587 0 0.0020030287354125898 -0.0039177193172003242 0 0.0014641069163926458 -0.0038535600889827784 0 0.0020030287354125898 -0.0039177193172003242 0 0.0014641069163926458 -0.0038535600889827784 0 0.0017304371493214513 -0.0034520442651138016 0 0.0014641069163926458 -0.0038535600889827784 0 0.0017304371493214513 -0.0034520442651138016 0 0.0011108895850247885 -0.0034808384803111511 0 0.0017304371493214513 -0.0034520442651138016 0 0.0019339784155660714 -0.0029620409516064056 0 0.0013600330578763537 -0.0030188121203941652 0 0.0017304371493214513 -0.0034520442651138016 0 0.0013600330578763537 -0.0030188121203941652 0 0.0011108895850247885 -0.0034808384803111511 0 0.0024911238419171285 -0.0034594167142295179 0 0.0017304371493214513 -0.0034520442651138016 0 0.0019339784155660714 -0.0029620409516064056 0 0.0024911238419171285 -0.0034594167142295179 0 0.0020030287354125898 -0.0039177193172003242 0 0.0017304371493214513 -0.0034520442651138016 0 0.0060044179354107122 -0.0063516698701626909 0 0.0051807344543801761 -0.0056436076832676067 0 0.0059298192495429464 -0.0055687665516087632 0 0.0053382902979145306 -0.004106552527917624 0 0.0034560752594990588 -0.0043342998235043747 0 0.0051807344543801761 -0.0056436076832676067 0 0.0058328291443521087 -0.004731903359118936 0 0.0059298192495429464 -0.0055687665516087632 0 0.0019339784155660714 -0.0029620409516064056 0 0.0013600330578763537 -0.0030188121203941652 0 0.0013701854931091001 -0.002471983952954524 0 0.0034560752594990588 -0.0043342998235043747 0 0.002937832062774108 -0.0035842503674390698 0 0.0051807344543801761 -0.0056436076832676067 0 0.0049912901164207036 -0.0043914511480697121 0 0.004313771143959642 -0.0049038181716939844 0 0.0049912901164207036 -0.0043914511480697121 0 0.004313771143959642 -0.0049038181716939844 0 0.0039465329717168094 -0.0036310539684373086 0 0.0049912901164207036 -0.0043914511480697121 0 0.0058328291443521087 -0.004731903359118936 0 0.0055378283987718374 -0.0035979380288407594 0 0.0051807344543801761 -0.0056436076832676067 0 0.0049912901164207036 -0.0043914511480697121 0 0.0058328291443521087 -0.004731903359118936 0 0.0064640970114921495 -0.0049151128628470951 0 0.0061783636434431504 -0.0041925546412828031 0 0.0067627091991583456 -0.0036936624504241861 0 0.011892293968943764 -0.0037098633386643772 0 0.012316701337441352 -0.0033275935269965716 0 0.012161819523162082 -0.0028789826270218559 0 0.0090993028981116164 -0.0041516057784489512 0 0.011104722472153938 -0.005263990701627955 0 0.0058328291443521087 -0.004731903359118936 0 0.0064640970114921495 -0.0049151128628470951 0 0.0061783636434431504 -0.0041925546412828031 0 0.011892293968943764 -0.0037098633386643772 0 0.012316701337441352 -0.0033275935269965716 0 0.012107196418414444 -0.0038188264682101365 0 0.01276624179256744 -0.0035508384039703014 0 0.012316701337441352 -0.0033275935269965716 0 0.012107196418414444 -0.0038188264682101365 0 0.012871557790561322 -0.0039271292518810253 0 0.01276624179256744 -0.0035508384039703014 0 0.012445741692416832 -0.0038715246705869717 0 0.01276624179256744 -0.0035508384039703014 0 0.012229069729440864 -0.0041285675717604702 0 0.012107196418414444 -0.0038188264682101365 0 0.012871557790561322 -0.0039271292518810253 0 0.012589235604980277 -0.0042386453190482957 0 0.012445741692416832 -0.0038715246705869717 0 0.011607896661168016 -0.0036526345616619696 0 0.011976331637010734 -0.0040104215347027796 0 0.012862630856601071 -0.0035774589208294096 0 0.011607896661168016 -0.0036526345616619696 0 0.0080388583477314559 -0.0044335976414086788 0 0.0090993028981116164 -0.0041516057784489512 0 0.0058328291443521087 -0.004731903359118936 0 0.0064640970114921495 -0.0049151128628470951 0 0.0059298192495429464 -0.0055687665516087632 0 0.0061632031335406316 -0.0061945534168030931 0 0.0064640970114921495 -0.0049151128628470951 0 0.0059298192495429464 -0.0055687665516087632 0 0.011558585656681582 -0.0048149182859117748 0 0.011892293968943764 -0.0037098633386643772 0 0.012235533571969303 -0.0041860332476476234 0 0.011892293968943764 -0.0037098633386643772 0 0.012235533571969303 -0.0041860332476476234 0 0.012107196418414444 -0.0038188264682101365 0 -0.0022170325927070899 -0.0056729239600335135 0 -0.0019876154525176408 -0.0055978120948200301 0 -0.0019995675394701012 -0.0058778725835879984 0 -0.0019876154525176408 -0.0055978120948200301 0 -0.0019995675394701012 -0.0058778725835879984 0 -0.0018392584161945065 -0.0056888567969246902 0 -0.0022170325927070899 -0.0056729239600335135 0 -0.0019876154525176408 -0.0055978120948200301 0 -0.0019722263651403334 -0.0053112080444205172 0 -0.0019995675394701012 -0.0058778725835879984 0 -0.0017156740883378561 -0.0059158145920900672 0 -0.0018460169613067987 -0.0061213357312270011 0 -0.0019995675394701012 -0.0058778725835879984 0 -0.0018392584161945065 -0.0056888567969246902 0 -0.0017156740883378561 -0.0059158145920900672 0 -0.0022170325927070899 -0.0056729239600335135 0 -0.0019995675394701012 -0.0058778725835879984 0 -0.0022079591216491974 -0.0059404333465800131 0 -0.0019995675394701012 -0.0058778725835879984 0 -0.0022079591216491974 -0.0059404333465800131 0 -0.0020932390896631647 -0.0060943513092698211 0 -0.0011358912432668073 -0.0041610411837544777 0 0.00068483998837837884 -0.0046995546123981859 0 6.6982033195745838e-05 -0.0027217187679428414 0 0.00084689651881732621 -0.0028527164512881179 0 0.00081567422510859188 -0.0019899444671773398 0 -0.0022170325927070899 -0.0056729239600335135 0 -0.0022079591216491974 -0.0059404333465800131 0 -0.0024068989853843715 -0.0059681668848965133 0 0.0013701854931091001 -0.002471983952954524 0 0.00084689651881732621 -0.0028527164512881179 0 0.00081567422510859188 -0.0019899444671773398 0 0.004313771143959642 -0.0049038181716939844 0 0.003440704842497473 -0.004142716422466549 0 0.0039465329717168094 -0.0036310539684373086 0 0.002937832062774108 -0.0035842503674390698 0 0.00068483998837837884 -0.0046995546123981859 0 0.0013600330578763537 -0.0030188121203941652 0 0.0013701854931091001 -0.002471983952954524 0 0.00084689651881732621 -0.0028527164512881179 0 6.6982033195745838e-05 -0.0027217187679428414 0 0.00084689651881732621 -0.0028527164512881179 0 0.00036393231111006325 -0.0034381492979601649 0 0.0013600330578763537 -0.0030188121203941652 0 0.00084689651881732621 -0.0028527164512881179 0 0.0011108895850247885 -0.0034808384803111511 0 0.00084689651881732621 -0.0028527164512881179 0 0.00036393231111006325 -0.0034381492979601649 0 0.0011108895850247885 -0.0034808384803111511 0 0.00036393231111006325 -0.0034381492979601649 0 0.0011108895850247885 -0.0034808384803111511 0 0.00085732284569700016 -0.0039935208794679104 0 0.0014641069163926458 -0.0038535600889827784 0 0.0011108895850247885 -0.0034808384803111511 0 0.00085732284569700016 -0.0039935208794679104 0 0.0015630752105565881 -0.0043533382326956587 0 0.0014641069163926458 -0.0038535600889827784 0 0.00085732284569700016 -0.0039935208794679104 0 0.00036393231111006325 -0.0034381492979601649 0 0.00085732284569700016 -0.0039935208794679104 0 -2.7218374407022336e-05 -0.0040496838687004259 0 -0.0022724511086248851 -0.0030016910206506807 0 -0.0024064945520902783 -0.0039403145842622162 0 0.00036393231111006325 -0.0034381492979601649 0 -2.7218374407022336e-05 -0.0040496838687004259 0 -0.00069280568539411506 -0.0034690360170657073 0 6.6982033195745838e-05 -0.0027217187679428414 0 0.00036393231111006325 -0.0034381492979601649 0 -0.00069280568539411506 -0.0034690360170657073 0 -0.0011358912432668073 -0.0041610411837544777 0 -0.0024064945520902783 -0.0039403145842622162 0 -0.0019876154525176408 -0.0055978120948200301 0 -0.0019722263651403334 -0.0053112080444205172 0 -0.0017726590206960156 -0.0054316286665284114 0 -0.0038738747391112785 -0.0033304799703990726 0 -0.0038791160197494258 -0.0025095569794537599 0 -0.0026341114006934521 -0.0027876998405177455 0 -0.0046350904458374335 -0.0020346076730205294 0 -0.0038738747391112785 -0.0033304799703990726 0 -0.0038791160197494258 -0.0025095569794537599 0 -0.0024064945520902783 -0.0039403145842622162 0 -0.0029195920758054612 -0.0030192572352459781 0 -0.0046350904458374335 -0.0020346076730205294 0 -0.0038791160197494258 -0.0025095569794537599 0 -0.0038960307157500412 -0.0017359176081515534 0 -0.0038791160197494258 -0.0025095569794537599 0 -0.0038960307157500412 -0.0017359176081515534 0 -0.0026341114006934521 -0.0027876998405177455 0 -0.0046350904458374335 -0.0020346076730205294 0 -0.0038960307157500412 -0.0017359176081515534 0 -0.0043115589811173359 -0.0016326186230458139 0 -0.0038960307157500412 -0.0017359176081515534 0 -0.0041205440059671802 -0.0015504283976161461 0 -0.0041582828603467792 -0.001526057160567225 0 -0.0041205440059671802 -0.0015504283976161461 0 -0.0043115589811173359 -0.0016326186230458139 0 -0.0042278945322942194 -0.0014567833606629441 0 -0.0038960307157500412 -0.0017359176081515534 0 -0.0041205440059671802 -0.0015504283976161461 0 -0.0043115589811173359 -0.0016326186230458139 0 -0.0046350904458374335 -0.0020346076730205294 0 -0.0043115589811173359 -0.0016326186230458139 0 -0.0047918981568022632 -0.0015800290850636017 0 -0.0043115589811173359 -0.0016326186230458139 0 -0.004385776054623561 -0.001442183423623226 0 -0.0047918981568022632 -0.0015800290850636017 0 -0.004385776054623561 -0.001442183423623226 0 -0.0043222780421970078 -0.0013263284488729075 0 -0.0045663399305692857 -0.0012551544047750512 0 -0.0043710904120511174 -0.0014541082142708183 0 -0.0046487776235280779 -0.0011583636591337143 0 -0.004385776054623561 -0.001442183423623226 0 -0.0043222780421970078 -0.0013263284488729075 0 -0.0042278945322942194 -0.0014567833606629441 0 -0.0043222780421970078 -0.0013263284488729075 0 -0.0042278945322942194 -0.0014567833606629441 0 -0.0042603592445161287 -0.0011656695892620754 0 -0.0042278945322942194 -0.0014567833606629441 0 -0.0042155003759775985 -0.0014633079405104508 0 -0.0043349996747405316 -0.0013439244389390455 0 -0.0041205440059671802 -0.0015504283976161461 0 -0.0042278945322942194 -0.0014567833606629441 0 -0.0042155003759775985 -0.0014633079405104508 0 -0.0043115589811173359 -0.0016326186230458139 0 -0.004385776054623561 -0.001442183423623226 0 -0.0042278945322942194 -0.0014567833606629441 0 0.0015630752105565881 -0.0043533382326956587 0 0.00085732284569700016 -0.0039935208794679104 0 0.0006340654474478359 -0.0046430287979243867 0 0.0014314051741410212 -0.0048332781780300151 0 0.0015630752105565881 -0.0043533382326956587 0 0.0006340654474478359 -0.0046430287979243867 0 0.00085732284569700016 -0.0039935208794679104 0 -2.7218374407022336e-05 -0.0040496838687004259 0 0.0006340654474478359 -0.0046430287979243867 0 -0.0022724511086248851 -0.0030016910206506807 0 -0.0023855780417392151 -0.0031948044300014562 0 -0.004385776054623561 -0.001442183423623226 0 -0.0047918981568022632 -0.0015800290850636017 0 -0.0045782220280946046 -0.0013277037344690467 0 -0.0047918981568022632 -0.0015800290850636017 0 -0.0047504001530716692 -0.0013895250937597141 0 -0.0045782220280946046 -0.0013277037344690467 0 0.0014314051741410212 -0.0048332781780300151 0 0.0013557124778340258 -0.0053149227981750882 0 0.0006340654474478359 -0.0046430287979243867 0 0.00049129442335743795 -0.0021866781871265331 0 -0.0023855780417392151 -0.0031948044300014562 0 -0.0048645846129518723 -0.0013758339013260226 0 -0.0047918981568022632 -0.0015800290850636017 0 -0.0047504001530716692 -0.0013895250937597141 0 -0.0048645846129518723 -0.0013758339013260226 0 -0.0047504001530716692 -0.0013895250937597141 0 -0.0047175676467359831 -0.001251463652931999 0 0.00049129442335743795 -0.0021866781871265331 0 -0.0029501191500350878 -0.00061933643499530232 0 0.0011533732760222748 0.00029726939618888141 0 -0.00098115056224691165 -0.00094913800985048846 0 0.00039291723969091968 -0.0021148395669568372 0 -0.0047420277363506395 -0.0010840708417445067 0 -0.0045663399305692857 -0.0012551544047750512 0 -0.004450623751392685 -0.00090074978279358186 0 -0.0047504001530716692 -0.0013895250937597141 0 -0.0047175676467359831 -0.001251463652931999 0 -0.0045782220280946046 -0.0013277037344690467 0 -0.0029501191500350878 -0.00061933643499530232 0 -0.0046487776235280779 -0.0011583636591337143 0 -0.0011460150781830403 0.0004680992181379615 0 -0.00085023432714095393 0.00087845562344105788 0 -0.0016700776183941229 0.00099180341281343521 0 -0.0029501191500350878 -0.00061933643499530232 0 -0.0030061008730358904 0.00012892661088812025 0 -0.00083802580810404131 0.0014584332938972124 0 -0.00085023432714095393 0.00087845562344105788 0 -0.0016700776183941229 0.00099180341281343521 0 -0.00057148425865618483 0.0002016834798635185 0 -0.00085023432714095393 0.00087845562344105788 0 -0.00026459416016511668 0.00098565867703733693 0 -0.0029501191500350878 -0.00061933643499530232 0 0.00018719239790795575 -0.00068159864259831381 0 -0.00083802580810404131 0.0014584332938972124 0 -0.00085023432714095393 0.00087845562344105788 0 -0.00026459416016511668 0.00098565867703733693 0 0.0019649247918252363 -0.00018075064575200013 0 0.00018719239790795575 -0.00068159864259831381 0 -0.0042278945322942194 -0.0014567833606629441 0 -0.0045295125418568444 -0.0011675843821705562 0 -0.0043349996747405316 -0.0013439244389390455 0 -0.0042278945322942194 -0.0014567833606629441 0 -0.0042603592445161287 -0.0011656695892620754 0 -0.0040083747081383061 -0.00098997619684793427 0 -0.0042306145499056355 -0.0014010615015803832 0 -0.0042883148526955033 -0.001099224382324593 0 -0.0042603592445161287 -0.0011656695892620754 0 -0.0042163818508870162 -0.00094024106977537794 0 -0.0040083747081383061 -0.00098997619684793427 0 -0.0043222780421970078 -0.0013263284488729075 0 -0.0045663399305692857 -0.0012551544047750512 0 -0.0042603592445161287 -0.0011656695892620754 0 -0.0045663399305692857 -0.0012551544047750512 0 -0.0042603592445161287 -0.0011656695892620754 0 -0.004450623751392685 -0.00090074978279358186 0 -0.0042603592445161287 -0.0011656695892620754 0 -0.004450623751392685 -0.00090074978279358186 0 -0.0042163818508870162 -0.00094024106977537794 0 -0.0025977751580291779 0.00048760713851057197 0 -0.0018007210895483851 0.000442261063975781 0 -0.0016700776183941229 0.00099180341281343521 0 -0.0018007210895483851 0.000442261063975781 0 -0.0011460150781830403 0.0004680992181379615 0 -0.0016700776183941229 0.00099180341281343521 0 -0.0033002004051091525 -7.826211556571759e-05 0 -0.0030061008730358904 0.00012892661088812025 0 -0.0041405501333246211 -0.00070526548896540642 0 -0.0042163818508870162 -0.00094024106977537794 0 -0.0040083747081383061 -0.00098997619684793427 0 -0.0041405501333246211 -0.00070526548896540642 0 -0.004450623751392685 -0.00090074978279358186 0 -0.0042163818508870162 -0.00094024106977537794 0 -0.0041285138927383254 -0.00049688826573310459 0 -0.0042883148526955033 -0.001099224382324593 0 -0.0045295125418568444 -0.0011675843821705562 0 -0.0044070718246056999 -0.0012112186143916469 0 -0.004551355034626719 -0.0010042505371658267 0 -0.0047494761378570546 -0.00075056990808024899 0 -0.0045295125418568444 -0.0011675843821705562 0 -0.004551355034626719 -0.0010042505371658267 0 -0.0045295125418568444 -0.0011675843821705562 0 -0.0044070718246056999 -0.0012112186143916469 0 -0.0043349996747405316 -0.0013439244389390455 0 -0.0044070718246056999 -0.0012112186143916469 0 -0.0043349996747405316 -0.0013439244389390455 0 -0.0042700201254559046 -0.0014037777875102069 0 -0.0044070718246056999 -0.0012112186143916469 0 -0.0042940293250177102 -0.0012535857859599076 0 -0.0042700201254559046 -0.0014037777875102069 0 -0.0044070718246056999 -0.0012112186143916469 0 -0.0044335882444713265 -0.0010168718927288899 0 -0.0042940293250177102 -0.0012535857859599076 0 -0.0046290033796947743 -0.00082775614986752108 0 -0.004551355034626719 -0.0010042505371658267 0 -0.0044335882444713265 -0.0010168718927288899 0 -0.0044070718246056999 -0.0012112186143916469 0 -0.004551355034626719 -0.0010042505371658267 0 -0.0044335882444713265 -0.0010168718927288899 0 -0.0044335882444713265 -0.0010168718927288899 0 -0.0043016018268849567 -0.00096604597894023509 0 -0.004270093490859289 -0.0011304309423188427 0 -0.0044395224851966984 -0.0008195955219262687 0 -0.0044335882444713265 -0.0010168718927288899 0 -0.0043016018268849567 -0.00096604597894023509 0 -0.0043016018268849567 -0.00096604597894023509 0 -0.0041770464475250511 -0.0011109017493016388 0 -0.0041141023553452989 -0.00092013699420402683 0 -0.0043068822336090112 -0.00078215021864871915 0 -0.0043016018268849567 -0.00096604597894023509 0 -0.0041141023553452989 -0.00092013699420402683 0 -0.0043016018268849567 -0.00096604597894023509 0 -0.0041770464475250511 -0.0011109017493016388 0 -0.004270093490859289 -0.0011304309423188427 0 -0.004270093490859289 -0.0011304309423188427 0 -0.0042940293250177102 -0.0012535857859599076 0 -0.0041598829370350001 -0.0012674361518516942 0 -0.0041770464475250511 -0.0011109017493016388 0 -0.004270093490859289 -0.0011304309423188427 0 -0.0041598829370350001 -0.0012674361518516942 0 -0.0044335882444713265 -0.0010168718927288899 0 -0.004270093490859289 -0.0011304309423188427 0 -0.0042940293250177102 -0.0012535857859599076 0 -0.0042940293250177102 -0.0012535857859599076 0 -0.0042356756367421047 -0.001389369712531991 0 -0.0042700201254559046 -0.0014037777875102069 0 -0.0042940293250177102 -0.0012535857859599076 0 -0.0042356756367421047 -0.001389369712531991 0 -0.0041598829370350001 -0.0012674361518516942 0 -0.0042356756367421047 -0.001389369712531991 0 -0.0041598829370350001 -0.0012674361518516942 0 -0.0041025560783794013 -0.0014064315326535539 0 -0.0041025560783794013 -0.0014064315326535539 0 -0.0041717176488382524 -0.0014476662744718591 0 -0.0041067414968900366 -0.0015049752572821465 0 -0.0042356756367421047 -0.001389369712531991 0 -0.0041025560783794013 -0.0014064315326535539 0 -0.0041717176488382524 -0.0014476662744718591 0 -0.0042356756367421047 -0.001389369712531991 0 -0.0041717176488382524 -0.0014476662744718591 0 -0.0042013213997717279 -0.0014815766087240272 0 -0.0042115291174526712 -0.0015130099706700223 0 -0.0041582828603467792 -0.001526057160567225 0 -0.0042700201254559046 -0.0014037777875102069 0 -0.0042356756367421047 -0.001389369712531991 0 -0.0042115291174526712 -0.0015130099706700223 0 -0.0042013213997717279 -0.0014815766087240272 0 -0.0038960307157500412 -0.0017359176081515534 0 -0.0042115291174526712 -0.0015130099706700223 0 -0.0041582828603467792 -0.001526057160567225 0 -0.0041582828603467792 -0.001526057160567225 0 -0.0042155003759775985 -0.0014633079405104508 0 -0.0043349996747405316 -0.0013439244389390455 0 -0.0041582828603467792 -0.001526057160567225 0 -0.0043349996747405316 -0.0013439244389390455 0 -0.0042700201254559046 -0.0014037777875102069 0 -0.0041205440059671802 -0.0015504283976161461 0 -0.0041582828603467792 -0.001526057160567225 0 -0.0042155003759775985 -0.0014633079405104508 0 -0.0042356756367421047 -0.001389369712531991 0 -0.0042115291174526712 -0.0015130099706700223 0 -0.0042700201254559046 -0.0014037777875102069 0 -0.0035772520389342737 -0.001048240326434054 0 -0.0037124702251878595 -0.0010675419767197699 0 -0.0037056613153568668 -0.0012891233961862126 0 -0.0037124702251878595 -0.0010675419767197699 0 -0.0036008203434763721 -0.00087152468347559734 0 -0.0037494467459007431 -0.00086757787672126071 0 -0.0035772520389342737 -0.001048240326434054 0 -0.0037124702251878595 -0.0010675419767197699 0 -0.0036008203434763721 -0.00087152468347559734 0 -0.0037124702251878595 -0.0010675419767197699 0 -0.0037494467459007431 -0.00086757787672126071 0 -0.0038659702188890027 -0.0010654318810811453 0 -0.0037494467459007431 -0.00086757787672126071 0 -0.0038659702188890027 -0.0010654318810811453 0 -0.0038925499795882351 -0.00086402433172285103 0 -0.0038659702188890027 -0.0010654318810811453 0 -0.0039227207870724838 -0.0012211109951619622 0 -0.0038141294272106855 -0.0012312707942845455 0 -0.0037124702251878595 -0.0010675419767197699 0 -0.0038659702188890027 -0.0010654318810811453 0 -0.0038141294272106855 -0.0012312707942845455 0 -0.0038659702188890027 -0.0010654318810811453 0 -0.0039878293986997815 -0.00099686561844299841 0 -0.0040345884049866167 -0.001138036097580449 0 -0.0038659702188890027 -0.0010654318810811453 0 -0.0040345884049866167 -0.001138036097580449 0 -0.0039227207870724838 -0.0012211109951619622 0 -0.0039878293986997815 -0.00099686561844299841 0 -0.0038925499795882351 -0.00086402433172285103 0 -0.0041141023553452989 -0.00092013699420402683 0 -0.0038659702188890027 -0.0010654318810811453 0 -0.0039878293986997815 -0.00099686561844299841 0 -0.0038925499795882351 -0.00086402433172285103 0 -0.0041770464475250511 -0.0011109017493016388 0 -0.0041141023553452989 -0.00092013699420402683 0 -0.0040345884049866167 -0.001138036097580449 0 -0.0039878293986997815 -0.00099686561844299841 0 -0.0041141023553452989 -0.00092013699420402683 0 -0.0040345884049866167 -0.001138036097580449 0 -0.0041770464475250511 -0.0011109017493016388 0 -0.0041598829370350001 -0.0012674361518516942 0 -0.0040345884049866167 -0.001138036097580449 0 -0.0041598829370350001 -0.0012674361518516942 0 -0.0040345884049866167 -0.001138036097580449 0 -0.0040119532367840103 -0.0013054265909205546 0 -0.0041598829370350001 -0.0012674361518516942 0 -0.0041025560783794013 -0.0014064315326535539 0 -0.0040119532367840103 -0.0013054265909205546 0 -0.0041025560783794013 -0.0014064315326535539 0 -0.0040119532367840103 -0.0013054265909205546 0 -0.0039635089767195014 -0.0014206034506778166 0 -0.0041025560783794013 -0.0014064315326535539 0 -0.0039635089767195014 -0.0014206034506778166 0 -0.004001732788899726 -0.0015047873553948792 0 -0.0040119532367840103 -0.0013054265909205546 0 -0.0039635089767195014 -0.0014206034506778166 0 -0.0038876260735891256 -0.0013450550473427345 0 -0.0039635089767195014 -0.0014206034506778166 0 -0.0038876260735891256 -0.0013450550473427345 0 -0.0038323332857604516 -0.0014723038953293663 0 -0.0040119532367840103 -0.0013054265909205546 0 -0.0038876260735891256 -0.0013450550473427345 0 -0.0039227207870724838 -0.0012211109951619622 0 -0.0040345884049866167 -0.001138036097580449 0 -0.0040119532367840103 -0.0013054265909205546 0 -0.0039227207870724838 -0.0012211109951619622 0 -0.0038876260735891256 -0.0013450550473427345 0 -0.0039227207870724838 -0.0012211109951619622 0 -0.0038141294272106855 -0.0012312707942845455 0 -0.0038876260735891256 -0.0013450550473427345 0 -0.0038141294272106855 -0.0012312707942845455 0 -0.0037997684886798598 -0.0013661021858909924 0 -0.0038323332857604516 -0.0014723038953293663 0 -0.0037997684886798598 -0.0013661021858909924 0 -0.0037491371649100301 -0.001471365250870234 0 -0.0038876260735891256 -0.0013450550473427345 0 -0.0038323332857604516 -0.0014723038953293663 0 -0.0037997684886798598 -0.0013661021858909924 0 -0.0036785805125288925 -0.0014548221560829839 0 -0.0037491371649100301 -0.001471365250870234 0 -0.0037056613153568668 -0.0012891233961862126 0 -0.0037997684886798598 -0.0013661021858909924 0 -0.0037491371649100301 -0.001471365250870234 0 -0.0037056613153568668 -0.0012891233961862126 0 -0.0036785805125288925 -0.0014548221560829839 0 -0.0037055987318683928 -0.0015571638304623537 0 -0.0037491371649100301 -0.001471365250870234 0 -0.0037124702251878595 -0.0010675419767197699 0 -0.0038141294272106855 -0.0012312707942845455 0 -0.0037056613153568668 -0.0012891233961862126 0 -0.0038141294272106855 -0.0012312707942845455 0 -0.0037997684886798598 -0.0013661021858909924 0 -0.0037056613153568668 -0.0012891233961862126 0 -0.0037107331188046514 -0.0016316960263747168 0 -0.0037426159430560277 -0.0016170249480759429 0 -0.0037519368960402966 -0.0015742321658020525 0 -0.0037107331188046514 -0.0016316960263747168 0 -0.0037426159430560277 -0.0016170249480759429 0 -0.0037407886857209454 -0.0016282833964412736 0 -0.0037502866220282386 -0.0016324014567796481 0 -0.0037426159430560277 -0.0016170249480759429 0 -0.0037407886857209454 -0.0016282833964412736 0 -0.0037502866220282386 -0.0016324014567796481 0 -0.0037426159430560277 -0.0016170249480759429 0 -0.0037683095365433805 -0.0016053559733104432 0 -0.0037426159430560277 -0.0016170249480759429 0 -0.0037519368960402966 -0.0015742321658020525 0 -0.0037683095365433805 -0.0016053559733104432 0 -0.0038323332857604516 -0.0014723038953293663 0 -0.0037491371649100301 -0.001471365250870234 0 -0.0037519368960402966 -0.0015742321658020525 0 -0.0037055987318683928 -0.0015571638304623537 0 -0.0037491371649100301 -0.001471365250870234 0 -0.0037519368960402966 -0.0015742321658020525 0 -0.0038323332857604516 -0.0014723038953293663 0 -0.0038124900943220996 -0.0015703523559578686 0 -0.0038962323316190971 -0.0015285002801144398 0 -0.0038323332857604516 -0.0014723038953293663 0 -0.0037519368960402966 -0.0015742321658020525 0 -0.0038124900943220996 -0.0015703523559578686 0 -0.0038124900943220996 -0.0015703523559578686 0 -0.0037944276178535582 -0.0016184313432471055 0 -0.0038561877510724248 -0.0016003092093966823 0 -0.0038124900943220996 -0.0015703523559578686 0 -0.0037683095365433805 -0.0016053559733104432 0 -0.0037944276178535582 -0.0016184313432471055 0 -0.0037519368960402966 -0.0015742321658020525 0 -0.0038124900943220996 -0.0015703523559578686 0 -0.0037683095365433805 -0.0016053559733104432 0 -0.0037502866220282386 -0.0016324014567796481 0 -0.0037683095365433805 -0.0016053559733104432 0 -0.0037944276178535582 -0.0016184313432471055 0 -0.0037502866220282386 -0.0016324014567796481 0 -0.0037944276178535582 -0.0016184313432471055 0 -0.0037681454712685664 -0.0016463644186455078 0 -0.0037944276178535582 -0.0016184313432471055 0 -0.0038288844135958428 -0.0016474648502593963 0 -0.0037681454712685664 -0.0016463644186455078 0 -0.0037944276178535582 -0.0016184313432471055 0 -0.0038561877510724248 -0.0016003092093966823 0 -0.0038288844135958428 -0.0016474648502593963 0 -0.0038860361476022705 -0.0016310743458803677 0 -0.0039360445933614568 -0.0016901366110364535 0 -0.0038288844135958428 -0.0016474648502593963 0 -0.0038860361476022705 -0.0016310743458803677 0 -0.0038561877510724248 -0.0016003092093966823 0 -0.0038288844135958428 -0.0016474648502593963 0 -0.0038860361476022705 -0.0016310743458803677 0 -0.0039307059638754192 -0.0015879712729804623 0 -0.0039360445933614568 -0.0016901366110364535 0 -0.0038860361476022705 -0.0016310743458803677 0 -0.0039307059638754192 -0.0015879712729804623 0 -0.0038561877510724248 -0.0016003092093966823 0 -0.0039307059638754192 -0.0015879712729804623 0 -0.0038561877510724248 -0.0016003092093966823 0 -0.0038962323316190971 -0.0015285002801144398 0 -0.0039635089767195014 -0.0014206034506778166 0 -0.0038323332857604516 -0.0014723038953293663 0 -0.0038962323316190971 -0.0015285002801144398 0 -0.0039635089767195014 -0.0014206034506778166 0 -0.0038962323316190971 -0.0015285002801144398 0 -0.004001732788899726 -0.0015047873553948792 0 -0.0038124900943220996 -0.0015703523559578686 0 -0.0038561877510724248 -0.0016003092093966823 0 -0.0038962323316190971 -0.0015285002801144398 0 -0.0039307059638754192 -0.0015879712729804623 0 -0.0038962323316190971 -0.0015285002801144398 0 -0.004001732788899726 -0.0015047873553948792 0 -0.0039307059638754192 -0.0015879712729804623 0 -0.004001732788899726 -0.0015047873553948792 0 -0.0040230698646269332 -0.0015739033994402656 0 -0.004001732788899726 -0.0015047873553948792 0 -0.0040230698646269332 -0.0015739033994402656 0 -0.0041067414968900366 -0.0015049752572821465 0 -0.0040230698646269332 -0.0015739033994402656 0 -0.0039360445933614568 -0.0016901366110364535 0 -0.0041350926298632587 -0.0015936802806240736 0 -0.0039307059638754192 -0.0015879712729804623 0 -0.0040230698646269332 -0.0015739033994402656 0 -0.0039360445933614568 -0.0016901366110364535 0 0.0017063871705741026 -0.0057459753440036012 0 0.00151455933057409 -0.0060677266001654467 0 0.0010560702549435622 -0.0057239235886526359 0 0.0017063871705741026 -0.0057459753440036012 0 0.00151455933057409 -0.0060677266001654467 0 0.0017295031457530536 -0.0059231432158318043 0 0.00151455933057409 -0.0060677266001654467 0 0.0014000910412791724 -0.0065077415357550662 0 0.001072002684904764 -0.0062375833622835353 0 0.0014000910412791724 -0.0065077415357550662 0 0.0017287327644982537 -0.006351130489356655 0 0.0016450679090391342 -0.0071374714186689765 0 0.00151455933057409 -0.0060677266001654467 0 0.0014000910412791724 -0.0065077415357550662 0 0.0017287327644982537 -0.006351130489356655 0 0.00151455933057409 -0.0060677266001654467 0 0.0017287327644982537 -0.006351130489356655 0 0.0017295031457530536 -0.0059231432158318043 0 0.0017287327644982537 -0.006351130489356655 0 0.0019070923029050099 -0.0062891691430991877 0 0.0017295031457530536 -0.0059231432158318043 0 0.0015658165605710751 -0.0058814892780132298 0 0.0023018568130825415 -0.0061653707276902517 0 0.0019070923029050099 -0.0062891691430991877 0 0.0017295031457530536 -0.0059231432158318043 0 0.002158432839468091 -0.0062495491809833508 0 0.0017287327644982537 -0.006351130489356655 0 0.0019070923029050099 -0.0062891691430991877 0 0.0017971359431310056 -0.0065044732869266883 0 0.0017063871705741026 -0.0057459753440036012 0 0.0017295031457530536 -0.0059231432158318043 0 0.0016513332766060044 -0.0059760319087836297 0 -0.0039360445933614568 -0.0016901366110364535 0 -0.0038288844135958428 -0.0016474648502593963 0 -0.0037439455136158159 -0.0016847846398561344 0 -0.0011549216946941041 -0.0037115002497140931 0 -0.00095356279383607178 -0.0037010436550765813 0 0.0017295031457530536 -0.0059231432158318043 0 0.0016513332766060044 -0.0059760319087836297 0 0.0016006972577183303 -0.0058724522159133066 0 -0.0038288844135958428 -0.0016474648502593963 0 -0.0037681454712685664 -0.0016463644186455078 0 -0.0037439455136158159 -0.0016847846398561344 0 -0.0037502866220282386 -0.0016324014567796481 0 -0.0037681454712685664 -0.0016463644186455078 0 -0.0037425659608188479 -0.0016455918070644828 0 -0.0037681454712685664 -0.0016463644186455078 0 -0.0037425659608188479 -0.0016455918070644828 0 -0.0037439455136158159 -0.0016847846398561344 0 -0.0037425659608188479 -0.0016455918070644828 0 -0.0037439455136158159 -0.0016847846398561344 0 -0.0037344185525786185 -0.0016129756538993028 0 0.0019070923029050099 -0.0062891691430991877 0 0.0020687959893215305 -0.0063768950369330083 0 0.001962381182440008 -0.0065240489623278452 0 0.0019070923029050099 -0.0062891691430991877 0 0.0020687959893215305 -0.0063768950369330083 0 0.002158432839468091 -0.0062495491809833508 0 0.0020687959893215305 -0.0063768950369330083 0 0.002158432839468091 -0.0062495491809833508 0 0.0022320963196063733 -0.0064362410992713642 0 0.00095241217947089141 -0.0057666677536258749 0 0.0016513332766060044 -0.0059760319087836297 0 0.0016006972577183303 -0.0058724522159133066 0 0.00095241217947089141 -0.0057666677536258749 0 0.0016006972577183303 -0.0058724522159133066 0 0.0010404439790036484 -0.0056670229994572425 0 -0.0037213272905013174 -0.0015205613736581493 0 -0.0037439455136158159 -0.0016847846398561344 0 -0.0037344185525786185 -0.0016129756538993028 0 0.002158432839468091 -0.0062495491809833508 0 0.0022320963196063733 -0.0064362410992713642 0 0.0024331597817746353 -0.0064053313692885808 0 0.0023018568130825415 -0.0061653707276902517 0 -0.00049929288719104386 -0.0059743603610485866 0 -0.0020346454443745526 -0.0045286672052285946 0 -0.00095356279383607178 -0.0037010436550765813 0 -0.0037213272905013174 -0.0015205613736581493 0 -0.0037367593049168813 -0.0015817653911882621 0 -0.0037344185525786185 -0.0016129756538993028 0 -0.0037513935585583072 -0.0015888786549131649 0 -0.0037367593049168813 -0.0015817653911882621 0 -0.0037399135539491093 -0.0016122261751828734 0 -0.0037399135539491093 -0.0016122261751828734 0 -0.0037344185525786185 -0.0016129756538993028 0 -0.0037387439669462948 -0.0016299106397449374 0 -0.0037367593049168813 -0.0015817653911882621 0 -0.0037399135539491093 -0.0016122261751828734 0 -0.0037344185525786185 -0.0016129756538993028 0 -0.0037425659608188479 -0.0016455918070644828 0 -0.0037344185525786185 -0.0016129756538993028 0 -0.0037387439669462948 -0.0016299106397449374 0 -0.0037502866220282386 -0.0016324014567796481 0 -0.0037387439669462948 -0.0016299106397449374 0 -0.0037407886857209454 -0.0016282833964412736 0 -0.0037502866220282386 -0.0016324014567796481 0 -0.0037425659608188479 -0.0016455918070644828 0 -0.0037387439669462948 -0.0016299106397449374 0 -0.0037399135539491093 -0.0016122261751828734 0 -0.0037387439669462948 -0.0016299106397449374 0 -0.0037407886857209454 -0.0016282833964412736 0 -0.00085641953678900439 -0.0047907848500995153 0 -0.00071737587904200555 -0.0033551547041651467 0 -6.7429469977842797e-05 -0.0048956101182899845 0 -0.00085641953678900439 -0.0047907848500995153 0 -0.0015860890786750293 -0.0040817656396531423 0 -0.00071737587904200555 -0.0033551547041651467 0 -0.00085641953678900439 -0.0047907848500995153 0 -6.7429469977842797e-05 -0.0048956101182899845 0 -0.00021127115545861041 -0.0056898548661532709 0 -0.00085641953678900439 -0.0047907848500995153 0 -0.0015004934879397317 -0.0048722119236919168 0 -0.0011750740343807642 -0.0054951051308943294 0 -0.00085641953678900439 -0.0047907848500995153 0 -0.0015004934879397317 -0.0048722119236919168 0 -0.0015860890786750293 -0.0040817656396531423 0 -0.0015004934879397317 -0.0048722119236919168 0 -0.0023133551146788749 -0.0042610972758147809 0 -0.0017726590206960156 -0.0054316286665284114 0 -0.003652443582667904 -0.0042175959930416933 0 -0.0023133551146788749 -0.0042610972758147809 0 -0.0017726590206960156 -0.0054316286665284114 0 -0.0024064945520902783 -0.0039403145842622162 0 -0.0018903860763067554 -0.0054984225678921007 0 -0.003652443582667904 -0.0042175959930416933 0 -0.0023133551146788749 -0.0042610972758147809 0 -0.0026341114006934521 -0.0027876998405177455 0 -0.0015004934879397317 -0.0048722119236919168 0 -0.0023133551146788749 -0.0042610972758147809 0 -0.0015860890786750293 -0.0040817656396531423 0 -0.0015860890786750293 -0.0040817656396531423 0 -0.0026341114006934521 -0.0027876998405177455 0 -0.00071737587904200555 -0.0033551547041651467 0 -0.0038317525406205864 -0.001762863070257381 0 -0.0025219042729124207 -0.0024192013708366749 0 -0.0038960307157500412 -0.0017359176081515534 0 -0.0026341114006934521 -0.0027876998405177455 0 -0.00071737587904200555 -0.0033551547041651467 0 -0.0038960307157500412 -0.0017359176081515534 0 -0.0042115291174526712 -0.0015130099706700223 0 -0.0042092440523657758 -0.0014699480346672938 0 -0.0023133551146788749 -0.0042610972758147809 0 -0.0015860890786750293 -0.0040817656396531423 0 -0.0026341114006934521 -0.0027876998405177455 0 -0.0042115291174526712 -0.0015130099706700223 0 -0.0042092440523657758 -0.0014699480346672938 0 -0.0042013213997717279 -0.0014815766087240272 0 -0.0041717176488382524 -0.0014476662744718591 0 -0.0042013213997717279 -0.0014815766087240272 0 -0.0041067414968900366 -0.0015049752572821465 0 -0.0042013213997717279 -0.0014815766087240272 0 -0.0041067414968900366 -0.0015049752572821465 0 -0.0041350926298632587 -0.0015936802806240736 0 -0.0042092440523657758 -0.0014699480346672938 0 -0.0042013213997717279 -0.0014815766087240272 0 -0.0041350926298632587 -0.0015936802806240736 0 -0.0041025560783794013 -0.0014064315326535539 0 -0.004001732788899726 -0.0015047873553948792 0 -0.0041067414968900366 -0.0015049752572821465 0 -0.0040230698646269332 -0.0015739033994402656 0 -0.0041067414968900366 -0.0015049752572821465 0 -0.0041350926298632587 -0.0015936802806240736 0 0.0017063871705741026 -0.0057459753440036012 0 0.00085008540820870598 -0.0048297989961025448 0 0.0010560702549435622 -0.0057239235886526359 0 -0.0011549216946941041 -0.0037115002497140931 0 -0.0016572988322780472 -0.0031868825278936266 0 0.00085008540820870598 -0.0048297989961025448 0 0.00043364922560404725 -0.005419029766366823 0 0.0010560702549435622 -0.0057239235886526359 0 -0.0025219042729124207 -0.0024192013708366749 0 -0.0016572988322780472 -0.0031868825278936266 0 -0.00071737587904200555 -0.0033551547041651467 0 0.00085008540820870598 -0.0048297989961025448 0 -6.7429469977842797e-05 -0.0048956101182899845 0 0.00085008540820870598 -0.0048297989961025448 0 -6.7429469977842797e-05 -0.0048956101182899845 0 0.00043364922560404725 -0.005419029766366823 0 -6.7429469977842797e-05 -0.0048956101182899845 0 0.00043364922560404725 -0.005419029766366823 0 -0.00021127115545861041 -0.0056898548661532709 0 0.00043364922560404725 -0.005419029766366823 0 0.0005121684219390923 -0.0059951556921375663 0 -0.00021127115545861041 -0.0056898548661532709 0 0.00043364922560404725 -0.005419029766366823 0 0.0005121684219390923 -0.0059951556921375663 0 0.0010560702549435622 -0.0057239235886526359 0 0.0005121684219390923 -0.0059951556921375663 0 7.9512390960453094e-07 -0.0064867262944284035 0 -0.00021127115545861041 -0.0056898548661532709 0 0.0005121684219390923 -0.0059951556921375663 0 0.0010560702549435622 -0.0057239235886526359 0 0.001072002684904764 -0.0062375833622835353 0 0.00151455933057409 -0.0060677266001654467 0 0.0010560702549435622 -0.0057239235886526359 0 0.001072002684904764 -0.0062375833622835353 0 0.0005121684219390923 -0.0059951556921375663 0 0.001072002684904764 -0.0062375833622835353 0 0.00062808848703565102 -0.0064977941156946391 0 0.00062808848703565102 -0.0064977941156946391 0 0.0006043875761795179 -0.0069812801433449118 0 0.0010203767256878678 -0.0068555374769668168 0 0.001072002684904764 -0.0062375833622835353 0 0.00062808848703565102 -0.0064977941156946391 0 0.0010203767256878678 -0.0068555374769668168 0 0.0014000910412791724 -0.0065077415357550662 0 0.001072002684904764 -0.0062375833622835353 0 0.0010203767256878678 -0.0068555374769668168 0 0.0005121684219390923 -0.0059951556921375663 0 7.9512390960453094e-07 -0.0064867262944284035 0 0.00062808848703565102 -0.0064977941156946391 0 0.00062808848703565102 -0.0064977941156946391 0 0.00014023098035818786 -0.0070595132706359242 0 0.0006043875761795179 -0.0069812801433449118 0 7.9512390960453094e-07 -0.0064867262944284035 0 0.00062808848703565102 -0.0064977941156946391 0 0.00014023098035818786 -0.0070595132706359242 0 7.9512390960453094e-07 -0.0064867262944284035 0 -0.00013759481798659729 -0.0068500112491470923 0 0.00014023098035818786 -0.0070595132706359242 0 7.9512390960453094e-07 -0.0064867262944284035 0 -0.00013759481798659729 -0.0068500112491470923 0 -0.00049669338217468023 -0.0067262447742119282 0 -0.00013759481798659729 -0.0068500112491470923 0 -0.00049669338217468023 -0.0067262447742119282 0 -0.00028004654713536696 -0.0071348320348710529 0 -0.00049669338217468023 -0.0067262447742119282 0 -0.00059200384429128447 -0.0062324949567085603 0 -0.00096414502243988222 -0.0065658463954690362 0 7.9512390960453094e-07 -0.0064867262944284035 0 -0.00049669338217468023 -0.0067262447742119282 0 -0.00059200384429128447 -0.0062324949567085603 0 7.9512390960453094e-07 -0.0064867262944284035 0 -0.00059200384429128447 -0.0062324949567085603 0 -0.00021127115545861041 -0.0056898548661532709 0 -0.00059200384429128447 -0.0062324949567085603 0 -0.0011750740343807642 -0.0054951051308943294 0 -0.00021127115545861041 -0.0056898548661532709 0 -0.00085641953678900439 -0.0047907848500995153 0 -0.0011750740343807642 -0.0054951051308943294 0 -0.00021127115545861041 -0.0056898548661532709 0 -0.0011750740343807642 -0.0054951051308943294 0 -0.0018392584161945065 -0.0056888567969246902 0 -0.0017156740883378561 -0.0059158145920900672 0 -0.0011494314106018117 -0.0055590639920835502 0 -0.0013275305412133831 -0.0060526727209115642 0 -0.0019876154525176408 -0.0055978120948200301 0 -0.0017726590206960156 -0.0054316286665284114 0 -0.0018392584161945065 -0.0056888567969246902 0 -0.00059200384429128447 -0.0062324949567085603 0 -0.0011750740343807642 -0.0054951051308943294 0 -0.00096414502243988222 -0.0065658463954690362 0 -0.0015004934879397317 -0.0048722119236919168 0 -0.0011750740343807642 -0.0054951051308943294 0 -0.0017726590206960156 -0.0054316286665284114 0 -0.0011750740343807642 -0.0054951051308943294 0 -0.0017726590206960156 -0.0054316286665284114 0 -0.0018392584161945065 -0.0056888567969246902 0 -0.0013275305412133831 -0.0060526727209115642 0 -0.00051955402628499781 -0.0077763433658317345 0 -0.00049669338217468023 -0.0067262447742119282 0 -0.00096414502243988222 -0.0065658463954690362 0 -0.00056442811726505765 -0.007068341063097912 0 -0.00096414502243988222 -0.0065658463954690362 0 -0.00056442811726505765 -0.007068341063097912 0 -0.00069396326493404055 -0.0074188816558459136 0 -0.00096414502243988222 -0.0065658463954690362 0 -0.00069396326493404055 -0.0074188816558459136 0 -0.00097071451807213729 -0.0074272577699526932 0 -0.00056442811726505765 -0.007068341063097912 0 -0.00040301189270365459 -0.0074470040349726005 0 -0.00069396326493404055 -0.0074188816558459136 0 -0.00040301189270365459 -0.0074470040349726005 0 -0.00049463332196117437 -0.0076269228872837286 0 -0.00069396326493404055 -0.0074188816558459136 0 -0.00040301189270365459 -0.0074470040349726005 0 -0.00049463332196117437 -0.0076269228872837286 0 -0.00026105563724417052 -0.0076889740570561579 0 -0.00062696346420107452 -0.0075631406591492971 0 -0.0005546837696125378 -0.0077372353825693255 0 -0.00072509819154215473 -0.0074872509493807884 0 -0.00069396326493404055 -0.0074188816558459136 0 -0.00062696346420107452 -0.0075631406591492971 0 -0.00072509819154215473 -0.0074872509493807884 0 -0.00069005843520904882 -0.0076598674994353159 0 -0.00051955402628499781 -0.0077763433658317345 0 -0.00049463332196117437 -0.0076269228872837286 0 -0.00062696346420107452 -0.0075631406591492971 0 -0.0005546837696125378 -0.0077372353825693255 0 -0.00049463332196117437 -0.0076269228872837286 0 -0.00069396326493404055 -0.0074188816558459136 0 -0.00062696346420107452 -0.0075631406591492971 0 -0.0005546837696125378 -0.0077372353825693255 0 -0.00041561007668390045 -0.0080274681030164559 0 -0.00051720176373952443 -0.0079715891670426343 0 -0.0005546837696125378 -0.0077372353825693255 0 -0.00036320380301297316 -0.0078490287898633146 0 -0.00041561007668390045 -0.0080274681030164559 0 -0.00049463332196117437 -0.0076269228872837286 0 -0.0005546837696125378 -0.0077372353825693255 0 -0.00036320380301297316 -0.0078490287898633146 0 -0.00036320380301297316 -0.0078490287898633146 0 -0.00015748682429874542 -0.0079427184227491582 0 -0.00026105563724417052 -0.0076889740570561579 0 -0.00049463332196117437 -0.0076269228872837286 0 -0.00036320380301297316 -0.0078490287898633146 0 -0.00026105563724417052 -0.0076889740570561579 0 -0.00036320380301297316 -0.0078490287898633146 0 -0.00027972248476443632 -0.008042361142772356 0 -0.00015748682429874542 -0.0079427184227491582 0 -0.00027972248476443632 -0.008042361142772356 0 -0.00015748682429874542 -0.0079427184227491582 0 -0.0001668906996936298 -0.008145049713460013 0 -0.00027972248476443632 -0.008042361142772356 0 -0.00041561007668390045 -0.0080274681030164559 0 -0.00026772466271985528 -0.0082321353649871965 0 -0.00036320380301297316 -0.0078490287898633146 0 -0.00027972248476443632 -0.008042361142772356 0 -0.00041561007668390045 -0.0080274681030164559 0 7.4338227182595062e-05 -0.0079469327088621394 0 -0.00015748682429874542 -0.0079427184227491582 0 -1.0511773232163932e-05 -0.0077312579253211167 0 7.4338227182595062e-05 -0.0079469327088621394 0 -1.0511773232163932e-05 -0.0077312579253211167 0 0.00028839791734653063 -0.007774867983966525 0 7.4338227182595062e-05 -0.0079469327088621394 0 -0.00015748682429874542 -0.0079427184227491582 0 -9.6043845776346133e-06 -0.0081298607442791791 0 -0.00026105563724417052 -0.0076889740570561579 0 -1.0511773232163932e-05 -0.0077312579253211167 0 -0.00012661096488765359 -0.0074650473768579032 0 -0.00015748682429874542 -0.0079427184227491582 0 -0.00026105563724417052 -0.0076889740570561579 0 -1.0511773232163932e-05 -0.0077312579253211167 0 -1.0511773232163932e-05 -0.0077312579253211167 0 -0.00012661096488765359 -0.0074650473768579032 0 0.00015247353699269586 -0.0075257389152107064 0 -0.00012661096488765359 -0.0074650473768579032 0 0.00014023098035818786 -0.0070595132706359242 0 0.00015247353699269586 -0.0075257389152107064 0 -0.00040301189270365459 -0.0074470040349726005 0 -0.00012661096488765359 -0.0074650473768579032 0 -0.00028004654713536696 -0.0071348320348710529 0 -0.00040301189270365459 -0.0074470040349726005 0 -0.00026105563724417052 -0.0076889740570561579 0 -0.00012661096488765359 -0.0074650473768579032 0 -0.00049669338217468023 -0.0067262447742119282 0 -0.00056442811726505765 -0.007068341063097912 0 -0.00028004654713536696 -0.0071348320348710529 0 -0.00056442811726505765 -0.007068341063097912 0 -0.00040301189270365459 -0.0074470040349726005 0 -0.00028004654713536696 -0.0071348320348710529 0 -0.00013759481798659729 -0.0068500112491470923 0 -0.00028004654713536696 -0.0071348320348710529 0 0.00014023098035818786 -0.0070595132706359242 0 -0.00012661096488765359 -0.0074650473768579032 0 -0.00028004654713536696 -0.0071348320348710529 0 0.00014023098035818786 -0.0070595132706359242 0 0.00014023098035818786 -0.0070595132706359242 0 0.0006043875761795179 -0.0069812801433449118 0 0.00041603806033833901 -0.0073626052724655427 0 0.00041603806033833901 -0.0073626052724655427 0 0.00076634510168710349 -0.0072888072653528027 0 0.00057473298066900141 -0.007620534245314948 0 0.0006043875761795179 -0.0069812801433449118 0 0.00041603806033833901 -0.0073626052724655427 0 0.00076634510168710349 -0.0072888072653528027 0 0.00014023098035818786 -0.0070595132706359242 0 0.00041603806033833901 -0.0073626052724655427 0 0.00015247353699269586 -0.0075257389152107064 0 0.0006043875761795179 -0.0069812801433449118 0 0.0010203767256878678 -0.0068555374769668168 0 0.00076634510168710349 -0.0072888072653528027 0 0.0010203767256878678 -0.0068555374769668168 0 0.00076634510168710349 -0.0072888072653528027 0 0.0010533395395974515 -0.0074368488191013235 0 0.00076634510168710349 -0.0072888072653528027 0 0.0010533395395974515 -0.0074368488191013235 0 0.00083710898570216446 -0.007743308670263677 0 0.0010533395395974515 -0.0074368488191013235 0 0.00083710898570216446 -0.007743308670263677 0 0.0012341692906982121 -0.0078118643643436967 0 0.00076634510168710349 -0.0072888072653528027 0 0.00083710898570216446 -0.007743308670263677 0 0.00057473298066900141 -0.007620534245314948 0 0.00083710898570216446 -0.007743308670263677 0 0.00057473298066900141 -0.007620534245314948 0 0.00052579575711792143 -0.0080144971119975299 0 0.00083710898570216446 -0.007743308670263677 0 0.00052579575711792143 -0.0080144971119975299 0 0.00081808872577146367 -0.0080513404246901517 0 0.00083710898570216446 -0.007743308670263677 0 0.00081808872577146367 -0.0080513404246901517 0 0.0012341692906982121 -0.0078118643643436967 0 0.00041603806033833901 -0.0073626052724655427 0 0.00015247353699269586 -0.0075257389152107064 0 0.00028839791734653063 -0.007774867983966525 0 -1.0511773232163932e-05 -0.0077312579253211167 0 0.00015247353699269586 -0.0075257389152107064 0 0.00028839791734653063 -0.007774867983966525 0 0.00041603806033833901 -0.0073626052724655427 0 0.00057473298066900141 -0.007620534245314948 0 0.00028839791734653063 -0.007774867983966525 0 0.00057473298066900141 -0.007620534245314948 0 0.00028839791734653063 -0.007774867983966525 0 0.00052579575711792143 -0.0080144971119975299 0 7.4338227182595062e-05 -0.0079469327088621394 0 0.00028839791734653063 -0.007774867983966525 0 0.00022724452735283545 -0.0080742681998615916 0 0.00028839791734653063 -0.007774867983966525 0 0.00022724452735283545 -0.0080742681998615916 0 0.00052579575711792143 -0.0080144971119975299 0 0.00022724452735283545 -0.0080742681998615916 0 0.00052579575711792143 -0.0080144971119975299 0 0.00034001814311708143 -0.0082727811183083144 0 0.00052579575711792143 -0.0080144971119975299 0 0.00034001814311708143 -0.0082727811183083144 0 0.00060541126966763895 -0.0082820720680862325 0 0.00034001814311708143 -0.0082727811183083144 0 0.00020310231179170807 -0.0084568328413011772 0 0.00010273576441395867 -0.0082931741472524242 0 0.00022724452735283545 -0.0080742681998615916 0 0.00034001814311708143 -0.0082727811183083144 0 0.00010273576441395867 -0.0082931741472524242 0 0.00052579575711792143 -0.0080144971119975299 0 0.00081808872577146367 -0.0080513404246901517 0 0.00060541126966763895 -0.0082820720680862325 0 0.00081808872577146367 -0.0080513404246901517 0 0.00060541126966763895 -0.0082820720680862325 0 0.00093698015874781005 -0.0083445542061870263 0 0.0006292738464899496 -0.0084877753996784253 0 0.00093698015874781005 -0.0083445542061870263 0 0.00064263500737104129 -0.0086919431530019416 0 0.00075808030545202463 -0.0085153824656862224 0 0.00067975568024338938 -0.0086327338433961742 0 0.00060541126966763895 -0.0082820720680862325 0 0.0006292738464899496 -0.0084877753996784253 0 0.00093698015874781005 -0.0083445542061870263 0 0.00060541126966763895 -0.0082820720680862325 0 0.0006292738464899496 -0.0084877753996784253 0 0.00041851320797136352 -0.0084578590759581285 0 0.0006292738464899496 -0.0084877753996784253 0 0.00050826834564470034 -0.0085980214672270495 0 0.00064263500737104129 -0.0086919431530019416 0 0.00034001814311708143 -0.0082727811183083144 0 0.00041851320797136352 -0.0084578590759581285 0 0.00020310231179170807 -0.0084568328413011772 0 0.00034001814311708143 -0.0082727811183083144 0 0.00060541126966763895 -0.0082820720680862325 0 0.00041851320797136352 -0.0084578590759581285 0 0.00041851320797136352 -0.0084578590759581285 0 0.00050826834564470034 -0.0085980214672270495 0 0.00028985312651112267 -0.0086051619387696367 0 0.0006292738464899496 -0.0084877753996784253 0 0.00041851320797136352 -0.0084578590759581285 0 0.00050826834564470034 -0.0085980214672270495 0 0.00041851320797136352 -0.0084578590759581285 0 0.00028985312651112267 -0.0086051619387696367 0 0.00020310231179170807 -0.0084568328413011772 0 0.00020310231179170807 -0.0084568328413011772 0 3.9442436063972582e-05 -0.0084414204996237883 0 9.477103363621544e-05 -0.008604849929505741 0 0.00028985312651112267 -0.0086051619387696367 0 0.00020310231179170807 -0.0084568328413011772 0 9.477103363621544e-05 -0.008604849929505741 0 0.00020310231179170807 -0.0084568328413011772 0 3.9442436063972582e-05 -0.0084414204996237883 0 0.00010273576441395867 -0.0082931741472524242 0 3.9442436063972582e-05 -0.0084414204996237883 0 -7.5818137727025231e-05 -0.0084941801501599388 0 -9.7609663694570852e-05 -0.0083268930244060676 0 3.9442436063972582e-05 -0.0084414204996237883 0 9.477103363621544e-05 -0.008604849929505741 0 -7.5818137727025231e-05 -0.0084941801501599388 0 9.477103363621544e-05 -0.008604849929505741 0 -0.00010009225245111626 -0.0085965889150650798 0 -7.5818137727025231e-05 -0.0084941801501599388 0 -0.00010009225245111626 -0.0085965889150650798 0 -0.00018373896523797266 -0.0084803168520082347 0 -0.00015923500660070146 -0.0085792084518632877 0 -0.00010009225245111626 -0.0085965889150650798 0 -0.00018373896523797266 -0.0084803168520082347 0 -7.5818137727025231e-05 -0.0084941801501599388 0 -0.00018373896523797266 -0.0084803168520082347 0 -7.5818137727025231e-05 -0.0084941801501599388 0 -9.7609663694570852e-05 -0.0083268930244060676 0 -0.00018373896523797266 -0.0084803168520082347 0 -9.7609663694570852e-05 -0.0083268930244060676 0 -0.00026772466271985528 -0.0082321353649871965 0 -0.00018373896523797266 -0.0084803168520082347 0 -0.00026772466271985528 -0.0082321353649871965 0 -0.00029721962805981405 -0.0083653414168721602 0 -0.00041561007668390045 -0.0080274681030164559 0 -0.00026772466271985528 -0.0082321353649871965 0 -0.00035782214716709756 -0.0082330534903610007 0 -0.00026772466271985528 -0.0082321353649871965 0 -0.00035782214716709756 -0.0082330534903610007 0 -0.00029721962805981405 -0.0083653414168721602 0 -0.00027972248476443632 -0.008042361142772356 0 -0.00026772466271985528 -0.0082321353649871965 0 -0.0001668906996936298 -0.008145049713460013 0 -9.7609663694570852e-05 -0.0083268930244060676 0 -0.00026772466271985528 -0.0082321353649871965 0 -0.0001668906996936298 -0.008145049713460013 0 -0.00015748682429874542 -0.0079427184227491582 0 -0.0001668906996936298 -0.008145049713460013 0 -9.6043845776346133e-06 -0.0081298607442791791 0 -9.7609663694570852e-05 -0.0083268930244060676 0 -0.0001668906996936298 -0.008145049713460013 0 -9.6043845776346133e-06 -0.0081298607442791791 0 0.00022724452735283545 -0.0080742681998615916 0 -9.6043845776346133e-06 -0.0081298607442791791 0 0.00010273576441395867 -0.0082931741472524242 0 7.4338227182595062e-05 -0.0079469327088621394 0 0.00022724452735283545 -0.0080742681998615916 0 -9.6043845776346133e-06 -0.0081298607442791791 0 3.9442436063972582e-05 -0.0084414204996237883 0 -9.7609663694570852e-05 -0.0083268930244060676 0 0.00010273576441395867 -0.0082931741472524242 0 -9.7609663694570852e-05 -0.0083268930244060676 0 -9.6043845776346133e-06 -0.0081298607442791791 0 0.00010273576441395867 -0.0082931741472524242 0 -0.0020342072172083252 -0.0062669259689107143 0 -0.0019322483296717705 -0.0064110477884336669 0 -0.0019183482096253588 -0.0062318206211518122 0 -0.0020931195314906584 -0.006375135239748848 0 -0.0020342072172083252 -0.0062669259689107143 0 -0.0019322483296717705 -0.0064110477884336669 0 -0.0020931195314906584 -0.006375135239748848 0 -0.0020551880383876562 -0.0065412841523200468 0 -0.0019322483296717705 -0.0064110477884336669 0 -0.00049929288719104386 -0.0059743603610485866 0 0.00019261839931143627 -0.0065637190487236518 0 0.0022320963196063733 -0.0064362410992713642 0 0.0024331597817746353 -0.0064053313692885808 0 0.0022353975369310297 -0.0066588071670881576 0 0.0022353975369310297 -0.0066588071670881576 0 0.0018381127461911553 -0.0067321591185589653 0 0.001962381182440008 -0.0065240489623278452 0 0.0020687959893215305 -0.0063768950369330083 0 0.0022320963196063733 -0.0064362410992713642 0 0.001962381182440008 -0.0065240489623278452 0 0.0022320963196063733 -0.0064362410992713642 0 0.0022353975369310297 -0.0066588071670881576 0 0.001962381182440008 -0.0065240489623278452 0 0.0022353975369310297 -0.0066588071670881576 0 0.001992295590191599 -0.0069389665649856056 0 0.0018381127461911553 -0.0067321591185589653 0 -0.0019322483296717705 -0.0064110477884336669 0 -0.0018052529316510049 -0.0062990592690271392 0 -0.0019183482096253588 -0.0062318206211518122 0 0.00019261839931143627 -0.0065637190487236518 0 8.454468352378939e-05 -0.0065397475386934408 0 0.0017585780791990926 -0.0069604177254955196 0 0.0018381127461911553 -0.0067321591185589653 0 0.0015145027438383076 -0.006919910207264581 0 0.001992295590191599 -0.0069389665649856056 0 0.0017585780791990926 -0.0069604177254955196 0 0.0018381127461911553 -0.0067321591185589653 0 0.0017287327644982537 -0.006351130489356655 0 0.0017971359431310056 -0.0065044732869266883 0 0.0016165230437940781 -0.0066186145360709898 0 0.0018381127461911553 -0.0067321591185589653 0 0.001962381182440008 -0.0065240489623278452 0 0.0017971359431310056 -0.0065044732869266883 0 0.0019070923029050099 -0.0062891691430991877 0 0.001962381182440008 -0.0065240489623278452 0 0.0017971359431310056 -0.0065044732869266883 0 0.0018381127461911553 -0.0067321591185589653 0 0.0017971359431310056 -0.0065044732869266883 0 0.0016165230437940781 -0.0066186145360709898 0 0.0017187114442977025 -0.0064507496856053368 0 0.0016435026569162302 -0.0068075708363449609 0 0.0014000910412791724 -0.0065077415357550662 0 0.0010203767256878678 -0.0068555374769668168 0 0.0016450679090391342 -0.0071374714186689765 0 0.0010203767256878678 -0.0068555374769668168 0 0.0010533395395974515 -0.0074368488191013235 0 0.0016450679090391342 -0.0071374714186689765 0 0.0011087634364405706 -0.0075437541740589874 0 0.0011925816022297002 -0.007725819283650983 0 0.0018381127461911553 -0.0067321591185589653 0 0.0016165230437940781 -0.0066186145360709898 0 0.0015145027438383076 -0.006919910207264581 0 0.0016435026569162302 -0.0068075708363449609 0 0.0011925816022297002 -0.007725819283650983 0 0.0010533395395974515 -0.0074368488191013235 0 0.0016450679090391342 -0.0071374714186689765 0 0.0014311188406231797 -0.0078963403400286528 0 0.0011925816022297002 -0.007725819283650983 0 0.00062689245781864832 -0.0076020223311131395 0 0.0017585780791990926 -0.0069604177254955196 0 0.0015145027438383076 -0.006919910207264581 0 0.0017438888169091452 -0.007213686063792895 0 0.00081808872577146367 -0.0080513404246901517 0 0.0012341692906982121 -0.0078118643643436967 0 0.00093698015874781005 -0.0083445542061870263 0 0.0006908941670399157 -0.008356515506849533 0 0.00071208968917367446 -0.008485472783284688 0 0.00063622905876263612 -0.0085557813087371939 0 0.0006908941670399157 -0.008356515506849533 0 0.00071208968917367446 -0.008485472783284688 0 0.00081363339282462983 -0.0085159987957145866 0 0.0011925816022297002 -0.007725819283650983 0 0.00075808030545202463 -0.0085153824656862224 0 0.00071208968917367446 -0.008485472783284688 0 0.00063622905876263612 -0.0085557813087371939 0 0.00068051754697156478 -0.0086487431184902337 0 0.00071208968917367446 -0.008485472783284688 0 0.00068051754697156478 -0.0086487431184902337 0 0.00081363339282462983 -0.0085159987957145866 0 0.00063622905876263612 -0.0085557813087371939 0 0.00068051754697156478 -0.0086487431184902337 0 0.00064263500737104129 -0.0086919431530019416 0 0.00068051754697156478 -0.0086487431184902337 0 0.00067284522511017566 -0.0086511230683034967 0 0.00068138486591206161 -0.0086600630303827197 0 0.00068051754697156478 -0.0086487431184902337 0 0.00067284522511017566 -0.0086511230683034967 0 0.00067316657721938622 -0.0086563897206257366 0 0.00057629827103502184 -0.0088695985417459773 0 0.00062689245781864832 -0.0076020223311131395 0 0.00068138486591206161 -0.0086600630303827197 0 0.00067035099101517585 -0.0086586463400544454 0 0.000650339307782357 -0.0086535790836866581 0 0.00067284522511017566 -0.0086511230683034967 0 0.00068138486591206161 -0.0086600630303827197 0 0.00067035099101517585 -0.0086586463400544454 0 0.00067284522511017566 -0.0086511230683034967 0 0.00063891622747599996 -0.0086345032764336589 0 0.00067316657721938622 -0.0086563897206257366 0 -0.00045891944410980315 -0.0076489724212978651 0 0.00062689245781864832 -0.0076020223311131395 0 0.0008279881093411146 -0.0085540097792371275 0 -0.00045891944410980315 -0.0076489724212978651 0 -0.0017412280469842785 -0.0060844729448111673 0 -0.001660465757372484 -0.0061784477922530072 0 -0.0018072457280998201 -0.0061838156891226796 0 -0.0018052529316510049 -0.0062990592690271392 0 -0.001660465757372484 -0.0061784477922530072 0 -0.0018072457280998201 -0.0061838156891226796 0 0.001992295590191599 -0.0069389665649856056 0 0.0017585780791990926 -0.0069604177254955196 0 0.0017438888169091452 -0.007213686063792895 0 8.454468352378939e-05 -0.0065397475386934408 0 0.00062689245781864832 -0.0076020223311131395 0 -0.0018052529316510049 -0.0062990592690271392 0 -0.0019183482096253588 -0.0062318206211518122 0 -0.0018072457280998201 -0.0061838156891226796 0 -0.0019183482096253588 -0.0062318206211518122 0 -0.0018072457280998201 -0.0061838156891226796 0 -0.0019046518080267885 -0.0061187165704343098 0 -0.0017412280469842785 -0.0060844729448111673 0 -0.0019046518080267885 -0.0061187165704343098 0 -0.0020166695297838973 -0.0059674025934278894 0 -0.0017412280469842785 -0.0060844729448111673 0 -0.0018072457280998201 -0.0061838156891226796 0 -0.0019046518080267885 -0.0061187165704343098 0 -0.00045891944410980315 -0.0076489724212978651 0 -0.0021282563577768401 -0.0070151385071116181 0 -0.00045891944410980315 -0.0076489724212978651 0 -0.00096086851606500294 -0.0087243255581837768 0 -0.0019046518080267885 -0.0061187165704343098 0 -0.0020150570825612627 -0.0060728309762045959 0 -0.0020166695297838973 -0.0059674025934278894 0 -0.0019046518080267885 -0.0061187165704343098 0 -0.0020150570825612627 -0.0060728309762045959 0 -0.002014210783769785 -0.0061467453752409324 0 -0.0020150570825612627 -0.0060728309762045959 0 -0.0020854244326510983 -0.0060297655285459434 0 -0.0020751496791182249 -0.0060875655733731394 0 -0.0020150570825612627 -0.0060728309762045959 0 -0.0020854244326510983 -0.0060297655285459434 0 -0.0020166695297838973 -0.0059674025934278894 0 -0.0020150570825612627 -0.0060728309762045959 0 -0.0020751496791182249 -0.0060875655733731394 0 -0.002014210783769785 -0.0061467453752409324 0 -0.0020945630307217427 -0.0061303607708940036 0 -0.0020751496791182249 -0.0060875655733731394 0 -0.002014210783769785 -0.0061467453752409324 0 -0.0020945630307217427 -0.0061303607708940036 0 -0.0020995116742187222 -0.0061819601987740799 0 -0.002014210783769785 -0.0061467453752409324 0 -0.0019183482096253588 -0.0062318206211518122 0 -0.0019046518080267885 -0.0061187165704343098 0 -0.002014210783769785 -0.0061467453752409324 0 -0.0020342072172083252 -0.0062669259689107143 0 -0.0019183482096253588 -0.0062318206211518122 0 -0.002014210783769785 -0.0061467453752409324 0 -0.0021063649515857354 -0.0062371233144391863 0 -0.0020995116742187222 -0.0061819601987740799 0 -0.0020342072172083252 -0.0062669259689107143 0 -0.0020995116742187222 -0.0061819601987740799 0 -0.0020342072172083252 -0.0062669259689107143 0 -0.002014210783769785 -0.0061467453752409324 0 -0.002146128635152541 -0.0086946691937827992 0 -0.0021314469027735607 -0.0089736586504088004 0 -0.0017956699474753481 -0.009133349779310098 0 -0.002146128635152541 -0.0086946691937827992 0 -0.0015200907931593314 -0.0095094672690632636 0 -0.0016154473655327424 -0.0089585605417677842 0 -0.002146128635152541 -0.0086946691937827992 0 -0.0016154473655327424 -0.0089585605417677842 0 -0.0014444464375791928 -0.0082943993801750677 0 -0.0023120285586992213 -0.0088887879033139206 0 -0.00096086851606500294 -0.0087243255581837768 0 -0.0022959724098912588 -0.008831246637340898 0 -0.002146128635152541 -0.0086946691937827992 0 -0.0021314469027735607 -0.0089736586504088004 0 -0.0023942155740582522 -0.0090308793077571517 0 -0.0021314469027735607 -0.0089736586504088004 0 -0.002062035089344068 -0.0091806733639804954 0 -0.0021743555066069198 -0.0076430463904472324 0 -0.0021282563577768401 -0.0070151385071116181 0 -0.0021314469027735607 -0.0089736586504088004 0 -0.002062035089344068 -0.0091806733639804954 0 -0.0017956699474753481 -0.009133349779310098 0 -0.0021468139492371138 -0.0060404331944393383 0 -0.0020854244326510983 -0.0060297655285459434 0 -0.0020166695297838973 -0.0059674025934278894 0 -0.0020874277443619495 -0.0061406676004046104 0 -0.0021282563577768401 -0.0070151385071116181 0 -0.0021282563577768401 -0.0070151385071116181 0 -0.00096086851606500294 -0.0087243255581837768 0 -0.00062466510920017554 -0.0080503976865268865 0 -0.0016995206140616632 -0.0075023558042983151 0 -0.0011517150686882677 -0.0074110759583113179 0 -0.0015200907931593314 -0.0095094672690632636 0 -0.0012301376651961888 -0.0091973867250882985 0 -0.0016154473655327424 -0.0089585605417677842 0 -0.0016154473655327424 -0.0089585605417677842 0 -0.0011231318956449624 -0.00893252842549528 0 -0.0014444464375791928 -0.0082943993801750677 0 -0.0012301376651961888 -0.0091973867250882985 0 -0.0016154473655327424 -0.0089585605417677842 0 -0.0011231318956449624 -0.00893252842549528 0 -0.0009271123413106809 -0.0086504125729421361 0 -0.0011231318956449624 -0.00893252842549528 0 -0.00051165983140899387 -0.0089631746414014831 0 -0.0011231318956449624 -0.00893252842549528 0 -0.00065465162002176496 -0.0093932552126188857 0 -0.00051165983140899387 -0.0089631746414014831 0 -0.0012301376651961888 -0.0091973867250882985 0 -0.0011231318956449624 -0.00893252842549528 0 -0.00065465162002176496 -0.0093932552126188857 0 -0.0009271123413106809 -0.0086504125729421361 0 -0.00051165983140899387 -0.0089631746414014831 0 -0.00048511387921765199 -0.0086742836727954666 0 -0.0015200907931593314 -0.0095094672690632636 0 -0.0012301376651961888 -0.0091973867250882985 0 -0.00065465162002176496 -0.0093932552126188857 0 0.00068138486591206161 -0.0086600630303827197 0 0.000650339307782357 -0.0086535790836866581 0 0.00069107321699338415 -0.0086757119652943627 0 -0.00096086851606500294 -0.0087243255581837768 0 0.00012330154068617382 -0.0090672223096415257 0 0.00069107321699338415 -0.0086757119652943627 0 0.00064263500737104129 -0.0086919431530019416 0 0.0006143841087276541 -0.0087827660070065924 0 0.00012330154068617382 -0.0090672223096415257 0 0.00039890722249851754 -0.0090410797498502518 0 0.00068051754697156478 -0.0086487431184902337 0 0.00069107321699338415 -0.0086757119652943627 0 0.00064263500737104129 -0.0086919431530019416 0 0.00068051754697156478 -0.0086487431184902337 0 0.00068138486591206161 -0.0086600630303827197 0 0.00069107321699338415 -0.0086757119652943627 0 -0.00051165983140899387 -0.0089631746414014831 0 -8.9017450321209187e-05 -0.0088480303843886995 0 0.00024381573863639186 -0.0093033825690709681 0 -0.00065465162002176496 -0.0093932552126188857 0 -0.00051165983140899387 -0.0089631746414014831 0 0.00024381573863639186 -0.0093033825690709681 0 -0.00051165983140899387 -0.0089631746414014831 0 -0.00048511387921765199 -0.0086742836727954666 0 -8.9017450321209187e-05 -0.0088480303843886995 0 -0.00026268699286141676 -0.0083978598626525923 0 -0.00053376090594399472 -0.0079998493594379896 0 6.3762345757218053e-05 -0.008158040259308082 0 -8.9017450321209187e-05 -0.0088480303843886995 0 -0.00026268699286141676 -0.0083978598626525923 0 0.00017296592860291615 -0.0085353301786153923 0 -0.00048511387921765199 -0.0086742836727954666 0 -8.9017450321209187e-05 -0.0088480303843886995 0 -0.00026268699286141676 -0.0083978598626525923 0 -0.00048511387921765199 -0.0086742836727954666 0 -0.00026268699286141676 -0.0083978598626525923 0 -0.00073404208384176845 -0.0084018129423442823 0 -0.00026268699286141676 -0.0083978598626525923 0 -0.00053376090594399472 -0.0079998493594379896 0 -0.00073404208384176845 -0.0084018129423442823 0 -0.00017588237474451334 -0.0076251925823024565 0 -0.00036969189212297115 -0.0079617189180396786 0 0.00031097515654471795 -0.0076703524105142884 0 -0.00045877543331054708 -0.0079842571244528541 0 0.00039265570570784736 -0.0076540083990112324 0 -0.00028109699327091159 -0.0075345291319073573 0 -0.00017588237474451334 -0.0076251925823024565 0 -0.00043127314623081839 -0.0076973030761646553 0 -0.00017588237474451334 -0.0076251925823024565 0 -0.00043127314623081839 -0.0076973030761646553 0 -0.00036969189212297115 -0.0079617189180396786 0 -0.00028109699327091159 -0.0075345291319073573 0 -0.00039204171815651628 -0.0075293951272188322 0 -0.00043127314623081839 -0.0076973030761646553 0 -0.00043127314623081839 -0.0076973030761646553 0 -0.00036969189212297115 -0.0079617189180396786 0 -0.00095639029237299723 -0.0077307171084798672 0 -0.0011806592296356153 -0.0073200688174176057 0 -0.00043127314623081839 -0.0076973030761646553 0 -0.00095639029237299723 -0.0077307171084798672 0 -0.00036969189212297115 -0.0079617189180396786 0 -0.00095639029237299723 -0.0077307171084798672 0 -0.0012757223135682406 -0.0083565927798598897 0 -0.0009271123413106809 -0.0086504125729421361 0 -0.0011231318956449624 -0.00893252842549528 0 -0.0014444464375791928 -0.0082943993801750677 0 -0.00045877543331054708 -0.0079842571244528541 0 -0.0013788447310806328 -0.0083229684226016412 0 -0.0009271123413106809 -0.0086504125729421361 0 -0.00073404208384176845 -0.0084018129423442823 0 -0.0014444464375791928 -0.0082943993801750677 0 -0.00053376090594399472 -0.0079998493594379896 0 -0.00073404208384176845 -0.0084018129423442823 0 -0.0014444464375791928 -0.0082943993801750677 0 -0.0009271123413106809 -0.0086504125729421361 0 -0.00048511387921765199 -0.0086742836727954666 0 -0.00073404208384176845 -0.0084018129423442823 0 -0.0012757223135682406 -0.0083565927798598897 0 -0.0014403645645882097 -0.0078044694175607079 0 -0.0018100898656314014 -0.0082451141332309675 0 -0.00095639029237299723 -0.0077307171084798672 0 -0.0012757223135682406 -0.0083565927798598897 0 -0.0014403645645882097 -0.0078044694175607079 0 -0.0012533457419032399 -0.0075948897608700576 0 -0.00095639029237299723 -0.0077307171084798672 0 -0.0014403645645882097 -0.0078044694175607079 0 -0.0014389318437882325 -0.0075311442969979133 0 -0.0017129726668709462 -0.0076293357237177646 0 -0.0014403645645882097 -0.0078044694175607079 0 -0.0012533457419032399 -0.0075948897608700576 0 -0.0014389318437882325 -0.0075311442969979133 0 -0.0014403645645882097 -0.0078044694175607079 0 -0.0014403645645882097 -0.0078044694175607079 0 -0.0018122701116444055 -0.0078756752779509161 0 -0.0018100898656314014 -0.0082451141332309675 0 -0.0017129726668709462 -0.0076293357237177646 0 -0.0018122701116444055 -0.0078756752779509161 0 -0.002055963466790634 -0.0077175000854674625 0 -0.0017129726668709462 -0.0076293357237177646 0 -0.0014403645645882097 -0.0078044694175607079 0 -0.0018122701116444055 -0.0078756752779509161 0 -0.0022266924291975492 -0.0078973070864457682 0 -0.002055963466790634 -0.0077175000854674625 0 -0.0020397317941960686 -0.007988678385804528 0 -0.0018122701116444055 -0.0078756752779509161 0 -0.002055963466790634 -0.0077175000854674625 0 -0.0020397317941960686 -0.007988678385804528 0 -0.0023188790173943158 -0.0081692477199177688 0 -0.0020397317941960686 -0.007988678385804528 0 -0.0018100898656314014 -0.0082451141332309675 0 -0.0018122701116444055 -0.0078756752779509161 0 -0.0020397317941960686 -0.007988678385804528 0 -0.0018100898656314014 -0.0082451141332309675 0 -0.0021795127995923301 -0.0086700212762364608 0 -0.0012757223135682406 -0.0083565927798598897 0 -0.0018100898656314014 -0.0082451141332309675 0 -0.0023188790173943158 -0.0081692477199177688 0 -0.0021795127995923301 -0.0086700212762364608 0 -0.0018100898656314014 -0.0082451141332309675 0 -0.002287750767569794 -0.008561695183047122 0 -0.002146128635152541 -0.0086946691937827992 0 -0.0014444464375791928 -0.0082943993801750677 0 -0.0021519664321892167 -0.0086263231351238548 0 -0.0013788447310806328 -0.0083229684226016412 0 0.00076965671000600382 -0.0090213096058505693 0 0.0010587976643291995 -0.0090756947221943864 0 0.0012346968425939158 -0.0092338202610427675 0 0.00103296873888347 -0.0083801345914372074 0 0.0017442777670364478 -0.0085276145917345201 0 0.0012346968425939158 -0.0092338202610427675 0 0.0023574645214664942 -0.0091488505186710523 0 0.0017442777670364478 -0.0085276145917345201 0 9.477103363621544e-05 -0.008604849929505741 0 -0.00010009225245111626 -0.0085965889150650798 0 -5.7221614328799595e-05 -0.0088101004362802614 0 -0.00010009225245111626 -0.0085965889150650798 0 -5.7221614328799595e-05 -0.0088101004362802614 0 -0.00014795688302785944 -0.0086270341835463626 0 0.00028985312651112267 -0.0086051619387696367 0 9.477103363621544e-05 -0.008604849929505741 0 0.00022548730191288674 -0.0088440689060257371 0 9.477103363621544e-05 -0.008604849929505741 0 0.00022548730191288674 -0.0088440689060257371 0 -5.7221614328799595e-05 -0.0088101004362802614 0 0.00028985312651112267 -0.0086051619387696367 0 0.00022548730191288674 -0.0088440689060257371 0 0.00043228533680032285 -0.0086981991475573867 0 0.00022548730191288674 -0.0088440689060257371 0 0.00043228533680032285 -0.0086981991475573867 0 0.0006143841087276541 -0.0087827660070065924 0 0.00050826834564470034 -0.0085980214672270495 0 0.00028985312651112267 -0.0086051619387696367 0 0.00043228533680032285 -0.0086981991475573867 0 0.00050826834564470034 -0.0085980214672270495 0 0.00043228533680032285 -0.0086981991475573867 0 0.00064263500737104129 -0.0086919431530019416 0 0.00043228533680032285 -0.0086981991475573867 0 0.00064263500737104129 -0.0086919431530019416 0 0.0006143841087276541 -0.0087827660070065924 0 -8.9017450321209187e-05 -0.0088480303843886995 0 0.00024381573863639186 -0.0093033825690709681 0 0.00025168634933111237 -0.0089164999286623723 0 0.00024381573863639186 -0.0093033825690709681 0 0.00025168634933111237 -0.0089164999286623723 0 0.00061948560794099444 -0.0088529366864320419 0 0.00025168634933111237 -0.0089164999286623723 0 0.00061948560794099444 -0.0088529366864320419 0 0.00017296592860291615 -0.0085353301786153923 0 -8.9017450321209187e-05 -0.0088480303843886995 0 0.00025168634933111237 -0.0089164999286623723 0 0.00017296592860291615 -0.0085353301786153923 0 0.0012346968425939158 -0.0092338202610427675 0 0.00024381573863639186 -0.0093033825690709681 0 0.00061948560794099444 -0.0088529366864320419 0 0.0012346968425939158 -0.0092338202610427675 0 0.00061948560794099444 -0.0088529366864320419 0 0.00103296873888347 -0.0083801345914372074 0 0.00076965671000600382 -0.0090213096058505693 0 0.00039890722249851754 -0.0090410797498502518 0 0.00061948560794099444 -0.0088529366864320419 0 0.00103296873888347 -0.0083801345914372074 0 0.00052953985507003592 -0.0082034033607242072 0 0.00103296873888347 -0.0083801345914372074 0 0.00052953985507003592 -0.0082034033607242072 0 0.00099065231485109383 -0.0078823884123348353 0 0.00103296873888347 -0.0083801345914372074 0 0.00099065231485109383 -0.0078823884123348353 0 0.0015459197413118207 -0.0079010153978907611 0 0.00061948560794099444 -0.0088529366864320419 0 0.00017296592860291615 -0.0085353301786153923 0 0.00052953985507003592 -0.0082034033607242072 0 -0.00026268699286141676 -0.0083978598626525923 0 0.00017296592860291615 -0.0085353301786153923 0 6.3762345757218053e-05 -0.008158040259308082 0 0.00017296592860291615 -0.0085353301786153923 0 0.00052953985507003592 -0.0082034033607242072 0 6.3762345757218053e-05 -0.008158040259308082 0 -6.0680419471452461e-05 -0.0073834109900213444 0 -0.00017588237474451334 -0.0076251925823024565 0 0.00031097515654471795 -0.0076703524105142884 0 -0.00053376090594399472 -0.0079998493594379896 0 6.3762345757218053e-05 -0.008158040259308082 0 0.0004318103570575911 -0.0076552799820468519 0 0.00052953985507003592 -0.0082034033607242072 0 6.3762345757218053e-05 -0.008158040259308082 0 0.0004318103570575911 -0.0076552799820468519 0 0.0014100886461423773 -0.0072877295708403201 0 0.00039265570570784736 -0.0076540083990112324 0 0.0014706912078929289 -0.0072553485201810831 0 0.0004318103570575911 -0.0076552799820468519 0 0.00099065231485109383 -0.0078823884123348353 0 0.00052953985507003592 -0.0082034033607242072 0 0.0004318103570575911 -0.0076552799820468519 0 0.00099065231485109383 -0.0078823884123348353 0 0.0014706912078929289 -0.0072553485201810831 0 0.0015459197413118207 -0.0079010153978907611 0 0.0020787889464641456 -0.0072973495945896569 0 0.0014706912078929289 -0.0072553485201810831 0 0.00099065231485109383 -0.0078823884123348353 0 0.0015459197413118207 -0.0079010153978907611 0 0.0015459197413118207 -0.0079010153978907611 0 0.0017442777670364478 -0.0085276145917345201 0 0.0024084833045612264 -0.007969973136263464 0 0.00103296873888347 -0.0083801345914372074 0 0.0015459197413118207 -0.0079010153978907611 0 0.0017442777670364478 -0.0085276145917345201 0 0.0023574645214664942 -0.0091488505186710523 0 0.0017442777670364478 -0.0085276145917345201 0 0.0024084833045612264 -0.007969973136263464 0 0.0029856842076633619 -0.0068388203430351478 0 0.0024084833045612264 -0.007969973136263464 0 0.0020787889464641456 -0.0072973495945896569 0 0.0015459197413118207 -0.0079010153978907611 0 0.0024084833045612264 -0.007969973136263464 0 0.0020787889464641456 -0.0072973495945896569 0 0.0029856842076633619 -0.0068388203430351478 0 0.0039432413377788597 -0.0069568236532719565 0 0.0033189779462248804 -0.0081427567257364511 0 0.0029856842076633619 -0.0068388203430351478 0 0.0024084833045612264 -0.007969973136263464 0 0.0033189779462248804 -0.0081427567257364511 0 0.0039432413377788597 -0.0069568236532719565 0 0.004248463611796505 -0.0078479876099806136 0 0.0033189779462248804 -0.0081427567257364511 0 0.0048125967015918937 -0.0071234747514388958 0 0.0020891508051454392 -0.0080489977502193749 0 0.0048683008115605894 -0.0065160622212132738 0 0.0044251159165384652 -0.0073428011790665718 0 0.0054608569456010714 -0.0071391248721298399 0 0.004248463611796505 -0.0078479876099806136 0 0.0033189779462248804 -0.0081427567257364511 0 0.0035934468164199743 -0.0089949631093729134 0 0.0023574645214664942 -0.0091488505186710523 0 0.0024084833045612264 -0.007969973136263464 0 0.0033189779462248804 -0.0081427567257364511 0 0.0023574645214664942 -0.0091488505186710523 0 0.0033189779462248804 -0.0081427567257364511 0 0.0035934468164199743 -0.0089949631093729134 0 0.0020891508051454392 -0.0080489977502193749 0 -0.00063708433751060898 -0.0087124288803979589 0 -5.7221614328799595e-05 -0.0088101004362802614 0 -0.00021313984891466718 -0.008810532251126893 0 -0.00014795688302785944 -0.0086270341835463626 0 0.0010587976643291995 -0.0090756947221943864 0 0.0020891508051454392 -0.0080489977502193749 0 0.00030202927346694743 -0.0071618811093030867 0 0.0014675264997736047 -0.0078979469809975587 0 0.0005319335727475787 -0.0084505644467822213 0 0.0014675264997736047 -0.0078979469809975587 0 0.0005319335727475787 -0.0084505644467822213 0 0.00094120425010853648 -0.008784831648601072 0 0.0005319335727475787 -0.0084505644467822213 0 0.00094120425010853648 -0.008784831648601072 0 0.00070054528216695669 -0.0088493806957796999 0 0.00094120425010853648 -0.008784831648601072 0 0.00070054528216695669 -0.0088493806957796999 0 0.0008836537405576383 -0.0089042972442367682 0 0.0005319335727475787 -0.0084505644467822213 0 0.00070054528216695669 -0.0088493806957796999 0 0.00024556238486110143 -0.0086782588477631543 0 0.00030202927346694743 -0.0071618811093030867 0 0.0005319335727475787 -0.0084505644467822213 0 -0.00014795688302785944 -0.0086270341835463626 0 0.0005319335727475787 -0.0084505644467822213 0 0.00024556238486110143 -0.0086782588477631543 0 -0.00014795688302785944 -0.0086270341835463626 0 0.0036888667946227741 -0.0098434071466509641 0 0.0026900258608652883 -0.0082033383583296864 0 0.0048172022825195603 -0.0081544733621054417 0 0.0036888667946227741 -0.0098434071466509641 0 0.0048172022825195603 -0.0081544733621054417 0 0.0058464583278297023 -0.009101329780561546 0 0.001178792974470752 -0.0088559911329735824 0 0.0021697292223842842 -0.0093828098917762871 0 0.00094120425010853648 -0.008784831648601072 0 0.0036888667946227741 -0.0098434071466509641 0 0.0026900258608652883 -0.0082033383583296864 0 0.00094120425010853648 -0.008784831648601072 0 0.0012354823794881603 -0.0087989811076030731 0 0.0010290344596285998 -0.0089241904444272973 0 0.0014675264997736047 -0.0078979469809975587 0 0.00094120425010853648 -0.008784831648601072 0 0.0026900258608652883 -0.0082033383583296864 0 0.0014675264997736047 -0.0078979469809975587 0 0.0026900258608652883 -0.0082033383583296864 0 0.0031048878799533391 -0.0066586043431245481 0 0.0020891508051454392 -0.0080489977502193749 0 0.0043729608947433562 -0.0068207434282681048 0 0.00030202927346694743 -0.0071618811093030867 0 0.0014675264997736047 -0.0078979469809975587 0 0.0031048878799533391 -0.0066586043431245481 0 0.0048172022825195603 -0.0081544733621054417 0 0.0031048878799533391 -0.0066586043431245481 0 0.0063143130506104527 -0.0069418556298275298 0 0.0026900258608652883 -0.0082033383583296864 0 0.0048172022825195603 -0.0081544733621054417 0 0.0031048878799533391 -0.0066586043431245481 0 0.0054608569456010714 -0.0071391248721298399 0 0.0058520469457988824 -0.0063251292527448351 0 0.0063143130506104527 -0.0069418556298275298 0 0.0043729608947433562 -0.0068207434282681048 0 0.0061241397397161891 -0.0069311196606550536 0 0.0048683008115605894 -0.0065160622212132738 0 0.0054608569456010714 -0.0071391248721298399 0 0.0058520469457988824 -0.0063251292527448351 0 0.0051013198898045616 -0.0061492547494452366 0 0.0048125967015918937 -0.0071234747514388958 0 0.0052983123171469939 -0.0057060875863975923 0 0.0048683008115605894 -0.0065160622212132738 0 0.0058520469457988824 -0.0063251292527448351 0 0.0058520469457988824 -0.0063251292527448351 0 0.0067869586168291919 -0.0063397141574534034 0 0.0063143130506104527 -0.0069418556298275298 0 0.0065255085606680972 -0.0057396295114326866 0 0.0058520469457988824 -0.0063251292527448351 0 0.0067869586168291919 -0.0063397141574534034 0 0.0063143130506104527 -0.0069418556298275298 0 0.0076643053409984965 -0.0067736206514063891 0 0.0074547580773872786 -0.0076932619347049071 0 0.0067869586168291919 -0.0063397141574534034 0 0.0063143130506104527 -0.0069418556298275298 0 0.0076643053409984965 -0.0067736206514063891 0 0.009394111876432628 -0.0064353856795937858 0 0.0089161214062691597 -0.0061977824516855923 0 0.0087824194000251966 -0.0067611972270206887 0 0.0080771023927987511 -0.0060695175288169615 0 0.0089161214062691597 -0.0061977824516855923 0 0.0087824194000251966 -0.0067611972270206887 0 0.0080771023927987511 -0.0060695175288169615 0 0.0067869586168291919 -0.0063397141574534034 0 0.0076643053409984965 -0.0067736206514063891 0 0.0080771023927987511 -0.0060695175288169615 0 0.0087824194000251966 -0.0067611972270206887 0 0.0076643053409984965 -0.0067736206514063891 0 0.0087824194000251966 -0.0067611972270206887 0 0.0083265078386527604 -0.0074865812777788502 0 0.0076643053409984965 -0.0067736206514063891 0 0.0083265078386527604 -0.0074865812777788502 0 0.0076643053409984965 -0.0067736206514063891 0 0.0074547580773872786 -0.0076932619347049071 0 0.0093731833684106841 -0.0075102472831106238 0 0.0087824194000251966 -0.0067611972270206887 0 0.0083265078386527604 -0.0074865812777788502 0 0.011694099529597449 -0.0075692906154917411 0 0.0076158663049638803 -0.0075129811339899686 0 0.0096763847663733533 -0.0073727607488054785 0 0.0083265078386527604 -0.0074865812777788502 0 0.0084719004886695433 -0.0083833549877681858 0 0.0096763847663733533 -0.0073727607488054785 0 0.0084719004886695433 -0.0083833549877681858 0 0.009369676386196896 -0.0088664698642321391 0 0.0083265078386527604 -0.0074865812777788502 0 0.0084719004886695433 -0.0083833549877681858 0 0.0074547580773872786 -0.0076932619347049071 0 0.0084719004886695433 -0.0083833549877681858 0 0.0075831406306996812 -0.0088725543477197102 0 0.0074547580773872786 -0.0076932619347049071 0 0.0084719004886695433 -0.0083833549877681858 0 0.0075831406306996812 -0.0088725543477197102 0 0.0085116898998425679 -0.0094894592295935096 0 0.0075831406306996812 -0.0088725543477197102 0 0.0085116898998425679 -0.0094894592295935096 0 0.0076379270918159785 -0.010161069846026332 0 0.0084719004886695433 -0.0083833549877681858 0 0.0085116898998425679 -0.0094894592295935096 0 0.009369676386196896 -0.0088664698642321391 0 0.0048172022825195603 -0.0081544733621054417 0 0.0063143130506104527 -0.0069418556298275298 0 0.0065364607461888408 -0.0083006367230646378 0 0.0063143130506104527 -0.0069418556298275298 0 0.0074547580773872786 -0.0076932619347049071 0 0.0065364607461888408 -0.0083006367230646378 0 0.0075831406306996812 -0.0088725543477197102 0 0.0074547580773872786 -0.0076932619347049071 0 0.0065364607461888408 -0.0083006367230646378 0 0.0075831406306996812 -0.0088725543477197102 0 0.0068412362237913549 -0.0092857231871181639 0 0.0076379270918159785 -0.010161069846026332 0 0.0065364607461888408 -0.0083006367230646378 0 0.0068412362237913549 -0.0092857231871181639 0 0.0058464583278297023 -0.009101329780561546 0 0.0075831406306996812 -0.0088725543477197102 0 0.0065364607461888408 -0.0083006367230646378 0 0.0068412362237913549 -0.0092857231871181639 0 0.0036888667946227741 -0.0098434071466509641 0 0.0058464583278297023 -0.009101329780561546 0 0.006147719126529584 -0.010364331897557588 0 0.0068412362237913549 -0.0092857231871181639 0 0.0058464583278297023 -0.009101329780561546 0 0.0061172230564228661 -0.0099258898956414189 0 0.0059402162137956295 -0.0097061519877950052 0 0.0053917803391134609 -0.0083461811054183991 0 0.0048172022825195603 -0.0081544733621054417 0 0.0065364607461888408 -0.0083006367230646378 0 0.0058464583278297023 -0.009101329780561546 0 0.0021697292223842842 -0.0093828098917762871 0 0.0053917803391134609 -0.0083461811054183991 0 0.0016995255570352882 -0.0088519784641189064 0 0.0015419976174996294 -0.009113682632928213 0 0.0013591057674160049 -0.0090072546880286507 0 0.0068412362237913549 -0.0092857231871181639 0 0.0061172230564228661 -0.0099258898956414189 0 0.0076379270918159785 -0.010161069846026332 0 0.0053917803391134609 -0.0083461811054183991 0 0.0076249263530686054 -0.0082882645800666892 0 0.0073367444143846491 -0.0062308582293946714 0 0.0078336254608391918 -0.006870396976491464 0 0.0081734423023791559 -0.0063953499289375517 0 0.0078336254608391918 -0.006870396976491464 0 0.007602659762177613 -0.0071073304551548793 0 0.0081873896813076837 -0.0073258892027291671 0 0.0073367444143846491 -0.0062308582293946714 0 0.0078336254608391918 -0.006870396976491464 0 0.0075670536672045674 -0.0071424608178022563 0 0.0074905303130532244 -0.0064911455125034228 0 0.0052339638618999094 -0.0078718229206412704 0 0.0017996767074434632 -0.0092699331165442475 0 0.001481048052698054 -0.0093022510516987539 0 0.0015419976174996294 -0.009113682632928213 0 0.0053917803391134609 -0.0083461811054183991 0 0.0052339638618999094 -0.0078718229206412704 0 0.0016995255570352882 -0.0088519784641189064 0 0.0017996767074434632 -0.0092699331165442475 0 0.0015419976174996294 -0.009113682632928213 0 0.016468066698198121 -0.0068609271122325455 0 0.016497507149917632 -0.0070000624080175889 0 0.016518226276227059 -0.0068132770204160599 0 0.013152510268887937 -0.0080244768830674742 0 0.01188106618064364 -0.007597327850545935 0 0.0085116898998425679 -0.0094894592295935096 0 0.009369676386196896 -0.0088664698642321391 0 0.0090630511259345674 -0.010406191101893168 0 0.016468066698198121 -0.0068609271122325455 0 0.016479058766622926 -0.0067960426816572484 0 0.016518226276227059 -0.0068132770204160599 0 0.015248185292361268 -0.0077572226224153513 0 0.01188106618064364 -0.007597327850545935 0 0.0085116898998425679 -0.0094894592295935096 0 0.0090630511259345674 -0.010406191101893168 0 0.0076379270918159785 -0.010161069846026332 0 0.01188106618064364 -0.007597327850545935 0 0.0076249263530686054 -0.0082882645800666892 0 0.008989941641140628 -0.0065627667388134091 0 0.0081734423023791559 -0.0063953499289375517 0 0.0083990350721069966 -0.0068979506113298122 0 0.0083990350721069966 -0.0068979506113298122 0 0.0088192449949071397 -0.0072440930263715959 0 0.0081873896813076837 -0.0073258892027291671 0 0.0078336254608391918 -0.006870396976491464 0 0.0081734423023791559 -0.0063953499289375517 0 0.0083990350721069966 -0.0068979506113298122 0 0.0078336254608391918 -0.006870396976491464 0 0.0083990350721069966 -0.0068979506113298122 0 0.0081873896813076837 -0.0073258892027291671 0 0.016479058766622926 -0.0067960426816572484 0 0.016494883540636121 -0.0068013126374106498 0 0.01649059172771572 -0.0066765642065221842 0 0.016440550356435598 -0.0066940171059258263 0 0.016479058766622926 -0.0067960426816572484 0 0.01649059172771572 -0.0066765642065221842 0 0.008989941641140628 -0.0065627667388134091 0 0.0083990350721069966 -0.0068979506113298122 0 0.0088192449949071397 -0.0072440930263715959 0 0.01188106618064364 -0.007597327850545935 0 0.012724102315928645 -0.0070797003144707571 0 0.012724102315928645 -0.0070797003144707571 0 0.011104722472153938 -0.005263990701627955 0 0.016415044950836229 -0.0065670192172374558 0 0.01649059172771572 -0.0066765642065221842 0 0.016468152118362545 -0.0065899586573352391 0 0.0088192449949071397 -0.0072440930263715959 0 0.0081873896813076837 -0.0073258892027291671 0 0.0086627741251928871 -0.0079068637520258566 0 0.0081873896813076837 -0.0073258892027291671 0 0.0086627741251928871 -0.0079068637520258566 0 0.0078141817774995924 -0.0079244607487626521 0 0.0061783636434431504 -0.0041925546412828031 0 0.0067627091991583456 -0.0036936624504241861 0 0.0056251306300980517 -0.0037238424690050893 0 0.011104722472153938 -0.005263990701627955 0 0.0056481864595517312 -0.0058465542605236022 0 0.015445722849253647 -0.0046667309599990429 0 0.011104722472153938 -0.005263990701627955 0 0.013052123545667866 -0.0029135502367850191 0 0.012316701337441352 -0.0033275935269965716 0 0.012161819523162082 -0.0028789826270218559 0 0.0017996767074434632 -0.0092699331165442475 0 0.001481048052698054 -0.0093022510516987539 0 0.0015791998576037431 -0.0094770495842421022 0 0.0023984061776001712 -0.0086800869403235378 0 0.0027268101007332456 -0.0067082127340850452 0 0.0052339638618999094 -0.0078718229206412704 0 0.0023984061776001712 -0.0086800869403235378 0 0.0042578182109264777 -0.0068012542733924515 0 0.0039178875654245224 -0.0071401970951813524 0 0.004424085926502932 -0.0074603676397402598 0 0.0052339638618999094 -0.0078718229206412704 0 0.0056481864595517312 -0.0058465542605236022 0 0.007602659762177613 -0.0071073304551548793 0 0.0081873896813076837 -0.0073258892027291671 0 0.0078141817774995924 -0.0079244607487626521 0 0.0058328291443521087 -0.004731903359118936 0 0.0061783636434431504 -0.0041925546412828031 0 0.0056251306300980517 -0.0037238424690050893 0 0.0056808577959912305 -0.0038318371767221116 0 0.0056481864595517312 -0.0058465542605236022 0 0.0056481864595517312 -0.0058465542605236022 0 0.0027268101007332456 -0.0067082127340850452 0 0.0049912901164207036 -0.0043914511480697121 0 0.0055378283987718374 -0.0035979380288407594 0 0.0039465329717168094 -0.0036310539684373086 0 0.0039178875654245224 -0.0071401970951813524 0 0.004424085926502932 -0.0074603676397402598 0 0.0035769586527980373 -0.007481648102612406 0 0.0027268101007332456 -0.0067082127340850452 0 -5.0349865931708196e-05 -0.0079310107805472211 0 0.0013671107594032731 -0.0096794711962050039 0 0.0012500224910860732 -0.0094352916041220789 0 0.0010117829914698486 -0.0096865007799164099 0 0.0011613803344195104 -0.0070951931004208388 0 0.0017722598291713997 -0.0064674355917053103 0 0.00050216404376438842 -0.006499863749752666 0 0.00068483998837837884 -0.0046995546123981859 0 0.0027268101007332456 -0.0067082127340850452 0 0.001481048052698054 -0.0093022510516987539 0 0.0015791998576037431 -0.0094770495842421022 0 0.0012500224910860732 -0.0094352916041220789 0 0.0015791998576037431 -0.0094770495842421022 0 0.0013671107594032731 -0.0096794711962050039 0 0.0012500224910860732 -0.0094352916041220789 0 0.001481048052698054 -0.0093022510516987539 0 0.0012500224910860732 -0.0094352916041220789 0 0.0012715439512837896 -0.0092543226207333247 0 0.0012500224910860732 -0.0094352916041220789 0 0.00098397693281886199 -0.0093992024529710658 0 0.0010117829914698486 -0.0096865007799164099 0 0.00098397693281886199 -0.0093992024529710658 0 0.0010117829914698486 -0.0096865007799164099 0 0.00085978924329531772 -0.0093629539878286611 0 0.00098397693281886199 -0.0093992024529710658 0 0.00085978924329531772 -0.0093629539878286611 0 0.00089609668247126839 -0.0092661921230578793 0 0.0012500224910860732 -0.0094352916041220789 0 0.00098397693281886199 -0.0093992024529710658 0 0.0010743417587645457 -0.0092625702997992006 0 -0.0022079591216491974 -0.0059404333465800131 0 -0.0024068989853843715 -0.0059681668848965133 0 -0.0023007854372725351 -0.0060783485149626211 0 0.00068483998837837884 -0.0046995546123981859 0 -5.0349865931708196e-05 -0.0079310107805472211 0 0.00039109051354920075 -0.0090993365819026645 0 0.00059158120302969461 -0.0091077386677739427 0 0.00059494679988570764 -0.0091869547166395071 0 -0.0022079591216491974 -0.0059404333465800131 0 -0.0023007854372725351 -0.0060783485149626211 0 -0.0020932390896631647 -0.0060943513092698211 0 -5.0349865931708196e-05 -0.0079310107805472211 0 -0.00091857581233257505 -0.0075932185470541013 0 0.00059158120302969461 -0.0091077386677739427 0 0.00066800972971458119 -0.0091973235758428581 0 0.00059494679988570764 -0.0091869547166395071 0 -0.00091857581233257505 -0.0075932185470541013 0 -0.00051955402628499781 -0.0077763433658317345 0 0.00059158120302969461 -0.0091077386677739427 0 0.00072243742491842752 -0.0091400717020398616 0 0.00066800972971458119 -0.0091973235758428581 0 -0.0019995675394701012 -0.0058778725835879984 0 -0.0020932390896631647 -0.0060943513092698211 0 -0.0018460169613067987 -0.0061213357312270011 0 -0.00072509819154215473 -0.0074872509493807884 0 -0.00051720176373952443 -0.0079715891670426343 0 -0.00045299001922623308 -0.0084225618254237904 0 -0.00051955402628499781 -0.0077763433658317345 0 0.00021127797097696732 -0.0089077367118846461 0 0.00072243742491842752 -0.0091400717020398616 0 0.00066800972971458119 -0.0091973235758428581 0 0.00063542097592165104 -0.0092831623364044887 0 0.00066800972971458119 -0.0091973235758428581 0 0.0006463288757473911 -0.0092491057933234751 0 0.00063542097592165104 -0.0092831623364044887 0 -0.0005546837696125378 -0.0077372353825693255 0 -0.00072509819154215473 -0.0074872509493807884 0 -0.00051720176373952443 -0.0079715891670426343 0 0.00066800972971458119 -0.0091973235758428581 0 0.0006463288757473911 -0.0092491057933234751 0 0.00059494679988570764 -0.0091869547166395071 0 0.0006463288757473911 -0.0092491057933234751 0 0.00064376339677655215 -0.009296665651330192 0 0.00063542097592165104 -0.0092831623364044887 0 -0.00043794703645199442 -0.0081837897088691148 0 -0.00051720176373952443 -0.0079715891670426343 0 -0.00045299001922623308 -0.0084225618254237904 0 -0.00041561007668390045 -0.0080274681030164559 0 -0.00043794703645199442 -0.0081837897088691148 0 -0.00035782214716709756 -0.0082330534903610007 0 -0.00041561007668390045 -0.0080274681030164559 0 -0.00043794703645199442 -0.0081837897088691148 0 -0.00051720176373952443 -0.0079715891670426343 0 -5.0349865931708196e-05 -0.0079310107805472211 0 0.0010346096967957705 -0.009876199931086389 0 0.00039109051354920075 -0.0090993365819026645 0 0.00059494679988570764 -0.0091869547166395071 0 0.00064376339677655215 -0.009296665651330192 0 0.0010117829914698486 -0.0096865007799164099 0 0.00064376339677655215 -0.009296665651330192 0 0.00085978924329531772 -0.0093629539878286611 0 0.0006463288757473911 -0.0092491057933234751 0 0.00059494679988570764 -0.0091869547166395071 0 0.00064376339677655215 -0.009296665651330192 0 0.00085978924329531772 -0.0093629539878286611 0 0.0007772970373893152 -0.0092271565707974599 0 0.00089609668247126839 -0.0092661921230578793 0 0.0007772970373893152 -0.0092271565707974599 0 0.00089609668247126839 -0.0092661921230578793 0 0.00093332616868141167 -0.0091397682366666805 0 0.00064376339677655215 -0.009296665651330192 0 0.00085978924329531772 -0.0093629539878286611 0 0.0007772970373893152 -0.0092271565707974599 0 0.00064376339677655215 -0.009296665651330192 0 0.0007772970373893152 -0.0092271565707974599 0 0.00063542097592165104 -0.0092831623364044887 0 0.0007772970373893152 -0.0092271565707974599 0 0.00063542097592165104 -0.0092831623364044887 0 0.00081751836348656077 -0.0090657879442905109 0 0.0007772970373893152 -0.0092271565707974599 0 0.00081751836348656077 -0.0090657879442905109 0 0.00093332616868141167 -0.0091397682366666805 0 -0.00045299001922623308 -0.0084225618254237904 0 -0.00025243777855922793 -0.0085031712746904704 0 -1.2031401677936044e-05 -0.0086467936481825613 0 -0.00035782214716709756 -0.0082330534903610007 0 -0.00036434388579275527 -0.0083420743255294885 0 -0.00029721962805981405 -0.0083653414168721602 0 -0.00043794703645199442 -0.0081837897088691148 0 -0.00035782214716709756 -0.0082330534903610007 0 -0.00036434388579275527 -0.0083420743255294885 0 -0.00043794703645199442 -0.0081837897088691148 0 -0.00036434388579275527 -0.0083420743255294885 0 -0.00045299001922623308 -0.0084225618254237904 0 -0.00036434388579275527 -0.0083420743255294885 0 -0.00045299001922623308 -0.0084225618254237904 0 -0.00025243777855922793 -0.0085031712746904704 0 -0.00018373896523797266 -0.0084803168520082347 0 -0.00025243777855922793 -0.0085031712746904704 0 -0.00029721962805981405 -0.0083653414168721602 0 -0.00036434388579275527 -0.0083420743255294885 0 -0.00025243777855922793 -0.0085031712746904704 0 -0.00029721962805981405 -0.0083653414168721602 0 -0.00018373896523797266 -0.0084803168520082347 0 -0.00025243777855922793 -0.0085031712746904704 0 -0.00015923500660070146 -0.0085792084518632877 0 -0.00025243777855922793 -0.0085031712746904704 0 -1.2031401677936044e-05 -0.0086467936481825613 0 -0.00015923500660070146 -0.0085792084518632877 0 0.00024556238486110143 -0.0086782588477631543 0 -0.00014795688302785944 -0.0086270341835463626 0 -1.2031401677936044e-05 -0.0086467936481825613 0 -0.00014795688302785944 -0.0086270341835463626 0 -1.2031401677936044e-05 -0.0086467936481825613 0 -0.00015923500660070146 -0.0085792084518632877 0 -0.00010009225245111626 -0.0085965889150650798 0 -0.00014795688302785944 -0.0086270341835463626 0 -0.00015923500660070146 -0.0085792084518632877 0 0.00070054528216695669 -0.0088493806957796999 0 0.00063542097592165104 -0.0092831623364044887 0 0.00081751836348656077 -0.0090657879442905109 0 0.00062365201818002697 -0.0087356151016472969 0 0.00021127797097696732 -0.0089077367118846461 0 0.00070054528216695669 -0.0088493806957796999 0 -0.00045299001922623308 -0.0084225618254237904 0 -1.2031401677936044e-05 -0.0086467936481825613 0 0.00070054528216695669 -0.0088493806957796999 0 0.00024556238486110143 -0.0086782588477631543 0 -1.2031401677936044e-05 -0.0086467936481825613 0 0.00070054528216695669 -0.0088493806957796999 0 0.00081751836348656077 -0.0090657879442905109 0 0.0008836537405576383 -0.0089042972442367682 0 0.00081751836348656077 -0.0090657879442905109 0 0.0008836537405576383 -0.0089042972442367682 0 0.0010290344596285998 -0.0089241904444272973 0 0.00094120425010853648 -0.008784831648601072 0 0.0008836537405576383 -0.0089042972442367682 0 0.0010290344596285998 -0.0089241904444272973 0 0.0012354823794881603 -0.0087989811076030731 0 0.0010290344596285998 -0.0089241904444272973 0 0.0011363699329835681 -0.0090921374849965535 0 0.00081751836348656077 -0.0090657879442905109 0 0.0010290344596285998 -0.0089241904444272973 0 0.00093332616868141167 -0.0091397682366666805 0 0.0010290344596285998 -0.0089241904444272973 0 0.00093332616868141167 -0.0091397682366666805 0 0.0011363699329835681 -0.0090921374849965535 0 0.0012354823794881603 -0.0087989811076030731 0 0.0016995255570352882 -0.0088519784641189064 0 0.0013591057674160049 -0.0090072546880286507 0 0.0012354823794881603 -0.0087989811076030731 0 0.0013591057674160049 -0.0090072546880286507 0 0.0011363699329835681 -0.0090921374849965535 0 0.0013591057674160049 -0.0090072546880286507 0 0.0012715439512837896 -0.0092543226207333247 0 0.0011363699329835681 -0.0090921374849965535 0 0.0015419976174996294 -0.009113682632928213 0 0.0013591057674160049 -0.0090072546880286507 0 0.0012715439512837896 -0.0092543226207333247 0 0.001481048052698054 -0.0093022510516987539 0 0.0015419976174996294 -0.009113682632928213 0 0.0012715439512837896 -0.0092543226207333247 0 0.0012500224910860732 -0.0094352916041220789 0 0.0012715439512837896 -0.0092543226207333247 0 0.0010743417587645457 -0.0092625702997992006 0 0.0012715439512837896 -0.0092543226207333247 0 0.0010743417587645457 -0.0092625702997992006 0 0.0011363699329835681 -0.0090921374849965535 0 0.0010743417587645457 -0.0092625702997992006 0 0.00089609668247126839 -0.0092661921230578793 0 0.00093332616868141167 -0.0091397682366666805 0 0.00098397693281886199 -0.0093992024529710658 0 0.0010743417587645457 -0.0092625702997992006 0 0.00089609668247126839 -0.0092661921230578793 0 0.0010743417587645457 -0.0092625702997992006 0 0.00093332616868141167 -0.0091397682366666805 0 0.0011363699329835681 -0.0090921374849965535 0 
</DataArray>
</PointData>
<CellData Scalars="region_id,cross_section_updated," Vectors="" Tensors="stress,">
<DataArray type="Float64" Name="region_id" format="ascii">
5 5 5 5 5 5 6 5 5 5 6 5 5 5 6 5 5 5 5 5 5 6 6 5 5 5 5 6 6 5 6 6 5 6 5 5 5 6 5 5 6 5 5 5 5 5 5 5 6 5 5 5 5 5 5 5 5 6 5 5 6 5 6 5 6 5 6 5 5 5 5 5 5 5 5 5 5 5 5 5 5 5 5 6 5 5 5 5 5 5 5 5 6 5 5 6 6 5 5 5 5 5 5 5 5 5 5 5 5 6 5 5 5 5 5 6 5 5 6 5 5 5 5 5 5 5 5 5 5 5 5 5 5 5 5 5 5 5 6 5 5 5 5 5 6 5 5 5 5 5 5 5 5 5 5 5 5 5 5 5 5 5 5 5 5 5 5 5 5 6 5 6 5 5 5 6 5 5 5 6 5 5 5 6 6 5 5 6 5 5 5 5 6 5 5 5 5 5 6 5 5 5 5 6 5 6 5 5 6 5 5 5 6 5 5 6 5 5 5 5 5 5 5 5 5 5 6 5 5 6 5 5 5 5 5 5 5 6 5 5 5 5 5 5 5 5 5 5 5 5 5 5 5 5 5 5 5 5 5 6 5 6 5 5 5 5 5 6 5 5 5 5 5 5 5 5 6 5 5 5 6 5 5 6 5 5 5 5 6 5 5 6 5 5 5 5 5 6 5 6 5 5 5 5 5 5 5 5 5 5 5 5 5 5 5 5 5 5 6 5 5 5 5 5 6 6 5 5 5 5 5 5 5 5 5 5 6 5 5 5 5 5 5 5 5 5 6 5 5 6 6 5 5 5 6 5 5 6 5 5 5 5 5 5 5 5 5 5 5 5 5 5 5 6 5 5 5 5 5 5 5 5 6 5 5 6 5 5 5 5 6 5 5 5 5 5 5 5 5 5 5 5 5 5 5 6 6 5 5 6 6 5 6 5 6 5 6 5 5 6 5 5 5 5 5 5 5 5 5 6 6 5 5 6 5 5 5 5 5 6 5 5 6 5 5 5 5 6 5 5 5 6 5 5 5 6 5 6 5 5 6 5 5 5 5 5 5 5 5 5 5 5 6 5 5 5 5 5 5 6 5 5 5 6 5 5 5 5 5 5 5 6 5 5 5 5 5 6 5 6 5 5 5 5 5 6 6 5 5 5 6 6 5 6 5 5 5 5 5 5 5 6 5 5 5 5 5 5 5 5 5 5 5 5 5 5 6 5 5 6 5 6 5 5 5 5 5 5 5 5 5 5 5 5 5 5 6 5 5 5 5 5 5 5 5 5 5 5 5 5 5 5 5 6 5 5 5 5 5 5 5 5 5 5 5 6 6 5 5 5 5 5 5 5 5 5 5 5 5 5 5 5 5 6 5 5 5 5 5 5 5 6 5 5 5 5 5 5 5 5 6 5 5 5 6 5 5 5 5 5 5 5 5 5 5 5 5 5 5 5 5 5 5 5 5 5 5 5 5 5 5 5 5 6 5 6 5 5 5 5 5 5 5 5 5 5 5 5 5 6 5 5 5 6 5 5 5 5 5 5 5 5 5 5 5 5 5 6 6 5 5 5 5 5 5 5 6 5 5 5 5 5 5 5 5 5 5 5 6 5 5 5 5 5 5 5 6 5 5 5 5 5 5 5 5 5 5 5 5 5 5 5 5 5 6 5 5 5 5 5 5 5 5 5 5 6 5 5 5 5 5 6 5 5 5 6 5 5 5 5 6 5 5 5 5 5 5 5 6 5 6 5 5 6 5 6 5 5 5 5 5 5 5 5 5 5 5 5 5 5 5 5 5 5 5 5 5 5 5 5 5 5 5 5 5 5 5 5 5 5 5 6 5 6 6 5 5 5 5 5 5 5 5 5 5 5 6 5 5 5 5 5 5 5 6 5 6 5 6 5 5 5 5 5 5 6 5 6 6 5 5 5 5 5 5 5 5 5 5 5 5 5 5 5 5 5 6 5 5 5 5 5 5 5 5 5 5 5 5 5 5 6 5 5 5 5 5 5 5 5 5 5 5 5 5 6 5 5 5 5 5 5 5 5 5 6 5 5 5 5 5 6 6 5 5 5 5 6 6 5 5 5 5 5 5 5 5 5 5 5 6 5 5 5 5 6 5 5 5 5 5 5 6 5 5 6 5 6 5 5 5 6 5 5 5 5 5 5 5 6 5 5 5 5 6 6 5 5 6 5 5 5 6 6 6 6 5 5 6 5 5 5 5 5 5 5 5 6 6 5 5 5 5 5 5 6 5 6 5 5 5 6 5 5 5 5 5 5 5 5 5 5 5 5 5 5 5 5 5 5 5 5 5 5 5 5 5 5 5 5 6 5 5 5 5 5 5 5 5 5 5 5 5 5 5 5 5 5 5 5 5 5 6 5 5 5 5 5 5 5 5 5 6 5 5 5 5 5 5 6 5 5 5 5 5 6 5 5 5 5 5 6 5 5 5 5 5 5 5 5 5 5 6 5 5 5 5 6 6 5 5 6 5 5 5 5 6 5 5 6 5 5 5 5 5 6 6 5 5 5 5 5 5 6 5 5 5 5 5 5 5 6 6 5 5 5 6 5 5 5 6 5 5 6 5 6 5 5 5 6 5 5 6 6 5 5 5 5 5 5 6 5 6 5 6 5 5 5 6 6 5 6 5 5 5 5 5 5 5 5 5 5 5 5 5 5 5 5 6 5 5 5 5 5 5 5 6 5 5 5 5 5 6 5 5 5 6 5 5 5 5 6 5 6 5 6 5 5 5 5 6 5 5 6 5 5 5 5 5 5 5 5 5 5 5 6 5 5 5 5 6 5 5 5 5 6 5 5 5 5 5 5 6 5 5 5 6 5 6 6 5 5 5 5 5 5 5 5 5 5 5 5 5 5 5 5 5 5 5 5 5 5 5 5 5 5 5 5 6 5 5 6 6 5 6 5 5 5 5 6 5 5 6 5 5 5 5 5 5 5 5 5 5 5 5 5 5 5 5 5 5 5 5 5 5 5 5 5 5 5 5 6 5 5 5 5 5 5 5 5 6 5 5 5 5 5 5 5 6 5 6 5 5 5 6 5 5 5 5 5 5 5 6 5 6 5 5 5 5 5 6 5 5 5 5 5 5 5 5 5 5 5 5 5 5 5 5 5 5 5 5 5 5 5 5 5 5 5 5 5 5 5 5 5 5 5 5 5 5 5 6 6 5 5 6 5 5 5 6 5 5 5 6 6 5 5 6 5 5 5 5 5 5 5 5 5 5 5 5 5 5 5 5 5 5 5 5 5 6 5 6 5 5 5 5 5 5 5 5 5 5 5 5 5 5 5 5 5 5 5 5 5 5 5 5 5 5 5 5 5 5 5 5 5 5 5 5 5 5 5 5 5 5 5 5 5 6 5 6 5 6 5 5 6 5 5 5 5 5 5 5 5 5 5 5 5 5 5 5 5 5 5 5 5 5 5 5 5 5 5 5 6 5 5 5 5 5 5 5 5 5 5 5 5 5 5 5 5 5 5 5 5 5 5 5 5 5 5 5 5 5 5 5 5 5 5 5 5 5 5 5 5 5 5 5 5 5 5 5 5 5 6 5 5 5 5 6 5 5 5 5 5 5 5 5 6 5 5 5 5 5 6 6 6 5 5 5 5 6 6 5 5 6 5 5 5 5 5 5 5 5 5 5 5 5 5 5 6 6 5 6 5 5 5 5 5 5 5 5 5 5 5 5 5 5 5 5 5 5 6 5 5 5 5 5 5 6 5 5 5 5 5 5 5 5 5 5 5 5 5 5 5 5 5 5 6 5 5 5 5 5 5 5 5 5 6 5 5 6 5 5 5 5 5 5 5 5 5 5 5 5 5 5 5 5 6 5 6 5 5 5 5 6 5 6 5 5 6 6 5 5 6 5 5 5 6 5 5 5 5 5 5 6 5 5 5 6 5 5 5 5 6 5 5 5 5 5 5 5 6 5 5 5 5 5 6 5 5 6 5 5 5 5 5 5 5 6 5 5 5 6 6 5 5 5 6 5 5 5 5 5 6 6 6 5 5 5 5 5 5 5 5 5 6 6 5 6 5 5 5 5 5 6 5 5 6 5 6 5 5 5 6 5 5 6 5 5 5 5 5 5 5 6 5 5 6 6 5 5 6 5 6 5 5 6 5 5 6 5 6 5 5 5 6 5 5 6 5 6 5 5 6 5 6 5 5 5 5 6 6 5 5 5 5 5 5 5 5 5 6 5 5 5 5 5 5 5 5 5 5 5 5 5 5 5 5 5 5 6 6 5 5 5 6 5 5 5 5 6 5 5 6 5 5 5 6 5 5 6 5 5 5 5 6 5 5 5 5 5 6 5 5 5 6 6 5 5 6 5 5 5 5 5 6 6 5 5 5 5 6 5 5 5 5 6 5 5 5 5 5 5 5 5 5 5 5 5 5 5 5 5 5 5 5 5 5 5 5 5 5 5 5 5 6 5 5 5 5 5 5 5 5 5 5 5 6 5 5 5 5 6 5 5 5 6 5 5 6 5 5 5 5 5 6 5 5 5 5 5 5 5 5 5 5 5 5 5 5 5 5 5 5 5 5 6 5 5 5 5 5 6 5 5 5 5 5 5 5 6 5 5 5 5 5 5 5 5 5 5 5 5 5 6 5 5 5 5 5 6 6 5 5 5 5 6 5 6 5 5 5 6 6 5 5 6 5 5 5 6 5 5 5 5 6 5 5 6 6 5 5 5 5 5 5 6 5 5 6 5 5 5 5 6 5 5 5 5 5 5 5 5 5 5 5 5 5 5 5 5 5 5 5 6 5 6 5 5 5 6 5 6 5 6 5 5 6 5 5 6 6 6 5 5 5 6 5 5 5 5 5 5 6 5 5 5 5 5 5 5 6 5 6 5 5 5 5 5 5 5 6 5 5 5 5 5 5 5 5 5 5 5 6 5 5 6 5 5 5 5 5 5 5 5 5 5 5 5 5 5 5 5 6 5 5 5 5 5 5 5 5 5 5 5 5 5 5 5 5 5 5 5 5 5 6 5 5 5 6 5 5 5 5 5 5 5 5 5 5 6 5 5 5 5 5 5 5 5 5 5 6 5 5 5 5 5 5 6 5 5 5 6 5 5 5 5 5 5 5 5 5 5 5 5 5 5 5 5 5 5 5 5 5 6 5 5 5 5 5 6 5 5 6 5 5 5 5 5 5 6 5 5 5 5 6 5 5 5 5 5 5 5 5 5 5 5 5 5 5 5 5 5 5 6 5 5 5 5 5 6 5 5 5 6 5 6 5 5 5 5 5 5 5 6 5 5 5 6 6 5 5 5 5 5 6 5 5 5 6 5 5 5 5 5 5 5 5 5 5 5 5 5 5 5 6 5 5 5 5 5 5 6 5 5 5 5 5 5 5 5 5 5 5 6 5 5 5 5 5 5 5 5 5 6 5 5 5 5 6 6 5 5 5 5 5 5 5 5 6 6 5 6 5 5 5 5 5 6 5 5 5 5 5 5 6 5 6 5 5 5 5 5 5 5 5 5 5 6 5 5 5 5 5 5 6 5 5 5 5 5 5 5 5 6 5 5 5 5 5 6 5 5 6 5 5 5 5 5 5 6 5 5 5 5 5 5 5 5 6 5 5 5 5 6 5 5 5 5 5 5 5 5 5 5 6 5 5 5 5 5 5 5 5 5 6 5 5 5 5 6 5 5 5 5 5 5 5 5 6 5 6 5 5 5 6 5 5 5 5 5 5 5 5 6 5 5 5 6 5 5 5 6 5 5 6 5 5 5 5 5 5 5 5 5 5 5 5 5 5 5 5 5 5 5 5 5 5 5 5 5 5 5 5 5 5 5 5 5 5 5 5 5 5 5 5 5 5 5 5 5 5 5 5 5 5 5 5 5 6 5 5 5 6 5 5 5 5 5 5 6 5 6 5 5 5 5 6 6 5 5 5 5 5 5 5 5 5 5 5 5 5 5 5 5 5 5 5 5 5 5 6 5 5 6 5 5 5 6 5 5 5 5 5 5 5 5 5 5 5 5 5 5 6 5 6 5 6 5 5 5 5 5 5 5 5 5 5 5 5 5 5 5 5 5 6 5 5 5 5 5 5 5 5 5 5 5 5 5 5 5 5 5 5 5 5 5 5 5 5 5 5 5 5 5 5 5 5 5 6 5 5 5 5 5 5 6 5 5 6 5 6 5 5 6 5 5 5 6 5 5 5 5 5 5 5 5 5 5 5 5 5 5 5 5 5 5 5 5 5 5 5 5 5 6 5 5 5 5 6 5 5 6 5 5 5 5 5 5 5 5 5 5 5 5 5 5 5 5 5 5 5 5 5 5 5 5 5 5 5 5 5 5 6 5 5 5 6 5 5 5 5 6 5 5 5 5 5 6 5 5 5 5 6 5 5 5 5 5 5 5 5 5 5 5 5 5 5 6 6 5 6 5 6 5 5 5 5 5 5 5 5 5 5 5 5 5 5 5 5 5 5 5 5 5 5 5 5 5 6 6 5 5 6 5 5 6 5 5 5 5 5 5 5 5 5 5 5 6 5 5 6 5 5 5 5 5 5 5 5 5 5 5 5 5 5 6 6 5 6 6 5 5 5 5 6 5 5 5 6 6 5 5 5 5 5 5 5 6 5 5 5 5 5 5 5 5 5 5 5 5 5 5 5 5 6 5 5 5 5 6 5 5 5 5 5 5 5 6 5 5 5 5 5 5 5 6 5 5 6 5 5 5 5 5 5 5 5 5 5 5 5 5 5 5 6 5 5 5 5 5 5 5 5 6 5 5 5 5 5 5 5 6 5 5 5 5 5 6 5 5 5 5 6 5 5 5 5 5 5 5 5 5 5 5 5 6 5 5 5 5 5 5 5 5 5 5 5 5 5 5 6 5 5 5 5 5 5 5 5 5 5 5 5 5 6 6 5 5 6 5 5 5 5 6 5 5 5 6 5 5 6 5 5 5 5 6 5 5 5 5 5 5 5 5 5 5 5 5 5 5 5 5 5 5 5 5 5 5 5 5 5 5 5 5 5 5 5 5 5 5 6 5 5 5 6 5 6 5 5 5 5 5 5 5 5 5 5 5 5 5 5 6 5 5 5 5 5 5 5 5 6 5 5 5 6 5 5 5 5 5 5 5 6 5 6 5 5 5 5 5 5 5 5 5 5 5 5 5 5 6 5 5 6 5 5 5 5 5 5 5 6 5 5 5 5 5 5 5 5 5 5 5 5 5 5 5 5 5 5 5 5 5 5 5 5 5 5 5 6 5 5 6 5 5 5 6 5 5 6 5 5 5 5 5 5 5 5 5 5 5 5 5 5 5 5 5 5 5 6 5 5 5 5 5 5 5 5 5 5 5 5 5 6 5 5 5 5 5 5 5 5 5 5 5 5 5 5 5 5 5 5 5 6 5 5 5 5 5 5 5 5 5 5 5 5 5 5 5 5 6 5 5 6 5 5 5 6 5 5 6 5 5 5 5 5 5 5 5 5 5 5 5 5 5 6 5 5 6 5 5 5 5 5 5 5 5 5 5 5 5 5 5 5 5 5 5 5 5 5 5 5 5 5 5 5 5 5 5 5 5 5 5 5 5 6 5 5 5 5 6 5 5 5 5 5 5 5 5 5 5 5 5 5 5 5 6 5 6 6 5 5 6 5 6 5 5 5 5 5 5 5 5 6 5 5 6 5 5 5 5 6 6 5 6 5 5 5 5 5 5 5 5 5 5 5 5 5 5 5 5 5 5 5 5 5 6 5 5 5 5 5 5 5 5 5 5 5 5 5 5 5 5 5 5 5 5 5 5 5 5 5 6 5 5 5 5 5 6 5 5 5 5 5 5 5 5 5 6 5 5 5 5 5 5 5 5 5 5 5 5 5 5 5 5 5 6 6 5 5 6 5 5 5 6 5 5 5 5 5 5 5 5 5 5 6 5 5 6 5 6 5 5 5 5 6 5 5 5 6 5 5 5 5 5 5 6 5 5 5 5 5 5 6 5 5 5 5 5 5 5 5 5 5 5 5 5 5 6 5 5 6 5 5 5 6 6 5 5 5 5 5 5 5 5 5 5 6 5 5 5 6 5 5 5 5 6 5 5 5 5 5 5 5 5 6 5 5 5 5 5 6 6 5 5 5 6 5 6 6 5 5 5 5 5 6 5 5 5 5 5 5 6 5 5 5 5 5 5 5 6 5 5 6 5 5 6 5 5 5 5 5 5 5 5 5 5 5 5 5 5 6 5 5 5 6 5 5 6 5 5 5 5 6 5 5 5 5 5 5 5 5 6 5 5 5 5 6 5 5 5 5 5 5 5 5 6 5 5 5 5 5 5 5 5 5 6 5 5 5 6 5 5 6 5 5 6 5 5 5 5 5 5 5 5 5 6 5 5 5 5 5 5 5 5 5 5 5 5 5 5 5 5 6 5 5 5 5 5 5 5 5 5 5 5 5 5 5 5 5 5 5 5 5 5 5 5 5 5 5 6 5 6 5 5 5 5 5 5 5 5 5 5 6 5 5 6 5 5 5 5 5 5 5 5 5 5 5 5 5 5 5 5 5 5 5 5 5 6 5 5 5 5 5 5 5 5 5 6 5 6 5 5 5 5 5 5 5 6 5 6 5 5 5 5 5 5 5 5 5 5 5 6 5 5 5 5 6 5 6 5 5 5 5 5 5 6 5 5 6 5 5 6 5 5 5 6 6 6 5 5 5 5 5 5 5 5 5 5 5 5 5 6 5 5 5 5 5 5 5 6 5 6 5 6 5 5 6 6 5 5 5 5 5 5 6 5 5 5 5 6 5 6 5 6 5 6 5 5 5 5 6 5 5 5 5 5 6 5 5 5 5 5 5 5 5 5 5 5 5 5 5 6 5 5 5 5 5 6 5 5 5 6 5 5 5 5 5 5 5 5 5 5 5 5 5 5 5 5 5 6 5 5 5 5 6 5 5 5 5 5 5 6 5 5 5 5 5 5 5 5 5 5 6 5 5 6 5 6 5 5 5 5 5 5 5 5 5 5 5 6 5 5 5 5 5 5 6 5 6 6 5 6 5 5 5 5 5 5 5 6 5 5 5 5 5 5 5 5 5 5 5 5 5 5 5 5 6 5 5 5 5 5 5 5 5 5 5 6 5 5 5 5 5 5 5 5 5 5 6 5 5 5 5 6 5 5 5 5 5 6 5 5 5 5 6 5 5 5 5 5 5 5 5 5 5 5 5 5 5 5 5 5 5 6 5 5 5 5 5 5 5 5 6 5 6 6 5 5 5 5 5 6 5 5 5 5 5 5 5 5 5 5 5 5 5 5 6 5 5 6 5 6 6 5 5 5 5 5 5 6 5 5 5 5 6 5 6 5 5 6 5 5 5 5 5 5 6 6 5 5 5 5 5 5 5 5 5 5 5 5 5 5 5 6 5 5 5 5 5 5 5 6 5 6 5 5 5 6 5 6 5 5 5 5 5 5 5 5 6 5 5 5 5 5 6 5 6 5 5 5 5 6 5 5 5 5 5 6 5 5 5 5 5 5 5 5 5 5 5 5 5 5 5 5 5 5 5 5 5 5 5 5 6 5 5 5 6 5 6 5 5 5 6 5 5 5 5 5 5 5 5 5 5 5 5 5 5 5 5 5 6 6 6 6 5 5 5 5 5 5 6 5 5 5 6 5 5 5 5 5 5 5 5 5 5 6 6 6 5 5 6 6 5 5 5 5 5 5 5 5 5 6 5 5 5 5 5 5 5 5 6 6 5 5 5 6 5 5 5 5 5 5 5 5 5 5 5 6 5 6 5 5 5 5 5 6 6 5 5 6 6 5 5 5 5 5 5 5 5 5 5 5 5 5 5 5 5 5 5 5 5 5 5 5 5 5 5 5 5 5 5 5 5 5 5 5 5 5 5 5 5 5 5 6 6 5 5 5 5 5 5 5 5 5 5 5 5 5 5 5 5 5 5 5 5 6 5 5 5 5 5 5 5 5 5 5 5 5 5 5 5 5 6 5 6 5 5 5 5 5 5 5 5 6 5 5 5 5 5 5 5 5 5 5 5 6 5 5 6 5 5 6 5 5 5 5 6 5 5 5 5 6 5 5 6 5 6 5 5 5 5 5 6 5 5 5 5 5 5 5 6 5 5 5 5 5 5 5 5 5 5 5 5 5 5 5 5 5 5 5 5 5 5 5 5 6 5 5 5 6 5 5 6 5 5 5 6 5 5 5 5 6 5 6 5 5 5 5 5 5 5 5 6 5 5 5 5 5 5 5 5 5 5 6 5 5 6 5 5 6 5 5 6 6 5 5 5 5 5 5 5 6 6 5 5 5 6 5 5 6 6 5 5 5 6 6 5 6 5 5 6 5 5 5 5 6 5 6 6 5 5 5 6 5 6 6 5 6 6 6 6 5 6 5 6 5 6 5 5 5 6 5 5 6 5 6 6 5 5 5 5 6 5 6 6 5 5 5 6 6 5 5 6 6 5 5 5 5 6 5 5 5 5 6 5 5 5 5 6 5 6 5 6 5 6 5 6 5 6 5 5 5 5 5 6 5 5 6 6 6 5 5 6 6 5 6 5 5 6 5 5 5 5 5 5 6 5 5 6 5 6 5 5 5 5 6 5 6 5 6 5 5 5 6 5 5 6 5 6 5 6 5 5 5 5 5 6 5 5 5 5 5 5 5 5 5 5 6 5 5 5 5 6 5 5 6 5 5 5 5 5 6 5 5 6 5 5 5 6 5 6 5 5 5 6 5 5 5 5 6 5 5 5 5 6 6 5 5 5 5 5 5 6 5 5 6 5 5 5 5 5 5 5 5 5 5 5 5 5 5 5 5 5 5 5 5 5 5 5 5 5 5 5 5 5 5 5 5 5 5 5 5 5 5 5 5 5 5 5 5 5 5 5 5 5 5 5 5 5 5 5 5 5 5 6 5 5 5 5 5 5 5 5 5 5 5 5 6 5 5 6 5 5 5 6 5 5 5 5 5 5 5 5 5 5 5 5 5 5 5 6 5 5 5 5 5 5 5 5 5 5 5 5 5 5 5 5 6 5 5 5 5 5 5 5 5 5 5 5 5 5 6 5 5 6 5 5 6 5 6 5 5 5 5 5 5 5 6 5 5 5 5 5 5 5 5 5 5 5 5 6 5 5 5 6 5 5 5 5 5 5 5 5 5 6 5 5 5 5 5 5 6 5 5 5 5 5 5 6 5 5 5 6 5 5 5 5 5 5 5 6 5 5 5 5 5 5 5 5 5 5 6 5 5 5 5 5 5 5 5 5 5 5 5 5 5 5 5 6 5 6 5 5 5 5 5 5 5 5 5 5 6 5 6 5 5 5 5 5 5 5 5 5 5 5 6 5 5 5 5 5 5 5 5 5 5 5 6 5 5 5 5 5 5 5 6 5 5 5 5 5 5 5 6 5 5 5 5 5 5 5 5 5 5 5 6 5 5 5 5 5 5 5 5 6 5 6 5 5 5 5 5 5 5 5 5 5 6 5 5 5 6 5 5 5 5 5 5 5 5 5 6 5 5 5 5 5 5 5 5 5 5 5 5 5 5 5 5 6 5 5 5 5 5 5 5 5 5 5 5 5 5 5 5 5 5 5 6 5 5 6 5 5 6 5 5 5 5 5 6 5 5 5 5 5 5 5 5 5 5 5 5 5 5 5 5 5 5 5 5 5 5 5 5 5 5 5 5 5 5 5 5 5 5 5 5 5 5 5 5 5 5 5 5 5 5 5 5 5 5 5 5 5 5 5 5 5 5 5 6 5 5 6 5 5 5 5 5 5 5 5 5 5 5 5 5 5 5 5 5 5 5 5 5 5 5 5 6 6 5 5 5 5 5 5 5 5 5 5 5 5 5 5 5 5 6 6 5 5 5 5 5 5 5 6 5 6 5 5 6 6 5 5 5 5 5 5 5 5 5 5 5 6 5 6 5 5 5 6 5 5 5 6 5 6 5 5 5 5 5 6 6 5 5 5 5 5 5 5 5 5 5 5 5 5 5 5 5 5 5 5 5 5 5 5 5 5 5 5 5 5 5 5 5 5 5 5 5 5 5 5 5 5 5 5 5 5 5 5 5 5 5 5 5 5 5 5 5 5 5 5 5 5 5 5 5 5 5 5 5 5 5 5 5 5 5 5 5 5 5 5 5 5 5 5 5 5 5 5 5 5 5 5 5 5 5 5 5 5 5 5 5 5 5 5 5 6 6 5 6 5 6 5 5 6 5 5 5 5 6 5 5 5 5 5 5 5 6 6 6 5 5 5 5 5 6 6 5 5 5 5 5 5 5 5 5 5 5 5 5 5 5 5 5 5 5 5 5 5 5 5 5 5 5 5 5 5 5 5 5 5 6 5 5 6 5 5 5 5 5 5 5 5 5 5 5 6 5 5 5 5 5 5 5 6 5 5 5 5 5 5 5 5 5 5 5 5 5 5 5 5 6 5 5 6 5 5 5 5 5 5 5 5 5 5 5 5 5 5 5 5 5 5 5 5 5 5 5 6 5 5 6 5 5 6 5 5 5 5 5 5 5 6 5 5 5 5 5 5 6 5 5 6 5 5 5 5 6 5 6 5 5 6 5 5 5 5 6 5 6 5 5 6 5 5 5 5 5 5 5 5 5 5 5 5 6 5 5 5 6 5 5 6 5 5 5 5 6 5 5 5 5 5 5 5 5 5 5 6 5 5 5 5 5 5 5 5 5 5 6 5 5 5 5 5 5 5 5 5 5 5 5 6 5 5 6 5 5 5 5 5 5 5 5 5 5 6 5 5 5 5 5 6 5 6 6 5 5 6 5 5 5 5 5 5 5 5 5 6 6 5 5 5 5 5 5 6 5 5 5 5 5 5 5 5 5 5 5 5 5 5 5 5 5 5 5 5 5 5 5 5 5 6 5 5 5 5 5 5 5 5 5 5 5 5 5 5 5 5 5 5 5 5 5 5 5 5 5 5 5 5 5 5 5 5 5 5 5 5 5 5 5 5 6 5 5 5 5 5 5 5 5 5 5 6 5 5 5 6 5 6 5 5 5 6 5 5 5 6 5 6 5 6 5 6 6 5 5 6 5 5 5 6 5 5 5 5 5 6 5 5 5 5 6 5 5 5 6 5 5 5 5 6 5 6 5 5 5 5 5 5 5 5 5 5 5 5 5 5 6 5 5 5 5 6 5 5 6 5 5 6 6 5 5 6 5 6 5 5 5 6 6 6 6 5 5 6 5 5 5 5 6 5 6 5 5 6 6 6 5 6 5 5 6 6 6 5 5 5 5 5 5 5 5 5 6 6 5 5 5 5 6 6 5 5 5 6 5 6 5 5 5 5 5 5 5 5 5 5 5 6 5 5 5 5 5 5 5 5 5 5 5 5 5 5 5 5 5 5 5 5 5 5 5 6 5 5 5 5 5 5 5 5 5 5 5 5 5 5 5 5 6 5 5 6 5 5 5 5 5 5 5 5 5 6 5 5 5 6 6 5 5 6 5 5 5 5 5 6 5 6 5 5 5 6 5 5 5 5 5 5 5 6 5 5 6 5 5 5 5 6 5 5 5 6 6 5 5 6 5 5 5 6 5 5 5 5 5 5 5 6 5 5 6 5 6 6 6 5 6 5 6 6 5 5 5 5 5 5 6 5 5 6 5 5 5 5 5 5 5 5 5 5 5 5 5 5 5 5 5 5 5 5 5 5 5 5 5 5 5 5 5 5 5 5 5 5 5 6 6 5 5 5 5 5 5 5 5 6 6 6 6 5 5 6 5 5 5 5 5 5 5 5 6 5 5 6 5 5 5 6 5 5 5 5 6 5 5 5 5 5 5 5 5 5 5 5 5 5 5 6 5 5 5 5 5 6 5 5 5 5 5 5 5 5 6 5 5 5 6 6 5 5 6 6 5 5 5 5 5 6 5 5 5 5 5 5 6 5 6 5 5 5 5 5 5 5 5 6 6 5 6 6 6 5 6 5 5 5 5 5 5 6 5 5 5 5 5 5 5 6 5 5 5 5 5 5 5 5 5 5 5 5 5 5 5 5 5 5 5 5 5 5 5 5 5 5 5 5 5 5 5 5 5 5 5 5 5 5 5 5 5 5 5 5 5 5 5 5 5 5 5 5 5 5 5 5 5 6 5 5 5 5 5 5 5 6 5 5 6 5 5 5 6 5 6 5 5 6 5 5 5 5 5 5 5 6 5 5 5 6 5 5 5 5 5 5 5 6 5 6 5 5 5 5 5 5 5 5 5 5 5 5 5 5 5 5 5 5 5 5 5 5 5 5 5 6 6 5 6 5 5 5 5 5 5 5 6 5 6 5 6 6 6 5 5 6 5 5 6 5 5 5 6 5 5 5 5 5 5 5 6 6 5 5 6 5 5 5 6 5 5 5 5 6 5 6 5 5 5 5 5 5 6 5 6 5 5 5 5 5 6 5 5 6 5 5 5 5 5 5 5 5 5 5 5 5 5 5 5 5 6 5 5 6 6 5 6 5 5 5 5 5 5 5 5 6 5 5 5 5 5 5 5 5 5 5 5 5 5 5 5 5 6 5 5 5 6 5 5 6 5 5 5 5 5 5 6 5 5 5 5 5 5 5 5 5 5 5 5 5 5 5 5 5 5 5 6 6 5 5 5 5 5 5 5 6 5 5 5 6 5 5 6 5 6 5 5 6 5 6 6 5 6 5 6 5 6 5 5 5 5 5 5 5 5 5 5 5 5 5 5 5 6 6 5 5 5 5 5 5 5 6 5 5 5 5 5 5 5 5 5 5 5 5 5 5 5 6 5 6 5 5 5 5 5 5 6 5 5 5 6 5 5 5 6 5 5 5 5 5 5 5 5 5 5 5 5 5 5 5 5 5 5 5 5 5 6 5 5 5 5 6 5 5 5 5 5 6 5 5 5 6 5 5 5 5 5 5 5 5 5 5 5 5 6 5 5 5 5 6 5 5 5 5 5 5 5 5 6 5 5 5 5 5 5 5 6 5 5 5 5 6 5 5 5 5 5 5 5 5 6 5 5 5 5 5 5 5 5 5 6 5 5 5 5 5 5 5 5 5 5 5 5 5 5 5 5 5 5 5 5 5 5 5 5 5 5 5 5 6 5 5 5 5 5 5 5 6 5 5 5 5 5 5 5 5 5 5 5 5 5 5 5 5 5 5 5 5 5 5 5 5 5 5 5 5 5 6 5 5 5 5 5 5 5 5 5 5 5 5 5 5 5 5 5 5 5 5 5 5 5 5 5 5 5 5 5 5 5 5 6 5 5 6 5 5 5 5 6 5 5 6 5 5 5 5 6 5 5 5 6 5 5 5 6 5 5 5 5 5 5 5 5 5 5 6 5 5 6 5 5 5 5 5 5 6 5 5 5 5 5 6 5 5 5 5 6 5 5 5 5 5 5 5 5 5 5 6 5 5 5 5 5 5 5 5 5 6 5 5 5 5 5 5 5 5 5 5 5 5 5 6 5 5 5 5 5 5 5 6 5 5 5 5 5 6 5 5 5 5 5 5 5 5 5 5 5 5 5 5 6 5 5 5 5 5 5 5 5 6 5 5 5 5 5 5 5 5 5 5 5 5 5 5 5 5 5 5 5 5 5 5 5 5 5 5 5 5 5 5 5 5 5 6 5 5 5 5 6 6 5 5 6 5 5 6 5 5 6 5 5 5 5 5 5 5 5 5 5 5 5 5 5 5 5 5 5 5 6 5 5 5 5 6 5 5 5 5 5 5 5 5 5 5 5 5 5 5 5 5 5 5 5 5 5 5 5 5 5 5 5 5 5 5 5 5 5 5 5 5 5 5 5 5 5 5 5 5 5 5 5 5 5 5 5 5 5 5 5 5 5 5 5 5 5 5 5 5 5 5 5 5 5 5 5 6 5 5 5 5 6 5 6 5 5 6 5 5 5 5 6 5 5 6 5 5 5 5 5 5 5 5 5 5 5 5 5 5 5 5 5 5 5 5 5 5 5 5 5 5 5 5 5 5 5 5 5 5 5 5 5 5 5 5 5 5 5 5 5 5 5 5 5 5 5 5 5 5 5 5 5 5 5 5 6 5 5 5 5 5 5 5 5 5 6 5 5 5 5 5 5 5 6 5 5 5 5 5 5 5 5 5 5 5 5 5 5 5 5 5 5 5 6 6 5 5 6 5 6 5 5 5 5 5 5 5 5 5 5 5 5 5 5 5 5 5 5 5 5 5 5 5 5 5 5 5 5 5 5 5 5 5 5 5 5 5 5 5 5 5 5 5 5 5 5 5 5 5 5 5 5 5 5 5 6 6 5 5 5 5 5 5 5 5 5 5 5 5 5 5 5 5 5 5 5 5 6 5 5 5 5 5 5 5 5 5 5 6 5 5 5 6 5 5 5 5 5 5 6 5 5 5 5 5 5 5 5 5 5 5 5 5 6 5 5 5 5 5 5 6 6 5 6 5 5 6 5 5 5 6 5 5 5 6 5 5 5 5 5 6 5 6 5 5 5 5 6 5 5 5 5 6 5 6 5 5 6 6 5 5 5 5 5 6 5 5 5 5 5 6 6 6 5 6 5 6 5 5 5 5 5 6 5 5 5 5 5 5 5 5 6 6 5 5 6 5 5 5 5 6 5 5 6 5 5 6 5 5 5 5 5 5 5 5 5 6 5 5 5 5 5 5 5 5 6 5 5 5 5 5 5 5 5 5 6 6 5 5 5 5 5 5 5 5 5 5 5 5 5 5 5 5 5 5 5 5 5 5 5 5 5 5 5 5 5 5 5 5 5 5 5 6 5 5 5 5 6 5 5 5 5 5 5 5 5 5 5 5 5 5 5 5 5 6 6 5 5 5 5 5 5 5 5 5 6 5 5 5 5 6 5 5 6 5 5 5 5 5 5 5 5 5 5 5 5 5 6 5 5 5 5 5 5 5 5 5 5 5 5 5 5 5 5 5 5 5 5 5 5 5 5 5 6 5 5 5 5 5 6 5 5 5 6 5 5 5 6 6 5 5 5 5 5 5 5 5 5 5 5 5 5 5 6 5 5 5 6 5 5 5 5 6 6 5 5 5 5 5 5 5 5 5 5 5 5 5 5 5 5 5 5 5 5 5 5 5 6 5 5 5 5 5 5 5 5 5 6 5 5 5 5 6 5 6 5 5 5 5 6 5 5 5 5 5 5 5 5 5 5 5 5 5 5 5 6 5 5 6 5 5 5 5 5 5 5 5 5 5 6 6 5 5 5 5 6 5 5 5 6 5 5 5 5 6 6 5 6 5 6 5 6 5 5 6 5 5 6 5 5 6 5 5 5 6 5 5 6 5 6 5 6 5 5 6 5 5 5 5 5 5 5 5 5 5 5 5 5 6 5 5 5 5 5 5 5 5 5 5 5 5 5 5 5 5 6 6 5 5 5 5 5 6 5 5 5 5 6 5 5 6 5 5 5 5 6 5 5 5 5 5 5 5 5 5 5 5 5 5 5 5 5 5 5 5 5 5 5 5 5 5 5 5 5 5 5 5 5 5 5 5 5 5 5 6 5 5 5 5 5 5 5 5 5 5 5 5 5 6 5 6 5 5 5 5 6 5 5 5 5 5 5 5 5 5 5 5 5 5 5 5 5 5 5 6 5 6 5 5 6 5 5 5 6 5 5 5 5 5 5 5 5 5 5 5 5 5 5 5 5 5 5 5 5 5 5 5 5 5 5 5 6 5 5 6 5 5 5 5 5 5 5 5 5 5 5 5 5 5 5 5 5 5 5 5 5 5 5 5 5 5 5 5 5 5 5 5 5 5 5 6 5 6 5 5 5 5 5 5 5 5 5 5 5 5 5 5 5 5 5 6 6 5 5 5 5 5 6 5 5 5 5 6 5 5 5 5 6 5 5 5 5 5 5 5 5 5 5 5 5 5 5 5 5 5 5 6 5 5 5 5 5 5 6 5 5 6 5 5 5 5 5 5 5 5 5 5 5 5 6 5 5 6 5 5 5 5 5 5 5 5 6 5 5 5 5 5 5 6 5 5 6 5 5 5 5 5 5 5 5 5 5 5 5 5 5 5 5 5 5 5 5 5 5 5 5 5 5 5 5 5 5 5 5 5 5 5 5 6 5 5 5 6 5 5 6 5 5 5 5 5 5 6 5 5 5 5 5 6 5 5 5 5 5 5 6 5 5 5 5 6 5 6 5 5 6 5 5 5 6 5 5 5 5 5 5 5 5 5 5 5 5 5 6 5 5 5 5 5 5 5 5 5 5 5 5 5 5 5 5 5 5 5 5 5 5 5 5 6 5 6 5 6 5 6 5 5 5 5 6 5 5 5 5 6 5 5 5 5 5 5 5 5 5 5 5 5 5 5 6 5 5 5 6 5 5 5 6 5 5 6 5 5 5 6 5 5 5 5 6 5 5 5 5 6 5 5 5 5 5 5 5 5 5 5 6 5 5 5 5 5 6 5 6 5 5 5 5 5 6 6 5 5 6 5 6 5 5 6 5 5 5 5 5 5 5 5 5 5 5 5 5 6 5 5 5 5 5 6 5 5 5 5 5 5 5 5 5 5 6 5 6 5 5 6 5 5 6 5 6 5 6 5 5 5 5 5 6 6 5 5 5 5 5 5 5 5 5 5 5 6 5 5 5 5 5 6 5 5 5 6 5 6 5 5 5 5 5 5 5 5 5 5 5 5 5 5 5 6 5 5 5 5 6 5 5 5 5 5 5 5 5 5 5 5 5 5 5 5 5 5 5 5 5 5 5 5 6 5 5 6 5 5 5 5 5 5 5 6 5 5 6 5 6 5 5 5 5 5 5 5 5 5 6 5 5 6 5 5 5 6 5 5 5 5 5 5 5 6 5 5 5 5 6 6 5 5 5 5 5 5 5 5 5 6 5 5 5 5 5 5 5 5 5 5 5 5 5 5 5 5 6 5 6 5 5 5 6 5 5 5 5 5 5 5 5 5 5 5 5 5 6 5 5 5 5 5 6 5 5 5 6 6 5 5 5 6 5 5 6 5 5 5 5 6 6 5 5 5 6 5 5 6 5 5 5 5 6 5 6 5 5 5 6 5 5 5 5 5 5 5 5 5 5 5 5 5 5 5 5 5 5 5 5 5 6 5 5 5 5 5 5 5 5 5 6 5 5 5 6 5 6 5 5 5 5 5 5 5 5 5 5 5 6 5 5 5 5 5 6 5 5 5 5 5 6 5 5 5 5 5 5 5 5 5 5 5 5 5 5 5 5 6 5 5 5 5 5 5 5 5 5 6 5 5 5 5 5 5 5 5 5 5 5 5 5 5 5 6 5 5 5 5 5 5 5 5 5 5 5 5 5 5 5 5 5 5 5 5 5 5 5 5 5 5 5 5 5 6 5 5 5 5 6 5 6 6 5 5 5 5 5 5 6 5 6 5 5 5 6 5 5 6 5 5 5 5 5 5 6 5 5 5 5 5 5 5 6 5 5 5 5 6 5 5 5 5 5 5 6 5 5 5 5 5 5 5 5 5 5 5 5 6 5 6 5 5 5 5 5 5 5 6 6 5 5 5 5 5 5 5 5 6 5 5 5 6 5 5 6 5 5 5 5 5 5 5 5 5 5 5 5 5 5 5 5 5 5 5 5 5 5 5 5 5 6 5 5 6 5 5 5 5 5 6 5 5 6 5 6 5 5 5 6 5 5 5 5 6 5 5 6 6 5 5 5 5 5 6 5 5 6 5 5 5 5 5 6 5 5 5 5 5 5 5 5 5 6 5 5 5 5 6 5 5 5 5 5 5 6 5 6 5 5 5 6 5 6 5 5 6 5 6 5 5 5 6 5 5 5 5 5 5 5 5 5 5 5 5 5 6 5 5 5 5 6 5 5 5 5 5 5 6 5 5 5 5 5 5 5 6 5 5 5 5 5 5 6 5 5 5 5 5 5 5 6 5 5 6 5 5 5 5 5 5 5 5 5 6 6 5 5 5 5 5 5 5 5 5 5 5 5 6 5 5 5 5 5 5 5 6 5 5 5 6 5 6 5 5 6 5 5 5 5 5 6 5 5 5 6 5 5 5 5 6 5 5 5 6 5 5 5 5 5 5 5 6 5 5 6 5 5 5 6 5 5 5 6 5 5 5 5 6 5 5 5 6 5 5 5 5 5 5 5 5 5 6 5 5 5 5 5 5 5 5 5 6 5 5 5 5 6 5 5 6 5 5 5 5 5 5 5 5 5 5 5 5 5 5 5 5 5 5 5 5 5 5 5 5 5 5 6 5 5 5 5 5 5 5 5 5 5 5 6 5 5 5 6 5 5 5 5 5 5 6 5 5 5 5 5 5 5 5 5 5 5 5 5 5 5 5 5 5 5 5 5 5 5 5 5 5 6 5 6 5 5 6 6 5 5 5 5 5 5 5 5 5 5 5 5 5 5 5 5 5 6 5 5 5 5 5 5 5 5 5 5 5 5 5 5 5 5 5 5 5 5 5 5 5 5 5 5 5 5 5 5 5 5 5 5 5 5 5 5 5 5 5 5 5 5 5 5 5 5 5 5 5 5 5 5 5 5 5 5 5 5 5 6 5 5 6 5 5 5 5 6 5 5 5 5 5 5 5 5 5 5 6 5 6 5 5 5 6 5 5 5 6 5 6 5 5 5 6 5 6 5 6 5 5 5 6 5 5 5 5 6 5 6 5 5 5 5 5 6 5 6 6 5 5 5 5 5 5 6 5 5 5 6 5 5 5 5 5 5 5 5 5 5 5 5 5 5 5 5 5 5 5 6 5 5 5 6 6 5 5 5 5 5 6 5 5 5 5 5 5 5 5 5 5 5 5 5 5 6 5 5 6 5 6 5 5 5 6 5 6 5 5 6 5 5 5 5 5 5 5 5 5 5 5 6 5 5 5 5 5 5 5 5 5 5 6 6 5 5 5 5 5 5 5 6 5 5 5 5 5 5 5 5 5 5 5 5 5 5 6 5 5 5 5 5 5 5 5 5 5 6 5 5 5 6 5 6 6 5 5 5 5 5 5 5 5 6 5 5 5 5 5 5 5 5 5 6 5 6 5 6 5 5 5 5 5 5 5 5 6 5 6 5 5 5 5 5 5 6 5 5 6 5 6 5 5 5 5 5 5 5 5 5 5 5 5 5 5 6 5 5 5 5 5 5 5 5 5 5 6 5 5 5 5 5 5 6 5 5 5 5 5 5 5 5 5 5 5 5 5 5 5 5 5 5 5 5 5 5 5 5 5 6 5 5 5 5 5 6 5 5 5 5 5 5 5 5 5 5 5 6 5 5 5 5 6 5 5 5 5 5 6 5 5 5 5 5 6 5 5 6 5 5 5 5 5 5 5 5 5 5 5 5 5 5 5 5 5 5 5 5 5 5 5 5 5 5 6 5 5 6 5 5 5 5 5 5 5 5 5 5 5 5 5 5 5 6 5 5 5 5 5 5 5 5 5 6 5 5 5 5 5 5 5 6 5 5 5 5 5 6 5 5 5 5 5 5 6 5 5 5 5 6 5 5 5 5 5 5 5 6 5 5 6 5 5 6 5 5 5 5 6 5 5 5 5 5 5 5 5 6 5 5 6 5 5 5 5 5 5 5 5 5 6 5 5 5 5 5 6 5 5 5 5 6 5 5 5 6 5 5 5 5 5 5 5 5 5 5 5 6 6 5 5 5 5 5 5 5 5 5 5 5 6 5 5 5 5 5 6 5 6 6 5 6 6 5 5 6 5 5 5 5 5 5 6 5 6 6 5 5 5 5 5 6 5 5 5 5 5 5 5 5 6 5 5 5 5 6 5 5 5 5 5 6 5 5 6 5 5 5 5 5 5 5 6 5 6 5 5 5 5 5 5 5 6 6 5 5 5 5 5 5 5 6 5 5 5 5 5 5 6 5 5 5 5 5 5 5 5 5 5 5 5 5 5 6 5 5 6 5 5 5 5 6 5 5 5 5 6 5 5 5 5 5 5 6 5 5 5 5 5 5 5 6 5 5 5 6 5 5 5 5 6 5 5 6 5 5 5 5 5 5 5 6 5 5 5 5 6 5 6 5 5 5 5 5 5 5 5 5 5 5 5 5 5 6 5 5 5 5 5 5 5 6 5 5 6 5 5 6 5 5 5 5 5 5 5 5 5 6 5 5 5 6 5 5 5 5 5 5 5 5 5 6 5 5 5 5 5 5 5 5 5 5 5 6 5 5 5 6 5 5 5 5 5 5 5 5 5 5 5 6 5 5 5 5 5 5 5 5 5 5 6 5 5 5 5 5 6 5 5 5 5 5 5 5 5 6 5 5 6 5 5 6 5 5 5 5 6 6 5 5 5 5 6 5 5 5 5 6 5 5 6 5 5 5 5 6 5 5 6 5 5 5 5 5 6 5 5 5 5 5 5 5 5 6 5 6 5 5 5 5 5 5 5 5 5 6 6 5 5 5 5 5 5 6 5 5 6 5 5 6 5 6 5 5 5 6 5 5 6 5 5 5 5 5 5 5 5 6 6 5 5 6 6 5 5 5 5 6 5 5 5 6 5 6 5 6 6 6 5 6 5 5 5 6 5 5 5 5 5 5 5 5 5 6 5 5 6 5 5 5 5 5 5 6 5 5 5 5 5 5 6 6 6 5 5 5 5 5 5 5 5 5 5 5 6 5 5 5 5 6 5 5 5 5 5 5 5 5 6 5 5 6 5 5 5 6 5 5 5 5 5 5 5 5 5 6 5 5 5 5 5 5 5 5 6 5 5 5 6 5 5 6 5 5 5 6 5 6 5 5 6 5 6 5 5 6 5 5 5 5 5 5 6 5 5 6 5 5 5 5 5 5 5 5 5 5 5 5 5 5 5 5 5 5 5 5 5 5 5 5 5 5 5 5 5 5 5 5 5 5 5 5 5 5 5 5 5 5 5 5 5 5 5 5 5 5 5 5 5 5 5 5 5 5 5 5 5 5 5 5 5 5 5 5 5 5 5 5 5 5 5 5 5 5 5 5 5 5 5 5 5 5 5 5 5 5 5 5 5 5 5 5 6 5 5 5 5 6 5 5 5 5 5 5 5 5 5 5 5 5 6 6 5 5 5 5 5 5 5 5 5 5 5 5 5 5 5 6 5 5 5 6 5 5 5 5 5 5 5 5 5 5 6 5 6 5 5 5 5 5 5 5 5 5 5 5 5 5 5 5 5 5 5 5 5 5 5 5 5 6 5 5 5 5 6 5 5 5 5 5 5 5 5 6 5 5 5 5 5 5 5 5 5 5 5 5 5 5 5 5 5 5 5 5 5 5 5 5 5 5 5 5 5 5 5 5 5 5 5 5 5 5 5 5 5 5 5 5 5 5 5 5 5 6 5 5 5 5 5 5 5 5 5 5 5 5 5 5 5 5 5 5 5 5 5 5 5 5 5 5 5 5 5 5 5 5 6 5 5 5 5 5 5 6 5 5 5 5 5 5 6 5 5 6 5 6 5 6 5 5 5 5 6 5 5 5 5 5 6 5 5 5 6 6 5 5 5 6 5 5 5 5 6 6 5 5 5 5 5 5 5 5 5 5 5 5 5 5 6 5 5 6 5 5 6 6 5 5 5 5 5 5 5 5 5 5 6 5 6 5 5 5 5 5 5 5 5 5 5 5 6 5 5 5 5 5 5 5 6 5 5 5 5 5 5 5 5 5 5 5 5 5 5 5 5 5 5 6 6 5 5 5 5 5 5 5 5 5 5 5 5 5 5 5 5 5 6 5 5 5 5 5 5 5 5 5 6 5 5 5 5 5 5 5 5 5 5 5 5 6 5 5 5 5 6 5 6 5 5 5 5 5 5 5 5 5 6 5 5 5 5 6 5 5 5 5 6 5 6 5 5 5 5 5 5 5 5 5 5 5 5 6 5 5 5 5 5 5 5 5 5 5 5 5 5 5 5 6 5 6 5 5 6 5 5 5 6 5 6 5 5 6 5 5 6 5 6 5 5 5 5 5 5 5 6 6 5 5 5 5 6 6 5 5 6 6 5 6 5 5 6 6 5 5 6 5 5 6 5 5 5 5 5 5 5 5 6 5 5 6 5 6 5 5 5 6 5 5 5 5 5 5 5 5 6 5 5 5 5 5 5 5 5 5 5 5 5 5 5 5 5 5 5 5 5 5 5 6 5 5 5 5 5 5 5 5 5 5 5 5 5 5 5 5 5 5 
</DataArray>
<DataArray type="Float64" Name="stress" NumberOfComponents="9" format="ascii">
521.88311740810968 -1184.4450892114337 0 -1184.4450892114337 0.093778360434953356 0 0 0 0 -0.082396821926522534 -1150.1218304882141 0 -1150.1218304882141 830.07838958110005 0 0 0 0 108.44596948719482 -955.00937838633172 0 -955.00937838633172 1178.6916320520249 0 0 0 0 173.58165828084839 -1065.1476459340784 0 -1065.1476459340784 476.81014739681996 0 0 0 0 84.338873534656159 -576.06774271210088 0 -576.06774271210088 726.47907097209827 0 0 0 0 -46.294116941782704 -702.45975449888647 0 -702.45975449888647 1682.6737383419859 0 0 0 0 4.2198868440287356 -2.0698184405161868 0 -2.0698184405161868 0.73229298087058936 0 0 0 0 163.809577428583 -178.30580041831126 0 -178.30580041831126 307.18779454423202 0 0 0 0 633.01539315090486 -486.45277724627522 0 -486.45277724627522 -43.948292702691106 0 0 0 0 47.17578924929694 -268.84645216243734 0 -268.84645216243734 308.67571784243228 0 0 0 0 8.5537008192885082 -3.5602060341176411 0 -3.5602060341176411 -1.4169082023034214 0 0 0 0 1646.6081396239824 -534.44362871972407 0 -534.44362871972407 -237.51979911219678 0 0 0 0 -194.38719314579066 -290.11582937783896 0 -290.11582937783896 -18.096798127426155 0 0 0 0 107.54943646780157 80.858274271318805 0 80.858274271318805 -223.33916234764001 0 0 0 0 8.4137269939261898 0.097060505303801392 0 0.097060505303801392 0.34484093776180558 0 0 0 0 1043.8605432051154 -649.51369117986542 0 -649.51369117986542 515.52536107601554 0 0 0 0 409.0585308970949 -1159.2677280849166 0 -1159.2677280849166 494.78686505720179 0 0 0 0 1003.545656526336 -1132.5398403559095 0 -1132.5398403559095 774.49999151015072 0 0 0 0 481.05412062715186 -529.29589500872316 0 -529.29589500872316 79.82271363977452 0 0 0 0 516.72043670264247 -231.25957670039497 0 -231.25957670039497 0.87915909915682278 0 0 0 0 699.9696091245205 -210.75072680985431 0 -210.75072680985431 64.435163232414197 0 0 0 0 5.5704527388564742 0.17288563088350273 0 0.17288563088350273 0.17337366668070331 0 0 0 0 23.08278137871784 -0.82296157706483086 0 -0.82296157706483086 -0.53641658488679411 0 0 0 0 70.573214255091443 -80.174947869363677 0 -80.174947869363677 -233.25640687291343 0 0 0 0 14.206150109777809 -5.6862598416546462 0 -5.6862598416546462 40.668187024515646 0 0 0 0 -59.681868427300287 -55.910707954304598 0 -55.910707954304598 -40.538872168799571 0 0 0 0 23.97309796911577 -18.928476904533454 0 -18.928476904533454 18.518553320900537 0 0 0 0 0.36308565109150948 -2.5754433089626332 0 -2.5754433089626332 0.63250234893626356 0 0 0 0 2.4827810637115988 0.099049914865545929 0 0.099049914865545929 -0.59495263779427887 0 0 0 0 18.003925999233616 -9.1722652174903487 0 -9.1722652174903487 -0.46122914105126256 0 0 0 0 14.151825078224235 -6.092554261881844 0 -6.092554261881844 -0.04117691421889802 0 0 0 0 19.447327956746761 -9.9357708979059609 0 -9.9357708979059609 1.8454251071493957 0 0 0 0 13.801009956625421 -34.195736002910053 0 -34.195736002910053 13.715764375738217 0 0 0 0 5.7066037471409032 -9.3554944135472908 0 -9.3554944135472908 6.9585917513610411 0 0 0 0 -13.987168807825583 -4.456673961109118 0 -4.456673961109118 31.728406377565989 0 0 0 0 39.682830199325508 -107.80382099822964 0 -107.80382099822964 -48.933143270303844 0 0 0 0 -5.2117707643192261 -30.99353818216332 0 -30.99353818216332 21.332959441326238 0 0 0 0 23.854528907702843 -24.893094221416025 0 -24.893094221416025 20.367553282149359 0 0 0 0 4.5688836169756541 -172.16501265366787 0 -172.16501265366787 -29.663347721547325 0 0 0 0 -233.76153826741029 11.56460634772975 0 11.56460634772975 154.44335937326832 0 0 0 0 5.7686217576675958 -5.7887818652550891 0 -5.7887818652550891 -3.0750360176269425 0 0 0 0 4.4954066793434322 69.330586601552568 0 69.330586601552568 -38.449552241538186 0 0 0 0 626.55574490821164 150.92921594097425 0 150.92921594097425 -156.91693231646786 0 0 0 0 -62.789917258054629 -73.14489526500256 0 -73.14489526500256 66.847271976705088 0 0 0 0 14.591586067414028 -42.270161525408184 0 -42.270161525408184 -22.464940068872238 0 0 0 0 -4.8570581077365205 7.6497698550992936 0 7.6497698550992936 188.31920741866998 0 0 0 0 113.28221838357422 -170.72485891511678 0 -170.72485891511678 136.89590141689405 0 0 0 0 66.768724240446318 -14.336740597937023 0 -14.336740597937023 -416.64199499202368 0 0 0 0 3.9125414144730541 -0.79066529962511822 0 -0.79066529962511822 -0.44407628980851754 0 0 0 0 405.74557984926651 331.17233299479085 0 331.17233299479085 -688.84410383927388 0 0 0 0 395.30167727857042 -293.34035381718968 0 -293.34035381718968 20.075471548858332 0 0 0 0 76.547901224766974 -436.9262122392247 0 -436.9262122392247 747.30584743157306 0 0 0 0 31.464624885193189 -54.455926864247886 0 -54.455926864247886 430.56653688796359 0 0 0 0 98.744654873102263 2.0144426430415479 0 2.0144426430415479 33.416926171874366 0 0 0 0 183.64555565959745 -201.31895786978203 0 -201.31895786978203 217.86740684998949 0 0 0 0 -7.4211551105327089 86.942644311362528 0 86.942644311362528 62.798761488818855 0 0 0 0 13.711437717662193 -17.415519201435018 0 -17.415519201435018 9.454888302301697 0 0 0 0 9.2901189581666017 -8.4655319426168774 0 -8.4655319426168774 -5.2157481990225705 0 0 0 0 12.950228125573176 -21.358585636485486 0 -21.358585636485486 -3.6782141474432137 0 0 0 0 -11.143611248373418 -28.660144566754752 0 -28.660144566754752 38.171531052859791 0 0 0 0 -8.4368403362149422 -14.231165966462683 0 -14.231165966462683 5.4802369480359197 0 0 0 0 45.412550367458607 -44.952621534259379 0 -44.952621534259379 29.396930132432317 0 0 0 0 10.267817407538615 -9.2771798110591561 0 -9.2771798110591561 -3.709165006011947 0 0 0 0 -417.49138983910598 -137.28154038794673 0 -137.28154038794673 233.83649305168365 0 0 0 0 3.6204057988929463 -3.3608461132302594 0 -3.3608461132302594 -3.1232274785187855 0 0 0 0 10.292428177286638 -21.981929050441977 0 -21.981929050441977 17.700567279399365 0 0 0 0 13.963207636877613 -18.011225420414476 0 -18.011225420414476 17.907745360595271 0 0 0 0 14.707962572279939 -17.138665114223841 0 -17.138665114223841 15.216890917596174 0 0 0 0 19.30875707812811 -26.344992227186594 0 -26.344992227186594 17.150445637049415 0 0 0 0 11.443470341611828 -19.755592571149464 0 -19.755592571149464 12.287541229976341 0 0 0 0 9.8974395713362355 -31.952180306640457 0 -31.952180306640457 -3.5957192640344147 0 0 0 0 -0.72456200280430494 -86.798360845513344 0 -86.798360845513344 -60.243668962546508 0 0 0 0 -2.4931353181582381 -40.625193537949599 0 -40.625193537949599 83.438434208910621 0 0 0 0 -15.200486402536626 -68.944380183726025 0 -68.944380183726025 21.542426031636751 0 0 0 0 12.975522698929126 -16.122450084551019 0 -16.122450084551019 -10.876593954815689 0 0 0 0 30.133042300878515 -21.424075594289206 0 -21.424075594289206 -15.072842841513193 0 0 0 0 22.428438733681105 -45.363732681362308 0 -45.363732681362308 4.2294120382885012 0 0 0 0 26.084851883962983 -34.709417490223132 0 -34.709417490223132 -58.497343680930499 0 0 0 0 76.602901855367236 -35.302164807384543 0 -35.302164807384543 -58.715839833759219 0 0 0 0 18.919348661307595 2.813607076945118 0 2.813607076945118 -50.357693628233392 0 0 0 0 18.513781380948785 -1.9091893803488347 0 -1.9091893803488347 2.1232808906679566 0 0 0 0 22.481214871506381 -13.019716852249985 0 -13.019716852249985 -13.383471315895804 0 0 0 0 12.078400427228189 -10.14170086622471 0 -10.14170086622471 -13.517325831386188 0 0 0 0 1.3869059747157166 -0.26612118224944936 0 -0.26612118224944936 -9.0992532519001514 0 0 0 0 -45.974035380597343 -60.662866274245971 0 -60.662866274245971 -73.088947323369212 0 0 0 0 27.128332423619213 -7.5027270962682451 0 -7.5027270962682451 -17.831757284115156 0 0 0 0 -35.274578837983427 -61.075293787976989 0 -61.075293787976989 -78.172968947475283 0 0 0 0 27.697075967378623 -119.13241818772804 0 -119.13241818772804 -93.043598885933534 0 0 0 0 -30.553083912775037 -83.061388335543597 0 -83.061388335543597 -113.2564457245353 0 0 0 0 0.006848150456789881 -102.27713246711028 0 -102.27713246711028 -124.97725050318331 0 0 0 0 20.086526476014114 -59.984429274814829 0 -59.984429274814829 -61.32623079741461 0 0 0 0 23.984458131992142 -50.034344197614701 0 -50.034344197614701 -242.05903179050074 0 0 0 0 -0.26930872600181033 0.57091664341908199 0 0.57091664341908199 0.55244912759930997 0 0 0 0 -34.914385810450767 -43.129093148201719 0 -43.129093148201719 -56.197642811766855 0 0 0 0 19.273926131949338 -55.955328986561653 0 -55.955328986561653 -99.266695844416972 0 0 0 0 0.38522709154869972 -0.34768447385523871 0 -0.34768447385523871 -0.79722952846111284 0 0 0 0 1.5121060325302977 -4.093062993882306 0 -4.093062993882306 2.2495285927257953 0 0 0 0 338.98073032853426 -311.18806942337869 0 -311.18806942337869 248.56640514938408 0 0 0 0 76.273382174586914 -104.66673163603218 0 -104.66673163603218 99.997282645614177 0 0 0 0 116.20050237524265 -277.2825051327095 0 -277.2825051327095 386.58935067288257 0 0 0 0 0.46779597930435557 -219.93542893349877 0 -219.93542893349877 371.27577762788314 0 0 0 0 -0.77555611472780583 -270.55269464160665 0 -270.55269464160665 387.65949638613188 0 0 0 0 32.303847651419346 -297.91851846341524 0 -297.91851846341524 406.23735619269428 0 0 0 0 249.84624909297418 152.20703023495662 0 152.20703023495662 77.793018682328693 0 0 0 0 -73.120448481960921 -140.19674783494338 0 -140.19674783494338 620.96831623699109 0 0 0 0 68.752889583110118 -413.07656502877217 0 -413.07656502877217 476.04059156697622 0 0 0 0 -54.085747939192515 -170.21411051476389 0 -170.21411051476389 308.34075996596175 0 0 0 0 -0.80660407268442214 -164.4882187513067 0 -164.4882187513067 202.70153359395408 0 0 0 0 79.923699337487051 51.166675710799609 0 51.166675710799609 69.651214108951535 0 0 0 0 6.6139809376338405 -9.4511804071693177 0 -9.4511804071693177 -5.0016480701962323 0 0 0 0 19.624085902065417 -5.7548276401012117 0 -5.7548276401012117 -17.432117942797049 0 0 0 0 -24.495868971156597 98.11954741842419 0 98.11954741842419 412.77749001154007 0 0 0 0 7.1977896031648925 -29.312719169477532 0 -29.312719169477532 14.441984104792937 0 0 0 0 -0.76255576508629019 -13.97130045324775 0 -13.97130045324775 8.0663708342399332 0 0 0 0 221.83535937434181 -244.6017314117571 0 -244.6017314117571 80.558924116310664 0 0 0 0 -4.0205832259643941 -4.0815126247908324 0 -4.0815126247908324 -3.6742610675824636 0 0 0 0 190.69607129900578 -119.50845713197123 0 -119.50845713197123 -25.024868517954019 0 0 0 0 176.21235151822475 -105.93494949115484 0 -105.93494949115484 109.28314715285796 0 0 0 0 -1.2992684640304617 -2.3146964311616216 0 -2.3146964311616216 -2.8832941517048312 0 0 0 0 231.472793687185 -164.33783383032915 0 -164.33783383032915 52.926120253738191 0 0 0 0 165.39875398579898 -80.291398363155167 0 -80.291398363155167 47.437743428072281 0 0 0 0 180.58052317266993 -87.266102257297462 0 -87.266102257297462 -0.10426996190290083 0 0 0 0 173.94159004135508 -92.459856771009072 0 -92.459856771009072 8.3532578806625679 0 0 0 0 171.14055037850994 -99.025721384114149 0 -99.025721384114149 18.918769107993285 0 0 0 0 141.17548878059279 -49.869746506070442 0 -49.869746506070442 -17.815690763622115 0 0 0 0 63.65953612449448 -79.333205543363874 0 -79.333205543363874 21.877322134550923 0 0 0 0 63.569016074751744 -82.23036646670721 0 -82.23036646670721 -37.670208387309685 0 0 0 0 52.995709610509948 -86.892730001332893 0 -86.892730001332893 0.023038589104544371 0 0 0 0 -39.858197032732278 -43.215139353225823 0 -43.215139353225823 0.87638888182118535 0 0 0 0 -54.291441967326591 -87.474489764810642 0 -87.474489764810642 0.033421039530367125 0 0 0 0 -76.087091665420303 -76.260057081108243 0 -76.260057081108243 23.332759505676222 0 0 0 0 -69.311002061202544 -148.84988403422756 0 -148.84988403422756 -77.731278799386928 0 0 0 0 60.765556960299364 -39.730908627043391 0 -39.730908627043391 -14.517510486562969 0 0 0 0 108.56785093061626 -206.74544458660966 0 -206.74544458660966 15.872246174085376 0 0 0 0 176.1530316769331 -118.0365152730501 0 -118.0365152730501 127.16355169534654 0 0 0 0 -35.258154729128364 -44.708624069946381 0 -44.708624069946381 32.771951829112368 0 0 0 0 -517.96062840170998 22.132991903468792 0 22.132991903468792 123.42533459486003 0 0 0 0 -65.500786800150308 -105.79107165752612 0 -105.79107165752612 -85.673057446860184 0 0 0 0 -0.46566426984935472 -1.6484844573461928 0 -1.6484844573461928 -3.2429162478146054 0 0 0 0 63.92311381876425 -38.708359372936684 0 -38.708359372936684 35.447070591508236 0 0 0 0 63.229129603495835 -61.959232056767178 0 -61.959232056767178 10.237671306385892 0 0 0 0 134.20312842683416 -47.853368773405236 0 -47.853368773405236 -12.462621979346295 0 0 0 0 -481.09452149819117 -11.083691215357248 0 -11.083691215357248 22.478637255031572 0 0 0 0 266.38234701567126 -55.307603619985457 0 -55.307603619985457 -28.343826157633885 0 0 0 0 -0.17806855170823432 0.083426282902664184 0 0.083426282902664184 -0.83305950581703314 0 0 0 0 -124.07998831247824 -49.913608028415183 0 -49.913608028415183 -15.162200217446298 0 0 0 0 -91.59971870143454 -129.44553571470078 0 -129.44553571470078 -0.081486442948516924 0 0 0 0 -18.987211838842995 -79.709726002203752 0 -79.709726002203752 -0.059017918214522069 0 0 0 0 31.123831379742114 -39.379644279705644 0 -39.379644279705644 27.205844686606724 0 0 0 0 71.005442340054287 -140.84678397451353 0 -140.84678397451353 -4.4260644615860656 0 0 0 0 -2.3408675422106171 -76.871397143229842 0 -76.871397143229842 -9.4727689777473643 0 0 0 0 -26.234529745903274 -45.672868341258436 0 -45.672868341258436 34.111782734478766 0 0 0 0 -25.26223509911415 -55.249254816039866 0 -55.249254816039866 -29.194073943705007 0 0 0 0 -29.652133902218338 -68.584250564483227 0 -68.584250564483227 -8.523550694540063 0 0 0 0 -79.384704639051051 -61.331020904475736 0 -61.331020904475736 0.04520891964375752 0 0 0 0 -59.806696956184169 -34.502234969862911 0 -34.502234969862911 33.473211854645342 0 0 0 0 -52.515038791276311 -74.804504855175765 0 -74.804504855175765 2.1735642258317966 0 0 0 0 -24.430355796073854 -51.629142455894907 0 -51.629142455894907 12.862411397829419 0 0 0 0 -4.9176924541288827 -32.988053053989006 0 -32.988053053989006 26.294948515424039 0 0 0 0 -22.971760622196598 -57.647424541632063 0 -57.647424541632063 37.379812877646145 0 0 0 0 -3.3694591296953149 -71.559897195627855 0 -71.559897195627855 48.98937554420263 0 0 0 0 -9.6350587223232651 -53.72881474281894 0 -53.72881474281894 26.69239667301008 0 0 0 0 -35.347776674418128 -69.139969508629292 0 -69.139969508629292 29.053950094770698 0 0 0 0 10.223396267989301 -63.006693673662085 0 -63.006693673662085 12.440850419283379 0 0 0 0 6.8342378949455451 -70.24522015828552 0 -70.24522015828552 18.228334001174744 0 0 0 0 8.5701735367474612 -65.36668722480681 0 -65.36668722480681 -21.48236142047972 0 0 0 0 9.6100825683679432 -43.499011763597082 0 -43.499011763597082 17.168921222779318 0 0 0 0 -25.480494226445444 -45.448969758268504 0 -45.448969758268504 3.8515454601947567 0 0 0 0 -40.608634225163769 -102.09113859247918 0 -102.09113859247918 -50.062961166404421 0 0 0 0 4.6640395499419753 -10.184758517571041 0 -10.184758517571041 6.966035869513675 0 0 0 0 -12.482877552665741 -63.845846787036862 0 -63.845846787036862 0.34555143744364614 0 0 0 0 25.927663664571625 -25.595755193088451 0 -25.595755193088451 20.40523471305282 0 0 0 0 -11.650518388662022 -58.998497611028142 0 -58.998497611028142 12.026777837777445 0 0 0 0 3.1161717616050737 -31.405437294413787 0 -31.405437294413787 13.621481672680602 0 0 0 0 -50.090939162979339 -70.538859980726556 0 -70.538859980726556 11.937125147087499 0 0 0 0 12.080355079902233 -22.376734343144452 0 -22.376734343144452 28.596942759796832 0 0 0 0 -31.522131616598926 -86.807670414142194 0 -86.807670414142194 3.3390437437119544 0 0 0 0 5.1080243604374118 -27.746224805072416 0 -27.746224805072416 16.283610381717153 0 0 0 0 3.1067655360311619 -31.445954624503429 0 -31.445954624503429 13.454520414976287 0 0 0 0 17.559430379222164 -26.574749834935691 0 -26.574749834935691 31.395115110023767 0 0 0 0 7.629531421152933 -35.050351697718725 0 -35.050351697718725 21.408325296310068 0 0 0 0 12.427735118521014 -31.384784197803128 0 -31.384784197803128 26.557375184533157 0 0 0 0 21.509337531964775 -62.924692788658831 0 -62.924692788658831 43.122495950734447 0 0 0 0 5.0573866596491257 -11.229170979567911 0 -11.229170979567911 8.7529336643705449 0 0 0 0 39.832157340432445 -46.851030779592861 0 -46.851030779592861 39.264715944780633 0 0 0 0 -19.750625099135505 -65.980158723177738 0 -65.980158723177738 58.645299730509578 0 0 0 0 -47.592142500154296 -104.17811094446006 0 -104.17811094446006 77.586671045421099 0 0 0 0 -17.852295280682824 -21.487818288970288 0 -21.487818288970288 12.632851179806892 0 0 0 0 -1.896377966273576 -32.422457508413572 0 -32.422457508413572 26.364579738023167 0 0 0 0 6.3972724794775786 -43.945847631989182 0 -43.945847631989182 38.044288420758676 0 0 0 0 0.020195946137391729 -38.773743016798107 0 -38.773743016798107 23.663925043052586 0 0 0 0 -10.953634945978042 25.149951835582137 0 25.149951835582137 72.322135175803851 0 0 0 0 -20.937957296429374 -6.530644538874796 0 -6.530644538874796 7.5846002214715327 0 0 0 0 -14.581276422337396 -94.414978166583751 0 -94.414978166583751 122.24326527831727 0 0 0 0 117.23247700217689 -168.55868798400843 0 -168.55868798400843 94.482880860567093 0 0 0 0 196.59377253029379 22.821255768500123 0 22.821255768500123 72.100098283966872 0 0 0 0 -24.451696578475094 -96.932954198564403 0 -96.932954198564403 247.79090561567136 0 0 0 0 248.31317104158703 -234.29813590717882 0 -234.29813590717882 17.010023865586845 0 0 0 0 -2.2971934938986465 -2.826297617916083 0 -2.826297617916083 1.2618167186479496 0 0 0 0 120.06815898226341 57.462068141961936 0 57.462068141961936 17.11089936341159 0 0 0 0 247.05946230355767 -16.471595877894288 0 -16.471595877894288 -28.870027291908627 0 0 0 0 -10.928242732659101 5.8156718914052306 0 5.8156718914052306 224.63201638076862 0 0 0 0 -11.068687139661051 14.90187059789605 0 14.90187059789605 70.829013934300747 0 0 0 0 -2.0340710617686701 -2.552727889915829 0 -2.552727889915829 0.099423036816034482 0 0 0 0 69.430821263104463 -19.76039913855675 0 -19.76039913855675 -18.284095822076779 0 0 0 0 -5.2785238486281401 -15.590240978114252 0 -15.590240978114252 2.3719961657553768 0 0 0 0 31.314025139376099 -269.1642210085447 0 -269.1642210085447 -147.30722312143189 0 0 0 0 88.006839182526164 -89.201230107828451 0 -89.201230107828451 27.369011596631026 0 0 0 0 -0.59541012074951194 -5.0004648024729406 0 -5.0004648024729406 -9.3746527948804612 0 0 0 0 -186.73112464271981 -242.78740389551967 0 -242.78740389551967 98.573254386370536 0 0 0 0 -265.51105086863026 -111.53429461764972 0 -111.53429461764972 -51.07561309261655 0 0 0 0 38.633818428097584 -41.308775689152753 0 -41.308775689152753 -18.961126029564184 0 0 0 0 1.6716179986828479 -1.2866192588149659 0 -1.2866192588149659 -2.4101470584119369 0 0 0 0 -15.14117366481878 -3.992570685211831 0 -3.992570685211831 4.632559401627077 0 0 0 0 6.7927643747825641 -57.686456717892725 0 -57.686456717892725 -17.07766426121816 0 0 0 0 7.1700050898399752 -19.090686035419807 0 -19.090686035419807 24.290408159538302 0 0 0 0 19.573179103143048 -38.333585139524075 0 -38.333585139524075 -25.581929577903793 0 0 0 0 20.188751180528925 -45.967886231768716 0 -45.967886231768716 6.445674584749213 0 0 0 0 -23.949590168836039 -42.476352116797898 0 -42.476352116797898 6.6488579272554489 0 0 0 0 47.880389105477661 -61.021204167456744 0 -61.021204167456744 -8.7173287374171196 0 0 0 0 46.462560138891718 -12.331832958576797 0 -12.331832958576797 8.0394165996331139 0 0 0 0 115.38004308815289 184.72093736333773 0 184.72093736333773 -111.99969195297308 0 0 0 0 105.27187632094865 -512.13248376017873 0 -512.13248376017873 345.79023964027874 0 0 0 0 64.491772023549856 -184.34783521646386 0 -184.34783521646386 441.23257191027369 0 0 0 0 179.48947169885651 -311.65714887141803 0 -311.65714887141803 62.078331155597425 0 0 0 0 97.176095188086038 -210.67584922756214 0 -210.67584922756214 131.0099635043814 0 0 0 0 -1.7113780594238719 -6.717126406583489 0 -6.717126406583489 -3.9722686353569827 0 0 0 0 -84.248248971503926 -175.3776861832157 0 -175.3776861832157 -249.63261009941925 0 0 0 0 66.914007272906019 -50.382846084496123 0 -50.382846084496123 -457.72191017461591 0 0 0 0 1.3298685377523398 -0.58781709326862597 0 -0.58781709326862597 -0.26330517144916143 0 0 0 0 51.704024891387235 -6.2900117560475337 0 -6.2900117560475337 -244.99505866860272 0 0 0 0 -5.4037652130937204 -83.146356729574109 0 -83.146356729574109 -66.328145966355805 0 0 0 0 -51.323424805304967 -114.50908396476007 0 -114.50908396476007 -138.10415868952987 0 0 0 0 -16.732015940542624 -112.01948537869976 0 -112.01948537869976 -138.98753579505137 0 0 0 0 -127.35370440599399 -22.942341004763875 0 -22.942341004763875 -164.51488486812741 0 0 0 0 -64.468599453364732 -112.10430013092991 0 -112.10430013092991 -57.834018422363442 0 0 0 0 -0.67580099761835299 -53.713702450404526 0 -53.713702450404526 -157.66509002141174 0 0 0 0 4.1721094435771562 -1.5585404926938651 0 -1.5585404926938651 0.013633811118594963 0 0 0 0 116.28859542623104 -50.272144630755065 0 -50.272144630755065 -260.04870161986764 0 0 0 0 -23.82044630747987 -83.3842712607875 0 -83.3842712607875 -214.55305013732868 0 0 0 0 28.036402017809451 -89.70940928885102 0 -89.70940928885102 -114.04974056206993 0 0 0 0 68.983627678662742 -48.759339211195766 0 -48.759339211195766 -236.4572930183931 0 0 0 0 185.4634999979462 -93.161489350582997 0 -93.161489350582997 -240.28366953882505 0 0 0 0 188.73979809725824 -93.487518712166093 0 -93.487518712166093 -256.13618064031471 0 0 0 0 241.09295353389462 -182.8978692546516 0 -182.8978692546516 -256.0746079669043 0 0 0 0 203.78519715811126 -112.40323989972239 0 -112.40323989972239 -242.27779838427523 0 0 0 0 162.3961616818342 -141.24692692192184 0 -141.24692692192184 -147.24925407880801 0 0 0 0 119.84373463771772 -137.29549812636105 0 -137.29549812636105 -55.604691552216536 0 0 0 0 106.38810600776924 -210.29116167184111 0 -210.29116167184111 -5.4596867852524156 0 0 0 0 49.260203927107796 -113.3035254353963 0 -113.3035254353963 -129.0769791067396 0 0 0 0 48.834781781266429 -112.3243445083981 0 -112.3243445083981 -103.52804282924626 0 0 0 0 -5.6545469486954971 -81.289184088156617 0 -81.289184088156617 67.995681911730571 0 0 0 0 31.208470714977011 -160.75537378949957 0 -160.75537378949957 232.67090740278945 0 0 0 0 -44.675139132948971 -82.962589091610425 0 -82.962589091610425 48.166090182989137 0 0 0 0 -8.7724326025236223 -95.613856092713831 0 -95.613856092713831 5.20394186564954 0 0 0 0 -30.636679623064992 -109.58679750595184 0 -109.58679750595184 13.407968660878396 0 0 0 0 -25.426553653113842 -95.316392035825629 0 -95.316392035825629 -53.457003678544424 0 0 0 0 -27.633189867638976 -110.78156310260101 0 -110.78156310260101 -52.014800575561821 0 0 0 0 26.517040494263711 -81.12263674777023 0 -81.12263674777023 -75.257655850400624 0 0 0 0 -31.071583384942837 -43.957597642031864 0 -43.957597642031864 -34.843254605786882 0 0 0 0 -9.9052935795734811 -74.711806867308042 0 -74.711806867308042 2.9792727488456876 0 0 0 0 -25.756088712168847 -44.616870595416401 0 -44.616870595416401 -29.107142583801192 0 0 0 0 -49.567896247805038 -67.951846044412378 0 -67.951846044412378 2.1162829431145838 0 0 0 0 83.005796031393402 -109.31365067529987 0 -109.31365067529987 -0.90316120878560469 0 0 0 0 36.669911551549376 -119.14957336627594 0 -119.14957336627594 9.5014861996751279 0 0 0 0 55.796717275390165 -154.25572165305312 0 -154.25572165305312 20.194202989863697 0 0 0 0 57.88117614264047 -122.36728561740892 0 -122.36728561740892 16.939275374908902 0 0 0 0 21.056562098986557 -15.501938194721987 0 -15.501938194721987 -12.918730760016985 0 0 0 0 -61.518816713160049 -124.4750772295447 0 -124.4750772295447 39.878756093559787 0 0 0 0 -28.18678867566905 -148.74196909399325 0 -148.74196909399325 28.4447802126233 0 0 0 0 -38.969086899634021 -131.2939126107276 0 -131.2939126107276 40.956558672696701 0 0 0 0 -78.224926621114719 -110.87587947450083 0 -110.87587947450083 60.375165467753504 0 0 0 0 -41.251078491472072 -76.593821150383519 0 -76.593821150383519 18.981824862104304 0 0 0 0 -41.215825135387604 -77.660702978112568 0 -77.660702978112568 25.885357816412579 0 0 0 0 -21.683192903141389 -97.75481139356998 0 -97.75481139356998 16.41164889819629 0 0 0 0 -147.78207875963199 -36.38899260870312 0 -36.38899260870312 51.512065120157786 0 0 0 0 -39.361376133523137 -22.238839002690845 0 -22.238839002690845 4.5035611171624126 0 0 0 0 13.551629400728416 -53.00330594807383 0 -53.00330594807383 -89.576778489194112 0 0 0 0 21.485632926378457 -95.130454942391225 0 -95.130454942391225 -89.814807496630237 0 0 0 0 4.742113567845081 -25.32863254318363 0 -25.32863254318363 -9.8595514167063811 0 0 0 0 19.93045527127849 -8.9025249009203975 0 -8.9025249009203975 -5.0587991205780583 0 0 0 0 2.4439767905332701 -9.3065130419845445 0 -9.3065130419845445 6.3148927491420181 0 0 0 0 9.7678169215432717 -22.689797486116731 0 -22.689797486116731 -8.6084801362230792 0 0 0 0 -6.2335219859542441 -7.2360910321930589 0 -7.2360910321930589 -1.3332878060022324 0 0 0 0 -11.898706130361461 -16.982345424701634 0 -16.982345424701634 2.2127721525466768 0 0 0 0 8.5373379205411766 -23.904559636317572 0 -23.904559636317572 -145.03713660576614 0 0 0 0 5.8090001131731697 -20.661572911045369 0 -20.661572911045369 6.1582642536013736 0 0 0 0 6.7945444299894007 -12.8337271023629 0 -12.8337271023629 -2.9348144764589961 0 0 0 0 7.9640774570123529 -15.138617349697178 0 -15.138617349697178 7.2540669095877348 0 0 0 0 0.82545324189595704 -11.537786449654959 0 -11.537786449654959 13.017839180603914 0 0 0 0 3.6798267644044245 -24.268305824562049 0 -24.268305824562049 16.076538854809769 0 0 0 0 -7.2178867976580889 -13.149985658966685 0 -13.149985658966685 4.5715534044154111 0 0 0 0 32.658645041216005 -36.984591967750021 0 -36.984591967750021 48.189570015349091 0 0 0 0 16.299973077082541 -22.431998620345439 0 -22.431998620345439 5.4248399852185685 0 0 0 0 18.339010301190683 -20.722641749019203 0 -20.722641749019203 3.3340399718908884 0 0 0 0 5.8000389988264942 -25.084106576650811 0 -25.084106576650811 -30.915633316202729 0 0 0 0 18.831304368397468 -27.917157878633589 0 -27.917157878633589 -6.4317633598329849 0 0 0 0 3.3297221750925843 -3.1077311418901434 0 -3.1077311418901434 -1.7310831524843593 0 0 0 0 73.093845843892268 17.568021897768631 0 17.568021897768631 -9.3618530701054965 0 0 0 0 1.7121087981526735 -10.032484061363661 0 -10.032484061363661 -0.59262175569691422 0 0 0 0 -7.9592382101527619 -16.762782965799488 0 -16.762782965799488 18.030566466819437 0 0 0 0 7.9724457147922294 -41.085936383055014 0 -41.085936383055014 -82.66932457951043 0 0 0 0 21.255685199095751 18.211153954132897 0 18.211153954132897 -50.170529792460002 0 0 0 0 12.901148402143008 -33.343696490195725 0 -33.343696490195725 -93.765849340728892 0 0 0 0 11.1805540433852 -57.16024069868763 0 -57.16024069868763 -50.608611345378449 0 0 0 0 -1.1486086215663818 -87.686200539350466 0 -87.686200539350466 -125.48750653499883 0 0 0 0 -47.012763520806402 -118.18847911661578 0 -118.18847911661578 -69.72309421072714 0 0 0 0 -23.778159894337477 -95.372692108699994 0 -95.372692108699994 -47.949414371068997 0 0 0 0 -10.628810543224063 -104.02211753031588 0 -104.02211753031588 -52.950278167503711 0 0 0 0 -25.928047526887894 -113.46413555433173 0 -113.46413555433173 16.75024628562096 0 0 0 0 -49.584149183634509 -146.92976050175457 0 -146.92976050175457 -30.440983092288661 0 0 0 0 54.58136266267411 -132.25994996738882 0 -132.25994996738882 54.513402783835772 0 0 0 0 121.42518182399363 -182.87374210612325 0 -182.87374210612325 73.06737707357388 0 0 0 0 40.140928773955238 -105.92238309417007 0 -105.92238309417007 37.070982761513733 0 0 0 0 10.041133536051348 -142.3242506471579 0 -142.3242506471579 12.178369151188235 0 0 0 0 -12.311930291381941 -84.25243222797144 0 -84.25243222797144 2.3373574279021341 0 0 0 0 40.401379793903288 -144.66612524627817 0 -144.66612524627817 27.655433681298746 0 0 0 0 126.08985897903767 -132.60632349797743 0 -132.60632349797743 3.649796772730042 0 0 0 0 -0.59799903762112727 0.58425634043863361 0 0.58425634043863361 1.0932361253560998 0 0 0 0 -62.947602130882842 -79.68107549142951 0 -79.68107549142951 4.5640963702098816 0 0 0 0 203.30176249552278 -22.741460527413437 0 -22.741460527413437 -9.5736151620926933 0 0 0 0 -1.2755246792403341 -47.178242921316269 0 -47.178242921316269 -57.719430079763697 0 0 0 0 16.8816228773494 -16.94390398294945 0 -16.94390398294945 -41.746121068477805 0 0 0 0 168.56967061834985 -101.1142356249984 0 -101.1142356249984 53.686313106569287 0 0 0 0 5.4767898537726296 -29.763413608783836 0 -29.763413608783836 -30.089592144978035 0 0 0 0 -30.574572357919099 -25.72510040165524 0 -25.72510040165524 24.668667126739379 0 0 0 0 126.29605487018125 -115.62696760574909 0 -115.62696760574909 65.997533416055376 0 0 0 0 31.667408711542521 5.0879750519306981 0 5.0879750519306981 -42.373373802023707 0 0 0 0 13.325274880042343 -76.02769122682912 0 -76.02769122682912 73.03606631101502 0 0 0 0 10.604484217531535 -72.153517742598979 0 -72.153517742598979 26.125945415849856 0 0 0 0 46.9037855703491 -92.101539652865085 0 -92.101539652865085 44.39834853643697 0 0 0 0 41.147972603976086 -62.211654642604117 0 -62.211654642604117 20.352086507969943 0 0 0 0 17.225456593805575 -30.182760656483879 0 -30.182760656483879 16.236355072491278 0 0 0 0 -6.6099764372884238 -60.662423769310408 0 -60.662423769310408 74.991607896532514 0 0 0 0 -39.092238108132733 -19.078208330822235 0 -19.078208330822235 54.07847837872032 0 0 0 0 -26.589542951816838 -51.057293234425742 0 -51.057293234425742 30.467461404412461 0 0 0 0 -23.647921901593225 -26.550196432990404 0 -26.550196432990404 14.848692247805786 0 0 0 0 -28.152932148012042 -41.632778030132613 0 -41.632778030132613 87.669516174064483 0 0 0 0 98.018396046025828 -71.949790625280002 0 -71.949790625280002 3.6913800711117801 0 0 0 0 59.733412795249023 -14.435819165100838 0 -14.435819165100838 -18.198896463210986 0 0 0 0 90.709246667940533 -39.649121219375957 0 -39.649121219375957 10.209514829475665 0 0 0 0 98.276404939608256 -41.898293676371395 0 -41.898293676371395 -6.8060088773127063 0 0 0 0 43.805362691819028 -13.955175081733614 0 -13.955175081733614 -10.95565589859325 0 0 0 0 70.137030786849209 -22.379718609467091 0 -22.379718609467091 -17.15298712754884 0 0 0 0 56.274134906364452 -79.704941474952648 0 -79.704941474952648 28.072239168803208 0 0 0 0 82.891583052798524 -49.942114742481863 0 -49.942114742481863 -7.3443125968333334 0 0 0 0 12.342443305382915 -18.0006714712556 0 -18.0006714712556 -1.2884197110203672 0 0 0 0 19.257073342947479 -32.293136763362781 0 -32.293136763362781 -2.2887671879652771 0 0 0 0 21.129826054704608 -22.474039554630508 0 -22.474039554630508 4.4190021751419408 0 0 0 0 17.046033932347704 -13.798893762941184 0 -13.798893762941184 -1.4180713392582476 0 0 0 0 6.0296832039858321 -6.7375167892573202 0 -6.7375167892573202 -3.2870596955463185 0 0 0 0 -64.434727430649218 -74.152610903489403 0 -74.152610903489403 35.737711201072671 0 0 0 0 -22.895726737253426 -34.091695329470895 0 -34.091695329470895 -8.5326184523364645 0 0 0 0 -2.2304879013681784 -64.265390320262668 0 -64.265390320262668 -21.312312556314282 0 0 0 0 4.0482653317369 -13.396097416866198 0 -13.396097416866198 -0.99156957356495212 0 0 0 0 -69.865269524903852 9.1220895673686755 0 9.1220895673686755 -46.292647947295336 0 0 0 0 74.802493872890409 -52.404007328690568 0 -52.404007328690568 46.985760435141856 0 0 0 0 44.172690284203497 -23.024420172416797 0 -23.024420172416797 -12.816727046374419 0 0 0 0 -13.086137615162443 -20.092682067743226 0 -20.092682067743226 -14.240647435268329 0 0 0 0 30.627800991540425 -54.601627915362769 0 -54.601627915362769 21.692462652579707 0 0 0 0 34.06058870900597 -45.695851323547686 0 -45.695851323547686 -1.147195779489266 0 0 0 0 49.97405814222293 -44.565710116330592 0 -44.565710116330592 -16.032548641895119 0 0 0 0 25.897671488870401 -24.946327589270368 0 -24.946327589270368 -33.516886275161596 0 0 0 0 14.325621628777299 -35.811597685431479 0 -35.811597685431479 24.844502358944737 0 0 0 0 14.32509542205662 -35.864388758178393 0 -35.864388758178393 -9.6069033491548907 0 0 0 0 33.783949429423956 -52.839939552100986 0 -52.839939552100986 -9.5455710694222944 0 0 0 0 20.477808801857464 -37.595408552158915 0 -37.595408552158915 -16.156069209304405 0 0 0 0 28.558379268586577 -55.003047314334253 0 -55.003047314334253 -24.264132093456283 0 0 0 0 16.353871265848284 -45.850141867478669 0 -45.850141867478669 0.71495366274393746 0 0 0 0 18.51489334267535 -43.574428036466998 0 -43.574428036466998 -29.794976798344578 0 0 0 0 41.5612745686376 -71.987982144582929 0 -71.987982144582929 12.45921349809214 0 0 0 0 1.2492400133055526 -68.759258096635108 0 -68.759258096635108 86.352679005809478 0 0 0 0 -19.110167163024016 -65.271906825235419 0 -65.271906825235419 85.814107846828847 0 0 0 0 -38.19384921486369 -18.94421824102065 0 -18.94421824102065 2.3103758435060513 0 0 0 0 -0.40790384973661276 -91.99908574496294 0 -91.99908574496294 193.53256368666189 0 0 0 0 77.605482346287317 -15.223238637903705 0 -15.223238637903705 85.479783803995815 0 0 0 0 107.31814913261769 -58.213110796375986 0 -58.213110796375986 36.52655400832009 0 0 0 0 77.250671671252348 -74.494607906810415 0 -74.494607906810415 28.360144340189436 0 0 0 0 21.27527787717554 -43.744310794434568 0 -43.744310794434568 71.465975663537392 0 0 0 0 24.442739295598585 -46.048128180256754 0 -46.048128180256754 20.848044320387999 0 0 0 0 13.154528094200941 -65.874341347618611 0 -65.874341347618611 69.041999685257906 0 0 0 0 6.5683640268616728 -71.760116120083694 0 -71.760116120083694 153.7844057752045 0 0 0 0 14.466819658931044 -23.46321202204463 0 -23.46321202204463 -21.888769815994408 0 0 0 0 50.174061078563682 -87.327620449328606 0 -87.327620449328606 51.232853319990681 0 0 0 0 118.9745317627021 -122.98651449364843 0 -122.98651449364843 59.254612317177816 0 0 0 0 -1.1121028440820169 -4.8674428237445557 0 -4.8674428237445557 -5.6262175276489472 0 0 0 0 81.541167726152707 -34.661628313437177 0 -34.661628313437177 -49.405509687108861 0 0 0 0 36.568749781941733 -79.641052069568104 0 -79.641052069568104 3.0066330914778518 0 0 0 0 28.8213335042783 -109.08994793219608 0 -109.08994793219608 -9.8553247309500875 0 0 0 0 22.007589665590785 -123.53907089442873 0 -123.53907089442873 66.335175492979943 0 0 0 0 39.817960003244323 -48.842178125623121 0 -48.842178125623121 33.61964071416277 0 0 0 0 -5.7700681367350626 -100.31210700297197 0 -100.31210700297197 57.356617018631368 0 0 0 0 16.084960395961389 -67.488478430213036 0 -67.488478430213036 11.342837035641423 0 0 0 0 50.517548507777974 -96.389060559915379 0 -96.389060559915379 30.418493375937032 0 0 0 0 33.708681366231758 -76.907197881109823 0 -76.907197881109823 -0.76900336502149003 0 0 0 0 38.813499670948659 -66.856349447667526 0 -66.856349447667526 -34.295486409058867 0 0 0 0 28.356206575288525 -65.997347819054994 0 -65.997347819054994 -14.16735109363799 0 0 0 0 49.254799589976756 -109.83098027012966 0 -109.83098027012966 -37.794639241168625 0 0 0 0 35.698964908158814 -80.345939341324083 0 -80.345939341324083 88.375979869095318 0 0 0 0 -18.779765686573228 -127.99633325195828 0 -127.99633325195828 168.0573085287615 0 0 0 0 25.4157435641755 -152.79588321976917 0 -152.79588321976917 170.02567289806484 0 0 0 0 -27.276601229561493 -38.136317642452923 0 -38.136317642452923 46.29810400731003 0 0 0 0 -1.3722102801730216 -73.236911936617616 0 -73.236911936617616 1.0221357419286505 0 0 0 0 9.7541615127538535 -23.514407920223675 0 -23.514407920223675 22.040116704429238 0 0 0 0 -5.9160114271435305 -68.168929297887189 0 -68.168929297887189 42.496427442609274 0 0 0 0 -32.062172698892311 -8.2562309492683994 0 -8.2562309492683994 2.0994006818676567 0 0 0 0 7.9087209529309632 -19.305261659325687 0 -19.305261659325687 14.206264623542211 0 0 0 0 10.954442251502769 -31.405046104562643 0 -31.405046104562643 49.499709666153649 0 0 0 0 13.204281718821221 -28.890863375090703 0 -28.890863375090703 -26.758659643375722 0 0 0 0 -1.1572076413212713 -27.952774125959394 0 -27.952774125959394 8.2960033019854365 0 0 0 0 -9.9933980076258422 -16.563715660057639 0 -16.563715660057639 5.8850874286864112 0 0 0 0 -18.683830792189838 -46.06900934344776 0 -46.06900934344776 47.058923353215505 0 0 0 0 3.7123154052491856 -4.8679087856483108 0 -4.8679087856483108 2.7832636658178274 0 0 0 0 -16.50758677938029 -35.237075350525629 0 -35.237075350525629 -6.5544306431002042 0 0 0 0 -1.9466852534965113 -27.504565212203389 0 -27.504565212203389 -0.035051460673462209 0 0 0 0 2.9034689527616138 -27.750068564078902 0 -27.750068564078902 -21.466669326266128 0 0 0 0 19.197869579633576 -17.815998029602376 0 -17.815998029602376 -5.4460725248098925 0 0 0 0 55.033866741199745 -214.67068295511217 0 -214.67068295511217 94.718367325003783 0 0 0 0 -5.3042681972656283 63.542040773927511 0 63.542040773927511 -163.8181968428762 0 0 0 0 11.992883454434718 -15.169346518977036 0 -15.169346518977036 -6.5208124713485223 0 0 0 0 5.5426834742611391 -20.764913230319507 0 -20.764913230319507 0.11817448677902576 0 0 0 0 -68.239381890751247 70.773257537659447 0 70.773257537659447 11.71536246699543 0 0 0 0 -72.947988798754523 -25.711472884067916 0 -25.711472884067916 134.92154786733227 0 0 0 0 137.67284354216645 -103.36954057831463 0 -103.36954057831463 52.734159627350891 0 0 0 0 192.86827548302244 10.417749791673486 0 10.417749791673486 -2.1262538490809675 0 0 0 0 19.13480106946372 -56.301137056103471 0 -56.301137056103471 43.418246330247712 0 0 0 0 120.91197996528354 -43.163604842769928 0 -43.163604842769928 -0.68059300284585333 0 0 0 0 77.015965600097843 17.033519036499456 0 17.033519036499456 10.974433305847924 0 0 0 0 30.847103762978804 -30.763963281206088 0 -30.763963281206088 1.4712846876500407 0 0 0 0 -6.273294331645431 -5.2612107562564461 0 -5.2612107562564461 2.7874496294165567 0 0 0 0 12.401061603806028 -21.394459144145188 0 -21.394459144145188 2.9817329143959199 0 0 0 0 -137.7531221201898 -129.27325203668079 0 -129.27325203668079 37.732492936418566 0 0 0 0 45.770054437598446 5.7866907028474088 0 5.7866907028474088 7.7376878642699012 0 0 0 0 2.7443491714400921 -1.619938979043134 0 -1.619938979043134 -0.40707975467137203 0 0 0 0 -173.40736209045281 35.306909593851742 0 35.306909593851742 -178.59668238153972 0 0 0 0 30.92775777811039 -46.646109959284331 0 -46.646109959284331 -3.9765427948186698 0 0 0 0 12.893491390284908 -25.488380940265415 0 -25.488380940265415 -11.743668929279011 0 0 0 0 -1.8104035290729144 -2.3130837848801349 0 -2.3130837848801349 1.5007544445252279 0 0 0 0 -1.9740468299896747 -19.598904416652658 0 -19.598904416652658 -4.6493719830468763 0 0 0 0 -2.407375810922133 -18.722244144521923 0 -18.722244144521923 -10.813782259989871 0 0 0 0 5.0549534214806044 -38.48843994838353 0 -38.48843994838353 -2.2934955042874208 0 0 0 0 51.964972969428345 -46.855153488682845 0 -46.855153488682845 -1.7315521568798431 0 0 0 0 -12.517177768228251 -16.069967192520565 0 -16.069967192520565 -14.929440760225965 0 0 0 0 49.314164314584559 -39.502309505029643 0 -39.502309505029643 -27.667564294646581 0 0 0 0 20.982530284833047 -10.096320254071543 0 -10.096320254071543 -13.069659155767113 0 0 0 0 10.23509010955604 -48.050396735016875 0 -48.050396735016875 -20.875384870578273 0 0 0 0 27.64133699492595 -39.980276174400387 0 -39.980276174400387 -5.1580162008922343 0 0 0 0 -12.035175070576159 -23.88182992943068 0 -23.88182992943068 -11.702997489403494 0 0 0 0 2.9162209467103821 -29.318123180984912 0 -29.318123180984912 -2.7717126277275383 0 0 0 0 11.32156456861776 -61.227565640074317 0 -61.227565640074317 -28.988374742482847 0 0 0 0 17.685675990072923 -50.931265625089509 0 -50.931265625089509 -25.674795689832536 0 0 0 0 6.6910418934999996 -27.427492792727925 0 -27.427492792727925 -9.6217009262672075 0 0 0 0 16.162949678488076 -51.86929621854506 0 -51.86929621854506 -26.202976576434594 0 0 0 0 -1.0450611132400809 -49.025801978767049 0 -49.025801978767049 -18.617599244680605 0 0 0 0 25.194194329803395 -35.305794531159336 0 -35.305794531159336 -5.252604594323202 0 0 0 0 7.2096701482100087 -27.951724850545396 0 -27.951724850545396 -5.8031082882915532 0 0 0 0 -6.5916092047336861 -53.085043036438947 0 -53.085043036438947 -2.4683248339256352 0 0 0 0 -4.2362514819407053 -24.590363092764939 0 -24.590363092764939 -11.834067312644024 0 0 0 0 -6.171700361672265 -56.257928132472443 0 -56.257928132472443 -7.9152868410455994 0 0 0 0 -3.8980170551221818 -51.681169529188082 0 -51.681169529188082 -10.7779514606882 0 0 0 0 6.922017876368793 -15.459476181005453 0 -15.459476181005453 15.142300513071682 0 0 0 0 -9.4769949956098571 -50.400141432666715 0 -50.400141432666715 -10.851948135325074 0 0 0 0 -15.230263117031427 -54.603169501856428 0 -54.603169501856428 -8.1779376903177763 0 0 0 0 -4.4226967185677495 -63.519544447629414 0 -63.519544447629414 -28.255010189481254 0 0 0 0 9.1318152570529492 -48.686808553900846 0 -48.686808553900846 -12.024006290699617 0 0 0 0 13.808097152705159 -41.286131123533778 0 -41.286131123533778 -17.98746033002044 0 0 0 0 22.738065567697049 -46.755191777998334 0 -46.755191777998334 -38.529463822559592 0 0 0 0 148.22529434626631 -129.43627547412325 0 -129.43627547412325 37.939085868624261 0 0 0 0 6.3301759070491244 -38.218553218164743 0 -38.218553218164743 18.218352371532092 0 0 0 0 -116.3157976465518 -11.54968411367463 0 -11.54968411367463 62.749468372152478 0 0 0 0 -256.15335912116825 -128.2910458105307 0 -128.2910458105307 175.64791889375192 0 0 0 0 27.406817680925087 -55.253440405921083 0 -55.253440405921083 -58.427971990327933 0 0 0 0 2.4323514821125585 -1.1719856508949746 0 -1.1719856508949746 2.2991316847137426 0 0 0 0 -26.107148824037722 -95.081821190616665 0 -95.081821190616665 -45.764424081771722 0 0 0 0 -115.94975956557391 -76.277240673857705 0 -76.277240673857705 -8.5071694639518682 0 0 0 0 107.40341784882548 -57.500607146313996 0 -57.500607146313996 -7.6423831145730219 0 0 0 0 136.62873133280846 -29.546643568997297 0 -29.546643568997297 -12.103940654007602 0 0 0 0 137.41132983093121 -26.44490871463131 0 -26.44490871463131 13.928007565598818 0 0 0 0 46.933431895165995 -63.583562606645501 0 -63.583562606645501 9.9305489142971055 0 0 0 0 -0.33095094042244888 0.46050254258816281 0 0.46050254258816281 1.4496735154765616 0 0 0 0 406.7538129472523 -44.486379845471674 0 -44.486379845471674 -31.346446349576581 0 0 0 0 184.24608454306144 -177.34835023279993 0 -177.34835023279993 90.26923500259727 0 0 0 0 -193.75996763792136 -57.703960212618767 0 -57.703960212618767 78.971497300746705 0 0 0 0 15.312842777964494 -5.5212774085613034 0 -5.5212774085613034 0.73311286294428157 0 0 0 0 -34.748856628397334 21.56123796468637 0 21.56123796468637 76.013289041731696 0 0 0 0 -24.039763907021552 -151.32243766563442 0 -151.32243766563442 -51.856641603650132 0 0 0 0 30.428231750927807 -50.177537452991601 0 -50.177537452991601 62.634167043270281 0 0 0 0 -16.843084273543354 -79.507692997612139 0 -79.507692997612139 16.069348152261227 0 0 0 0 -44.11927692347308 -46.291488263311294 0 -46.291488263311294 11.606285837413452 0 0 0 0 84.368923636113323 -138.32094576719646 0 -138.32094576719646 -9.6207685621902783 0 0 0 0 39.327200065508805 -60.009653324079409 0 -60.009653324079409 9.0141209316861932 0 0 0 0 17.762273600928836 -31.200953036262113 0 -31.200953036262113 27.814612102689225 0 0 0 0 36.817592508807138 -48.610565949918055 0 -48.610565949918055 10.746024620581011 0 0 0 0 19.393187045301602 -62.318626463371402 0 -62.318626463371402 20.666191634954885 0 0 0 0 51.287275311708072 -52.578030323349594 0 -52.578030323349594 10.351142628616799 0 0 0 0 91.607171583073068 -29.593990066583501 0 -29.593990066583501 13.9151561151848 0 0 0 0 53.09102718664144 -42.844207722124338 0 -42.844207722124338 12.701603071826185 0 0 0 0 10.244904329512472 -8.6377418809731594 0 -8.6377418809731594 -4.6860208465575326 0 0 0 0 17.167027052133562 -22.310227923819184 0 -22.310227923819184 8.1448856850147422 0 0 0 0 14.460751655979792 -12.990628272688205 0 -12.990628272688205 -1.7081992242354183 0 0 0 0 12.239704075462669 -19.676632415106042 0 -19.676632415106042 7.9683037260801939 0 0 0 0 16.645231800341207 -20.522992716458248 0 -20.522992716458248 4.1522218162790523 0 0 0 0 12.048012095387094 -20.758696267082996 0 -20.758696267082996 7.2736675336200278 0 0 0 0 -29.060710198172387 -79.315870309915226 0 -79.315870309915226 65.597331710872822 0 0 0 0 -33.438701428227887 -61.229238313484529 0 -61.229238313484529 37.555738696930348 0 0 0 0 9.4699028192397527 -19.855644193526189 0 -19.855644193526189 4.9456897495396817 0 0 0 0 15.739031925917075 -28.270245174486739 0 -28.270245174486739 10.204123021639177 0 0 0 0 33.368260294789252 -57.354112423192419 0 -57.354112423192419 -5.4394821625028271 0 0 0 0 -17.102434387116773 -63.966509479985689 0 -63.966509479985689 38.751907212055812 0 0 0 0 31.029903839895269 -38.159044581181661 0 -38.159044581181661 18.814521173291723 0 0 0 0 2.7908229804543314 -16.008212577301038 0 -16.008212577301038 4.6781507201245773 0 0 0 0 20.930066206701774 -36.701394460411358 0 -36.701394460411358 37.003752384695304 0 0 0 0 54.83109307452105 -76.941978783383092 0 -76.941978783383092 8.0350219174724771 0 0 0 0 26.400035174408046 -24.077038502825566 0 -24.077038502825566 1.3025252406018462 0 0 0 0 31.732513486334938 -42.917330014992331 0 -42.917330014992331 34.156795333979971 0 0 0 0 -125.21210241661174 31.108841786761332 0 31.108841786761332 14.057609201871458 0 0 0 0 -26.948784855459962 -80.223436678521466 0 -80.223436678521466 30.795875065166911 0 0 0 0 -84.105984119327331 7.3977303921055864 0 7.3977303921055864 60.297158148805465 0 0 0 0 -98.367632940888143 -16.6081004941625 0 -16.6081004941625 24.469188536670117 0 0 0 0 -99.811349473799055 -59.5698577361145 0 -59.5698577361145 130.21024227212547 0 0 0 0 -32.14595980404556 -74.469644978042197 0 -74.469644978042197 111.35840054877553 0 0 0 0 -0.065444945462655113 -1.4683719632984236 0 -1.4683719632984236 0.56512095022293352 0 0 0 0 -114.12384903595375 -65.526220470914268 0 -65.526220470914268 109.4262931997655 0 0 0 0 -396.95959289102029 -215.26632487748429 0 -215.26632487748429 227.20178418933938 0 0 0 0 -92.804161258085514 -31.215185585588188 0 -31.215185585588188 14.968709741288762 0 0 0 0 -245.11168569411893 124.8384781327677 0 124.8384781327677 -11.4139785729094 0 0 0 0 -18.633766956896579 -139.88310251496841 0 -139.88310251496841 219.43035937418608 0 0 0 0 -0.83982526563340798 -27.862052341737581 0 -27.862052341737581 65.755490596102391 0 0 0 0 0.028902184898470296 -81.50390155378409 0 -81.50390155378409 16.842440376593004 0 0 0 0 3.1105946289917483 -64.505492740109275 0 -64.505492740109275 -26.497887301338778 0 0 0 0 -10.250344738073181 -105.73444792201553 0 -105.73444792201553 -63.73309787713788 0 0 0 0 -86.778965135137696 -88.834604744620719 0 -88.834604744620719 -8.7997036516462686 0 0 0 0 -10.607241282261384 -47.447961179719641 0 -47.447961179719641 3.8574571425378963 0 0 0 0 6.1223280651829555 -82.957539119404828 0 -82.957539119404828 -23.608709519090098 0 0 0 0 -0.0054139101321355361 -87.115822435222199 0 -87.115822435222199 -24.92291014984221 0 0 0 0 127.39918500553995 -39.861683213669494 0 -39.861683213669494 -57.090552626257704 0 0 0 0 0.32694924900314959 -1.7240053796681138 0 -1.7240053796681138 -0.65384336743966287 0 0 0 0 -201.31630639920695 -133.89238336533708 0 -133.89238336533708 -77.480849724017759 0 0 0 0 -243.13294910188415 -183.20975227724193 0 -183.20975227724193 -86.055354363994411 0 0 0 0 0.16413497349121542 -0.12669784073393231 0 -0.12669784073393231 -3.1925321809192724 0 0 0 0 -103.28271458278323 78.999320600838473 0 78.999320600838473 -129.92426484474345 0 0 0 0 0.28904765339424543 -2.199607302298773 0 -2.199607302298773 0.14743874029943527 0 0 0 0 -80.590262373825681 32.897151879849844 0 32.897151879849844 -53.018451026622643 0 0 0 0 -122.00545154767315 -132.28530186598982 0 -132.28530186598982 -126.96434434077673 0 0 0 0 -207.13144057674799 46.832226389131392 0 46.832226389131392 3.8856141193255098 0 0 0 0 50.870704087454214 35.752710806982577 0 35.752710806982577 -172.3781918842069 0 0 0 0 21.148856540603447 40.246210328923553 0 40.246210328923553 -46.751120953078498 0 0 0 0 66.048497109994059 1.3072148473147536 0 1.3072148473147536 -63.212492453676532 0 0 0 0 54.379944762920786 16.805761998934031 0 16.805761998934031 -77.580653654771595 0 0 0 0 62.122465639273287 -13.261851327184104 0 -13.261851327184104 -91.426271757380164 0 0 0 0 121.85220475773531 -14.21442724811277 0 -14.21442724811277 -92.527986916280497 0 0 0 0 88.84851975609854 -38.229664392070845 0 -38.229664392070845 -65.79082854526132 0 0 0 0 199.57754680142534 -60.333649889314984 0 -60.333649889314984 -66.794300318738351 0 0 0 0 83.59794001019327 -66.056971129761223 0 -66.056971129761223 -84.435576468276849 0 0 0 0 27.375143422636029 11.483739788913226 0 11.483739788913226 -1.7992243001754105 0 0 0 0 89.872441920655547 23.645331019290097 0 23.645331019290097 -111.49794582304457 0 0 0 0 -1.986099502080009 0.17682643232096495 0 0.17682643232096495 -0.089340203418743158 0 0 0 0 51.446396276412997 -83.501691050532827 0 -83.501691050532827 -254.49976928823162 0 0 0 0 112.23943650527508 -38.77695503783616 0 -38.77695503783616 -118.37368281510328 0 0 0 0 56.309477557246282 -79.063162524247218 0 -79.063162524247218 -116.71638085861923 0 0 0 0 64.402010653415346 -105.36073437710002 0 -105.36073437710002 7.133866625614246 0 0 0 0 -76.91817581448413 -73.496873420930569 0 -73.496873420930569 11.092967807664536 0 0 0 0 4.8578234138039988 -166.73783716125945 0 -166.73783716125945 76.24039836067459 0 0 0 0 -11.066197820792695 -91.731882296654931 0 -91.731882296654931 97.383633971461677 0 0 0 0 -14.598598781580222 -95.738423152506584 0 -95.738423152506584 223.51633731594484 0 0 0 0 53.552664962393465 -152.58508052074103 0 -152.58508052074103 133.96222682591724 0 0 0 0 38.700743755223812 -115.65119837667271 0 -115.65119837667271 102.27558960942406 0 0 0 0 268.0946571444365 -242.22252660939012 0 -242.22252660939012 170.39106268032083 0 0 0 0 77.466982501820894 -143.37134237293685 0 -143.37134237293685 85.461088953783474 0 0 0 0 -51.712435785398156 -181.3975278409539 0 -181.3975278409539 277.07817019600043 0 0 0 0 -78.04344788005983 -95.8154490789384 0 -95.8154490789384 239.09294705234061 0 0 0 0 0.89847491305408766 -40.308858298634732 0 -40.308858298634732 -40.406003062253149 0 0 0 0 -49.168294903618516 -65.019725285159438 0 -65.019725285159438 232.36271234191372 0 0 0 0 3.6684415668635211 -4.1357180486840974 0 -4.1357180486840974 0.4076637459516661 0 0 0 0 13.405010225571459 -71.116238593649541 0 -71.116238593649541 213.08094979851739 0 0 0 0 25.517937928751053 1.8632489945739508 0 1.8632489945739508 154.98497138188031 0 0 0 0 102.96584814881862 -12.382349317118496 0 -12.382349317118496 23.512517132752691 0 0 0 0 179.58682988588407 -76.697047002529871 0 -76.697047002529871 32.173753668903373 0 0 0 0 238.30448819981893 35.596555667581015 0 35.596555667581015 179.12597972448566 0 0 0 0 100.22156075073872 -138.16932089846523 0 -138.16932089846523 373.65440518684773 0 0 0 0 -36.207137771860289 -68.110148102501626 0 -68.110148102501626 192.31825450788892 0 0 0 0 125.01173852503416 -94.158220123425053 0 -94.158220123425053 134.67508740291669 0 0 0 0 239.33843290066579 -86.006088670624194 0 -86.006088670624194 55.190510409462149 0 0 0 0 107.05755028127533 -169.34490387470032 0 -169.34490387470032 159.50139313299587 0 0 0 0 534.08557997610478 -273.2972851101058 0 -273.2972851101058 135.83740832006879 0 0 0 0 0.50383501149739018 -0.68437102825150475 0 -0.68437102825150475 3.5775699575648332 0 0 0 0 -2.8022329918058189 -4.0225644413487345 0 -4.0225644413487345 10.523186514633153 0 0 0 0 -41.689361934892077 -26.011775789886087 0 -26.011775789886087 30.904645255533978 0 0 0 0 226.81678762382944 -105.08249308661289 0 -105.08249308661289 27.529133322546841 0 0 0 0 177.47463124694332 -111.72981065706699 0 -111.72981065706699 56.482459965184603 0 0 0 0 97.857645591946493 -103.57326673742864 0 -103.57326673742864 45.996150763752667 0 0 0 0 150.93897224449756 -82.802575348550818 0 -82.802575348550818 32.670723662631644 0 0 0 0 2.7298592655570246 -31.170945208272315 0 -31.170945208272315 4.7397635696688667 0 0 0 0 -11.931394660306978 -51.42276898475393 0 -51.42276898475393 25.472602366498904 0 0 0 0 -3.7023333052638918 -47.801631001588248 0 -47.801631001588248 26.563306244421256 0 0 0 0 -62.643799012199452 -39.32890134392801 0 -39.32890134392801 22.609511413651489 0 0 0 0 -21.962827771465527 -31.279084892951687 0 -31.279084892951687 35.55865494482714 0 0 0 0 -10.032890782516915 -24.824438421601371 0 -24.824438421601371 26.591172994751105 0 0 0 0 -52.816829344061262 2.7366104877401085 0 2.7366104877401085 161.54481413150461 0 0 0 0 -41.08728671100971 40.309084441354457 0 40.309084441354457 48.654879275498388 0 0 0 0 -6.4982274092585612 -32.776475911878038 0 -32.776475911878038 35.877733114859439 0 0 0 0 -6.378024583827937 -30.732821217132368 0 -30.732821217132368 11.302365064665537 0 0 0 0 -26.159396262781229 34.722869696455746 0 34.722869696455746 -36.372849859179041 0 0 0 0 -13.004097200020624 -13.030769961839766 0 -13.030769961839766 -7.0088202518434031 0 0 0 0 -12.197614768112544 -33.307372608695005 0 -33.307372608695005 45.232050445360073 0 0 0 0 -11.992961749405367 20.825502735115151 0 20.825502735115151 -35.664398081248464 0 0 0 0 0.37389544439793099 -3.7080068897739693 0 -3.7080068897739693 -22.013722577373301 0 0 0 0 -35.58210656385927 11.602629040815373 0 11.602629040815373 -18.18394897944745 0 0 0 0 -0.47937446390278637 -24.941475606021413 0 -24.941475606021413 37.149272079626826 0 0 0 0 -34.115464323716878 -15.981441800489847 0 -15.981441800489847 21.366896667925175 0 0 0 0 -1.2544516272610053 -30.612957159435609 0 -30.612957159435609 4.2753352128729603 0 0 0 0 -15.537094026350303 -16.020861471029363 0 -16.020861471029363 -9.1355475532380197 0 0 0 0 -34.55763910993528 2.3298869707354015 0 2.3298869707354015 -21.983220759677351 0 0 0 0 -24.283170466414958 -19.276011791204382 0 -19.276011791204382 -5.2620116370671894 0 0 0 0 -13.907313687395799 -40.545493715341763 0 -40.545493715341763 15.639359903754666 0 0 0 0 -10.770382816292113 -35.034070618181431 0 -35.034070618181431 24.809345060573833 0 0 0 0 37.345664169784868 -43.354297386109465 0 -43.354297386109465 1.7311231147414219 0 0 0 0 2.7317980027582962 -23.956083918064905 0 -23.956083918064905 15.171301648188091 0 0 0 0 95.70533597812755 -75.64248391275396 0 -75.64248391275396 45.615083480697649 0 0 0 0 197.69086363229826 -97.185295069589984 0 -97.185295069589984 16.676082507263345 0 0 0 0 -3.1529637854423047 -16.144123998696912 0 -16.144123998696912 -9.0897336375665247 0 0 0 0 199.72972229533525 -125.15121090622961 0 -125.15121090622961 66.142790145815525 0 0 0 0 33.326443546575319 -2.276690028487792 0 -2.276690028487792 -9.503748715549591 0 0 0 0 -43.388600670172309 -19.70022325807804 0 -19.70022325807804 5.0950796465622261 0 0 0 0 2.734120925543948 -1.7657712920425723 0 -1.7657712920425723 0.059283258934286209 0 0 0 0 81.653637750598136 -125.80251533400133 0 -125.80251533400133 33.273130520447012 0 0 0 0 78.546284438823932 -47.82671543118704 0 -47.82671543118704 -24.534800261014425 0 0 0 0 160.72706176292559 -73.467753004297265 0 -73.467753004297265 -17.045920096727059 0 0 0 0 83.583655454218388 -110.49022873218019 0 -110.49022873218019 16.679200582209887 0 0 0 0 51.689117550529772 -114.10578032317426 0 -114.10578032317426 17.881597450882282 0 0 0 0 53.634682123069069 -103.74552110555669 0 -103.74552110555669 18.167620286279544 0 0 0 0 9.2910351157515834 -123.1733383066412 0 -123.1733383066412 28.179538145530387 0 0 0 0 55.285170415394532 -109.34524268441783 0 -109.34524268441783 23.041812167723037 0 0 0 0 -12.190690082949004 -89.672978229613364 0 -89.672978229613364 25.966196035098619 0 0 0 0 -10.922375922005813 -71.153507538810118 0 -71.153507538810118 11.081001261842175 0 0 0 0 -106.27665715096373 -78.514924961418728 0 -78.514924961418728 35.656413893899298 0 0 0 0 -20.920585734093038 -104.21712379959718 0 -104.21712379959718 9.7356529943899659 0 0 0 0 -3.5418401162678492 -83.579225367422623 0 -83.579225367422623 19.992899828876944 0 0 0 0 42.50108011069824 -131.59478142010903 0 -131.59478142010903 36.974273315841856 0 0 0 0 72.70304875682632 -131.29190452725925 0 -131.29190452725925 72.436883399557701 0 0 0 0 90.570833899731952 -87.230565392405879 0 -87.230565392405879 13.915686093881959 0 0 0 0 -18.573463473869197 -90.543484403493494 0 -90.543484403493494 68.550011293529678 0 0 0 0 -140.6439930248489 -72.88885218527048 0 -72.88885218527048 -27.841761551604577 0 0 0 0 -137.27910889497434 -55.580473423226067 0 -55.580473423226067 36.300228233335474 0 0 0 0 -18.239652103467961 -86.178230021367199 0 -86.178230021367199 -3.8623699589370517 0 0 0 0 -177.07563915251922 -24.958844376427805 0 -24.958844376427805 92.059984678882756 0 0 0 0 -108.50946061946524 -51.322915312939585 0 -51.322915312939585 141.60845222251373 0 0 0 0 -203.1680416292993 82.351750156003163 0 82.351750156003163 -94.94387722025931 0 0 0 0 -36.56467720810906 -64.96102820348824 0 -64.96102820348824 90.64684718224089 0 0 0 0 -54.608399068762083 -87.415289348860824 0 -87.415289348860824 121.43531233436624 0 0 0 0 79.961698503169828 -70.715879317554936 0 -70.715879317554936 69.418743293252192 0 0 0 0 -0.027446710584626999 -82.033098066071034 0 -82.033098066071034 138.09413443605081 0 0 0 0 -593.2044170620029 75.619437113355161 0 75.619437113355161 168.77336234166796 0 0 0 0 -1.4255258997931932 -1.6439685394308015 0 -1.6439685394308015 2.2955993655350397 0 0 0 0 184.94295376602531 -186.37039261409154 0 -186.37039261409154 109.64794536733643 0 0 0 0 -2.4508470513707721 -2.9794541120079856 0 -2.9794541120079856 4.0738000237372773 0 0 0 0 42.314371862332337 -46.708530244712165 0 -46.708530244712165 43.209973776312836 0 0 0 0 16.165508269201382 -43.838587347951034 0 -43.838587347951034 67.47843456598639 0 0 0 0 0.073737021655688295 -29.69854119026968 0 -29.69854119026968 55.292718157530544 0 0 0 0 32.192851213716494 -24.533114906967967 0 -24.533114906967967 13.234060508231778 0 0 0 0 -244.92754517751018 3.3884026749183249 0 3.3884026749183249 30.730651448931894 0 0 0 0 -83.469723355963652 -3.9740709274119581 0 -3.9740709274119581 -21.241161093810661 0 0 0 0 -93.996106227081327 -32.638310719403307 0 -32.638310719403307 13.133376501684324 0 0 0 0 -27.819396428007167 -21.649697619988729 0 -21.649697619988729 5.1120427512250899 0 0 0 0 -56.279066610339214 -48.528724572950523 0 -48.528724572950523 23.116908620904724 0 0 0 0 1.1528474089573137 -8.6343214202097442 0 -8.6343214202097442 12.228205960435275 0 0 0 0 0.0035148077586200088 -6.5286821676218096 0 -6.5286821676218096 8.9780931398272514 0 0 0 0 4.183925801080477 -7.9794922022356332 0 -7.9794922022356332 7.6532351749192458 0 0 0 0 -107.92819887805672 15.296304810001857 0 15.296304810001857 19.647769450664782 0 0 0 0 -2.078307621159766 -4.0066707081208648 0 -4.0066707081208648 3.6152301155883606 0 0 0 0 3.2290127165615559 -5.14056047910708 0 -5.14056047910708 2.2001434225967387 0 0 0 0 3.2460976589991333 -4.8902889379751286 0 -4.8902889379751286 2.5060672043182421 0 0 0 0 4.2289145788672613 -4.9820627284971124 0 -4.9820627284971124 1.7414711660603643 0 0 0 0 -0.49861344667817775 -0.20187073282678369 0 -0.20187073282678369 -0.07935062071520349 0 0 0 0 -28.366437047239742 -15.043529463349842 0 -15.043529463349842 -28.804803963365885 0 0 0 0 -60.486451812510495 24.283161036924866 0 24.283161036924866 -16.997151739917172 0 0 0 0 -61.498311885719886 -25.498564717872796 0 -25.498564717872796 12.198910247312597 0 0 0 0 11.238955565553624 -45.203888169155107 0 -45.203888169155107 -1.8926328375076764 0 0 0 0 13.689533027049038 -73.78362948592985 0 -73.78362948592985 21.944953795666152 0 0 0 0 -18.784345247637248 -16.917356190861028 0 -16.917356190861028 -1.3480993093544384 0 0 0 0 25.226109321243712 -32.303689630094595 0 -32.303689630094595 9.1150002449357999 0 0 0 0 1.2466570673859678 -33.759139132514974 0 -33.759139132514974 32.388439657697745 0 0 0 0 -11.246309021968045 -48.82917761247154 0 -48.82917761247154 17.232538166848826 0 0 0 0 -18.305309015668172 -15.795082967861163 0 -15.795082967861163 57.768146338814404 0 0 0 0 -34.442933674479718 -60.271713263271522 0 -60.271713263271522 31.077640168803555 0 0 0 0 89.006222558076843 -59.63046045791998 0 -59.63046045791998 29.361354029676932 0 0 0 0 0.0038609257753705606 -2.9307752404774874 0 -2.9307752404774874 1.6712764028314382 0 0 0 0 -0.28473612503664469 -1.5259256339041514 0 -1.5259256339041514 0.52694677851648919 0 0 0 0 2.9689648882873598 -4.2468943098286402 0 -4.2468943098286402 0.40630021264991001 0 0 0 0 3.4985810484467947 4.2610038234606691 0 4.2610038234606691 -39.455870676101767 0 0 0 0 26.833507236384321 -92.563936991275114 0 -92.563936991275114 80.604246971110115 0 0 0 0 34.015871921023063 -118.60247047414487 0 -118.60247047414487 44.266335845237336 0 0 0 0 59.334347271989827 -103.44637355840223 0 -103.44637355840223 20.108613936477923 0 0 0 0 42.378583287922083 -93.67265701413271 0 -93.67265701413271 16.89485030519063 0 0 0 0 9.5207369089766871 -68.333815119196515 0 -68.333815119196515 34.241174328139095 0 0 0 0 37.450407670668028 -104.58120123544154 0 -104.58120123544154 61.987833169903752 0 0 0 0 1.4234929151655535 0.87250816700955447 0 0.87250816700955447 -0.31239705975511534 0 0 0 0 -5.0205022025293147 -88.082857856393275 0 -88.082857856393275 229.89408734779681 0 0 0 0 106.03846020199853 -139.12672838982735 0 -139.12672838982735 50.279135671011318 0 0 0 0 4.6100456485146424 -27.687617999393296 0 -27.687617999393296 56.403924870264746 0 0 0 0 -2.1064254777447786 -10.469302239570425 0 -10.469302239570425 -148.86582945197824 0 0 0 0 144.70853235068353 -147.22132781725668 0 -147.22132781725668 -283.96799958773863 0 0 0 0 42.841379612284072 -96.521996045401465 0 -96.521996045401465 -19.263506311484889 0 0 0 0 352.15562837316975 49.681570111623842 0 49.681570111623842 -109.46545151880946 0 0 0 0 -0.014243843841541093 -87.943083778505752 0 -87.943083778505752 -120.64750076339624 0 0 0 0 -43.9373263080779 -86.561265178547274 0 -86.561265178547274 -75.140059883266076 0 0 0 0 20.040920768493379 -116.54763718441427 0 -116.54763718441427 -27.817899886361374 0 0 0 0 -47.095644001989058 -96.980133568733891 0 -96.980133568733891 -108.29468095552329 0 0 0 0 3.3040925540001425 -3.1673672242274478 0 -3.1673672242274478 -1.5622533252638249 0 0 0 0 216.20360834759776 -37.439916477280349 0 -37.439916477280349 -152.09059724902545 0 0 0 0 -58.516419947984105 -96.850486109812664 0 -96.850486109812664 -106.91268106542611 0 0 0 0 -39.576015299448045 -131.49411844820588 0 -131.49411844820588 -168.48710270606352 0 0 0 0 0.0091726527780467276 -119.69449059869336 0 -119.69449059869336 -193.59497813199232 0 0 0 0 -18.633420858444879 -87.382051694090478 0 -87.382051694090478 -117.38710528920274 0 0 0 0 28.009803836404899 -172.85538576283125 0 -172.85538576283125 -236.43064853227315 0 0 0 0 -233.14198297879557 -244.4301154350569 0 -244.4301154350569 -174.76520292217356 0 0 0 0 1.7420164374515394 -1.6274193735626454 0 -1.6274193735626454 -1.5452099569727125 0 0 0 0 -44.266800679139124 -135.35497460417901 0 -135.35497460417901 -143.98715899258696 0 0 0 0 54.251803380895581 -74.345631480975044 0 -74.345631480975044 -216.17534562451874 0 0 0 0 72.852783494237883 -110.22371520656179 0 -110.22371520656179 -150.07201435896786 0 0 0 0 44.630239757743766 -55.006355248975979 0 -55.006355248975979 -136.54513321464401 0 0 0 0 -14.772854992648718 -97.296113863736991 0 -97.296113863736991 -37.8438765319097 0 0 0 0 -135.97587580658001 8.7251332738796918 0 8.7251332738796918 -130.56949455532413 0 0 0 0 30.578165755388909 -75.883975555389952 0 -75.883975555389952 -36.060257434266532 0 0 0 0 -53.603921732828894 -64.924377143711354 0 -64.924377143711354 73.923810530357514 0 0 0 0 -4.7956288410132402 -103.82975816246017 0 -103.82975816246017 61.484249161434491 0 0 0 0 9.3661739414665135 -38.474610134511522 0 -38.474610134511522 79.330515092939095 0 0 0 0 -0.00077148170385044068 -121.59456573102761 0 -121.59456573102761 96.534463895736735 0 0 0 0 0.025794963949010707 -132.16712479857779 0 -132.16712479857779 -82.84210174603686 0 0 0 0 18.125389871082007 -50.330204760575725 0 -50.330204760575725 19.128988489494986 0 0 0 0 3.5924005169654265 -110.83362960899922 0 -110.83362960899922 -14.981462388401269 0 0 0 0 -10.518375088715402 -96.908348752003803 0 -96.908348752003803 168.94832094128546 0 0 0 0 -9.7110224502321216 -118.5039169209158 0 -118.5039169209158 15.432096292638562 0 0 0 0 131.43441190188969 -84.17863917032173 0 -84.17863917032173 5.9847153495338716 0 0 0 0 -1.1210104972792152 -0.99071357580969277 0 -0.99071357580969277 -0.21602196121590467 0 0 0 0 -42.164687851327471 -205.22092506861827 0 -205.22092506861827 165.71542194284524 0 0 0 0 -66.971125347372435 -202.39125192152096 0 -202.39125192152096 106.72698490034963 0 0 0 0 -42.849549668979307 -213.44260009970822 0 -213.44260009970822 85.907286237365042 0 0 0 0 -57.02657605944114 -190.35886137709986 0 -190.35886137709986 101.13407464054944 0 0 0 0 -45.844780849736708 -154.23598645320271 0 -154.23598645320271 15.898350367719104 0 0 0 0 -144.62319416506307 -235.67808051440994 0 -235.67808051440994 -170.68406395763668 0 0 0 0 -110.18924701232754 -120.69581754307819 0 -120.69581754307819 17.308190976653805 0 0 0 0 -37.558448495994526 -181.9553112569547 0 -181.9553112569547 -66.982215062602336 0 0 0 0 -11.112459714684519 -4.3500299498382446 0 -4.3500299498382446 -95.092045982531999 0 0 0 0 16.85601009731181 -55.435898225097844 0 -55.435898225097844 -381.97757839155292 0 0 0 0 -2.3197961334994091 -0.51747411259362508 0 -0.51747411259362508 -0.12387171283964094 0 0 0 0 -104.93704977474408 -7.2424487551388665 0 -7.2424487551388665 -59.671233094053605 0 0 0 0 -175.13879696538788 23.133004396151591 0 23.133004396151591 284.47309210579806 0 0 0 0 -93.946817729280497 -334.17744989942946 0 -334.17744989942946 53.844568589242044 0 0 0 0 -104.06471320292621 262.43784510181649 0 262.43784510181649 -61.784446499439582 0 0 0 0 57.454973981672083 56.27271774606379 0 56.27271774606379 -258.27456886141044 0 0 0 0 -3.2914742569886357 -2.2935463420969313 0 -2.2935463420969313 -0.98780185003029963 0 0 0 0 28.304733547833166 -34.230103025884091 0 -34.230103025884091 -77.224980507777218 0 0 0 0 -0.60683129011340498 -52.102769343624004 0 -52.102769343624004 57.321645040759904 0 0 0 0 91.203357011341723 -55.873070621702027 0 -55.873070621702027 8.1308031434800796 0 0 0 0 -1.6916015449498332 -2.1764902802354058 0 -2.1764902802354058 -1.234217580967405 0 0 0 0 58.346817961797569 -60.758025892044316 0 -60.758025892044316 -167.41559170288201 0 0 0 0 92.553875302099186 3.8003072203409829 0 3.8003072203409829 -187.40577292192211 0 0 0 0 6.0819489240820985 -36.811539742066088 0 -36.811539742066088 -32.437413368122634 0 0 0 0 -10.897631843181443 48.328814773356498 0 48.328814773356498 -107.94210115563237 0 0 0 0 21.297041150393369 -6.0053184956564287 0 -6.0053184956564287 -1.554231071727342 0 0 0 0 17.340667352043965 -33.019999685549919 0 -33.019999685549919 -84.12573575612987 0 0 0 0 -0.42664452415920096 -27.687618644669783 0 -27.687618644669783 -32.123631399615988 0 0 0 0 -35.957136957134935 -83.545680897164857 0 -83.545680897164857 -410.20572573559093 0 0 0 0 -30.311495268877479 -28.606863134149535 0 -28.606863134149535 -67.996148521333453 0 0 0 0 -4.9387484113622122 -118.87855743428906 0 -118.87855743428906 -169.55460935532756 0 0 0 0 -46.637334342121903 87.617944858078772 0 87.617944858078772 -149.91884395638135 0 0 0 0 -166.16843132366193 -154.24560544478754 0 -154.24560544478754 -130.49101380771026 0 0 0 0 2.9620371298943233 -2.1048134751827803 0 -2.1048134751827803 -4.8239236500906557 0 0 0 0 -89.343261331032409 -95.583549285974186 0 -95.583549285974186 -90.0055960609061 0 0 0 0 1.0973838706470929 -2.0169661378531689 0 -2.0169661378531689 -1.2180443325296757 0 0 0 0 19.575560768484138 -27.733168943315832 0 -27.733168943315832 10.308922896237164 0 0 0 0 15.723100398879524 -24.438422735260929 0 -24.438422735260929 -18.557175055520929 0 0 0 0 2.489847118629676 -15.432646643955877 0 -15.432646643955877 -8.1251708865081582 0 0 0 0 -7.3760230832267553 -10.726661905444416 0 -10.726661905444416 4.5416095193832007 0 0 0 0 -1.1538298841217287 -14.747395237749515 0 -14.747395237749515 -8.4713053403559826 0 0 0 0 -21.089827741775025 -32.020920500508169 0 -32.020920500508169 -1.681083959141688 0 0 0 0 12.041724322962864 -33.307069373341733 0 -33.307069373341733 2.4610061808052706 0 0 0 0 39.466873035104072 -44.462047073970098 0 -44.462047073970098 2.7019411300949514 0 0 0 0 24.302364988165209 -69.585530756909066 0 -69.585530756909066 29.417340718173364 0 0 0 0 8.2217787564877653 -49.301833081370205 0 -49.301833081370205 -19.351618227497966 0 0 0 0 -3.0913964433184447 -39.185919455580006 0 -39.185919455580006 -7.5112084484535444 0 0 0 0 -15.338661437330302 -37.224864607382187 0 -37.224864607382187 1.8799560920688236 0 0 0 0 -8.5552184432017384 -33.466576559016175 0 -33.466576559016175 -11.81688677258353 0 0 0 0 9.07705984126369 -46.869789980099085 0 -46.869789980099085 3.3966308202834625 0 0 0 0 -2.3111303871419295 -36.52484004153871 0 -36.52484004153871 -5.8292294143466279 0 0 0 0 64.03872227431566 -18.459497338426445 0 -18.459497338426445 -0.8552267617706093 0 0 0 0 27.131957538134884 -23.057854193619278 0 -23.057854193619278 2.1295240166964504 0 0 0 0 18.200813575513166 -22.049768364963711 0 -22.049768364963711 5.4373836730228504 0 0 0 0 41.771577583698672 -16.559594998117973 0 -16.559594998117973 1.1714343893254409 0 0 0 0 23.693033824049053 -34.606716115509698 0 -34.606716115509698 -9.5184547106982791 0 0 0 0 31.499289138446329 -23.729127743869867 0 -23.729127743869867 -3.6375698059346178 0 0 0 0 1.4317738940299023 -30.011931793862459 0 -30.011931793862459 -9.3341876179692918 0 0 0 0 13.515508311604208 -30.135510626291762 0 -30.135510626291762 -3.8122219354518165 0 0 0 0 21.979932157864823 -35.3878395860811 0 -35.3878395860811 -29.612015378213982 0 0 0 0 40.437901354554924 -13.031537262788333 0 -13.031537262788333 -21.995061067982533 0 0 0 0 32.539568017280544 -14.474125889759307 0 -14.474125889759307 -1.192470276806489 0 0 0 0 59.552459531660134 -33.359219886346182 0 -33.359219886346182 10.078096034412738 0 0 0 0 58.311236971785547 -28.153528445640404 0 -28.153528445640404 -9.2011892103546415 0 0 0 0 45.500747144747038 4.2740721348825446 0 4.2740721348825446 12.024357779642742 0 0 0 0 36.918008359396481 -7.3007018006646831 0 -7.3007018006646831 16.436712799019006 0 0 0 0 -153.03830228123115 -85.035628769946925 0 -85.035628769946925 -57.511347657316946 0 0 0 0 67.256137548538391 12.296349057985935 0 12.296349057985935 19.461571048355836 0 0 0 0 39.010309717639757 -14.719302992283701 0 -14.719302992283701 41.448157968683518 0 0 0 0 31.164066686396836 -16.485349369075266 0 -16.485349369075266 8.7006218516326044 0 0 0 0 37.784873551572673 -2.582288898745901 0 -2.582288898745901 16.078665097127669 0 0 0 0 44.723502188237035 1.3653555173332279 0 1.3653555173332279 7.766938944143476 0 0 0 0 48.219961965864059 3.8108519540801353 0 3.8108519540801353 9.3248728548787767 0 0 0 0 44.463913135066832 0.36087650673471217 0 0.36087650673471217 17.699477780923189 0 0 0 0 -44.376570961510879 -30.85592508775153 0 -30.85592508775153 -7.5778197461222589 0 0 0 0 -15.867945370504458 -27.306331181672249 0 -27.306331181672249 -21.625058791993069 0 0 0 0 8.6147106220842034 -0.95197165191459021 0 -0.95197165191459021 -0.84873358277655342 0 0 0 0 -109.21397687850549 -37.118319710250944 0 -37.118319710250944 -73.823466036919854 0 0 0 0 24.535986169484765 -46.50291221447776 0 -46.50291221447776 -1.2486728464982946 0 0 0 0 -16.251895172557951 0.24793080046651994 0 0.24793080046651994 4.2525777061714791 0 0 0 0 83.901530140912655 -18.377145479702449 0 -18.377145479702449 -44.09254704934574 0 0 0 0 -24.165275224231664 -20.249461775099917 0 -20.249461775099917 8.9055779001064366 0 0 0 0 69.65821864071404 18.140112809869606 0 18.140112809869606 -0.27327046800564858 0 0 0 0 71.078410208250489 39.731140616467997 0 39.731140616467997 13.448892606320442 0 0 0 0 210.8448459666979 -23.671844303557009 0 -23.671844303557009 -47.106816048605651 0 0 0 0 479.78179237015138 180.28349959354091 0 180.28349959354091 56.274782774942651 0 0 0 0 -144.2321689724813 14.490090998322557 0 14.490090998322557 147.08217194899407 0 0 0 0 11.296193116002542 -37.231500136984323 0 -37.231500136984323 -51.687822379124555 0 0 0 0 -86.873101786735788 -103.75292929047828 0 -103.75292929047828 697.67339058994548 0 0 0 0 68.233870487704735 1.7131565038016561 0 1.7131565038016561 -19.831313404378307 0 0 0 0 -181.84181779126448 -101.85221027745138 0 -101.85221027745138 64.863403362902318 0 0 0 0 31.463801541583358 -39.956127864112815 0 -39.956127864112815 6.9198548148268628 0 0 0 0 -141.29355973538259 -137.20309533420186 0 -137.20309533420186 -18.474160872601715 0 0 0 0 64.010665000114386 -10.883701534437478 0 -10.883701534437478 22.241595390471048 0 0 0 0 54.565744760460802 -25.581620794318951 0 -25.581620794318951 -9.1111186011735299 0 0 0 0 62.020170310735011 -54.033410268674203 0 -54.033410268674203 -102.18463756877463 0 0 0 0 333.46819080808746 176.09296649228827 0 176.09296649228827 -148.0726663063615 0 0 0 0 37.02285422575369 -302.65355348695084 0 -302.65355348695084 41.535735015574573 0 0 0 0 63.155612662449414 -175.22263826163265 0 -175.22263826163265 -135.30117078619151 0 0 0 0 42.728772890760816 -42.926354727515644 0 -42.926354727515644 15.003280304839571 0 0 0 0 -301.27396299072097 -175.21763548312538 0 -175.21763548312538 96.208029352026642 0 0 0 0 -0.17292814912283205 -0.065600545746704597 0 -0.065600545746704597 -3.0894882259669316 0 0 0 0 124.91713200657614 -166.75316338913035 0 -166.75316338913035 -20.069327772099314 0 0 0 0 33.53558615552835 -48.108922699470078 0 -48.108922699470078 19.905103849424918 0 0 0 0 -197.95653472563572 -156.35272076780575 0 -156.35272076780575 232.10225387580431 0 0 0 0 242.53840366071381 -149.2128267347307 0 -149.2128267347307 -156.50850474079925 0 0 0 0 223.7087459575705 -45.527496379792865 0 -45.527496379792865 -144.90965195554782 0 0 0 0 138.79241392139375 8.4151243918004184 0 8.4151243918004184 -114.79264636192238 0 0 0 0 3.4953866405703593 -255.27010418119607 0 -255.27010418119607 72.707160367439144 0 0 0 0 -142.35967028577579 -190.67472612015263 0 -190.67472612015263 71.166453452255098 0 0 0 0 4.6719076365515946 -0.35427055959370257 0 -0.35427055959370257 -0.2858362116792339 0 0 0 0 98.873001696396386 12.85112215099798 0 12.85112215099798 -103.17247184894586 0 0 0 0 -0.45777492284383925 -0.79721839765883118 0 -0.79721839765883118 -0.4941272243687731 0 0 0 0 13.466122958985693 -2.0932619948209235 0 -2.0932619948209235 0.30698022619176335 0 0 0 0 5.2731224053350161 12.663100746955024 0 12.663100746955024 -268.7418381793982 0 0 0 0 143.39116116245714 29.684697200320443 0 29.684697200320443 -380.42310145757801 0 0 0 0 9.9980648016353371 -61.718756628910342 0 -61.718756628910342 -102.261180742943 0 0 0 0 -43.247884042546502 -35.50898139149831 0 -35.50898139149831 -56.558190752981318 0 0 0 0 -4.6249553762900177 -39.488771627375172 0 -39.488771627375172 -29.223791829446327 0 0 0 0 26.158115114259999 -26.912585829152704 0 -26.912585829152704 -58.437633587494929 0 0 0 0 16.27374301738746 -28.355917691333161 0 -28.355917691333161 -25.600899838577334 0 0 0 0 55.343089031652198 -17.291239279990805 0 -17.291239279990805 -78.819576731471898 0 0 0 0 75.602385240264994 -12.025635961013904 0 -12.025635961013904 -82.029081723627314 0 0 0 0 8.4927888207166689 26.002712099518249 0 26.002712099518249 -87.889781067666263 0 0 0 0 -14.247044383326283 -62.058445864117857 0 -62.058445864117857 31.822340109840297 0 0 0 0 -6.2224590523765073 -52.500726252685126 0 -52.500726252685126 -29.199832694364886 0 0 0 0 37.173780956247356 -35.597456801742737 0 -35.597456801742737 -27.995360612556397 0 0 0 0 -8.9643300229391514 -39.481798168479727 0 -39.481798168479727 -21.961024965210527 0 0 0 0 -106.35313503399448 -65.119047614358351 0 -65.119047614358351 54.950002047953603 0 0 0 0 -9.5550774442390605 -5.2695943461321235 0 -5.2695943461321235 -90.070391028595623 0 0 0 0 -4.9390473097009817 -47.105330360071093 0 -47.105330360071093 -158.03739710840819 0 0 0 0 -2.5201086987554078 -3.4399684209460517 0 -3.4399684209460517 -0.35951570917633369 0 0 0 0 147.89872367820499 -21.9620747691406 0 -21.9620747691406 144.09056790452087 0 0 0 0 4.1146730415057391 -59.154130207901289 0 -59.154130207901289 187.59673517060946 0 0 0 0 -72.890651957302907 -77.302778825682253 0 -77.302778825682253 -92.713044653255565 0 0 0 0 -34.02865609007506 -43.078101784158548 0 -43.078101784158548 -75.158842108874524 0 0 0 0 -35.165882704146497 -66.74515458222595 0 -66.74515458222595 -35.938313034645034 0 0 0 0 -69.467216605851718 -79.358684742957848 0 -79.358684742957848 -21.110128446327508 0 0 0 0 -69.723222768705455 -42.217618199083518 0 -42.217618199083518 -8.7790821202834195 0 0 0 0 -78.747654878614412 -61.764119894465694 0 -61.764119894465694 22.985796073098754 0 0 0 0 -58.922137831810687 -15.337321104023431 0 -15.337321104023431 47.008305174008456 0 0 0 0 -55.39437059996817 -21.983558564491887 0 -21.983558564491887 -150.41300906135439 0 0 0 0 18.942486460997316 -156.52311600405665 0 -156.52311600405665 3.1677733405740582 0 0 0 0 -72.693759444438001 -96.974631931263502 0 -96.974631931263502 -61.938021124704392 0 0 0 0 -114.06271556769025 -82.0975395673604 0 -82.0975395673604 399.94560493154313 0 0 0 0 105.13533073352664 -32.909383733134746 0 -32.909383733134746 -484.17733000571934 0 0 0 0 -0.40812985702629589 -3.1174448714250786 0 -3.1174448714250786 -0.28107407647042359 0 0 0 0 -93.510020018213254 -14.992381908201423 0 -14.992381908201423 -140.29167974653319 0 0 0 0 -6.1649729208365898 -98.636811624215625 0 -98.636811624215625 151.83559715384035 0 0 0 0 4.6044613991507504 -179.54809735338677 0 -179.54809735338677 248.25448608525039 0 0 0 0 156.68085093400441 -246.36409418047333 0 -246.36409418047333 -341.82529365484515 0 0 0 0 33.426771546535747 -223.15303543955088 0 -223.15303543955088 -15.29500319937506 0 0 0 0 242.69163762065 -105.06382599143762 0 -105.06382599143762 -56.506975396705457 0 0 0 0 145.24733088019275 -341.41004943851294 0 -341.41004943851294 -148.69129016510851 0 0 0 0 23.845845401767292 -94.548324586194212 0 -94.548324586194212 -93.15353458543359 0 0 0 0 146.42048322177288 -277.61820262721085 0 -277.61820262721085 154.58440160272585 0 0 0 0 -7.1820260625099763 -32.592835954266775 0 -32.592835954266775 122.78202218977549 0 0 0 0 -36.246729701488221 -59.593247700111533 0 -59.593247700111533 129.56853534877882 0 0 0 0 73.528444421761378 -160.58289984822841 0 -160.58289984822841 325.68711387231087 0 0 0 0 544.79432678162448 -332.32495846679785 0 -332.32495846679785 91.823599044109869 0 0 0 0 2.588040827632895 -3.1139843679543588 0 -3.1139843679543588 4.7457560506793186 0 0 0 0 160.49246685145772 -355.14588657937202 0 -355.14588657937202 -230.62422835351754 0 0 0 0 588.88481535758729 258.83611248750458 0 258.83611248750458 -157.41010000841925 0 0 0 0 892.07739815316017 -312.55922740654933 0 -312.55922740654933 -467.77509263500542 0 0 0 0 10.991933770952528 42.436713949066871 0 42.436713949066871 58.089718176110182 0 0 0 0 14.64956223959598 18.859682854468701 0 18.859682854468701 197.13271550085665 0 0 0 0 137.00654037510685 18.052768724097405 0 18.052768724097405 2.2348161404952407 0 0 0 0 -31.085870853821689 119.00324194091627 0 119.00324194091627 22.265656157891499 0 0 0 0 192.35039261833299 207.05512175126205 0 207.05512175126205 98.857508615212282 0 0 0 0 8.9134956618072465 48.435118885663542 0 48.435118885663542 129.3781441364481 0 0 0 0 14.396673537592676 -2.9194437717677459 0 -2.9194437717677459 -10.392914051649356 0 0 0 0 81.227557145808532 -38.020490072838584 0 -38.020490072838584 -153.36032521085508 0 0 0 0 5.2321059849527956 -91.462089838234533 0 -91.462089838234533 -13.905903162489267 0 0 0 0 82.702393104787916 -57.96789358199203 0 -57.96789358199203 -45.974045259021295 0 0 0 0 165.38427302533819 -55.935139542420075 0 -55.935139542420075 -63.843405228048141 0 0 0 0 85.536529367946059 -70.309020416657404 0 -70.309020416657404 84.916784776563873 0 0 0 0 8.4487664775853517 -12.142169967217509 0 -12.142169967217509 10.006407871884363 0 0 0 0 -2.9286160817311355 -2.7283625826526166 0 -2.7283625826526166 2.4513751812316968 0 0 0 0 123.7746620826797 -67.078732345742765 0 -67.078732345742765 31.724492892066337 0 0 0 0 -23.188714782627358 -27.227589481641189 0 -27.227589481641189 6.3272053292530472 0 0 0 0 45.89838734161458 -4.7975212251785706 0 -4.7975212251785706 -24.890724202961792 0 0 0 0 130.61526033814152 14.916603292145737 0 14.916603292145737 -23.205732828970213 0 0 0 0 -8.8428585281291561 -21.520852030967568 0 -21.520852030967568 9.1099647511526882 0 0 0 0 10.188349160174681 -15.929718407359507 0 -15.929718407359507 -6.8291858543772506 0 0 0 0 -22.116030019877144 -37.87211849949108 0 -37.87211849949108 15.908246626109758 0 0 0 0 -42.37246282178603 -30.645902359719912 0 -30.645902359719912 13.415906294452725 0 0 0 0 -27.297787051647902 -15.541746635804884 0 -15.541746635804884 27.823378369772399 0 0 0 0 -28.743140324855631 -8.2236808033958368 0 -8.2236808033958368 -4.8302566285128705 0 0 0 0 -55.603933141306698 -21.521430254220377 0 -21.521430254220377 46.185205425346794 0 0 0 0 -30.50114587626922 -46.731340381957125 0 -46.731340381957125 25.454557212822692 0 0 0 0 -40.101541217762133 -46.017745426172041 0 -46.017745426172041 2.2631573746330105 0 0 0 0 -64.137824902931243 -51.748627389178182 0 -51.748627389178182 24.425751166541886 0 0 0 0 -40.583599420621283 -69.101214244343424 0 -69.101214244343424 10.408756792057829 0 0 0 0 -28.875118790354463 -45.483636201664922 0 -45.483636201664922 25.519999747796646 0 0 0 0 -17.214985121641803 -59.218733220004651 0 -59.218733220004651 22.78739760252347 0 0 0 0 -29.556893343288468 -33.227876778597185 0 -33.227876778597185 -16.641251438358395 0 0 0 0 1.4916493714874832 -79.690778318378932 0 -79.690778318378932 -23.385704539403378 0 0 0 0 -20.66030148828213 -47.882032312112642 0 -47.882032312112642 0.84061216176633025 0 0 0 0 -0.69923835746033092 -50.917296760142335 0 -50.917296760142335 15.089563429137343 0 0 0 0 16.851876290807922 -96.618309984967368 0 -96.618309984967368 18.621548008261016 0 0 0 0 -30.400753859446397 -23.555489703495972 0 -23.555489703495972 -14.684699566632077 0 0 0 0 -25.125834243672671 -53.180923904096744 0 -53.180923904096744 23.196736040615178 0 0 0 0 11.562672182848473 -53.943193039935068 0 -53.943193039935068 8.8947363105689874 0 0 0 0 2.4553304660985305 -39.00589364060761 0 -39.00589364060761 -29.139162805805427 0 0 0 0 2.9911211588150763 -34.310809579377747 0 -34.310809579377747 -6.8311709496065305 0 0 0 0 -27.801781055758283 -76.98020577233774 0 -76.98020577233774 -7.3313363798915816 0 0 0 0 -10.243856276304314 -94.503650663010831 0 -94.503650663010831 -28.601734445204784 0 0 0 0 21.81718381194942 -23.47601649856049 0 -23.47601649856049 4.9503951547217575 0 0 0 0 -7.3633840744005283 -44.303818192149265 0 -44.303818192149265 -25.768695493718042 0 0 0 0 -6.5835190879734 -31.8492710719147 0 -31.8492710719147 -15.304155940477358 0 0 0 0 13.445073934594888 -36.785010549415624 0 -36.785010549415624 -5.7659175069012321 0 0 0 0 10.328609218209749 -34.534827376462999 0 -34.534827376462999 -0.9059932525469776 0 0 0 0 15.425636732384802 -18.170250748785783 0 -18.170250748785783 4.9307450182674266 0 0 0 0 13.515585952834954 -21.215517040283885 0 -21.215517040283885 2.2320546585715419 0 0 0 0 11.10355668543707 -39.03461303918732 0 -39.03461303918732 17.259977827341572 0 0 0 0 41.910572630719798 -45.126031492929997 0 -45.126031492929997 9.1422057843228686 0 0 0 0 -0.35716127088742411 -13.964924635963122 0 -13.964924635963122 -14.665272623311097 0 0 0 0 35.136247707589064 -23.093186037855048 0 -23.093186037855048 -8.8627249247729196 0 0 0 0 11.618487980547798 -45.479354097699797 0 -45.479354097699797 -11.58761779557608 0 0 0 0 67.607031481649756 -27.755171668315597 0 -27.755171668315597 -13.326298348896671 0 0 0 0 71.961711873151216 -50.99845292147802 0 -50.99845292147802 41.179215488526097 0 0 0 0 81.721509506834991 -49.106547262441381 0 -49.106547262441381 -7.8841507168253884 0 0 0 0 66.700324725221435 -27.671698680447662 0 -27.671698680447662 -29.312077180598862 0 0 0 0 154.78836317734385 -23.298099837105838 0 -23.298099837105838 -29.103810703302543 0 0 0 0 -14.57937776197673 -0.79149517860387419 0 -0.79149517860387419 3.4461180029155258 0 0 0 0 75.240741685123794 -54.763111646881043 0 -54.763111646881043 12.968616234298679 0 0 0 0 70.952415316573024 -36.15970105033648 0 -36.15970105033648 5.5913321249872752 0 0 0 0 73.044401033177564 -33.077895260953483 0 -33.077895260953483 -1.6253794389704126 0 0 0 0 72.671895481165848 -30.880659210539307 0 -30.880659210539307 15.577322404802544 0 0 0 0 22.649833167571202 -47.141439063576357 0 -47.141439063576357 7.8814868005915031 0 0 0 0 11.415517309245928 -8.2226749465050091 0 -8.2226749465050091 -3.0699865433029743 0 0 0 0 -22.327781217696611 -66.552029419389328 0 -66.552029419389328 -31.931203080490377 0 0 0 0 8.129163373800111 -42.1712047544695 0 -42.1712047544695 -38.872807444964565 0 0 0 0 -9.5757192151335175 -16.461013752090139 0 -16.461013752090139 2.0884682147411979 0 0 0 0 -33.810117295412056 -74.792074653862983 0 -74.792074653862983 -47.984840456570964 0 0 0 0 -16.161967748470488 -43.401566130522042 0 -43.401566130522042 -6.0820462417468661 0 0 0 0 9.7586150036586332 -27.043119403524543 0 -27.043119403524543 -2.7763177005690522 0 0 0 0 -3.1408696561160845 -27.71620277920475 0 -27.71620277920475 -1.5088256031769731 0 0 0 0 21.856101425239217 -59.614372096035559 0 -59.614372096035559 -12.870900899100805 0 0 0 0 41.95393304068358 -47.045956664359906 0 -47.045956664359906 -20.06900280353349 0 0 0 0 19.531585191338053 -1.6270549237873837 0 -1.6270549237873837 -10.887984763114879 0 0 0 0 -19.481913316532882 -33.361732715910875 0 -33.361732715910875 -35.272559560375157 0 0 0 0 -50.515468391400645 -95.489868566120094 0 -95.489868566120094 -42.639495076047751 0 0 0 0 13.485764406514683 -31.600739839008206 0 -31.600739839008206 -22.843042962887907 0 0 0 0 -29.370528850085975 -59.851909937741766 0 -59.851909937741766 -3.1718910130439326 0 0 0 0 7.4858001397151384 -32.712720602786703 0 -32.712720602786703 -9.5048825599023985 0 0 0 0 -48.8013870237628 -39.285034297100538 0 -39.285034297100538 -20.943557454489564 0 0 0 0 0.20202586147206603 -33.454917019128516 0 -33.454917019128516 -35.814233947130106 0 0 0 0 12.434399136200227 -43.572232991207784 0 -43.572232991207784 -28.349682835716521 0 0 0 0 3.7048598393475913 -40.205406473171251 0 -40.205406473171251 -17.534489227839003 0 0 0 0 28.628258115690187 -40.892832417440331 0 -40.892832417440331 3.091567445313558 0 0 0 0 12.87702319501841 -47.082805960060796 0 -47.082805960060796 -46.657593701148471 0 0 0 0 11.006661468325078 -25.936305724562892 0 -25.936305724562892 6.4314306538214252 0 0 0 0 10.592758325147571 -19.187212394715559 0 -19.187212394715559 9.8296281370788279 0 0 0 0 11.048104409878761 -26.591212316871406 0 -26.591212316871406 -9.4681350216615101 0 0 0 0 1.2248556482409185 -20.954493986892885 0 -20.954493986892885 -4.6826577252468269 0 0 0 0 -0.45082399297461961 -43.449685025717372 0 -43.449685025717372 -24.761845131479731 0 0 0 0 4.9420633164290848 -43.168348540157695 0 -43.168348540157695 -25.529271189995598 0 0 0 0 4.8133297018575831 -43.597796719955113 0 -43.597796719955113 -26.190529189991139 0 0 0 0 -9.61932197232818 -32.596184624802845 0 -32.596184624802845 -0.67461017685036495 0 0 0 0 4.5009126950616576 -22.353213859192326 0 -22.353213859192326 15.717741952982822 0 0 0 0 4.9372887159861421 -31.732790404342268 0 -31.732790404342268 -17.589161757477996 0 0 0 0 20.19550299360548 -14.039315721822213 0 -14.039315721822213 5.0694311237311709 0 0 0 0 -1.6588054348108017 -32.772628204011767 0 -32.772628204011767 -12.525116854798398 0 0 0 0 117.01750640486716 -105.83891649433099 0 -105.83891649433099 -44.79041087259111 0 0 0 0 21.919502935747232 -187.29641223424005 0 -187.29641223424005 136.23671830305648 0 0 0 0 -0.9654990014479381 -0.8992927625621121 0 -0.8992927625621121 -0.23393673601697174 0 0 0 0 121.01071212713578 -86.783818270727352 0 -86.783818270727352 44.8655527835881 0 0 0 0 70.739695965990904 -79.974557961902519 0 -79.974557961902519 64.325174851366683 0 0 0 0 44.406872463725449 -204.60433713658313 0 -204.60433713658313 211.89946641683309 0 0 0 0 29.116856872555218 -279.35984825919149 0 -279.35984825919149 -9.3032993183705912 0 0 0 0 48.283038007910363 -238.6542140828733 0 -238.6542140828733 31.495768140026485 0 0 0 0 20.348986878925643 -259.81065058880449 0 -259.81065058880449 60.49634224914189 0 0 0 0 162.09059590787001 -130.7267607712306 0 -130.7267607712306 -68.365468237059758 0 0 0 0 59.682779779992416 -2.6410543050296837 0 -2.6410543050296837 -7.5854646857605985 0 0 0 0 -80.117066410941334 -54.059412327010932 0 -54.059412327010932 11.698006548980629 0 0 0 0 -77.464952328067739 -61.896382426491982 0 -61.896382426491982 26.033682458444673 0 0 0 0 -32.334621538946521 -125.38513229817363 0 -125.38513229817363 -43.63273617989762 0 0 0 0 24.241890934958064 -145.3471519059658 0 -145.3471519059658 -48.609493310666039 0 0 0 0 -39.424987438062089 -130.58454464599708 0 -130.58454464599708 59.386759515256927 0 0 0 0 -19.106099106604233 -36.6972066670196 0 -36.6972066670196 12.257022820137081 0 0 0 0 -31.490765878683305 -63.253255244006141 0 -63.253255244006141 9.4604748013171047 0 0 0 0 -122.47479833134275 -90.500938648548981 0 -90.500938648548981 21.059245217971693 0 0 0 0 -69.525361490814248 -148.84881653184675 0 -148.84881653184675 -104.38697758394301 0 0 0 0 -48.000179929687874 -47.48713283498364 0 -47.48713283498364 1.4250810382491181 0 0 0 0 -76.765322950624977 -63.66070993388621 0 -63.66070993388621 18.796438613073406 0 0 0 0 -51.175018687703414 -50.401340145823269 0 -50.401340145823269 4.0980597351081087 0 0 0 0 -52.074297394729911 -44.091370244214886 0 -44.091370244214886 40.717781310861028 0 0 0 0 -31.69546011510829 -32.685072476208006 0 -32.685072476208006 23.438248273523641 0 0 0 0 -49.81884007192275 -40.112980731626521 0 -40.112980731626521 23.970352850141353 0 0 0 0 -19.779938146370114 -31.63360043251032 0 -31.63360043251032 51.40561247743085 0 0 0 0 13.28430840953115 -83.5965005704345 0 -83.5965005704345 45.873537198940539 0 0 0 0 55.21290834723186 -36.697872495987212 0 -36.697872495987212 93.413212062769162 0 0 0 0 116.23812327410269 -136.22922955763715 0 -136.22922955763715 98.246895790781991 0 0 0 0 107.29444503106697 -154.80978531114215 0 -154.80978531114215 129.06995925593765 0 0 0 0 -1.6805236395595102 -1.8594949193447405 0 -1.8594949193447405 -1.05133611796305 0 0 0 0 52.088470073591452 -58.510500916066121 0 -58.510500916066121 76.342336894221262 0 0 0 0 41.907510457764374 -91.207537340540355 0 -91.207537340540355 29.781375151993416 0 0 0 0 43.337906704262423 -51.61064507953725 0 -51.61064507953725 15.995353431111653 0 0 0 0 10.037646642747859 -54.154290770937223 0 -54.154290770937223 37.123596910321794 0 0 0 0 -0.52235654542164411 -36.227111273838091 0 -36.227111273838091 21.471029361800902 0 0 0 0 -1.8562961995994556 -69.417479068752073 0 -69.417479068752073 80.6525069064337 0 0 0 0 19.472383093537246 -32.478012076993082 0 -32.478012076993082 -12.5720989376332 0 0 0 0 16.570898527606914 -47.943122780708109 0 -47.943122780708109 29.20898194237634 0 0 0 0 43.474525633659994 -41.721512393730322 0 -41.721512393730322 8.3497910918194975 0 0 0 0 43.701107352535473 -76.709686785475242 0 -76.709686785475242 48.909070591070304 0 0 0 0 -24.205293467304728 -43.021745676041974 0 -43.021745676041974 23.873348532066302 0 0 0 0 -79.310517330064613 -28.337140471627208 0 -28.337140471627208 30.462700322472983 0 0 0 0 -39.574425322993193 -42.121935942971504 0 -42.121935942971504 32.428114463595193 0 0 0 0 -53.721293967008933 -26.574055975458521 0 -26.574055975458521 9.0867681691015605 0 0 0 0 -53.251705467577267 -34.869884757142245 0 -34.869884757142245 32.626872225651823 0 0 0 0 -39.617298038385343 -11.954067403083172 0 -11.954067403083172 12.137355711261534 0 0 0 0 -49.2335686043225 -21.061960716044268 0 -21.061960716044268 14.414480640383772 0 0 0 0 -60.768868943527195 -7.8874760758958473 0 -7.8874760758958473 18.640934707847919 0 0 0 0 -15.793754723094025 -64.05027351613171 0 -64.05027351613171 -41.188491153639916 0 0 0 0 -7.8330915760598145 -34.196164548739944 0 -34.196164548739944 23.186552730013318 0 0 0 0 19.230079629320244 22.21902479878031 0 22.21902479878031 -15.953564130978066 0 0 0 0 -18.302371826589251 -19.14680736652501 0 -19.14680736652501 1.7287020385050531 0 0 0 0 -39.327819576930779 -18.542927361713737 0 -18.542927361713737 57.785576860483161 0 0 0 0 -98.554120661996421 38.07289293219128 0 38.07289293219128 6.0769088419799573 0 0 0 0 -6.2271936237084446 -87.39989331238894 0 -87.39989331238894 -26.119876089300305 0 0 0 0 -8.8770738670348237 6.9904257071059881 0 6.9904257071059881 -23.920671706988514 0 0 0 0 -6.0598656133360009 -133.65749965108401 0 -133.65749965108401 92.11656369429511 0 0 0 0 8.1579030511420569 -9.4527762086258917 0 -9.4527762086258917 -9.9169433277672852 0 0 0 0 120.56343571786419 10.255648842776282 0 10.255648842776282 -80.243430196736554 0 0 0 0 -26.326828870678582 -62.518807100706226 0 -62.518807100706226 -84.293723434511094 0 0 0 0 -97.038785768221715 -37.067873077489935 0 -37.067873077489935 -25.949114587391477 0 0 0 0 -0.22681237557711498 -0.35198713746463284 0 -0.35198713746463284 -2.4222869432060543 0 0 0 0 15.10854994438705 68.638013216967025 0 68.638013216967025 -52.064003775853649 0 0 0 0 -309.45480694606158 -142.46607182710704 0 -142.46607182710704 16.742911813204842 0 0 0 0 28.003557076503057 48.503006395834653 0 48.503006395834653 -29.094922392285348 0 0 0 0 84.269976377363491 29.993732794140783 0 29.993732794140783 -72.834328133331837 0 0 0 0 63.597485675480129 61.163323058137507 0 61.163323058137507 -112.62544292719485 0 0 0 0 -20.424776734784245 -20.816924988332175 0 -20.816924988332175 32.60455918338539 0 0 0 0 -4.3481315016726114 2.7254721281705372 0 2.7254721281705372 8.862338413556559 0 0 0 0 -2.6853817925290002 -30.438052070989269 0 -30.438052070989269 66.494066126473626 0 0 0 0 -2.6951464409357868 -32.802785909827435 0 -32.802785909827435 -6.1342369912617869 0 0 0 0 -17.482045300057507 -15.983929228512352 0 -15.983929228512352 25.72152774699498 0 0 0 0 -26.015967143583111 -32.424802421466666 0 -32.424802421466666 51.839167727135646 0 0 0 0 -0.61600776779232547 -7.9175370138518701 0 -7.9175370138518701 28.445502451147149 0 0 0 0 -15.592987697985819 -20.055208672380953 0 -20.055208672380953 0.1072170300398764 0 0 0 0 -397.85537499969359 -19.355660049784092 0 -19.355660049784092 -77.020174731660632 0 0 0 0 -8.8457454262388637 9.1561617389688763 0 9.1561617389688763 -2.3277264532716799 0 0 0 0 67.932721702938579 -270.72199107694411 0 -270.72199107694411 -134.87865243058059 0 0 0 0 31.957862263214338 -67.062679531767571 0 -67.062679531767571 169.92848392609085 0 0 0 0 5.4990298495722527 -41.701247877857895 0 -41.701247877857895 -112.43547196233703 0 0 0 0 4.7679728956916563 -4.8093617616635527 0 -4.8093617616635527 -0.39926947442763705 0 0 0 0 14.34936422463943 -47.29691203359107 0 -47.29691203359107 154.35607315839297 0 0 0 0 4.590098391257925 -15.041169057754814 0 -15.041169057754814 -72.179750965986386 0 0 0 0 -9.1100358769363083 -36.580702015167276 0 -36.580702015167276 -62.519590600826632 0 0 0 0 -2.7685624555797403 -27.979763407183782 0 -27.979763407183782 -25.138161434701033 0 0 0 0 0.34622890291939257 -38.849422935061739 0 -38.849422935061739 -39.324228456869605 0 0 0 0 -20.037295020323654 -44.403288198618611 0 -44.403288198618611 -20.917993636924621 0 0 0 0 -11.034472843482035 -47.753938270186836 0 -47.753938270186836 -44.201484530398375 0 0 0 0 -0.65848771672517614 -42.097476583656658 0 -42.097476583656658 -24.008625499436675 0 0 0 0 8.0929367422431824 -40.459642879655803 0 -40.459642879655803 -30.549341915948389 0 0 0 0 5.5064205981907435 -33.787996719322109 0 -33.787996719322109 26.298024186567204 0 0 0 0 7.6303331345267793 -8.8586540253523154 0 -8.8586540253523154 -0.45636541160264676 0 0 0 0 4.6570767297332054 -17.745056956665394 0 -17.745056956665394 -24.782033558924013 0 0 0 0 6.209846478941472 -23.696774469653974 0 -23.696774469653974 93.368398919439642 0 0 0 0 26.414615398396563 -13.07589676974294 0 -13.07589676974294 -9.3383176100542187 0 0 0 0 11.689589321205858 -25.666149057921757 0 -25.666149057921757 -17.052566699421732 0 0 0 0 0.51796131362982578 -33.455302296205488 0 -33.455302296205488 6.352523573709 0 0 0 0 5.6656246875848382 -18.095722457761628 0 -18.095722457761628 3.7194532012856811 0 0 0 0 15.91723695226392 -36.14715173408149 0 -36.14715173408149 -7.6347235601642751 0 0 0 0 15.876238718356035 -30.755147807334197 0 -30.755147807334197 -21.128931077033485 0 0 0 0 9.034450963694546 -29.634140439898239 0 -29.634140439898239 -7.7923726274397112 0 0 0 0 -49.373760659986146 -29.394062202852865 0 -29.394062202852865 9.1724282014474738 0 0 0 0 29.517960276778467 -32.285989016286294 0 -32.285989016286294 -21.921838883202327 0 0 0 0 -44.551724354503676 -20.56447232305436 0 -20.56447232305436 1.4689703648582508 0 0 0 0 -47.506571376652573 -27.371471375347028 0 -27.371471375347028 3.3134578910721757 0 0 0 0 -0.94217611993516925 -4.118342161374855 0 -4.118342161374855 0.75072489081976901 0 0 0 0 13.375882148044184 -40.116192414099714 0 -40.116192414099714 -83.741799951653888 0 0 0 0 -42.690475310198963 -5.5770963952190868 0 -5.5770963952190868 14.990270187067836 0 0 0 0 17.56915198240781 -16.533368081331261 0 -16.533368081331261 0.22338916122276231 0 0 0 0 -6.2897401595691917 -23.199873953337374 0 -23.199873953337374 -0.48965902465715772 0 0 0 0 -6.9647424642316764 -9.1390271126110747 0 -9.1390271126110747 4.1405370041811693 0 0 0 0 80.136867317734868 -7.8531688861830844 0 -7.8531688861830844 -81.690427972771431 0 0 0 0 -32.079898072428477 -41.472431782422973 0 -41.472431782422973 33.864441964729849 0 0 0 0 -4.5325255140342051 -22.196864155379899 0 -22.196864155379899 -6.9892472304381954 0 0 0 0 -19.649688539293976 -21.216152121715595 0 -21.216152121715595 6.6601529885988766 0 0 0 0 0.4402579572328591 0.61148945894895768 0 0.61148945894895768 -0.040868833164875662 0 0 0 0 -24.141628319164738 70.726546110782692 0 70.726546110782692 -206.96286873460781 0 0 0 0 45.543752414916526 -93.726712914793325 0 -93.726712914793325 -24.686802923949472 0 0 0 0 -45.949700773446239 -71.955469616726759 0 -71.955469616726759 222.87673949396685 0 0 0 0 88.469514163822168 41.360413248720533 0 41.360413248720533 29.246572149502754 0 0 0 0 27.495914249913767 56.558781182864323 0 56.558781182864323 133.85869790382549 0 0 0 0 -40.908676488732453 47.963363014753668 0 47.963363014753668 30.620302830948162 0 0 0 0 4.0711883999542806 -6.264796228045876 0 -6.264796228045876 -0.20470938154746188 0 0 0 0 -123.79289601772325 -97.288792638973064 0 -97.288792638973064 45.194997051781229 0 0 0 0 202.08059133824281 120.63873277842958 0 120.63873277842958 -350.56313767233326 0 0 0 0 -28.170581862032122 -95.435246000232041 0 -95.435246000232041 105.91891094780385 0 0 0 0 -73.643945909454487 -131.49043943483866 0 -131.49043943483866 53.229100427764706 0 0 0 0 -14.226823583550868 -129.17976295176595 0 -129.17976295176595 50.596711633778796 0 0 0 0 66.352103094726772 -70.49215065230058 0 -70.49215065230058 46.671228306078774 0 0 0 0 -33.455711510614492 -95.000189335377854 0 -95.000189335377854 -134.17281994701261 0 0 0 0 18.849481342481283 -18.962587991996152 0 -18.962587991996152 8.7602622102555614 0 0 0 0 4.8554356129456195 -20.212212493004969 0 -20.212212493004969 -2.7185221732777123 0 0 0 0 4.4327496965852333 -97.407729139521962 0 -97.407729139521962 -17.188848269207028 0 0 0 0 5.3288597943419518 -30.321566980809962 0 -30.321566980809962 -4.2683141921570495 0 0 0 0 5.9914397538668709 -27.899232043849224 0 -27.899232043849224 -3.747580531761173 0 0 0 0 11.924506629249748 -29.098776576785614 0 -29.098776576785614 3.2608913967437978 0 0 0 0 9.4652604643488303 -43.661105464219872 0 -43.661105464219872 35.202648773427427 0 0 0 0 46.051107714534737 -93.096562799913954 0 -93.096562799913954 39.894851533666952 0 0 0 0 9.5039612668697373 -53.599710976946881 0 -53.599710976946881 8.7781949062191416 0 0 0 0 21.441545968679122 -30.414453594450748 0 -30.414453594450748 6.7274445914420609 0 0 0 0 22.762538730039523 -54.476772333800909 0 -54.476772333800909 -17.878093474711932 0 0 0 0 31.651968168240273 -9.5066286990079334 0 -9.5066286990079334 63.975803491776333 0 0 0 0 18.360424452735529 -16.429427161412598 0 -16.429427161412598 1.7678026058066885 0 0 0 0 -174.30911070125876 -266.34513186833237 0 -266.34513186833237 286.67754728555428 0 0 0 0 20.872050777201252 -30.686606085303055 0 -30.686606085303055 -0.51436705681361872 0 0 0 0 -300.31592435747007 -34.506511601188436 0 -34.506511601188436 470.54617587771372 0 0 0 0 52.506018256273819 193.85375218262402 0 193.85375218262402 -152.03487071121117 0 0 0 0 20.411544836926623 -32.36031985487989 0 -32.36031985487989 -16.081496637595592 0 0 0 0 4.0603498594929022 -27.367740053964994 0 -27.367740053964994 0.7146761568360116 0 0 0 0 12.160926423282945 -24.037273450016983 0 -24.037273450016983 -4.7212759538751925 0 0 0 0 -1.741690684826608 -38.716897059427197 0 -38.716897059427197 -7.270979664837796 0 0 0 0 11.736904721637629 -24.794987480229626 0 -24.794987480229626 -9.4650956096472214 0 0 0 0 1.1595001131979643 -3.8421447316078847 0 -3.8421447316078847 -1.2326875112433422 0 0 0 0 28.877444041743729 -94.749144144427191 0 -94.749144144427191 201.03668188321717 0 0 0 0 60.311711885035038 12.483089752315209 0 12.483089752315209 -240.54592869876069 0 0 0 0 12.724000580914435 -65.980881559692989 0 -65.980881559692989 -144.38530752842416 0 0 0 0 51.572314630371693 -116.52718568925229 0 -116.52718568925229 138.46240039696568 0 0 0 0 8.200201677827863 -33.761384114007001 0 -33.761384114007001 -4.6922794671320389 0 0 0 0 -65.921064804482739 -76.34486984059663 0 -76.34486984059663 -12.446136305798973 0 0 0 0 14.727958828428946 -24.023634770422163 0 -24.023634770422163 9.9920541370514044 0 0 0 0 -114.04206524975962 12.434069565490518 0 12.434069565490518 -0.6871204779369009 0 0 0 0 -30.996979031850699 -28.814306737109291 0 -28.814306737109291 13.138596561526343 0 0 0 0 7.8035646444623126 -29.933806747777453 0 -29.933806747777453 -5.3890377670466023 0 0 0 0 -1.1994106579104518 0.063450360976787579 0 0.063450360976787579 1.7684947172208196 0 0 0 0 -121.16288370828261 -145.4566764698132 0 -145.4566764698132 -85.713404881374331 0 0 0 0 238.39047646196559 -212.23240434835515 0 -212.23240434835515 77.607457659912484 0 0 0 0 225.6231482348594 -207.50252834749699 0 -207.50252834749699 235.51213133724741 0 0 0 0 -1.7812582613424013 -1.4721934898254929 0 -1.4721934898254929 1.2499749077101763 0 0 0 0 -15.421769147073306 -4.9113639595895293 0 -4.9113639595895293 7.6051151620221908 0 0 0 0 -12.171920108157792 -14.432236587964809 0 -14.432236587964809 1.6388255604515507 0 0 0 0 -6.1164600720338669 -8.8614745537247899 0 -8.8614745537247899 -2.1161085181673194 0 0 0 0 170.9888586607558 -80.453518624507069 0 -80.453518624507069 -25.790228856512499 0 0 0 0 128.55136637645774 -110.13853556343292 0 -110.13853556343292 -37.427849024881652 0 0 0 0 142.30387631673102 -134.55280645230701 0 -134.55280645230701 23.926534524101044 0 0 0 0 149.10235971477232 -47.868169700182079 0 -47.868169700182079 22.316048258343699 0 0 0 0 516.54157761935494 -79.391184361760679 0 -79.391184361760679 24.97093763249643 0 0 0 0 63.600106663798215 -146.2319628219991 0 -146.2319628219991 187.41120236348229 0 0 0 0 162.31383423594889 105.54718982320423 0 105.54718982320423 62.865982898937091 0 0 0 0 347.8338453333854 -105.36516671258232 0 -105.36516671258232 -9.8994903513877262 0 0 0 0 -52.413696125062415 -24.73769809656369 0 -24.73769809656369 74.297544801718232 0 0 0 0 -34.349194680740766 -47.820756846423933 0 -47.820756846423933 -17.697221235103825 0 0 0 0 -139.79946775368808 72.225611064985912 0 72.225611064985912 -16.341298634507439 0 0 0 0 -75.379796527398867 4.205146682527527 0 4.205146682527527 -30.983652192947602 0 0 0 0 -45.788320454172208 -50.156857643977901 0 -50.156857643977901 -13.759015623078483 0 0 0 0 -16.149052795166426 -57.984045856099414 0 -57.984045856099414 -50.814252999031623 0 0 0 0 -8.9970905503432732 -80.1263087253094 0 -80.1263087253094 7.0517409086974112 0 0 0 0 -42.733851502262041 -129.4009643777795 0 -129.4009643777795 -56.727822312056787 0 0 0 0 -0.92429337738209938 -0.43919464996959867 0 -0.43919464996959867 -0.12296321773547692 0 0 0 0 2.4355337164597586 -51.505517877310695 0 -51.505517877310695 -195.74751642689444 0 0 0 0 -6.9671353880949027 -117.42248880325337 0 -117.42248880325337 177.58727670759163 0 0 0 0 -19.965966380916143 -34.397513981581426 0 -34.397513981581426 -25.697200515557597 0 0 0 0 -13.692839654249838 -145.2137811152345 0 -145.2137811152345 66.193404620942147 0 0 0 0 14.163136833340104 -42.881846220832131 0 -42.881846220832131 58.802919155996932 0 0 0 0 11.622358831806196 -57.3732399862281 0 -57.3732399862281 143.31260949593889 0 0 0 0 21.763542165565013 -81.505938047710288 0 -81.505938047710288 53.44676817195068 0 0 0 0 -3.8367454816209481 -15.167110636591552 0 -15.167110636591552 -8.5302499443227031 0 0 0 0 2.9176260008980535 -30.407475356619386 0 -30.407475356619386 33.651430389452798 0 0 0 0 16.747936536703492 -41.418335513978946 0 -41.418335513978946 31.688952587162476 0 0 0 0 41.174169236248417 -105.99768217455221 0 -105.99768217455221 82.519136995579629 0 0 0 0 30.097977689849358 -10.744288357536107 0 -10.744288357536107 -29.217291736919833 0 0 0 0 155.30719940501149 -59.786846129395826 0 -59.786846129395826 -29.116956980686155 0 0 0 0 5.1465501225632977 -6.4779803278547412 0 -6.4779803278547412 -4.9278507131266629 0 0 0 0 98.456875424977625 -35.436422943261277 0 -35.436422943261277 -70.987456364165155 0 0 0 0 126.62609461207467 -95.810558662985386 0 -95.810558662985386 -81.176357926032324 0 0 0 0 143.28188579686685 -163.30188943544545 0 -163.30188943544545 114.77989915677745 0 0 0 0 -12.719721823509147 -15.631068986413036 0 -15.631068986413036 -5.1643685538774253 0 0 0 0 0.99603596473025391 -33.452151969785518 0 -33.452151969785518 -17.080899101385057 0 0 0 0 5.0326371507399017 -57.529421168227799 0 -57.529421168227799 15.176381647745075 0 0 0 0 -3.8802876806548738 -38.236944287024926 0 -38.236944287024926 -13.192224085344606 0 0 0 0 -13.304826363899338 -39.353725812034327 0 -39.353725812034327 24.642634456800806 0 0 0 0 -16.63286375486058 -23.325974483980119 0 -23.325974483980119 -14.939560723711198 0 0 0 0 -9.5771001800894737 -31.276018753173958 0 -31.276018753173958 42.146139742080777 0 0 0 0 0.75032328335913689 -6.0703334154009383 0 -6.0703334154009383 -4.7982473464345414 0 0 0 0 -4.1587693939100063 -39.707302018403993 0 -39.707302018403993 -11.218550082910951 0 0 0 0 -18.35466057405705 -24.94634504453429 0 -24.94634504453429 -5.570068302793775 0 0 0 0 -7.9447482499381294 -47.244412700879366 0 -47.244412700879366 10.917824484947232 0 0 0 0 -22.079487032837278 -44.129901386657593 0 -44.129901386657593 19.029190033014856 0 0 0 0 -15.224868662928202 -26.889734845293788 0 -26.889734845293788 13.874159476693421 0 0 0 0 -24.352314271221985 -23.046687929313009 0 -23.046687929313009 -6.0465047652330952 0 0 0 0 -4.3105288325345583 -24.314140365888491 0 -24.314140365888491 14.642010966638805 0 0 0 0 -33.589637314665197 -35.291598368792023 0 -35.291598368792023 -32.554003117005777 0 0 0 0 -11.28826192804263 -11.840007638747466 0 -11.840007638747466 -17.624096319181717 0 0 0 0 -0.083955190266820523 -1.2556102299680703 0 -1.2556102299680703 -6.8233608013159248 0 0 0 0 -3.4377865301066777 -23.149401910241068 0 -23.149401910241068 5.9006191136914765 0 0 0 0 107.24903050843204 -7.4949554799328624 0 -7.4949554799328624 -72.332015455508781 0 0 0 0 3.420356777314737 30.416764143671571 0 30.416764143671571 -3.9707452898854001 0 0 0 0 -35.415276568572153 -37.211605961603709 0 -37.211605961603709 -29.836806979323001 0 0 0 0 -25.310745516762836 -60.290111415657975 0 -60.290111415657975 -14.71816544029349 0 0 0 0 -2.5473667300993839 -62.795774154111427 0 -62.795774154111427 -59.049327030426639 0 0 0 0 -15.058512765121122 -31.820747200900996 0 -31.820747200900996 -114.88151395643081 0 0 0 0 -44.084624387223812 -51.998008831667676 0 -51.998008831667676 -49.985947637073423 0 0 0 0 -6.4424405384343117 -27.528985997944119 0 -27.528985997944119 -75.039867731171512 0 0 0 0 -22.342293368641549 -24.610710728387005 0 -24.610710728387005 -30.43624768260247 0 0 0 0 -3.1536430234773434 -8.9922166589868766 0 -8.9922166589868766 -45.028627148270061 0 0 0 0 -2.4772068300062244 -1.2750126346177098 0 -1.2750126346177098 -0.28606785026800008 0 0 0 0 33.910335383563506 -47.732841290560827 0 -47.732841290560827 79.295754667851725 0 0 0 0 11.640231151577609 -39.966445862851515 0 -39.966445862851515 55.38935329560536 0 0 0 0 26.421840026203427 -60.810707354606166 0 -60.810707354606166 82.628061944062893 0 0 0 0 29.895455698941078 -29.200998902042215 0 -29.200998902042215 18.072888624753887 0 0 0 0 -3.583641648559734 -2.0858315617181997 0 -2.0858315617181997 -2.6437309380251017 0 0 0 0 -4.0722013946433435 0.55921274311572233 0 0.55921274311572233 -15.160076205986798 0 0 0 0 -6.1528221924454556 -3.5609282855780293 0 -3.5609282855780293 -8.5772426863728697 0 0 0 0 -1.6283209181128768 -3.6095701071408257 0 -3.6095701071408257 -22.454825727848629 0 0 0 0 80.863409863450215 -49.322793504276433 0 -49.322793504276433 -14.831996603244306 0 0 0 0 -1.6029513470727643 -3.1109117052361626 0 -3.1109117052361626 -9.8940747971344543 0 0 0 0 -3.4593021514119755 -4.9265103071181784 0 -4.9265103071181784 -14.888746955264196 0 0 0 0 61.686158324278949 -57.954979941665215 0 -57.954979941665215 -6.7528899905371418 0 0 0 0 62.220978909754194 -47.302593952405232 0 -47.302593952405232 6.8693523438014381 0 0 0 0 40.694295990222599 -49.434576740569128 0 -49.434576740569128 34.946560149485776 0 0 0 0 -6.8867435847860179 -16.145897812718204 0 -16.145897812718204 27.622987355960049 0 0 0 0 62.44529075111268 -40.99916119489076 0 -40.99916119489076 18.553212053670904 0 0 0 0 -2.2942862016419596 -2.9676378535151429 0 -2.9676378535151429 -1.9827915712594262 0 0 0 0 64.546024712646613 -60.665882480819164 0 -60.665882480819164 30.392146625184978 0 0 0 0 11.574254028804717 -31.379174390242724 0 -31.379174390242724 31.054895069156828 0 0 0 0 -19.598631651380856 -5.5567928407645013 0 -5.5567928407645013 5.555395958397412 0 0 0 0 -7.5617523528709967 -8.0671592535149017 0 -8.0671592535149017 -7.4626154601363499 0 0 0 0 53.655024190265976 -41.202441694025083 0 -41.202441694025083 21.641998864639845 0 0 0 0 -1.5217196598395901 -0.88121595933267827 0 -0.88121595933267827 1.6221074704593068 0 0 0 0 2.4639550684445908 -0.83278182716778559 0 -0.83278182716778559 -2.3911942499250154 0 0 0 0 -20.074375163414516 -110.12608297589065 0 -110.12608297589065 211.48836122339276 0 0 0 0 4.7453040324326139 -163.88183873554158 0 -163.88183873554158 136.62008530864136 0 0 0 0 65.064743388626084 -83.916590980429987 0 -83.916590980429987 -45.056297778347925 0 0 0 0 56.344727131800028 -78.959582458414843 0 -78.959582458414843 54.569463383937546 0 0 0 0 87.594361981842667 -52.13322699065975 0 -52.13322699065975 -5.8048894551429839 0 0 0 0 77.188717490284034 -21.768675155228038 0 -21.768675155228038 94.394568384619561 0 0 0 0 99.798573828244116 -12.236535675251162 0 -12.236535675251162 91.126630310851397 0 0 0 0 62.122349844110431 -77.313410235815354 0 -77.313410235815354 70.029629683345775 0 0 0 0 212.90138284873683 -75.755399325380495 0 -75.755399325380495 51.370798225247199 0 0 0 0 49.697905092528345 -205.74991523607559 0 -205.74991523607559 -94.998526604632843 0 0 0 0 -7.3513775714818621 105.73682437649704 0 105.73682437649704 -10.75760995388805 0 0 0 0 -72.564822476153495 64.90972349282481 0 64.90972349282481 -47.097394762121894 0 0 0 0 20.445582431959338 58.667475544510353 0 58.667475544510353 -145.66612963254056 0 0 0 0 -17.914085286844056 29.149884998869766 0 29.149884998869766 -23.856345837922845 0 0 0 0 72.365873665927211 -45.471159258690136 0 -45.471159258690136 -19.489228821459619 0 0 0 0 58.059368128830101 -45.615884832367328 0 -45.615884832367328 -3.9395433528555941 0 0 0 0 53.43593534269894 -17.903780329406118 0 -17.903780329406118 -40.871607517765483 0 0 0 0 68.492153561339364 -14.977618792938586 0 -14.977618792938586 -54.408001056416197 0 0 0 0 -15.031612330349162 34.184757477836911 0 34.184757477836911 -53.027286215661704 0 0 0 0 35.597957722409774 -4.9262718087071562 0 -4.9262718087071562 -26.300270120008463 0 0 0 0 23.040322921267943 -16.904801628766904 0 -16.904801628766904 -26.714197483934129 0 0 0 0 -24.678403057387186 34.043962282288874 0 34.043962282288874 -29.01635600835607 0 0 0 0 -16.882478662562789 26.618641691218613 0 26.618641691218613 -68.480484109133158 0 0 0 0 -17.25582273757027 23.800015197174275 0 23.800015197174275 -29.346969797264478 0 0 0 0 -43.205882358968665 26.281147860181363 0 26.281147860181363 -23.702142661968935 0 0 0 0 -9.3241367537266342 -12.543959301480754 0 -12.543959301480754 -22.730317483175519 0 0 0 0 -16.800295549095608 -7.9841545060150736 0 -7.9841545060150736 -19.882637363286449 0 0 0 0 -7.2784475740554626 -9.9577646788906691 0 -9.9577646788906691 -44.981760530141031 0 0 0 0 -2.8580164847043079 -1.8971321642526036 0 -1.8971321642526036 -5.2746045196519677 0 0 0 0 -14.375513588733156 -6.5599438190781356 0 -6.5599438190781356 -17.453938602252123 0 0 0 0 -6.7344996577667189 -6.2849998119664576 0 -6.2849998119664576 -82.095692732977042 0 0 0 0 -1.0759421768262882 -0.0058851691738226464 0 -0.0058851691738226464 0.44809866119058983 0 0 0 0 -5.7758074064471998 -6.6960712903197788 0 -6.6960712903197788 -6.2965200927995317 0 0 0 0 -8.7281894055922749 -10.738303447276209 0 -10.738303447276209 -18.36739164808909 0 0 0 0 -10.973650137208324 -11.670099937627917 0 -11.670099937627917 -7.4629626964944116 0 0 0 0 3.1397551706395461 -8.6139093553176735 0 -8.6139093553176735 -22.307742674137558 0 0 0 0 -24.063868192230075 -3.5718673381695965 0 -3.5718673381695965 -3.250468921010679 0 0 0 0 -4.2227603392857418 -16.016711082571135 0 -16.016711082571135 -20.174616100695971 0 0 0 0 -12.844362754196482 -15.877369869872837 0 -15.877369869872837 -61.363119868960325 0 0 0 0 -5.4512569793672583 2.9131430036247039 0 2.9131430036247039 -4.4195234241408867 0 0 0 0 -2.8078068190880003 2.6485685289047467 0 2.6485685289047467 -16.277882007593689 0 0 0 0 -27.833441779839632 -20.804701859208876 0 -20.804701859208876 -61.445683503224359 0 0 0 0 -1.7184777424600668 1.3613328725657965 0 1.3613328725657965 -0.76703031970875069 0 0 0 0 -26.497479484667565 -15.31350173535094 0 -15.31350173535094 -39.874926618241261 0 0 0 0 -51.324809764279053 17.237653522153451 0 17.237653522153451 -10.130952061679864 0 0 0 0 -2.5183669544276199 -19.493262266556258 0 -19.493262266556258 -169.6554125414375 0 0 0 0 -55.69205061152752 -12.255496662422388 0 -12.255496662422388 -40.015767143711798 0 0 0 0 -19.840324723885715 -33.491978651830266 0 -33.491978651830266 -41.383520245637783 0 0 0 0 -39.786854133926681 -39.423150259485965 0 -39.423150259485965 -41.701270380727749 0 0 0 0 -41.97382214438403 -34.954854094037614 0 -34.954854094037614 -6.206666983766354 0 0 0 0 -21.940091024676803 -52.052189887343161 0 -52.052189887343161 -51.026485953218028 0 0 0 0 -18.563937332219211 -54.055003020657978 0 -54.055003020657978 -50.859229830297153 0 0 0 0 -44.379283321170078 -32.161086195732082 0 -32.161086195732082 4.4135760031249447 0 0 0 0 -8.4995035367537639 -11.742097747213734 0 -11.742097747213734 -77.534687087298607 0 0 0 0 -4.7296947176582762 -4.7483068031101539 0 -4.7483068031101539 -143.39144099980507 0 0 0 0 -24.740368714934448 -77.490034469171519 0 -77.490034469171519 -138.16245966537417 0 0 0 0 -7.7698209645968745 -33.812249189837075 0 -33.812249189837075 -65.6806662637307 0 0 0 0 -7.4596073800057638 -30.351964400209908 0 -30.351964400209908 -102.87122202033152 0 0 0 0 -0.19455540793205728 -3.9168391414256121 0 -3.9168391414256121 2.9151987468030143 0 0 0 0 -42.737220413226169 7.8279424541944991 0 7.8279424541944991 68.476915806174731 0 0 0 0 -49.792537753950455 -40.909659369925748 0 -40.909659369925748 69.023687188393978 0 0 0 0 35.097688777910662 -46.411640262518404 0 -46.411640262518404 1.1909862932284341 0 0 0 0 -94.517701699995087 -71.681017691081706 0 -71.681017691081706 7.2249375388942383 0 0 0 0 -49.025379055950907 -25.544705609657967 0 -25.544705609657967 10.948275935510992 0 0 0 0 -48.412441939479322 -48.538717318971635 0 -48.538717318971635 -28.655752782738546 0 0 0 0 -75.688639600164606 -33.740520002640551 0 -33.740520002640551 36.615462611174735 0 0 0 0 -85.84429797406483 -83.528956967152681 0 -83.528956967152681 -29.008189875286014 0 0 0 0 -192.70027436588134 -180.43825439298644 0 -180.43825439298644 -133.06826988540979 0 0 0 0 -69.5904986003261 -56.719579933426076 0 -56.719579933426076 -65.980721890987297 0 0 0 0 0.066845042965724133 0.66395189281524836 0 0.66395189281524836 82.851188579199516 0 0 0 0 90.731892222058377 108.42864297962888 0 108.42864297962888 -76.728258125995126 0 0 0 0 0.68772608155980208 -1.264160281787909 0 -1.264160281787909 1.2575817850023716 0 0 0 0 -68.976479337396086 37.019064519615483 0 37.019064519615483 -26.332993325224379 0 0 0 0 -26.058100342779653 12.538918200831176 0 12.538918200831176 -46.475500487447562 0 0 0 0 -307.70018207766771 51.038656936797111 0 51.038656936797111 37.303514333401836 0 0 0 0 210.81328539532842 -280.83383013433377 0 -280.83383013433377 254.77113472108704 0 0 0 0 -56.093478250171756 99.333300776269198 0 99.333300776269198 -128.18379388519588 0 0 0 0 -119.75571436243627 209.07363770686777 0 209.07363770686777 -42.812020981958085 0 0 0 0 0.033885315984662157 -85.91627711304568 0 -85.91627711304568 3.3051891408117626 0 0 0 0 -149.51100948919338 -222.87034629059985 0 -222.87034629059985 -122.02978418657082 0 0 0 0 -2.9326895062118012 -0.81886428275865342 0 -0.81886428275865342 -0.19688544262452989 0 0 0 0 -72.230276817388585 -29.176056991338214 0 -29.176056991338214 39.449544095969031 0 0 0 0 -8.7685319505762891 -52.78528126721892 0 -52.78528126721892 -350.55580122906554 0 0 0 0 25.058139366970863 -56.962985507287158 0 -56.962985507287158 43.699557212132049 0 0 0 0 -62.579876177602273 -46.795664760715681 0 -46.795664760715681 103.10998534111377 0 0 0 0 -57.680696802490274 -75.085017779625559 0 -75.085017779625559 14.529235728208278 0 0 0 0 -11.389448688874836 -14.116351889387943 0 -14.116351889387943 -78.831665257692976 0 0 0 0 -11.631972320916248 -14.093111954451842 0 -14.093111954451842 -72.836006240002916 0 0 0 0 -7.8259871732253998 -2.75275157925428 0 -2.75275157925428 -2.24160429016246 0 0 0 0 34.859567227447769 -15.890519769060802 0 -15.890519769060802 -7.8359226575689718 0 0 0 0 0.55640638166846657 -1.2973235020702916 0 -1.2973235020702916 -3.4608678018915562 0 0 0 0 24.037774104064738 32.118931498064285 0 32.118931498064285 -23.52669479758697 0 0 0 0 13.409521236346336 -90.558599450439488 0 -90.558599450439488 119.57982597797172 0 0 0 0 -10.176597203609958 -97.26300925448416 0 -97.26300925448416 -65.329080879484536 0 0 0 0 1.7023352593739389 0.32697367129008015 0 0.32697367129008015 -0.55337758735763831 0 0 0 0 131.88553830335877 -128.55922333572016 0 -128.55922333572016 -141.71490500110576 0 0 0 0 8.9160709441130166 -31.007807083333319 0 -31.007807083333319 157.189936175409 0 0 0 0 -58.895427355695574 34.079639383033282 0 34.079639383033282 237.50143714496062 0 0 0 0 250.17022335962974 -176.19155157954651 0 -176.19155157954651 -153.47093539759044 0 0 0 0 106.4211732660915 -174.62355485610169 0 -174.62355485610169 705.21249616790374 0 0 0 0 93.677409657993849 -101.39416823313081 0 -101.39416823313081 347.99036113689544 0 0 0 0 -9.012877527566161 -46.993916742061174 0 -46.993916742061174 -121.09442645305899 0 0 0 0 0.85030457014423177 0.3549540080625313 0 0.3549540080625313 -1.4532869470269336 0 0 0 0 215.71669281028153 -320.28008312695783 0 -320.28008312695783 458.54057661238949 0 0 0 0 1.7762595832148804 -0.44404464165275215 0 -0.44404464165275215 -2.5590739473806003 0 0 0 0 156.16385459703088 -32.240691880372196 0 -32.240691880372196 -178.30724219497097 0 0 0 0 -0.085313644889538409 -53.811371524785955 0 -53.811371524785955 22.082178323053085 0 0 0 0 -10.954093254062172 12.416301157279122 0 12.416301157279122 64.930159003396511 0 0 0 0 -118.9429874084708 -53.805057871724784 0 -53.805057871724784 361.09225884021907 0 0 0 0 -14.877223140181741 -30.369846211324557 0 -30.369846211324557 -13.950990927735347 0 0 0 0 1.5810142940902665 0.24213105622103015 0 0.24213105622103015 -0.18362081076297976 0 0 0 0 -94.892406925995601 -85.638146831868653 0 -85.638146831868653 396.93537129905098 0 0 0 0 -24.783893734047524 -79.969492203378195 0 -79.969492203378195 218.95229393134468 0 0 0 0 -0.051883387393900193 -141.1890974244393 0 -141.1890974244393 314.75880822573026 0 0 0 0 -27.828532842373534 -86.53149912315348 0 -86.53149912315348 311.14425137961007 0 0 0 0 -54.411314668614068 -59.710279476413234 0 -59.710279476413234 360.58781866620484 0 0 0 0 27.165494287553884 -67.961328914867408 0 -67.961328914867408 89.225015471016377 0 0 0 0 -23.868335826526163 -72.274538458981624 0 -72.274538458981624 204.1334561064341 0 0 0 0 -16.22339869103962 -40.538170111030922 0 -40.538170111030922 221.36696392020531 0 0 0 0 -21.529101751822054 -53.758293924741849 0 -53.758293924741849 212.45348581157486 0 0 0 0 78.361837852186 -143.46159280788834 0 -143.46159280788834 320.2414739980191 0 0 0 0 -27.01752069601207 -9.5323349539476112 0 -9.5323349539476112 749.62663978271848 0 0 0 0 225.80924313154628 -154.24374251216875 0 -154.24374251216875 320.70229706650935 0 0 0 0 122.42164921212679 -67.839482054908331 0 -67.839482054908331 312.82045022626335 0 0 0 0 200.30229168001824 19.120628394525511 0 19.120628394525511 409.43522859816949 0 0 0 0 -56.017785152122087 -48.510203000364527 0 -48.510203000364527 322.42427632260478 0 0 0 0 2.4233840449887794 25.300297397039685 0 25.300297397039685 393.82533713661178 0 0 0 0 -18.140903517614788 -30.357656922568822 0 -30.357656922568822 320.33638612530922 0 0 0 0 53.45296864057309 -1.3347404602345705 0 -1.3347404602345705 290.04280794905299 0 0 0 0 3.9203823557581927 -53.396878278309032 0 -53.396878278309032 195.50864150286907 0 0 0 0 52.845540881586203 -40.503538279582699 0 -40.503538279582699 195.50323700886838 0 0 0 0 61.563478813666734 -43.924888589613147 0 -43.924888589613147 91.241822805014181 0 0 0 0 18.565065265154772 -132.51199300161761 0 -132.51199300161761 128.96597640706023 0 0 0 0 39.765233412013913 -59.57465555339877 0 -59.57465555339877 195.51597049202792 0 0 0 0 19.068130507331261 -175.93120085514943 0 -175.93120085514943 227.92770870482855 0 0 0 0 -8.4497792958063656 -103.97110627831626 0 -103.97110627831626 124.06324945425263 0 0 0 0 -2.9320188766359934 5.7650322426620733 0 5.7650322426620733 318.64364863628612 0 0 0 0 -9.2702935518827871 -93.378861365635657 0 -93.378861365635657 200.76703676078705 0 0 0 0 -85.646976677715429 -81.910665838300702 0 -81.910665838300702 202.59021929203027 0 0 0 0 -2.1970416169028795 -170.30774925561929 0 -170.30774925561929 35.821733251754267 0 0 0 0 -36.794924304580491 -191.92237313232999 0 -191.92237313232999 38.114744083457026 0 0 0 0 101.82186678957078 -71.525468489934156 0 -71.525468489934156 35.277695457942173 0 0 0 0 98.787766842731799 -131.71752640859677 0 -131.71752640859677 -7.7682072342004176 0 0 0 0 23.923669953700937 -110.71219042480857 0 -110.71219042480857 119.21398420823789 0 0 0 0 22.066130555947893 -94.871156714416429 0 -94.871156714416429 44.468773097507437 0 0 0 0 4.1956115213979501 -77.137591262189744 0 -77.137591262189744 97.964219798306658 0 0 0 0 -7.8488349222461693 -5.3855014555913385 0 -5.3855014555913385 -10.099992931121051 0 0 0 0 -46.69544519711053 -37.22590475575953 0 -37.22590475575953 302.39832629641478 0 0 0 0 4.1732410906697623 -61.895434390655282 0 -61.895434390655282 117.60246633493261 0 0 0 0 -2.0143161526502809 -12.360973747119715 0 -12.360973747119715 -6.4134249891509398 0 0 0 0 -4.343014924292163 -8.2793426326435693 0 -8.2793426326435693 -2.5923432456465703 0 0 0 0 -6.67671030983675 -12.611056488124831 0 -12.611056488124831 -4.3484235164881024 0 0 0 0 52.533908845731276 -23.858420442317922 0 -23.858420442317922 -19.723767165074833 0 0 0 0 -6.2270640983770136 -7.053762680152488 0 -7.053762680152488 -19.927402422775856 0 0 0 0 -1.9707627806529615 -11.408180339631421 0 -11.408180339631421 -10.305608912314975 0 0 0 0 -5.8814939585954562 -6.9643167264372394 0 -6.9643167264372394 -24.484816621224581 0 0 0 0 -1.0399310014763614 -16.609739341833119 0 -16.609739341833119 -6.6907353883773339 0 0 0 0 -41.0815302747651 -32.825989944816683 0 -32.825989944816683 -21.606217471673972 0 0 0 0 7.928101541135959 -3.8985731173844655 0 -3.8985731173844655 -6.3774943855958526 0 0 0 0 1.217059086208792 -8.3099590348350603 0 -8.3099590348350603 -13.409339932095463 0 0 0 0 -39.533179456848302 -2.4589972530525301 0 -2.4589972530525301 39.033027454010607 0 0 0 0 -18.033292639916908 -51.206833605271186 0 -51.206833605271186 420.81387280761101 0 0 0 0 5.2236087128016209 1.6986280289521787 0 1.6986280289521787 -5.1461983551407631 0 0 0 0 -0.60885553674165749 -6.0532178274446222 0 -6.0532178274446222 0.56465742724917112 0 0 0 0 5.2812474705569912 -6.3535382150844271 0 -6.3535382150844271 -27.128384668418221 0 0 0 0 -9.4466691735724453 -10.594422508311254 0 -10.594422508311254 -13.631233439644575 0 0 0 0 -2.8267282113655483 -6.6517255830492088 0 -6.6517255830492088 1.3592636164811798 0 0 0 0 3.3541814499840257 -11.283619586806253 0 -11.283619586806253 -19.888044959275248 0 0 0 0 73.427709165212946 -401.96923530592676 0 -401.96923530592676 213.97982043922093 0 0 0 0 358.48986862687161 -284.46808653073231 0 -284.46808653073231 -210.4913348248665 0 0 0 0 597.11452517026669 -171.93965049780181 0 -171.93965049780181 -437.52768563767404 0 0 0 0 568.15785653715466 -506.90740058842448 0 -506.90740058842448 25.445059859678622 0 0 0 0 529.3205236778158 -206.96649574844673 0 -206.96649574844673 -299.64240504853797 0 0 0 0 391.59744611943461 -216.25863739005297 0 -216.25863739005297 -292.38710466732385 0 0 0 0 515.65891852126515 -130.07362000205012 0 -130.07362000205012 -442.51786077173756 0 0 0 0 565.97058994557301 -178.49287397642638 0 -178.49287397642638 -434.1492822533819 0 0 0 0 372.2080685564506 -88.005298898857745 0 -88.005298898857745 -142.9949624677929 0 0 0 0 -65.011793797556038 -786.74671463062077 0 -786.74671463062077 149.28887514447979 0 0 0 0 320.56484331884712 193.13831296599574 0 193.13831296599574 -605.62473692920412 0 0 0 0 235.49913379105783 -425.40448537958218 0 -425.40448537958218 -443.32870030616914 0 0 0 0 444.54809457912597 -296.99901070777059 0 -296.99901070777059 -831.20028426920908 0 0 0 0 60.083261151376064 -10.141976557227963 0 -10.141976557227963 134.34174277355714 0 0 0 0 -157.38999039316695 -103.84228961487793 0 -103.84228961487793 530.47900790416088 0 0 0 0 82.94939066592633 -5.7519477398618619 0 -5.7519477398618619 -307.77945838247479 0 0 0 0 128.5293081352529 -108.10471395654929 0 -108.10471395654929 -101.46197772989672 0 0 0 0 61.472498152802132 -58.299292088778571 0 -58.299292088778571 0.15265932780766889 0 0 0 0 30.235759134637192 -39.975903252222452 0 -39.975903252222452 -10.535887295319071 0 0 0 0 15.780983273565653 -44.967852875436847 0 -44.967852875436847 39.017370504534028 0 0 0 0 10.272257549748943 -7.9428463162094296 0 -7.9428463162094296 -1.9011317783429691 0 0 0 0 -133.31364594453134 -103.57776371171957 0 -103.57776371171957 -53.470483932899697 0 0 0 0 4.0453002302335506 -1.4513447875258496 0 -1.4513447875258496 0.993153376384039 0 0 0 0 60.672592667762729 -305.07378923661872 0 -305.07378923661872 -327.08424730393017 0 0 0 0 -133.06413689855253 -110.88249983378955 0 -110.88249983378955 135.62994466125565 0 0 0 0 -136.18426835325045 12.11958598236788 0 12.11958598236788 101.96367664849856 0 0 0 0 -133.97111527679044 -26.629714981105622 0 -26.629714981105622 22.839216527002463 0 0 0 0 -386.5913865888233 126.22629968522278 0 126.22629968522278 30.834655332368754 0 0 0 0 -133.74145385787506 -20.402100617385258 0 -20.402100617385258 -0.6149538925556044 0 0 0 0 14.271395128185759 -161.2935233068024 0 -161.2935233068024 19.913474040888104 0 0 0 0 178.46342304126574 114.32940949357408 0 114.32940949357408 411.26833136511414 0 0 0 0 222.58530911281923 -546.31170398691938 0 -546.31170398691938 345.0732888355642 0 0 0 0 600.81994738468256 -211.60108271832928 0 -211.60108271832928 -29.209874367289558 0 0 0 0 448.79161883537517 -489.40693254877328 0 -489.40693254877328 277.34153545249501 0 0 0 0 243.32813424824781 -251.50113795272591 0 -251.50113795272591 57.317495911624974 0 0 0 0 149.70568701894445 -250.74536380704922 0 -250.74536380704922 63.700110057450274 0 0 0 0 186.62355793867755 -319.9285546328515 0 -319.9285546328515 188.35033775284319 0 0 0 0 40.383294980305436 -122.42811680280101 0 -122.42811680280101 129.65815683041365 0 0 0 0 48.304546532934182 -178.7807802169973 0 -178.7807802169973 326.92366252012471 0 0 0 0 15.28194484197229 -59.695120578777278 0 -59.695120578777278 200.78660033964206 0 0 0 0 58.086042149196146 -50.651406782030335 0 -50.651406782030335 116.52676129435622 0 0 0 0 47.678527083182416 -197.91500613427934 0 -197.91500613427934 778.09826928105804 0 0 0 0 25.211219430655547 -119.46160860281907 0 -119.46160860281907 -13.302939749983125 0 0 0 0 51.054812277361634 -151.39425826572688 0 -151.39425826572688 22.672468830556909 0 0 0 0 25.651934936002363 -84.966094094871551 0 -84.966094094871551 47.491964248039494 0 0 0 0 51.474834105398259 -145.11409377953396 0 -145.11409377953396 59.618284465979741 0 0 0 0 60.161586120113498 -177.25737826067052 0 -177.25737826067052 184.09588861347129 0 0 0 0 66.408718049598974 -162.63434276784938 0 -162.63434276784938 80.172198966662108 0 0 0 0 50.565287765381072 -110.53662541808717 0 -110.53662541808717 143.15484724545968 0 0 0 0 44.568541016880772 -42.060700553290189 0 -42.060700553290189 118.64332376878792 0 0 0 0 40.021294554597262 -52.875694167662459 0 -52.875694167662459 96.834659377340358 0 0 0 0 38.362975904241466 -97.434641636040851 0 -97.434641636040851 57.779334083403228 0 0 0 0 39.535358866985916 -87.85825449908225 0 -87.85825449908225 97.071849977812917 0 0 0 0 27.05892436612703 -31.672398917180544 0 -31.672398917180544 62.287701180621696 0 0 0 0 25.523380602982797 -33.623445335594852 0 -33.623445335594852 3.8840635239685071 0 0 0 0 3.6470116155251162 -68.331544228543862 0 -68.331544228543862 26.821658948108052 0 0 0 0 22.938730423466041 -97.532514567551516 0 -97.532514567551516 -8.6932791111721599 0 0 0 0 24.77173381778266 -5.6196286386552856 0 -5.6196286386552856 36.579745324048417 0 0 0 0 29.684601345739793 0.82264558385486453 0 0.82264558385486453 44.81080899557503 0 0 0 0 24.09866181817597 -38.908180446428332 0 -38.908180446428332 46.459976006857687 0 0 0 0 31.383176910429029 1.3156623135978407 0 1.3156623135978407 38.864940884372118 0 0 0 0 27.141001601619791 1.6426562601791375 0 1.6426562601791375 77.294856581959721 0 0 0 0 -71.094500132732719 -15.644014296273099 0 -15.644014296273099 -355.74739672929218 0 0 0 0 -153.76504057995044 -361.97040909022326 0 -361.97040909022326 116.16907650435428 0 0 0 0 -152.75622751927585 274.21179247319105 0 274.21179247319105 417.92537412732031 0 0 0 0 30.524911958613302 11.465982736191563 0 11.465982736191563 46.057484151461722 0 0 0 0 36.767146718477306 16.259340125307972 0 16.259340125307972 33.378603801330883 0 0 0 0 84.784233612654134 -143.7538014222514 0 -143.7538014222514 -164.27889399421292 0 0 0 0 3.0804521647020806 -1.2525746269091211 0 -1.2525746269091211 0.50747552289116094 0 0 0 0 -194.85306181165265 -261.62219609501307 0 -261.62219609501307 442.55640417686982 0 0 0 0 23.638686651280807 -15.262139276986664 0 -15.262139276986664 8.3925643555594149 0 0 0 0 259.4150300303063 -40.515915830440576 0 -40.515915830440576 -328.67416580597455 0 0 0 0 7.8478827962549857 -3.9860126298419125 0 -3.9860126298419125 1.9924369415963863 0 0 0 0 0.97079227862559492 -241.44392975100209 0 -241.44392975100209 -453.52786883789258 0 0 0 0 38.061478907258788 -22.927629836732876 0 -22.927629836732876 129.56872867115635 0 0 0 0 19.355545269548948 -11.375116190230049 0 -11.375116190230049 5.5995976692161848 0 0 0 0 -102.25266214671865 -186.27669050123427 0 -186.27669050123427 -72.996786039400604 0 0 0 0 -93.594791451387209 -262.33888045932576 0 -262.33888045932576 -181.25369060837988 0 0 0 0 -127.1583256816939 -220.42677155177256 0 -220.42677155177256 54.519518236687873 0 0 0 0 -16.389279186951171 -111.74429444329974 0 -111.74429444329974 -170.34984857336349 0 0 0 0 112.24893496133654 -178.18332907522051 0 -178.18332907522051 -8.0313408073869823 0 0 0 0 334.14559391643888 -254.58103878216235 0 -254.58103878216235 -122.14451625819879 0 0 0 0 220.39117692035325 -146.18763443078345 0 -146.18763443078345 -32.734252264122915 0 0 0 0 23.240902252040541 -179.66580265561311 0 -179.66580265561311 -20.723010871387842 0 0 0 0 90.323291614131904 -229.29142305461284 0 -229.29142305461284 -72.002390784605268 0 0 0 0 -172.11159753957327 -294.95656022785204 0 -294.95656022785204 -35.634384841872134 0 0 0 0 -94.26013835780941 -254.06201641128274 0 -254.06201641128274 -39.706596411690043 0 0 0 0 -30.323831142955896 -263.69697880274964 0 -263.69697880274964 -133.27676144949027 0 0 0 0 45.946363582337653 -162.05439448429371 0 -162.05439448429371 -70.992378137536249 0 0 0 0 -51.024724199755838 -143.80820766326008 0 -143.80820766326008 -41.270993441313408 0 0 0 0 208.21667047524352 -137.18383755572285 0 -137.18383755572285 8.5433280632216793 0 0 0 0 104.75211345987009 -81.646002281439365 0 -81.646002281439365 26.750333724803255 0 0 0 0 124.39283990469266 -227.68937120387761 0 -227.68937120387761 -14.412991262670459 0 0 0 0 -70.575642849889846 -39.522327784626327 0 -39.522327784626327 -42.597020133145634 0 0 0 0 1.303201704508524 -18.197565511227477 0 -18.197565511227477 -37.309633316102008 0 0 0 0 -212.84949805813812 11.937639786740078 0 11.937639786740078 59.474284324916937 0 0 0 0 -355.70870622893199 -288.78898538272369 0 -288.78898538272369 -33.030822809289333 0 0 0 0 65.057431743019151 -214.36729176905655 0 -214.36729176905655 -21.608335861378691 0 0 0 0 -153.7212631412749 -368.76032790757563 0 -368.76032790757563 -227.81979922714939 0 0 0 0 -50.907391168513868 -164.47013980578402 0 -164.47013980578402 -329.51932979006347 0 0 0 0 -317.59580167657077 -39.685959648120388 0 -39.685959648120388 -103.60450016570007 0 0 0 0 -360.46013445134122 -314.00604867248273 0 -314.00604867248273 -261.36597156035975 0 0 0 0 -55.116691652321606 -182.9763062950434 0 -182.9763062950434 -612.88540647932905 0 0 0 0 -3.168603090570322 -0.055620884281296412 0 -0.055620884281296412 -0.070614776484428043 0 0 0 0 -137.39721159497276 -222.96811378471801 0 -222.96811378471801 -247.34600915311125 0 0 0 0 3.7197829554788768 -34.709500648486539 0 -34.709500648486539 -265.96821907219282 0 0 0 0 -163.81101882678195 -156.6607535295766 0 -156.6607535295766 -77.848248479183667 0 0 0 0 -167.80050726774061 -135.66517446501678 0 -135.66517446501678 14.74222388310136 0 0 0 0 -207.16213583204444 -138.20245273558268 0 -138.20245273558268 -84.100650042838197 0 0 0 0 -88.244297805826136 -66.912811085188196 0 -66.912811085188196 -113.13903446890731 0 0 0 0 -234.35786468667266 -100.65008946865123 0 -100.65008946865123 39.986054471488615 0 0 0 0 -104.66668397322428 -94.168252318318991 0 -94.168252318318991 59.033733658587153 0 0 0 0 -111.29484082859562 -78.00375956953917 0 -78.00375956953917 21.956260536215268 0 0 0 0 -159.68634586821281 -117.67068034302167 0 -117.67068034302167 60.116196416821367 0 0 0 0 -126.23273165493811 -124.63849392217867 0 -124.63849392217867 11.280762192322641 0 0 0 0 119.25746231409812 -102.69058087508535 0 -102.69058087508535 2.6259434822222829 0 0 0 0 152.73327455045455 -42.76412671152292 0 -42.76412671152292 68.537987001406009 0 0 0 0 -85.988516111174249 -92.125787789775188 0 -92.125787789775188 23.499114965666649 0 0 0 0 13.436232610940351 -28.260044316568155 0 -28.260044316568155 -24.002499752708786 0 0 0 0 -67.146134666720172 -23.317923040572168 0 -23.317923040572168 47.654295077916231 0 0 0 0 18.508066279977356 -73.813868980856114 0 -73.813868980856114 58.977585949202421 0 0 0 0 16.774465891186992 -62.72201854235027 0 -62.72201854235027 -10.292018287166002 0 0 0 0 112.29186115244738 -30.421381739740809 0 -30.421381739740809 23.976687513140405 0 0 0 0 128.01467953435713 -72.833753974167053 0 -72.833753974167053 67.941402593050043 0 0 0 0 16.759514638979454 -49.005867580614222 0 -49.005867580614222 60.248730707015511 0 0 0 0 225.17523154657465 -86.877238529800479 0 -86.877238529800479 56.434481801886932 0 0 0 0 251.82281805582932 -88.98696232241835 0 -88.98696232241835 51.090094154217695 0 0 0 0 335.47794212715598 -128.56978008854094 0 -128.56978008854094 44.702972824721144 0 0 0 0 254.2996280293446 -54.776358113552533 0 -54.776358113552533 8.0320263801313558 0 0 0 0 357.33844169709118 -139.14401808789012 0 -139.14401808789012 47.037873570507259 0 0 0 0 336.06155252535245 -129.20865797425461 0 -129.20865797425461 38.956344964526579 0 0 0 0 392.9857534007424 -183.26801917554189 0 -183.26801917554189 61.964790618680013 0 0 0 0 387.19998158813905 -188.22208507727998 0 -188.22208507727998 61.965036381139726 0 0 0 0 412.69341675643955 -193.72446030744811 0 -193.72446030744811 45.448314693092925 0 0 0 0 436.70823034945897 -223.84165132397891 0 -223.84165132397891 63.482012748663237 0 0 0 0 450.49024435771935 -168.21409602730409 0 -168.21409602730409 36.230406442010917 0 0 0 0 445.22346485973685 -220.68705764592937 0 -220.68705764592937 53.99104042694421 0 0 0 0 483.3492480916284 -209.54630796373374 0 -209.54630796373374 52.541950793700153 0 0 0 0 287.34329501999309 -94.779823769827544 0 -94.779823769827544 14.502705894400322 0 0 0 0 290.18338448907161 -127.88436358281547 0 -127.88436358281547 46.167554289811207 0 0 0 0 334.70897405081996 -99.772256262924998 0 -99.772256262924998 42.274628448690464 0 0 0 0 500.793187419069 -96.810687250304909 0 -96.810687250304909 29.93656193525544 0 0 0 0 300.2602738855494 -35.113118017848336 0 -35.113118017848336 80.841478653007471 0 0 0 0 310.33606330707516 -242.71855384532063 0 -242.71855384532063 51.92517935774697 0 0 0 0 314.9509533332639 -213.14650419121628 0 -213.14650419121628 224.91322393727029 0 0 0 0 343.37363896725537 -151.40603472374409 0 -151.40603472374409 92.16605178479108 0 0 0 0 558.74472126142427 -51.121259747866247 0 -51.121259747866247 99.052303753353101 0 0 0 0 532.45652504411191 -210.89744903322151 0 -210.89744903322151 182.98583978970402 0 0 0 0 698.48437790803291 -249.68393889354479 0 -249.68393889354479 59.82218084201628 0 0 0 0 425.29471166559961 -304.07611984931611 0 -304.07611984931611 159.21998248807631 0 0 0 0 895.47938478095239 -401.70378940135697 0 -401.70378940135697 182.68303591553001 0 0 0 0 347.52588324031967 -485.27574863723385 0 -485.27574863723385 644.14800977271625 0 0 0 0 948.41407362129394 -451.50179774326125 0 -451.50179774326125 200.05983845091868 0 0 0 0 0.91340682998491474 -0.0145925048049107 0 -0.0145925048049107 0.49135846540988681 0 0 0 0 710.20901091064115 -109.77060415389057 0 -109.77060415389057 227.2226701906734 0 0 0 0 877.98129476387476 -407.87620403213077 0 -407.87620403213077 242.66677583573048 0 0 0 0 612.49243193907569 -95.481189692179385 0 -95.481189692179385 136.29142397252144 0 0 0 0 156.20013458533458 15.77091472126974 0 15.77091472126974 6.2740555251772321 0 0 0 0 2.4951645004714464 0.17863563882650624 0 0.17863563882650624 1.9728690342543143 0 0 0 0 198.25783658089858 119.44525248446888 0 119.44525248446888 19.927529798350974 0 0 0 0 260.33524875835064 -369.32962806327635 0 -369.32962806327635 -316.81556807334027 0 0 0 0 848.33995776411757 -84.361689002631806 0 -84.361689002631806 -210.53758154238085 0 0 0 0 463.23234423649956 -418.35595338520335 0 -418.35595338520335 51.597143920837425 0 0 0 0 63.492255656530688 -22.882338595531564 0 -22.882338595531564 -69.468942739524209 0 0 0 0 25.779808521834639 -41.277373043793887 0 -41.277373043793887 -10.914833338683138 0 0 0 0 -28.58560810148083 22.301074405283089 0 22.301074405283089 -50.629173130441814 0 0 0 0 3.3966880947727986 -8.5908126448339317 0 -8.5908126448339317 -34.715595795717036 0 0 0 0 2.0215050564553074 -5.9675538393724388 0 -5.9675538393724388 -6.4848382618895073 0 0 0 0 -20.113227575817291 80.713299434390137 0 80.713299434390137 -143.6714756402007 0 0 0 0 22.555259792959987 28.005273412948554 0 28.005273412948554 -111.64936277994451 0 0 0 0 37.177305325811176 -49.359914136499583 0 -49.359914136499583 9.1406360707087515 0 0 0 0 12.086073892779041 -22.874439961969529 0 -22.874439961969529 5.338293195202823 0 0 0 0 54.453330845930395 -72.57759039376657 0 -72.57759039376657 210.61031953844872 0 0 0 0 10.219499529392209 -4.3731573979888942 0 -4.3731573979888942 -3.0355816701401688 0 0 0 0 1.6026942175859773 -4.1151262955401862 0 -4.1151262955401862 4.9079038930344279 0 0 0 0 1.111794517679499 -6.7115393391492049 0 -6.7115393391492049 11.645341222022997 0 0 0 0 5.2100868353372789 -8.8048007176289502 0 -8.8048007176289502 5.5204992768591978 0 0 0 0 427.64533450482941 -310.4222486456008 0 -310.4222486456008 148.56243591104362 0 0 0 0 368.76048043427727 -292.95789144495711 0 -292.95789144495711 145.04991348518092 0 0 0 0 1.3891206571088333 -48.749626111855378 0 -48.749626111855378 30.149015118209491 0 0 0 0 15.17576248884474 -17.229929730644336 0 -17.229929730644336 2.1637775235236978 0 0 0 0 2.2441691163300064 -2.8015343641669741 0 -2.8015343641669741 -1.3894122724926792 0 0 0 0 -5.9333374270545391 15.32880651672599 0 15.32880651672599 55.771405863719792 0 0 0 0 2.6710008505742735 -16.830692749222962 0 -16.830692749222962 7.8782573098929731 0 0 0 0 -2.8931481000630885 -4.2128236844847891 0 -4.2128236844847891 1.3902253039861607 0 0 0 0 333.24744317209274 -168.97448742594088 0 -168.97448742594088 91.406985237346817 0 0 0 0 332.91297442066934 -263.90764985604551 0 -263.90764985604551 142.18086466847535 0 0 0 0 409.38659238914261 -250.58682280773837 0 -250.58682280773837 72.049163957440669 0 0 0 0 479.98955159681941 -298.85723808711771 0 -298.85723808711771 94.915734495317793 0 0 0 0 585.02819976404862 -114.36524333463421 0 -114.36524333463421 -94.079221825697459 0 0 0 0 379.22891903705749 -211.97189102559491 0 -211.97189102559491 93.301526054795431 0 0 0 0 415.63616412670672 -237.41730463815406 0 -237.41730463815406 73.415812133414732 0 0 0 0 461.63907550078329 -194.03891588784109 0 -194.03891588784109 77.143271498473041 0 0 0 0 416.7806906329788 -218.96219502595591 0 -218.96219502595591 83.562762198254859 0 0 0 0 463.11332003162897 -178.80390239759708 0 -178.80390239759708 92.261819496798481 0 0 0 0 565.63357350475781 -297.67430758868659 0 -297.67430758868659 170.15361311388278 0 0 0 0 363.41558591192552 -174.75722902265807 0 -174.75722902265807 88.430269214819447 0 0 0 0 11.925340726459581 -12.850512015428421 0 -12.850512015428421 -0.27898054038359987 0 0 0 0 -5.3852447941280843 -8.998428219289508 0 -8.998428219289508 0.20744657600062055 0 0 0 0 -5.8529601522657444 -6.9747811338412102 0 -6.9747811338412102 -5.8256395454261112 0 0 0 0 3.7743479395150672 -2.1199312641970867 0 -2.1199312641970867 -2.9855122416315307 0 0 0 0 -2.7099917429331981 -26.153418613275335 0 -26.153418613275335 -52.652334464131968 0 0 0 0 1.7472213612922687 -0.55731798462904347 0 -0.55731798462904347 -2.6456870329783424 0 0 0 0 23.301312521692125 2.2664726288644204 0 2.2664726288644204 -9.3432867973285738 0 0 0 0 38.138915607629315 -24.179980405600645 0 -24.179980405600645 -10.029035709147365 0 0 0 0 9.6130805299017084 33.676371729541245 0 33.676371729541245 -14.13864262818281 0 0 0 0 8.2878822915345154 -59.197922803762594 0 -59.197922803762594 81.69986566291027 0 0 0 0 -32.865893610089188 -18.106170083287907 0 -18.106170083287907 43.239278718954665 0 0 0 0 54.68553768694801 -43.660120211342473 0 -43.660120211342473 8.0373913601411004 0 0 0 0 99.075014545868726 -194.63458767018801 0 -194.63458767018801 207.32596962887146 0 0 0 0 -17.638218500354128 -81.207691732236839 0 -81.207691732236839 104.03300613374358 0 0 0 0 -34.069604196096407 -33.172225205909854 0 -33.172225205909854 148.50136234646925 0 0 0 0 -17.588387052563121 -81.147793868454755 0 -81.147793868454755 87.961770662147956 0 0 0 0 -13.935112501232652 40.557443653204473 0 40.557443653204473 54.471775037145918 0 0 0 0 -93.427265150696257 50.441504476077512 0 50.441504476077512 61.636644714645172 0 0 0 0 37.07402076503422 147.3511395864324 0 147.3511395864324 -348.31559967251451 0 0 0 0 -151.58394476754984 -34.312044037015994 0 -34.312044037015994 481.96338505103222 0 0 0 0 -195.84310340810589 361.76787343194081 0 361.76787343194081 147.66020911717499 0 0 0 0 -4.3660858661742168 -35.994431660972026 0 -35.994431660972026 -86.338402915010192 0 0 0 0 -85.862681416152554 -159.85322635667342 0 -159.85322635667342 -228.10979038311564 0 0 0 0 -128.98274573969229 -78.561277440010826 0 -78.561277440010826 -3.6068367024276995 0 0 0 0 -2.4464419695209019 -3.8099065229772844 0 -3.8099065229772844 -2.9698241057999328 0 0 0 0 -51.309242808497061 -22.818297720186706 0 -22.818297720186706 54.122335225635425 0 0 0 0 105.53754975739412 -60.277068460362443 0 -60.277068460362443 -354.59300036745219 0 0 0 0 -15.444667965912231 7.5577460256461109 0 7.5577460256461109 19.208877116069289 0 0 0 0 -60.332244336276176 -2.5468627053334671 0 -2.5468627053334671 -58.247889389270085 0 0 0 0 -96.243103181547212 -90.486457560329583 0 -90.486457560329583 -34.625243184117153 0 0 0 0 -10.125849964512781 12.84560874967022 0 12.84560874967022 -42.985441924464737 0 0 0 0 -9.040357501903804 -10.881102585709977 0 -10.881102585709977 0.76248896061342197 0 0 0 0 -13.849763206362013 -39.220244980004964 0 -39.220244980004964 31.683658424232362 0 0 0 0 -46.83117742528384 -39.907154588342593 0 -39.907154588342593 8.3143927461358089 0 0 0 0 -17.556471455374776 -14.340554909650564 0 -14.340554909650564 28.096868759134395 0 0 0 0 -68.357342912781405 -17.646786360540432 0 -17.646786360540432 14.515705923180121 0 0 0 0 -65.452177075046166 -62.161548060131736 0 -62.161548060131736 18.786097825008312 0 0 0 0 -56.469816934685696 -40.188303305367299 0 -40.188303305367299 61.777643668226119 0 0 0 0 -69.058603185034826 -34.386019305828086 0 -34.386019305828086 57.506720892588419 0 0 0 0 -61.455071626914105 -51.60494671899869 0 -51.60494671899869 72.671742633757276 0 0 0 0 -12.129529657187959 -58.882113614123227 0 -58.882113614123227 61.559487630925105 0 0 0 0 -50.571763825113067 -54.835860550336861 0 -54.835860550336861 80.187785501770122 0 0 0 0 -105.30190591554037 -114.60499475377242 0 -114.60499475377242 323.54555463875482 0 0 0 0 110.32508449199668 -513.99246514744584 0 -513.99246514744584 -51.009519408850792 0 0 0 0 -70.228640236837236 -104.5025297042539 0 -104.5025297042539 -35.912936555990427 0 0 0 0 -79.294554186247638 -59.815542874933726 0 -59.815542874933726 88.830220743087011 0 0 0 0 -109.62388194039431 -142.0872561617025 0 -142.0872561617025 181.59841690890516 0 0 0 0 -71.87972558837464 -8.4616338221658225 0 -8.4616338221658225 119.58385122652771 0 0 0 0 -77.735978226524594 -32.87903057872245 0 -32.87903057872245 77.489169039535227 0 0 0 0 -90.512235371029078 -14.068327964853779 0 -14.068327964853779 123.57001334764846 0 0 0 0 -2.2230131386496801 0.57835656152199011 0 0.57835656152199011 6.2183866225364914 0 0 0 0 -22.741320966662897 48.65954075782156 0 48.65954075782156 159.92540177891897 0 0 0 0 131.11377315950904 -66.603222364348085 0 -66.603222364348085 54.648124227973312 0 0 0 0 -74.470295907445688 -10.70530222848538 0 -10.70530222848538 286.07056372027137 0 0 0 0 38.482899723658193 -2.8136427674799052 0 -2.8136427674799052 10.974753531866554 0 0 0 0 -56.779178249691995 -24.700264423718409 0 -24.700264423718409 6.7353024444546463 0 0 0 0 -26.928214434686709 -29.700730944078714 0 -29.700730944078714 -21.849027298547298 0 0 0 0 -25.892451129892809 26.092664146682353 0 26.092664146682353 46.116007249143877 0 0 0 0 -3.9603607062526294 -49.667167762754616 0 -49.667167762754616 -6.5049563966240385 0 0 0 0 -25.331454238271363 3.0136160879903855 0 3.0136160879903855 -53.760197617375525 0 0 0 0 -4.9234466041674718 -9.1562262329156034 0 -9.1562262329156034 7.4660761424264006 0 0 0 0 45.685514543662066 -43.627491321223715 0 -43.627491321223715 -78.274600548638773 0 0 0 0 -12.357136404745688 11.148623972344922 0 11.148623972344922 -79.546966419151431 0 0 0 0 -4.2309338755062136 -4.3670659610800744 0 -4.3670659610800744 5.9115696326640066 0 0 0 0 -32.420280865530003 -65.206797592656585 0 -65.206797592656585 52.896227432671367 0 0 0 0 -44.25114501250755 -50.766267588350274 0 -50.766267588350274 68.133462960426186 0 0 0 0 -25.607076971084268 -42.042876340163389 0 -42.042876340163389 28.559811342081957 0 0 0 0 -47.148767377488184 -66.592655523631038 0 -66.592655523631038 34.718962144452234 0 0 0 0 -49.379334742825449 -49.882239278566885 0 -49.882239278566885 51.431836513294911 0 0 0 0 -45.182162133006727 -55.602792112115253 0 -55.602792112115253 57.65997222131773 0 0 0 0 -46.215124415741684 -41.900779955043618 0 -41.900779955043618 58.04469190580653 0 0 0 0 -6.506078851051825 -67.796881241393748 0 -67.796881241393748 -18.360796920149369 0 0 0 0 -30.559448216411056 -66.003867109851853 0 -66.003867109851853 2.1264612982249673 0 0 0 0 -45.808772516879799 -92.045106176561603 0 -92.045106176561603 -11.122170094677131 0 0 0 0 -30.563191857737273 -66.536588382899282 0 -66.536588382899282 20.343202381802257 0 0 0 0 -57.503214161634787 -76.80112589111377 0 -76.80112589111377 26.449272995334468 0 0 0 0 -44.720779189971836 -55.268465497666966 0 -55.268465497666966 39.119657663433827 0 0 0 0 -42.691259496936709 -55.388217433266618 0 -55.388217433266618 43.623475105530815 0 0 0 0 -14.163420710513037 -18.497411215297177 0 -18.497411215297177 0.1757706010680522 0 0 0 0 -25.803185824885986 -35.90208540892263 0 -35.90208540892263 -5.5547859250169154 0 0 0 0 5.3083913540103733 -14.8218832557439 0 -14.8218832557439 3.725549196283378 0 0 0 0 -180.32624827477787 6.1612158622065181 0 6.1612158622065181 -3.7771847697367775 0 0 0 0 -16.799676247392156 -20.698908739004153 0 -20.698908739004153 8.0403395940713054 0 0 0 0 -14.494869968965503 -80.609504965002998 0 -80.609504965002998 -36.635408661060865 0 0 0 0 -17.523013331785364 -30.724300511087904 0 -30.724300511087904 1.0621281425023881 0 0 0 0 -18.172590149545385 -29.310130968635804 0 -29.310130968635804 9.3381363977445062 0 0 0 0 -43.457953645212001 -27.762276987004043 0 -27.762276987004043 16.393570334311335 0 0 0 0 -14.615021943993908 -18.623076099569616 0 -18.623076099569616 5.24219927749491 0 0 0 0 -12.032413014127314 -30.666494417540207 0 -30.666494417540207 -0.26913702029560227 0 0 0 0 -5.4878082239679085 -19.75468375453077 0 -19.75468375453077 0.40875515274365748 0 0 0 0 16.707562431924089 -27.478596049317275 0 -27.478596049317275 -36.614757475487067 0 0 0 0 -4.7223945286182243 -20.705031007940732 0 -20.705031007940732 -1.0993004459058966 0 0 0 0 -0.17616043495851486 -16.085915445552867 0 -16.085915445552867 2.480163493096291 0 0 0 0 8.9958661011699874 -21.380023336260823 0 -21.380023336260823 1.7395443344755552 0 0 0 0 17.2849720050217 -40.511472488667778 0 -40.511472488667778 -3.1818295871821647 0 0 0 0 24.59221372949105 -38.215849391021493 0 -38.215849391021493 -24.680487961438246 0 0 0 0 20.064365770934408 -19.143009474787476 0 -19.143009474787476 4.2612286591676618 0 0 0 0 27.14585049900279 -45.671516696504057 0 -45.671516696504057 -12.699187736224303 0 0 0 0 73.518720721296631 -14.922813611962511 0 -14.922813611962511 -39.649597050651039 0 0 0 0 -14.75139680303073 -48.42012082917222 0 -48.42012082917222 85.604670122829702 0 0 0 0 2.2653165281524963 -1.9525340021174014 0 -1.9525340021174014 -3.2445303058425061 0 0 0 0 -15.969920938977339 -41.985108872940941 0 -41.985108872940941 58.746232443257213 0 0 0 0 12.07708781952897 -39.940379498363654 0 -39.940379498363654 8.6223397422099879 0 0 0 0 73.068988582330348 -108.59976865197132 0 -108.59976865197132 56.153338343194264 0 0 0 0 14.243780994258486 -30.699552974540438 0 -30.699552974540438 -39.532237196224742 0 0 0 0 -2.9524208651273511 -56.524568452409312 0 -56.524568452409312 16.386826984429717 0 0 0 0 21.232456055109651 -42.24942515109683 0 -42.24942515109683 14.08919945143316 0 0 0 0 -3.9325112683113019 -2.9867591314433852 0 -2.9867591314433852 -2.0999739391534602 0 0 0 0 -21.638263042746985 -33.327076872519228 0 -33.327076872519228 27.42097004718903 0 0 0 0 -9.4002241657835839 -52.923667138659312 0 -52.923667138659312 -10.997306981160364 0 0 0 0 -13.451642828167678 -48.830113225783862 0 -48.830113225783862 13.280418358821407 0 0 0 0 5.7094295430862374 -27.59241134435592 0 -27.59241134435592 27.145159375759114 0 0 0 0 -29.524760685184447 -75.612394080623744 0 -75.612394080623744 -8.9228959102142653 0 0 0 0 0.38888476989086485 -47.311222184565167 0 -47.311222184565167 -24.354979568018976 0 0 0 0 49.980268887520651 -43.650883319852539 0 -43.650883319852539 -24.826727814437049 0 0 0 0 218.3104726911406 337.37169637133411 0 337.37169637133411 323.05550030376617 0 0 0 0 -13.920301196095963 -16.818045082954932 0 -16.818045082954932 -1.8580901506273688 0 0 0 0 66.066105927526223 -90.255594064431534 0 -90.255594064431534 -6.6971890194754451 0 0 0 0 -5.7179283602545183 -25.742605364016356 0 -25.742605364016356 8.5654856785099582 0 0 0 0 -902.73844660242867 -544.85841601401148 0 -544.85841601401148 928.32299945079876 0 0 0 0 -10.288444242505648 18.878714129135005 0 18.878714129135005 55.106559259007554 0 0 0 0 -91.301166932484193 -134.42599281419098 0 -134.42599281419098 -28.055763079715433 0 0 0 0 -53.249289698467692 -16.299850608535166 0 -16.299850608535166 176.66394644328034 0 0 0 0 -31.109665493131615 -5.6126052957358752 0 -5.6126052957358752 171.93876452912355 0 0 0 0 -0.12625013742714231 -3.0735398295441492 0 -3.0735398295441492 5.9740666829757405 0 0 0 0 34.929155338572855 -11.831969553714771 0 -11.831969553714771 -17.723315938317228 0 0 0 0 -167.06037631000072 66.222672305014783 0 66.222672305014783 323.42000489357571 0 0 0 0 10.434667314135368 -16.083595928622913 0 -16.083595928622913 -17.247869718891252 0 0 0 0 -13.921788177607596 -29.192974843292511 0 -29.192974843292511 -3.932934328026505 0 0 0 0 2.3004881363885943 -36.523899225015384 0 -36.523899225015384 -1.7836414067494957 0 0 0 0 1.7345660436478383 -11.682397139682143 0 -11.682397139682143 7.2751761256977998 0 0 0 0 26.418780743237221 -106.11626688550314 0 -106.11626688550314 -55.087269749042662 0 0 0 0 -40.764813328868513 -14.966677717504496 0 -14.966677717504496 17.439615029771062 0 0 0 0 -2.619392520884352 3.0165963848345179 0 3.0165963848345179 1.5799900363631298 0 0 0 0 -17.641805722950266 -36.646487998292741 0 -36.646487998292741 143.68851047916769 0 0 0 0 132.25059693975072 -72.755464532272526 0 -72.755464532272526 28.826261311219241 0 0 0 0 171.58054205886947 -62.382610029348598 0 -62.382610029348598 -76.402835386803872 0 0 0 0 58.867758302543734 42.088208230966302 0 42.088208230966302 40.966610730944581 0 0 0 0 55.606335465683514 -101.08014994920904 0 -101.08014994920904 98.541305961159196 0 0 0 0 -9.9449445618429309 -52.069347549572285 0 -52.069347549572285 72.210381176443889 0 0 0 0 10.3378136820902 -30.344336395009122 0 -30.344336395009122 23.886407416792281 0 0 0 0 3.834934715920614 -4.1740820299028529 0 -4.1740820299028529 -4.5369394796108562 0 0 0 0 -13.951129406937071 -40.595170894497187 0 -40.595170894497187 45.176149739396351 0 0 0 0 40.720595855047577 -71.753325772988319 0 -71.753325772988319 53.682288129189146 0 0 0 0 70.458448645287717 -30.232620191186925 0 -30.232620191186925 20.605676305895031 0 0 0 0 -11.030173892200652 -10.792787677540648 0 -10.792787677540648 -5.5418702135670515 0 0 0 0 -1.3498898464071445 -24.145227360917232 0 -24.145227360917232 -2.5865358271634205 0 0 0 0 88.777374570687243 -19.279279533967383 0 -19.279279533967383 -137.79323497219821 0 0 0 0 -9.1336460572856595 -27.555532368085665 0 -27.555532368085665 12.396626203227783 0 0 0 0 -9.4131591808454687 -10.32012200745703 0 -10.32012200745703 -54.165738442887232 0 0 0 0 16.091817371475766 -17.032997611461887 0 -17.032997611461887 -37.663284151480021 0 0 0 0 -6.5210051009671588 -32.907495195866431 0 -32.907495195866431 -64.133062273419455 0 0 0 0 -8.4840902455780451 -32.063435226561751 0 -32.063435226561751 -12.555386795879485 0 0 0 0 -3.1728030450867664 -21.30227146784523 0 -21.30227146784523 1.122940911388298 0 0 0 0 0.11348621060096775 -38.317815128593566 0 -38.317815128593566 -11.194332904359953 0 0 0 0 17.789013446593486 -19.889712738543302 0 -19.889712738543302 -43.058021022129651 0 0 0 0 -2.1093593539899942 -11.192950307631149 0 -11.192950307631149 -3.4438093619780576 0 0 0 0 -1.6415926098210107 -19.901162587080378 0 -19.901162587080378 -14.159118390947928 0 0 0 0 -8.5402939761255325 -11.449432202684577 0 -11.449432202684577 -9.6026371048077266 0 0 0 0 -7.9356796751635557 -10.253351185336214 0 -10.253351185336214 -34.541427869997904 0 0 0 0 -2.7027210547372675 -26.329429685200211 0 -26.329429685200211 13.191812380530337 0 0 0 0 -3.6850095659210638 -17.572274434581232 0 -17.572274434581232 12.2054911356513 0 0 0 0 6.2157404489989858 -34.462229286402817 0 -34.462229286402817 10.465894392257837 0 0 0 0 8.7832039415451959 -27.253093096802264 0 -27.253093096802264 -2.5478406047088811 0 0 0 0 8.8057191945445084 -27.683483488748251 0 -27.683483488748251 -16.735989844215993 0 0 0 0 8.7231850438020047 -32.42307659837661 0 -32.42307659837661 -7.1870227915590021 0 0 0 0 6.6623661798257672 -33.879067828653206 0 -33.879067828653206 5.399641319829243 0 0 0 0 0.57695433224580484 -36.020600647481842 0 -36.020600647481842 12.699153296236318 0 0 0 0 4.0111675141813521 -20.003858184206649 0 -20.003858184206649 -10.714208401535519 0 0 0 0 6.5165711021699906 -23.945933036395676 0 -23.945933036395676 -0.18522821487680208 0 0 0 0 -40.335194289486026 -24.618943150772338 0 -24.618943150772338 -91.731849092035191 0 0 0 0 8.565032601687335 -20.533311813526442 0 -20.533311813526442 -6.0483118179333708 0 0 0 0 10.127786322387692 -32.460730019021867 0 -32.460730019021867 -8.1401881105534812 0 0 0 0 10.869381387105932 -27.405024943156093 0 -27.405024943156093 -1.2488860321263928 0 0 0 0 7.3666741990600713 -21.661640924963649 0 -21.661640924963649 -11.715290157080176 0 0 0 0 84.440855750952323 -64.383071290882071 0 -64.383071290882071 30.76665579274686 0 0 0 0 33.66745658540458 25.268731633355856 0 25.268731633355856 -134.22799511218909 0 0 0 0 0.41992331327836752 -4.5679917527579157 0 -4.5679917527579157 -1.310417395100318 0 0 0 0 7.7726580251764972 -25.747382511943215 0 -25.747382511943215 -9.1987893273962982 0 0 0 0 -12.365499242268925 -26.566668247366124 0 -26.566668247366124 -61.325951948192596 0 0 0 0 -2.1315703517739948 -6.8008127927120405 0 -6.8008127927120405 -5.6000048698160461 0 0 0 0 6.9488927845595754 -7.7211795813418576 0 -7.7211795813418576 -70.156050364264956 0 0 0 0 7.218528751494496 -23.025562191062651 0 -23.025562191062651 -13.267426771138069 0 0 0 0 -6.9401038268097182 -25.609454401041376 0 -25.609454401041376 15.23258336588151 0 0 0 0 -12.457871222723043 -32.355121265172556 0 -32.355121265172556 8.8585523432934679 0 0 0 0 7.3436936584404862 -19.148957038180797 0 -19.148957038180797 -13.084261233491361 0 0 0 0 6.3194425333799487 -22.519816024218716 0 -22.519816024218716 2.7097649335367056 0 0 0 0 9.0099265029776063 -22.211030634569788 0 -22.211030634569788 -1.9001534165245175 0 0 0 0 5.6887166534966127 -27.976274898221618 0 -27.976274898221618 -2.1656345471915301 0 0 0 0 -3.7474422114952861 -15.965798720919153 0 -15.965798720919153 9.3623259392163884 0 0 0 0 -7.9355249526088301 -29.900855322677216 0 -29.900855322677216 8.4840360958123711 0 0 0 0 -2.1431992654761416 -20.703887477314311 0 -20.703887477314311 7.9252742591858549 0 0 0 0 -6.3424549864139408 -25.432639416930101 0 -25.432639416930101 2.5866486246302429 0 0 0 0 -3.3509759285857399 -26.475256008312641 0 -26.475256008312641 -1.344235303154619 0 0 0 0 -7.1419316620522295 -34.924721728139957 0 -34.924721728139957 -2.126967975998582 0 0 0 0 -13.164403637017131 -31.623687721690658 0 -31.623687721690658 -3.7380048796439951 0 0 0 0 -5.3225104273242323 -30.859228892346096 0 -30.859228892346096 -14.307115810798678 0 0 0 0 5.706521960233756 -20.078068025635044 0 -20.078068025635044 -9.8742545577832566 0 0 0 0 -4.8256644489083556 -35.115594401112048 0 -35.115594401112048 -3.2480316936209874 0 0 0 0 7.0195254656173347 -20.689468448964362 0 -20.689468448964362 -18.184647639211107 0 0 0 0 2.3514381132222431 -13.869850401418322 0 -13.869850401418322 -21.619441395699631 0 0 0 0 -0.056048933753352514 -18.595908528622331 0 -18.595908528622331 -10.405995053964105 0 0 0 0 6.4716855249571381 -19.839858161097254 0 -19.839858161097254 -16.16471038597092 0 0 0 0 12.977367353890031 -21.659038935651552 0 -21.659038935651552 -39.884447521504626 0 0 0 0 8.6405987750842286 -11.520694795657572 0 -11.520694795657572 -15.136837025729957 0 0 0 0 7.6539067662514526 -26.924841341370666 0 -26.924841341370666 -57.21634834172437 0 0 0 0 8.5028954759103765 -11.666625431197183 0 -11.666625431197183 -18.079464886798519 0 0 0 0 -0.83159360457284492 -21.30280543554727 0 -21.30280543554727 -13.773237671557581 0 0 0 0 3.6863380080449133 -18.416478492077658 0 -18.416478492077658 -13.689629157743184 0 0 0 0 5.885729477318506 -15.7322462320429 0 -15.7322462320429 -16.248703576272963 0 0 0 0 2.7262071519871824 -20.256772544820706 0 -20.256772544820706 -16.900000445031765 0 0 0 0 -96.825613770490577 8.7417714768305501 0 8.7417714768305501 -15.645963537572243 0 0 0 0 1.4428536400338792 -10.603330534665034 0 -10.603330534665034 -9.0375805854371194 0 0 0 0 0.075718082258390496 -17.871704588695138 0 -17.871704588695138 -4.3326277975575067 0 0 0 0 -9.0863794906511064 -19.649202070096933 0 -19.649202070096933 0.91259061607916259 0 0 0 0 -18.750939181860304 -5.3217908628012083 0 -5.3217908628012083 39.903293481314904 0 0 0 0 -5.6966294561625546 -27.901971365336067 0 -27.901971365336067 -275.07904472502742 0 0 0 0 -13.419329414672575 -3.5704032594221644 0 -3.5704032594221644 25.348216895385121 0 0 0 0 -0.73273316060008398 -2.3792316368125448 0 -2.3792316368125448 1.418777896020087 0 0 0 0 -8.3253762219753611 -13.779046023217859 0 -13.779046023217859 2.2010001104645198 0 0 0 0 -4.5654053454327368 -3.0995748745008314 0 -3.0995748745008314 22.657858678860066 0 0 0 0 9.1700681115096785 -12.523871541789847 0 -12.523871541789847 5.8167440199061531 0 0 0 0 -32.078679383118924 -20.748207697057296 0 -20.748207697057296 31.609704644441081 0 0 0 0 -2.7935370493804115 -13.279278268685147 0 -13.279278268685147 12.171001688889142 0 0 0 0 10.438931833801149 -4.2572144976525408 0 -4.2572144976525408 22.249405626680527 0 0 0 0 -11.671334133226992 -18.676315865206561 0 -18.676315865206561 -2.0654148039984648 0 0 0 0 10.94579206254982 -13.794815468869686 0 -13.794815468869686 1.6084333030965965 0 0 0 0 -20.90308036006536 -38.010136679149582 0 -38.010136679149582 111.87429679524394 0 0 0 0 -0.70439034768170927 -5.7333665291918692 0 -5.7333665291918692 0.7061642821166032 0 0 0 0 29.471243502033758 -83.934573403936156 0 -83.934573403936156 -20.567293047591193 0 0 0 0 -1.5606876661513525 1.1920986007480678 0 1.1920986007480678 46.03088787697925 0 0 0 0 -14.35184811884892 -24.029748628021821 0 -24.029748628021821 54.389355261218952 0 0 0 0 -17.482806577198062 -38.172897451597237 0 -38.172897451597237 24.250678397628462 0 0 0 0 5.6282166102318136 -16.048191048576832 0 -16.048191048576832 14.560443668455299 0 0 0 0 0.59687138096828996 -16.301663931684331 0 -16.301663931684331 16.418242454382909 0 0 0 0 37.964736213678407 -79.309988357134898 0 -79.309988357134898 -90.351051055904918 0 0 0 0 34.060369142491254 23.173279799782904 0 23.173279799782904 -71.133615758541055 0 0 0 0 1.8533963370539368 45.253131906986255 0 45.253131906986255 27.969027894941973 0 0 0 0 -74.712630814065051 20.938401532006537 0 20.938401532006537 -27.899200398971516 0 0 0 0 5.6403414679371053 9.6971829990980041 0 9.6971829990980041 -35.957986050569161 0 0 0 0 -76.329699729281856 0.42760837002788321 0 0.42760837002788321 -34.595536310611351 0 0 0 0 120.01389408850082 71.090751757439648 0 71.090751757439648 -49.625143684221257 0 0 0 0 -69.50521276715881 -117.00946959718749 0 -117.00946959718749 406.91503612241468 0 0 0 0 28.20411191187668 -159.62832319417612 0 -159.62832319417612 10.906883263628856 0 0 0 0 1.8871175123144255 -4.0064246220220134 0 -4.0064246220220134 -0.2684678619008265 0 0 0 0 107.2443405689919 -5.0833752125618048 0 -5.0833752125618048 -295.09042723530001 0 0 0 0 40.915885564685595 -239.48463454886951 0 -239.48463454886951 215.98275006685617 0 0 0 0 160.92339039089711 -139.35035811403577 0 -139.35035811403577 -195.25725314855299 0 0 0 0 27.99271832485465 -110.04627142358368 0 -110.04627142358368 67.936843066109304 0 0 0 0 125.62826784527715 -12.43190105806525 0 -12.43190105806525 -70.600365811522352 0 0 0 0 -52.984066129032726 -1.1955171706904366 0 -1.1955171706904366 27.876345522923657 0 0 0 0 71.524756701779552 31.314964267140567 0 31.314964267140567 -18.64298922886428 0 0 0 0 -1.0904140940619982 -5.9727802894030901 0 -5.9727802894030901 -32.483655216092302 0 0 0 0 6.4454190948745236 -21.816352455990454 0 -21.816352455990454 -55.468899330811837 0 0 0 0 -41.141500663783518 -45.346035645285156 0 -45.346035645285156 -28.612797464415053 0 0 0 0 -34.667937414953485 -63.924593147197811 0 -63.924593147197811 -75.863448365143995 0 0 0 0 -87.045351318272878 -12.708816356338502 0 -12.708816356338502 -56.20953638971605 0 0 0 0 -7.8110361760518572 26.963900181087411 0 26.963900181087411 246.74543423360956 0 0 0 0 25.170179715321865 -67.807719859977624 0 -67.807719859977624 175.22341085231801 0 0 0 0 -23.7635782337602 -31.499575251886199 0 -31.499575251886199 -10.487571799037823 0 0 0 0 21.220036256840103 -41.665499321953575 0 -41.665499321953575 -21.191411706027793 0 0 0 0 0.01586188473652328 -32.171731369246572 0 -32.171731369246572 -12.596586152445525 0 0 0 0 -16.054772517611127 -35.61984812569608 0 -35.61984812569608 14.339265026384965 0 0 0 0 0.9398974735033323 -7.7946449759160155 0 -7.7946449759160155 -2.0665557757688759 0 0 0 0 23.996087228172936 -32.044245552204394 0 -32.044245552204394 -17.810052469624104 0 0 0 0 6.7878566974677597 -26.71344105895173 0 -26.71344105895173 1.9755174226852432 0 0 0 0 26.38659526491324 -46.348884065529774 0 -46.348884065529774 -4.3019706809536729 0 0 0 0 19.661442372160309 -49.853310089866682 0 -49.853310089866682 -5.7365488135242231 0 0 0 0 -6.6176920523408853 -20.774745034874915 0 -20.774745034874915 -14.11010742845901 0 0 0 0 16.809471481987202 -47.243964721232942 0 -47.243964721232942 5.4166644558872576 0 0 0 0 33.012355279541225 -44.942118353711066 0 -44.942118353711066 -12.719616244794722 0 0 0 0 -12.070293327402624 -32.566821014580455 0 -32.566821014580455 3.521892299544561 0 0 0 0 -14.65042223217992 -45.274228296122089 0 -45.274228296122089 -16.64978947373038 0 0 0 0 -9.7466269153596237 -21.895716152109756 0 -21.895716152109756 -14.792437982755093 0 0 0 0 13.551553552157202 -41.750975604641781 0 -41.750975604641781 -3.4093513944421261 0 0 0 0 -19.702881629624699 -27.275870949854834 0 -27.275870949854834 -2.2117114052084617 0 0 0 0 1.0388218407569045 -12.558983629239112 0 -12.558983629239112 13.500642987179152 0 0 0 0 -18.682419141708806 -32.696371749839955 0 -32.696371749839955 0.64112604574825127 0 0 0 0 -6.2669947151445768 -28.859918819590643 0 -28.859918819590643 -13.013246757203433 0 0 0 0 -25.842638289031598 -29.948162117578626 0 -29.948162117578626 -3.1388262896271044 0 0 0 0 7.8126064616752027 -11.518518484633653 0 -11.518518484633653 5.2034667375735442 0 0 0 0 -14.372428857193427 -36.615330522221271 0 -36.615330522221271 -3.9094079213257373 0 0 0 0 -29.283887352804726 -61.689545157759994 0 -61.689545157759994 -41.794417665611036 0 0 0 0 2.6471535042074601 -5.6697816445855889 0 -5.6697816445855889 9.8734565795988072 0 0 0 0 -18.857320789530377 -23.501760720649145 0 -23.501760720649145 -10.278685377727925 0 0 0 0 -25.699964500860006 -26.915767449537498 0 -26.915767449537498 -3.5926904737589211 0 0 0 0 -36.708323685121286 -23.507718972780822 0 -23.507718972780822 -3.9058484770621362 0 0 0 0 -15.37662063970788 -30.506450478582792 0 -30.506450478582792 -36.613962042243656 0 0 0 0 2.6428009423738366 -6.5994607369821647 0 -6.5994607369821647 -2.5066411417554435 0 0 0 0 -26.424122269733743 -24.060841222816634 0 -24.060841222816634 -9.374251693712722 0 0 0 0 -39.971914836794667 -27.714574321848886 0 -27.714574321848886 -4.5405622576427049 0 0 0 0 -38.675912097341552 -53.077030403553181 0 -53.077030403553181 84.785787556844298 0 0 0 0 -13.322403461188287 -24.262391534277413 0 -24.262391534277413 -31.488991227692168 0 0 0 0 -30.705149188033374 -29.148046547084959 0 -29.148046547084959 -45.878313644767331 0 0 0 0 -10.76905192028676 -17.494521484059131 0 -17.494521484059131 9.5938547378801289 0 0 0 0 13.338222571908773 -43.578428718541545 0 -43.578428718541545 4.3260073316960188 0 0 0 0 8.8730229541824883 3.4877381355508987 0 3.4877381355508987 -34.948084579251372 0 0 0 0 -21.027063652878041 -39.212032829339933 0 -39.212032829339933 -4.8022723663898432 0 0 0 0 2.051342737143619 -9.994820667012247 0 -9.994820667012247 -5.8143645476446242 0 0 0 0 0.78474455584170699 -0.29308291454914492 0 -0.29308291454914492 -0.98481549164048587 0 0 0 0 -78.18899142229202 -66.568446273380687 0 -66.568446273380687 -42.272812711804363 0 0 0 0 3.4594452859964804 -19.998176163413518 0 -19.998176163413518 -190.80850941970493 0 0 0 0 0.31909697512913127 0.032152720090962816 0 0.032152720090962816 -0.13189890228911771 0 0 0 0 -14.060416859325414 11.741151102491585 0 11.741151102491585 117.40617792584089 0 0 0 0 18.041736143290109 -10.775316073686554 0 -10.775316073686554 26.200805067959664 0 0 0 0 -42.118710426458165 -42.441319028350335 0 -42.441319028350335 -29.241709781790632 0 0 0 0 -40.547779276434994 -22.266084890157799 0 -22.266084890157799 -15.949088289809879 0 0 0 0 57.491163566363866 -12.332688642043877 0 -12.332688642043877 -8.8113798124268214 0 0 0 0 10.914088935064401 -29.509547993842052 0 -29.509547993842052 -26.237981104007144 0 0 0 0 -20.707158057394452 -16.683857573897818 0 -16.683857573897818 8.6698435197804855 0 0 0 0 -50.111184788976743 -30.750693686086152 0 -30.750693686086152 -20.196720689182257 0 0 0 0 -32.642512164228719 -33.207992489818935 0 -33.207992489818935 -35.517873748382044 0 0 0 0 35.206526103091164 -8.891393246079133 0 -8.891393246079133 -0.60721415341504326 0 0 0 0 34.515544766265521 -34.485709328999292 0 -34.485709328999292 -14.423556103110968 0 0 0 0 -0.78283858330417999 -8.1296614925094186 0 -8.1296614925094186 -8.7818817548523462 0 0 0 0 6.7701090067130281 -3.8688366629580742 0 -3.8688366629580742 -1.8876195079951685 0 0 0 0 44.535692014989763 -7.2438218899624189 0 -7.2438218899624189 -2.1906597415818396 0 0 0 0 -2.468805498263464 -102.69235437617385 0 -102.69235437617385 -68.838755525634951 0 0 0 0 13.846752856712556 -10.982449233237276 0 -10.982449233237276 -37.806877147579144 0 0 0 0 7.6064703623807972 -28.269888522472836 0 -28.269888522472836 -30.7482671951668 0 0 0 0 113.06915883860984 -7.2481322793300933 0 -7.2481322793300933 -86.924907033676845 0 0 0 0 -52.665552583466138 -38.436434701438657 0 -38.436434701438657 -28.652402054151025 0 0 0 0 -30.023239480590746 -44.722307298819715 0 -44.722307298819715 -93.976814037530858 0 0 0 0 -34.38297793322954 -35.694916492526318 0 -35.694916492526318 -33.831477695101057 0 0 0 0 -47.418238249038723 -32.584568601451792 0 -32.584568601451792 -33.639740202932444 0 0 0 0 53.801832719163031 21.023486575017159 0 21.023486575017159 -102.97417715490155 0 0 0 0 -32.541624341616625 -42.727437583723258 0 -42.727437583723258 -92.397285565843049 0 0 0 0 -25.770104220488065 12.40856402274585 0 12.40856402274585 -32.624337351060603 0 0 0 0 20.593674671607005 -24.691917320669745 0 -24.691917320669745 27.372284161099742 0 0 0 0 -23.142994041014219 -20.365876724546297 0 -20.365876724546297 36.864030198303226 0 0 0 0 -32.212942332913372 -51.125782002092819 0 -51.125782002092819 28.206529961762499 0 0 0 0 -36.504253770516698 -41.270193688455038 0 -41.270193688455038 80.708664155745282 0 0 0 0 27.97217985453608 -104.66094692925435 0 -104.66094692925435 0.78015602448795107 0 0 0 0 -40.967819647351007 -26.898441026152796 0 -26.898441026152796 -28.748018913793203 0 0 0 0 -24.412858581758883 -60.130475747543642 0 -60.130475747543642 -18.912876999675291 0 0 0 0 -10.939671575190459 -60.279841809443496 0 -60.279841809443496 -42.402233536213316 0 0 0 0 48.459719137751108 -61.135958065128762 0 -61.135958065128762 -58.811572770307976 0 0 0 0 0.98149349973800781 -81.034949114256051 0 -81.034949114256051 -6.3198852565583366 0 0 0 0 0.98892786293697554 -40.630585216981672 0 -40.630585216981672 -63.928893926793535 0 0 0 0 -6.2594646680379356 -69.254804453305837 0 -69.254804453305837 -51.044113929747255 0 0 0 0 12.436804576426766 -23.990051599817889 0 -23.990051599817889 -62.225849899585228 0 0 0 0 -17.487215916553396 -49.948703886613657 0 -49.948703886613657 -32.413200986733273 0 0 0 0 -33.286523937767925 -79.683823142171605 0 -79.683823142171605 -37.370371060017874 0 0 0 0 -40.6644528122888 -77.551578029450411 0 -77.551578029450411 -27.53956886306878 0 0 0 0 -33.504142778783716 -72.298237378486874 0 -72.298237378486874 -43.664847677493526 0 0 0 0 -135.07721804457105 -70.517415850638827 0 -70.517415850638827 -34.66916810884004 0 0 0 0 -110.06383770939829 -77.063801389552282 0 -77.063801389552282 -42.607120542534631 0 0 0 0 -32.900896583103531 -95.616609189626161 0 -95.616609189626161 -62.671983666918095 0 0 0 0 8.9400506046040356 -27.800471283415991 0 -27.800471283415991 -34.697894274815319 0 0 0 0 92.399868893411622 -52.324775336394055 0 -52.324775336394055 -86.981311930745505 0 0 0 0 16.448789949327875 -39.802274867138976 0 -39.802274867138976 5.4903779724991182 0 0 0 0 0.52921261132723885 -23.759099246961341 0 -23.759099246961341 -8.8751545224167785 0 0 0 0 13.202683327773229 -20.708279262067663 0 -20.708279262067663 -11.307056321947584 0 0 0 0 16.409923256083857 -35.871438416710589 0 -35.871438416710589 -20.402196202128835 0 0 0 0 16.409923256098409 -35.871438416710589 0 -35.871438416710589 -20.402196202130654 0 0 0 0 -9.5577701802321826 -25.985033891870444 0 -25.985033891870444 -22.482591794923792 0 0 0 0 16.409923256102047 -35.871438416713318 0 -35.871438416713318 -20.402196202150662 0 0 0 0 8.7404599805013277 -13.2468950297025 0 -13.2468950297025 -30.166583618211007 0 0 0 0 22.522319863395751 -44.525339148440253 0 -44.525339148440253 -6.4786674362367194 0 0 0 0 70.272211822430108 -29.612439574510063 0 -29.612439574510063 -75.917064989931532 0 0 0 0 32.920465767639222 -26.382362645841059 0 -26.382362645841059 6.6436881011570357 0 0 0 0 18.156520959400495 -39.244124770345934 0 -39.244124770345934 -2.6426703353790799 0 0 0 0 12.474457328844437 -48.741552373872764 0 -48.741552373872764 11.927840337361886 0 0 0 0 70.211561489330052 -49.55540139124605 0 -49.55540139124605 -3.1897326436192088 0 0 0 0 -386.78088981749897 133.69755933338456 0 133.69755933338456 69.215915816748748 0 0 0 0 3.5398107738536826 -2.8202014085604326 0 -2.8202014085604326 1.9855452011020596 0 0 0 0 67.045173186159616 0.067984736283221991 0 0.067984736283221991 20.920569786183478 0 0 0 0 62.199783776082768 -38.11446328664897 0 -38.11446328664897 -41.054159789322512 0 0 0 0 29.900086844456382 -38.018895056200563 0 -38.018895056200563 -40.690024392250052 0 0 0 0 28.073451298019481 -24.343080244652526 0 -24.343080244652526 12.497286969727767 0 0 0 0 46.961681381779272 1.3007089071907103 0 1.3007089071907103 -25.704863752653182 0 0 0 0 15.028511927379441 -16.852947752020555 0 -16.852947752020555 23.899542781819036 0 0 0 0 8.1700642941252415 -5.2409358804461394 0 -5.2409358804461394 -6.9080807931926742 0 0 0 0 38.675832300383263 -33.913916183995752 0 -33.913916183995752 -0.80151236226083711 0 0 0 0 48.549041145715819 -36.115442266673199 0 -36.115442266673199 -1.5827100423484808 0 0 0 0 -33.687436425392207 -730.95169759134569 0 -730.95169759134569 382.91035188466776 0 0 0 0 65.989522669018243 -22.538830796519505 0 -22.538830796519505 -17.24950378639187 0 0 0 0 -450.48493968383491 -262.5878614356543 0 -262.5878614356543 229.06711672017991 0 0 0 0 1.9759171371691349 -1.5297525997874466 0 -1.5297525997874466 -3.1722632502160124 0 0 0 0 -199.32416101866875 1.5501655161006056 0 1.5501655161006056 -105.81750882147753 0 0 0 0 37.944030369504617 -88.754105846674065 0 -88.754105846674065 -203.99817391782562 0 0 0 0 56.627062304341962 26.602138987746002 0 26.602138987746002 -159.52662290277294 0 0 0 0 -84.657494832459633 -188.6278313200346 0 -188.6278313200346 -17.593621744948905 0 0 0 0 34.794963303893155 -24.976915534966793 0 -24.976915534966793 -3.9088445445959223 0 0 0 0 381.56369879828344 -182.13919396835263 0 -182.13919396835263 -25.55758001187769 0 0 0 0 280.92348062263227 62.773271707901586 0 62.773271707901586 25.921571528484492 0 0 0 0 63.926923827163591 -53.203815720897182 0 -53.203815720897182 -96.209073774694843 0 0 0 0 26.901918312009116 18.876652230710761 0 18.876652230710761 241.45984806657361 0 0 0 0 28.726634207973802 -116.91521503817785 0 -116.91521503817785 144.63668151268939 0 0 0 0 93.508545692417101 -106.61943797945787 0 -106.61943797945787 -31.524589885353635 0 0 0 0 28.233216587942479 -38.532101192899063 0 -38.532101192899063 -55.773820823256756 0 0 0 0 43.270949393495584 -31.573721248882066 0 -31.573721248882066 -73.916607426013798 0 0 0 0 -4.5100948785534456 -16.178640703331439 0 -16.178640703331439 -74.410189227219234 0 0 0 0 -65.310460486456577 -52.311781817648807 0 -52.311781817648807 -77.268926829101048 0 0 0 0 21.631904049865625 -38.688006529796439 0 -38.688006529796439 -77.048246096705043 0 0 0 0 58.470819812795526 -30.164322200920651 0 -30.164322200920651 -79.44434682010683 0 0 0 0 -0.29619071393472041 -14.974094585104467 0 -14.974094585104467 -80.862848886556321 0 0 0 0 14.249855577882045 -13.422772314368558 0 -13.422772314368558 -75.464585295848337 0 0 0 0 -27.659001788026899 -67.471053026575646 0 -67.471053026575646 -106.66128700960326 0 0 0 0 11.490525562649534 -8.0532640808887628 0 -8.0532640808887628 5.0609490822405547 0 0 0 0 44.227352298324604 -36.620118676944912 0 -36.620118676944912 -100.5409514119292 0 0 0 0 -13.50337642778868 -47.031797935769646 0 -47.031797935769646 -62.823962680737168 0 0 0 0 77.340293181886409 -84.745035193920558 0 -84.745035193920558 -48.356428577240877 0 0 0 0 -12.188616483060741 -56.084264700155472 0 -56.084264700155472 -39.953992520408065 0 0 0 0 -6.2271574807336947 -103.1467702812979 0 -103.1467702812979 -95.084079891459623 0 0 0 0 20.585663264251405 -11.8986290109194 0 -11.8986290109194 7.7872573674901595 0 0 0 0 12.148563775861476 -35.066324561740657 0 -35.066324561740657 -37.354616567710764 0 0 0 0 -26.317429924279736 -21.329041037400657 0 -21.329041037400657 2.3508983610208816 0 0 0 0 -24.436140470439568 -46.444601248748768 0 -46.444601248748768 60.706560376665038 0 0 0 0 -8.3942378921333329 -89.367058793221986 0 -89.367058793221986 17.2438992820571 0 0 0 0 -0.73989398721278121 -63.80600528911782 0 -63.80600528911782 -7.7273406352651364 0 0 0 0 96.173270228698584 -157.64981374926219 0 -157.64981374926219 82.5732672238737 0 0 0 0 -53.093078014946059 -30.714138072700734 0 -30.714138072700734 136.73970592957085 0 0 0 0 0.42939165335462937 -0.85467875260262982 0 -0.85467875260262982 0.79930100480130051 0 0 0 0 167.5627008743752 -96.839106343116327 0 -96.839106343116327 7.8193488300275931 0 0 0 0 53.57365995500777 -150.65834049792647 0 -150.65834049792647 106.26361118815009 0 0 0 0 4.1869676117016752 -101.4241075724367 0 -101.4241075724367 68.555093044495152 0 0 0 0 32.62216584681164 -39.952177242351354 0 -39.952177242351354 101.97543665087142 0 0 0 0 133.28895018601975 -40.679081931252767 0 -40.679081931252767 -41.787276384766301 0 0 0 0 36.628902718031668 -29.376514853248409 0 -29.376514853248409 -42.053249300264724 0 0 0 0 -57.761104042069292 -79.789679352866187 0 -79.789679352866187 58.5807099797712 0 0 0 0 3.1877690635624276 10.939662363649404 0 10.939662363649404 -83.761347838699294 0 0 0 0 26.763288327164901 -89.727704400875155 0 -89.727704400875155 -85.457112092840504 0 0 0 0 27.669158046731809 -80.590336523945552 0 -80.590336523945552 56.67808016420895 0 0 0 0 15.580881089272907 -91.061514020831055 0 -91.061514020831055 102.88388910831964 0 0 0 0 21.245886099511608 -41.165128664324584 0 -41.165128664324584 106.89978245977545 0 0 0 0 23.787960065315019 -48.059026226685091 0 -48.059026226685091 85.873802265602535 0 0 0 0 0.32724807524863486 0.51643304697665826 0 0.51643304697665826 0.016620072127497831 0 0 0 0 10.204239181728553 -18.197725354306385 0 -18.197725354306385 34.931517308374168 0 0 0 0 59.554314421468234 -79.877840766207555 0 -79.877840766207555 35.08880378512913 0 0 0 0 32.947130771010734 -93.962893339300535 0 -93.962893339300535 67.836786453353852 0 0 0 0 8.1112316228682175 -26.441658027744779 0 -26.441658027744779 -9.280985627498012 0 0 0 0 -28.006965504904883 -46.972455817629452 0 -46.972455817629452 21.918533177475183 0 0 0 0 -4.9004110046608336 -3.5245590020595179 0 -3.5245590020595179 2.0163101304951994 0 0 0 0 2.713740649449055 -7.4657108669017447 0 -7.4657108669017447 -0.19205482605501389 0 0 0 0 -146.54837897109519 -43.52708291059389 0 -43.52708291059389 112.98658201922444 0 0 0 0 5.5122553713090383 -31.254107662786737 0 -31.254107662786737 0.48175577666552272 0 0 0 0 -34.848960081794758 -9.8405040437683056 0 -9.8405040437683056 17.109355712771503 0 0 0 0 15.617497404790356 -18.754455859278096 0 -18.754455859278096 -15.960121165197052 0 0 0 0 0.46097940907836588 -22.377973507494104 0 -22.377973507494104 -0.1449489544482816 0 0 0 0 -52.422917011372192 -9.5316551121504745 0 -9.5316551121504745 -3.6073775170516456 0 0 0 0 4.5129859836885258 -0.37682050854202487 0 -0.37682050854202487 -2.5723344276304658 0 0 0 0 27.617712148414284 -36.942015396183706 0 -36.942015396183706 -39.129810008873164 0 0 0 0 -62.191372658111504 -46.555048590627848 0 -46.555048590627848 60.506576360797908 0 0 0 0 5.0486503182892193 -15.790344830037611 0 -15.790344830037611 7.1577603566365724 0 0 0 0 -5.2406562885972576 -11.083208476061181 0 -11.083208476061181 0.03488452614537163 0 0 0 0 -21.387540457941149 -20.422804098234561 0 -20.422804098234561 -7.5622105746623589 0 0 0 0 36.049643200774881 -62.949805349737289 0 -62.949805349737289 -12.684244823644804 0 0 0 0 -25.283214626616541 -22.935814815462436 0 -22.935814815462436 2.0958525038477092 0 0 0 0 -48.845009184840457 -46.298384113196391 0 -46.298384113196391 -23.461920707243607 0 0 0 0 -166.7127648616563 -57.955695768208898 0 -57.955695768208898 151.79186318982829 0 0 0 0 -35.602140809940806 -57.018310810555192 0 -57.018310810555192 -41.658702759409607 0 0 0 0 -63.283121993921668 -61.950510794180445 0 -61.950510794180445 6.7845004318355677 0 0 0 0 -41.676678186513129 -38.454798016660419 0 -38.454798016660419 -18.84393178782031 0 0 0 0 -36.076523914879772 -54.808731996681274 0 -54.808731996681274 -12.04579057393039 0 0 0 0 -48.721518873113382 -68.773399684695505 0 -68.773399684695505 -17.207636607824497 0 0 0 0 -37.452104354395487 -72.181714878574439 0 -72.181714878574439 -26.54334614011168 0 0 0 0 -23.067497032850042 -73.988142712354374 0 -73.988142712354374 -37.302715664805419 0 0 0 0 2.659004671461374 -31.396549740656368 0 -31.396549740656368 -38.55980856602649 0 0 0 0 -32.656273177681214 -69.805597844090244 0 -69.805597844090244 -36.206551206711083 0 0 0 0 18.97621355463798 -30.300609824987987 0 -30.300609824987987 -56.151849719146412 0 0 0 0 1.2181307869619662 -5.5502319772814097 0 -5.5502319772814097 -4.3459860968141619 0 0 0 0 -1.8320709941843241 0.90211194259527261 0 0.90211194259527261 0.81267501238488293 0 0 0 0 -11.992988886323474 -29.16349763339349 0 -29.16349763339349 27.217120694584082 0 0 0 0 14.197407869645758 -29.249087889000293 0 -29.249087889000293 -177.1199203881115 0 0 0 0 -5.8346186003677758 -61.584348391527783 0 -61.584348391527783 56.826198527491215 0 0 0 0 27.365602429139017 -53.291990517158411 0 -53.291990517158411 40.82451136882446 0 0 0 0 22.719486837877128 -18.391582247090469 0 -18.391582247090469 -8.7777897135601961 0 0 0 0 22.731951074398239 -57.923569754876553 0 -57.923569754876553 44.682393207964196 0 0 0 0 -7.1002315035968042 -6.3005425631252381 0 -6.3005425631252381 15.78634286321207 0 0 0 0 16.171472037309286 -40.986154430412171 0 -40.986154430412171 82.424460385680504 0 0 0 0 65.380438071611024 -81.64556951045779 0 -81.64556951045779 57.569702370164407 0 0 0 0 0.029770263979607137 -0.44842588636645075 0 -0.44842588636645075 -0.098702255460302979 0 0 0 0 2.0421298309370286 -97.236912644916629 0 -97.236912644916629 256.83361028044237 0 0 0 0 105.35385735601903 -100.61535960812762 0 -100.61535960812762 80.941244433888983 0 0 0 0 235.98421774773624 -57.242590210815251 0 -57.242590210815251 -1375.1370059169785 0 0 0 0 240.01615448694702 -26.781136661851633 0 -26.781136661851633 -162.15635465207743 0 0 0 0 1.3283231250214504 0.84056546201156612 0 0.84056546201156612 3.2943063079851527 0 0 0 0 114.10215022201214 -242.31605535598101 0 -242.31605535598101 -1147.8452742766985 0 0 0 0 -267.34870804067396 -333.43246294711935 0 -333.43246294711935 -210.12738982215524 0 0 0 0 -473.41551240494539 -800.23770284920556 0 -800.23770284920556 -469.8610708183769 0 0 0 0 -847.73108855155215 -512.51418103218748 0 -512.51418103218748 255.95895663579722 0 0 0 0 25.329221515187669 142.23356621857829 0 142.23356621857829 290.95993127271868 0 0 0 0 -548.71766458943648 6.1171064461505011 0 6.1171064461505011 534.70693292717442 0 0 0 0 80.217647978839068 -135.01352870978735 0 -135.01352870978735 18.374003186039772 0 0 0 0 -210.43488313551944 -174.01607380131463 0 -174.01607380131463 197.94168817030004 0 0 0 0 -46.567713927182467 -175.78263812754449 0 -175.78263812754449 197.17599211943889 0 0 0 0 145.28346150835853 -230.45744093270582 0 -230.45744093270582 -316.08160313175176 0 0 0 0 103.26973238892447 -58.589215498079284 0 -58.589215498079284 -379.1754405831216 0 0 0 0 151.96400161708664 -116.41420253256911 0 -116.41420253256911 -363.7999876174581 0 0 0 0 97.280946586135087 -77.164433074405679 0 -77.164433074405679 -229.72130375319102 0 0 0 0 105.39898991834252 -94.980955277696921 0 -94.980955277696921 -190.946796942113 0 0 0 0 95.62987005229661 -62.208445451102307 0 -62.208445451102307 -53.14461791821941 0 0 0 0 53.485294619384149 -33.558826029562624 0 -33.558826029562624 -72.61171926847237 0 0 0 0 34.954052387709453 -14.574075724369322 0 -14.574075724369322 -58.166882347959472 0 0 0 0 12.705934314098613 -50.462595766766299 0 -50.462595766766299 -38.781535019992589 0 0 0 0 -10.449104857474595 -23.213310154672399 0 -23.213310154672399 -8.4733073899324154 0 0 0 0 -17.022608666158039 -21.729244722583019 0 -21.729244722583019 -9.7988086943741255 0 0 0 0 -13.991183852202084 -75.030540621895852 0 -75.030540621895852 0.35243416460070875 0 0 0 0 -7.1318903482746201 -10.202345938684289 0 -10.202345938684289 -9.7451793104552422 0 0 0 0 -25.629087129477739 -109.05222537909685 0 -109.05222537909685 233.88738109300721 0 0 0 0 129.25034514755077 -308.35927244961817 0 -308.35927244961817 -42.827943927160959 0 0 0 0 73.190080178946118 -206.12530458906986 0 -206.12530458906986 -745.20935586409541 0 0 0 0 -2.4330558689014694 2.5549670739472177 0 2.5549670739472177 -3.3378431079672595 0 0 0 0 84.271432545174321 -418.26375114270922 0 -418.26375114270922 -487.85514282793338 0 0 0 0 -17.801621200955406 -9.5873721410789159 0 -9.5873721410789159 -11.676905406970498 0 0 0 0 280.30965278906751 209.74447510619029 0 209.74447510619029 44.521623239284963 0 0 0 0 -9.5350155111939046 5.669002361864834 0 5.669002361864834 -7.874995543117226 0 0 0 0 48.460702744587252 -0.015998242064597434 0 -0.015998242064597434 -35.102493539891611 0 0 0 0 -24.123957722364139 -9.6824534357510856 0 -9.6824534357510856 -36.098861837389904 0 0 0 0 -6.4363817117350308 -10.20395996622146 0 -10.20395996622146 -19.790522076350584 0 0 0 0 -6.7309805188742757 -9.9831036959867561 0 -9.9831036959867561 -7.3919124574294983 0 0 0 0 -16.234723043286067 -21.845856869791987 0 -21.845856869791987 -21.51868230814307 0 0 0 0 -11.04597790048696 -16.439455933609739 0 -16.439455933609739 -15.114444167559519 0 0 0 0 -4.1719970014000296 -19.560566555946394 0 -19.560566555946394 -21.063093584696208 0 0 0 0 2.1174182926708056 -8.3022430544386197 0 -8.3022430544386197 -1.064130554472964 0 0 0 0 -11.303128286480387 -24.883256544724645 0 -24.883256544724645 -25.795617781604051 0 0 0 0 -17.889117135604238 -28.081995735053113 0 -28.081995735053113 -25.469750114973976 0 0 0 0 -16.290102500945068 -21.310775923273468 0 -21.310775923273468 -22.115318722816482 0 0 0 0 -11.897223055700238 -13.468730827743087 0 -13.468730827743087 -12.530761551570027 0 0 0 0 -22.036637100754888 -17.175959708538358 0 -17.175959708538358 -11.978013425157769 0 0 0 0 -13.872545801272281 -23.837879508872106 0 -23.837879508872106 -11.575678638619138 0 0 0 0 -16.377184880137065 -20.209246318255964 0 -20.209246318255964 -15.809392623406893 0 0 0 0 -12.609173736351295 -19.359244444625801 0 -19.359244444625801 -15.633408925483309 0 0 0 0 -15.699357742530538 -23.709664006600519 0 -23.709664006600519 -15.072780643191436 0 0 0 0 -21.333063681129033 -23.316542443336203 0 -23.316542443336203 -14.407046207928033 0 0 0 0 2.0212886710128117 -4.585179120528462 0 -4.585179120528462 0.97613567853069583 0 0 0 0 20.095758899751672 -59.673287726259332 0 -59.673287726259332 10.818408554356211 0 0 0 0 32.535594151737314 -41.953971625463964 0 -41.953971625463964 12.754628401369018 0 0 0 0 68.283310704478936 -34.208482657919376 0 -34.208482657919376 -30.50793038482152 0 0 0 0 -8.7488406826469145 -14.473470735968931 0 -14.473470735968931 -26.561641770882488 0 0 0 0 18.902986178436549 -32.954274329926648 0 -32.954274329926648 -17.206271802642732 0 0 0 0 -38.031330524232544 -26.728125587254567 0 -26.728125587254567 -1.6331715165624701 0 0 0 0 -9.7091793662857526 -26.030760302998715 0 -26.030760302998715 -22.373920005581567 0 0 0 0 -15.430891063375313 -15.733147055039064 0 -15.733147055039064 1.2223612903070666 0 0 0 0 -22.585162273375772 5.0189247291064021 0 5.0189247291064021 56.230706084752455 0 0 0 0 -0.91509628094058826 -1.3842464138008985 0 -1.3842464138008985 -0.016714925367278255 0 0 0 0 -194.39783143260138 -44.644025429843168 0 -44.644025429843168 37.422981139145122 0 0 0 0 -92.336388184998214 -29.443768933245337 0 -29.443768933245337 -0.97544653722138719 0 0 0 0 -62.98500460136529 -83.131513317479403 0 -83.131513317479403 -17.60964362579216 0 0 0 0 -10.249113237903657 -96.628131889015094 0 -96.628131889015094 -19.023845930856169 0 0 0 0 -321.47248689393018 -63.474475997247282 0 -63.474475997247282 165.54689839383536 0 0 0 0 -80.179189765820411 -114.10903555097912 0 -114.10903555097912 -168.66546070993809 0 0 0 0 -43.321744528794625 -166.28709677401093 0 -166.28709677401093 101.42207262906777 0 0 0 0 0.078805889816472074 -0.92961966339066393 0 -0.92961966339066393 0.11328545381793464 0 0 0 0 -146.04390913550378 -135.36372862581493 0 -135.36372862581493 -82.297182136183437 0 0 0 0 -109.5662520511105 -86.119934283151906 0 -86.119934283151906 -65.248721606471463 0 0 0 0 -134.52742704338561 -87.248352297110159 0 -87.248352297110159 -48.88933054557674 0 0 0 0 -125.13339790017199 -88.348001455506164 0 -88.348001455506164 -59.120191762631748 0 0 0 0 -132.76749320926683 57.950938991983548 0 57.950938991983548 -101.11311349313928 0 0 0 0 -160.95417675410863 -68.367739773476387 0 -68.367739773476387 -60.964234634612694 0 0 0 0 -124.7802656197473 -84.973333305575665 0 -84.973333305575665 -75.459731417458897 0 0 0 0 -23.320706996460558 33.466235278825593 0 33.466235278825593 -93.979393628915204 0 0 0 0 74.981673200862133 61.809298370889337 0 61.809298370889337 88.564505585774896 0 0 0 0 -35.332500528205856 -59.940410097488439 0 -59.940410097488439 -117.42501004070891 0 0 0 0 -18.367597713750001 -21.291754832914194 0 -21.291754832914194 70.258568358262892 0 0 0 0 1.5572186721013068 -1.7180623753689837 0 -1.7180623753689837 0.21115499290019901 0 0 0 0 -4.9809171460146899 19.017581044058716 0 19.017581044058716 -82.883279510802936 0 0 0 0 -64.443560190710741 53.881565153951669 0 53.881565153951669 47.594483362478968 0 0 0 0 1.2205459303769572 -0.93379412091485747 0 -0.93379412091485747 1.1699082945786312 0 0 0 0 11.377322532812173 -33.660129778013783 0 -33.660129778013783 -66.70371922051163 0 0 0 0 67.272370354072336 -43.458738300293589 0 -43.458738300293589 -80.175922009725582 0 0 0 0 15.294104396818625 17.935256410819107 0 17.935256410819107 -94.25538705224244 0 0 0 0 81.002765164234006 -80.930742938199728 0 -80.930742938199728 -52.500193198864963 0 0 0 0 2.4647659881920845 13.647020170391443 0 13.647020170391443 -105.45059797586055 0 0 0 0 2.4671724347608688 12.049977523941379 0 12.049977523941379 -86.22943334683896 0 0 0 0 81.474592312606546 -12.321369092474015 0 -12.321369092474015 -133.29056576156836 0 0 0 0 74.255866319289453 -48.121766373515811 0 -48.121766373515811 -89.536110594952333 0 0 0 0 53.459263162434581 19.656845714107362 0 19.656845714107362 -158.04476755601354 0 0 0 0 94.524351319081688 -91.244410776907444 0 -91.244410776907444 -76.345270236683973 0 0 0 0 250.05124664658433 -170.07532532179266 0 -170.07532532179266 -60.496523070009061 0 0 0 0 104.87327130050107 -48.228362867744636 0 -48.228362867744636 -134.52272204525707 0 0 0 0 304.54046312833634 -155.73481649226778 0 -155.73481649226778 -115.93440175584783 0 0 0 0 129.59900940170337 -91.986638983821649 0 -91.986638983821649 -26.932489619884421 0 0 0 0 131.78715931258057 -73.921396689384252 0 -73.921396689384252 -236.13907770232254 0 0 0 0 -298.84760202269536 -108.85209927415235 0 -108.85209927415235 86.76356779808998 0 0 0 0 -2.4186105358325491 -1.878029909289527 0 -1.878029909289527 -3.0912493445854139 0 0 0 0 18.699495032357845 5.6079025052567886 0 5.6079025052567886 -110.92674691720185 0 0 0 0 -61.860704159635134 -136.70589351306808 0 -136.70589351306808 -167.90051984249135 0 0 0 0 -344.02242078154268 -82.438768431675726 0 -82.438768431675726 -48.920103988171832 0 0 0 0 -121.68133959990882 120.77174975935122 0 120.77174975935122 -212.03420501261951 0 0 0 0 133.51744683719335 -216.21418948140467 0 -216.21418948140467 20.548016336779256 0 0 0 0 132.01340984376293 -224.09588796173057 0 -224.09588796173057 -8.6850979151259935 0 0 0 0 46.557273168582469 -161.18303782636895 0 -161.18303782636895 35.783387335839507 0 0 0 0 67.318820737687929 -170.52288422017318 0 -170.52288422017318 4.391756668704943 0 0 0 0 45.053433297562151 -200.1090430601464 0 -200.1090430601464 -7.9747939349181252 0 0 0 0 129.02000195811524 -212.38473907423122 0 -212.38473907423122 17.58822537289052 0 0 0 0 125.91544444118199 -219.48065452031648 0 -219.48065452031648 40.257343357087848 0 0 0 0 163.25287065673183 -194.89344091687235 0 -194.89344091687235 -27.461824950811661 0 0 0 0 260.1853320948635 -286.12223353104105 0 -286.12223353104105 21.732616968841285 0 0 0 0 200.77195261814632 -246.07544449365605 0 -246.07544449365605 7.4688611696469707 0 0 0 0 130.27339143523568 -205.95077456831768 0 -205.95077456831768 16.103330071009168 0 0 0 0 207.52328984377982 -241.05327109131304 0 -241.05327109131304 -4.3471508019520115 0 0 0 0 196.68062658966664 -296.28081026612153 0 -296.28081026612153 106.967237179721 0 0 0 0 33.319433600353705 -170.2696011007537 0 -170.2696011007537 299.81138787728651 0 0 0 0 171.54837060191676 -159.83428013974617 0 -159.83428013974617 -22.246030832115139 0 0 0 0 55.103916114196181 -91.783331266676214 0 -91.783331266676214 3.6576004212429325 0 0 0 0 14.582993956701102 -35.83794952303424 0 -35.83794952303424 -40.079028462057067 0 0 0 0 3.4554893530316022 -2.0280830121551841 0 -2.0280830121551841 0.19100393128936566 0 0 0 0 268.98267939961806 -132.88450878658114 0 -132.88450878658114 -7.8294225577860743 0 0 0 0 57.345369336560907 -47.978320757430538 0 -47.978320757430538 -75.623756248248355 0 0 0 0 -166.23657485929562 -187.85252751218081 0 -187.85252751218081 123.0951652141739 0 0 0 0 2.0023400084686926 -1.0627285382894378 0 -1.0627285382894378 0.13210073811355016 0 0 0 0 102.50350412380067 -43.91999241514668 0 -43.91999241514668 -262.92431798328289 0 0 0 0 -198.07873184239338 46.426393326715925 0 46.426393326715925 -46.695323953028492 0 0 0 0 204.25436098820319 -200.65523033973682 0 -200.65523033973682 -75.091305284957798 0 0 0 0 131.37068389853266 -296.46439089055684 0 -296.46439089055684 75.962442893047182 0 0 0 0 263.71867423767708 -241.28181278027273 0 -241.28181278027273 -6.3874585762869174 0 0 0 0 85.252486391208549 -150.47873939590477 0 -150.47873939590477 133.85724704449876 0 0 0 0 -13.894024838795303 -255.05798460595133 0 -255.05798460595133 53.886351344994068 0 0 0 0 -79.313059211390282 -207.25808414424819 0 -207.25808414424819 170.13253795934907 0 0 0 0 -9.7045371297099337 -111.19008579049387 0 -111.19008579049387 190.88515480607748 0 0 0 0 -16.526944512566843 -5.935292671487332 0 -5.935292671487332 202.01129886728745 0 0 0 0 0.99615364526040651 -0.93487258607265034 0 -0.93487258607265034 0.70791477162268102 0 0 0 0 -29.601237391374525 -130.89323923345182 0 -130.89323923345182 -55.701875584493791 0 0 0 0 -75.882868109983974 -349.29555649601707 0 -349.29555649601707 33.564079990479058 0 0 0 0 -152.28897695413252 -275.01023683469339 0 -275.01023683469339 -38.301728463273321 0 0 0 0 114.81568825415525 -154.75180238138728 0 -154.75180238138728 -5.9888822416369294 0 0 0 0 -53.437448627537378 -104.56097788191528 0 -104.56097788191528 20.971658410697273 0 0 0 0 -6.8952461886437959 -54.234356042442414 0 -54.234356042442414 31.662930952497845 0 0 0 0 -24.837829711115774 -79.185323218644953 0 -79.185323218644953 -4.3258260652273748 0 0 0 0 -7.9591139102412853 -118.62772012417281 0 -118.62772012417281 76.825396087881018 0 0 0 0 -17.65259663089455 5.8493170119663773 0 5.8493170119663773 88.763406654764765 0 0 0 0 -26.008510640531313 -29.971417967087291 0 -29.971417967087291 2.4500144861676745 0 0 0 0 3.5670040129260201 -2.3714670391870278 0 -2.3714670391870278 2.2083907309788913 0 0 0 0 -8.7340090944016993 -18.357619458771751 0 -18.357619458771751 -19.158902750440575 0 0 0 0 -13.836045026971988 -32.633003884908703 0 -32.633003884908703 1.2226548931869274 0 0 0 0 7.2721310922133853 -38.783652889730547 0 -38.783652889730547 0.55415379903388384 0 0 0 0 3.950125226802129 -9.8628206230193882 0 -9.8628206230193882 -55.311467804844142 0 0 0 0 -98.15948656231194 44.050646616794893 0 44.050646616794893 -49.455569426407237 0 0 0 0 -51.646991062294546 -20.751427574673471 0 -20.751427574673471 -32.51626073436455 0 0 0 0 -7.896566367163615 -5.1374227884946624 0 -5.1374227884946624 -3.8366394300974154 0 0 0 0 6.4658036343244021 -7.7437227837228875 0 -7.7437227837228875 -58.956990425464028 0 0 0 0 -367.94127562314861 0.14400262664776164 0 0.14400262664776164 70.392710884275402 0 0 0 0 -782.4189132794927 -210.41187424124291 0 -210.41187424124291 -343.58105502531726 0 0 0 0 -23.434869058109804 -12.962994551853681 0 -12.962994551853681 -5.279009038561183 0 0 0 0 10.975802500386635 -67.051456210271681 0 -67.051456210271681 7.3890693763178206 0 0 0 0 39.319281533527828 -56.55222538137059 0 -56.55222538137059 -39.270359367095807 0 0 0 0 212.33759597306198 173.44449968670961 0 173.44449968670961 -594.34942702414628 0 0 0 0 -298.96473995956785 -359.07698652811712 0 -359.07698652811712 -85.67178003909612 0 0 0 0 -217.70287717164865 -161.57180181344484 0 -161.57180181344484 -35.385183861761107 0 0 0 0 -204.94087982873134 -160.91118183913704 0 -160.91118183913704 -47.848542010342044 0 0 0 0 -572.27400678065896 -427.41245529970092 0 -427.41245529970092 -197.0145918904409 0 0 0 0 -128.70983640836675 -272.18673233505979 0 -272.18673233505979 -416.49406863835702 0 0 0 0 -197.3850920897053 -164.10576506124562 0 -164.10576506124562 -231.42765319368846 0 0 0 0 -195.83875799624397 -100.04575276052955 0 -100.04575276052955 -995.91891890004081 0 0 0 0 -928.68796327170458 83.588801599529688 0 83.588801599529688 -96.834639241425066 0 0 0 0 -320.58928479674978 -123.26650796286049 0 -123.26650796286049 -35.136285378155662 0 0 0 0 -436.38520361522751 -45.796769048853776 0 -45.796769048853776 62.309313613248378 0 0 0 0 -215.01450177202787 50.130962099362478 0 50.130962099362478 -241.59700747073748 0 0 0 0 -354.96227901814927 -122.31304930545957 0 -122.31304930545957 67.019055078641031 0 0 0 0 -215.52682895345606 -161.64118457749828 0 -161.64118457749828 6.8736818479319481 0 0 0 0 -352.45930782794221 -128.20296330924498 0 -128.20296330924498 239.48433025763825 0 0 0 0 -361.72197868455078 -100.81732608117636 0 -100.81732608117636 158.52467902619901 0 0 0 0 -690.61368749728626 -468.19439545307273 0 -468.19439545307273 38.051229931455964 0 0 0 0 -672.57996485597687 -226.54863534834931 0 -226.54863534834931 162.25049184455429 0 0 0 0 -420.12973932522436 21.91435884500288 0 21.91435884500288 106.82925839810923 0 0 0 0 -15.932765887240556 -16.528043852453422 0 -16.528043852453422 -20.759488832015396 0 0 0 0 -37.107511685022473 -15.384146505943136 0 -15.384146505943136 71.601074433727263 0 0 0 0 -53.302475363332633 35.986024629519306 0 35.986024629519306 -134.32303109265627 0 0 0 0 -88.823450376956316 -114.92128809335645 0 -114.92128809335645 52.289480653747887 0 0 0 0 -161.6885654111411 -89.615609580503587 0 -89.615609580503587 52.126403885222317 0 0 0 0 -321.14752198340648 -344.01653228444002 0 -344.01653228444002 -230.54197158042007 0 0 0 0 -42.805402870561089 -28.106599267959091 0 -28.106599267959091 -3.2555198116237634 0 0 0 0 -107.11255535256714 -7.283413549501347 0 -7.283413549501347 115.80501842884496 0 0 0 0 93.339305556910404 -184.40949095383803 0 -184.40949095383803 13.692772024718579 0 0 0 0 -19.92106497007234 -12.505191845351806 0 -12.505191845351806 1.7901195276221529 0 0 0 0 -55.828384072503468 -222.68984873951331 0 -222.68984873951331 145.8415100268985 0 0 0 0 -30.351475636412943 11.702658343771873 0 11.702658343771873 12.90793153564664 0 0 0 0 -135.0467986552012 57.173016232565715 0 57.173016232565715 11.253114181015917 0 0 0 0 -283.35476235519855 44.715713008334205 0 44.715713008334205 39.738654383135326 0 0 0 0 -79.812497296390575 41.554071699979431 0 41.554071699979431 -47.114258482595687 0 0 0 0 -227.82244227851334 1.6908525661474414 0 1.6908525661474414 133.17621189247484 0 0 0 0 0.88602387459104293 -2.7426002244403733 0 -2.7426002244403733 -10.265752987830531 0 0 0 0 324.28088488408775 -525.13103855882105 0 -525.13103855882105 26.437661210342412 0 0 0 0 534.96581776512176 228.37923663656147 0 228.37923663656147 -1489.254836699708 0 0 0 0 126.5096686674151 165.46736578795571 0 165.46736578795571 90.350030963964741 0 0 0 0 -262.2556619167126 -538.01735943993754 0 -538.01735943993754 -1097.9487699338006 0 0 0 0 -0.51871353331613612 -1.7238437870170209 0 -1.7238437870170209 -5.3418006841054222 0 0 0 0 -649.18906219740984 -273.67959487278313 0 -273.67959487278313 -225.10906928832992 0 0 0 0 731.78054758038434 39.954253667379362 0 39.954253667379362 -1007.6455156322882 0 0 0 0 -233.47704384505778 -592.17811736929616 0 -592.17811736929616 -732.77215450598999 0 0 0 0 -32.060334989300827 -277.71608132952679 0 -277.71608132952679 -643.81914042300923 0 0 0 0 -14.955727638917779 -112.49566428744856 0 -112.49566428744856 -671.93457860550188 0 0 0 0 -158.5317437960166 -178.14372208302393 0 -178.14372208302393 -426.53005214471341 0 0 0 0 -161.31909753540094 -207.50164263023635 0 -207.50164263023635 -365.3227552167391 0 0 0 0 -22.455501948941901 -116.80652027065889 0 -116.80652027065889 -462.74196908101476 0 0 0 0 -16.986649643264172 -126.32042457616262 0 -126.32042457616262 -421.43990829256563 0 0 0 0 -102.42241893253413 -56.286342169999898 0 -56.286342169999898 -64.870189460802067 0 0 0 0 -328.38979532755434 -204.36378683131579 0 -204.36378683131579 -242.46834888765079 0 0 0 0 -215.33676107325118 -35.862780267423659 0 -35.862780267423659 -18.739533628755453 0 0 0 0 -114.34671577196241 -143.59827724445859 0 -143.59827724445859 -344.6349939824795 0 0 0 0 47.095346639946911 211.97751043510561 0 211.97751043510561 -227.82140823269401 0 0 0 0 34.121416341426311 238.36549540606393 0 238.36549540606393 -83.466078950277733 0 0 0 0 133.17008115409408 88.260787651788633 0 88.260787651788633 -108.66055341900937 0 0 0 0 5.0200036836512254 -497.99358492245096 0 -497.99358492245096 -888.85468040305932 0 0 0 0 59.388291427628246 152.35214455313417 0 152.35214455313417 39.0715501843938 0 0 0 0 -4.5723873988159482 1.4870786094423707 0 1.4870786094423707 -0.35520241064580205 0 0 0 0 -139.02375906051202 -115.66984231118931 0 -115.66984231118931 -410.11620206588486 0 0 0 0 -79.093130819122962 79.38722584101788 0 79.38722584101788 163.01029394382931 0 0 0 0 342.66008443476403 27.220907477797482 0 27.220907477797482 -714.62057171135325 0 0 0 0 -173.27211577618675 -455.66407857075274 0 -455.66407857075274 -249.08290427674729 0 0 0 0 21.053818082085854 -89.347666756406397 0 -89.347666756406397 1.0689309909394069 0 0 0 0 -19.126796368499996 -21.290091113819543 0 -21.290091113819543 -22.824259018078568 0 0 0 0 -30.549074161744556 -6.1103154021589035 0 -6.1103154021589035 11.019896775018424 0 0 0 0 5.7113219747271842 -60.720354842248298 0 -60.720354842248298 -25.102349742901424 0 0 0 0 -39.621441811273144 -237.81902213669946 0 -237.81902213669946 204.60988511776844 0 0 0 0 -35.039800054797865 -30.09983665666411 0 -30.09983665666411 -20.170505923696886 0 0 0 0 31.303443296223122 -137.00262216258125 0 -137.00262216258125 24.308673153514974 0 0 0 0 -19.495648922372737 -25.195212318665426 0 -25.195212318665426 -15.100809746541559 0 0 0 0 59.530350139918482 1.8200240633450449 0 1.8200240633450449 -95.682338414313563 0 0 0 0 -118.36121830158027 -39.536415701037185 0 -39.536415701037185 167.73334426419751 0 0 0 0 -106.45006245547484 -44.942754205727397 0 -44.942754205727397 -21.944052695404935 0 0 0 0 -113.55518014914412 -8.7776016809259545 0 -8.7776016809259545 52.025529799813739 0 0 0 0 -102.41614551681499 -137.45591280417386 0 -137.45591280417386 -19.011517544451635 0 0 0 0 3.8463293578879529 -42.46173401148053 0 -42.46173401148053 60.391131510812556 0 0 0 0 -113.07217960279922 21.458529955329141 0 21.458529955329141 8.9881048801980796 0 0 0 0 -36.617205551632331 -26.130703133046545 0 -26.130703133046545 -9.5304379945891142 0 0 0 0 -115.98176882782172 -79.982802193330372 0 -79.982802193330372 210.29517452541495 0 0 0 0 -36.641081485402083 -43.694603298456059 0 -43.694603298456059 21.691466264725022 0 0 0 0 -47.884846142378592 -99.613182480678006 0 -99.613182480678006 90.283137176336822 0 0 0 0 -36.706543079888647 -34.4876423644344 0 -34.4876423644344 -16.491500102868997 0 0 0 0 -36.438568237185343 -31.339781723742334 0 -31.339781723742334 -17.826629515806957 0 0 0 0 -87.667815083402274 -57.019829345414337 0 -57.019829345414337 -15.772569667817152 0 0 0 0 -42.852844808541363 -22.797137950768956 0 -22.797137950768956 1.1961323155301216 0 0 0 0 50.111401601621765 -113.44005440848741 0 -113.44005440848741 56.318687274397234 0 0 0 0 -94.15616139958729 -14.648198371698527 0 -14.648198371698527 16.784664301325392 0 0 0 0 106.60263882089112 -231.56971313492886 0 -231.56971313492886 -172.05784865340684 0 0 0 0 2.9539109113535886 -0.78879373722657675 0 -0.78879373722657675 0.2285558777278851 0 0 0 0 28.552056635915505 54.640990436844731 0 54.640990436844731 1178.595565737487 0 0 0 0 38.709417729911365 33.037167735765252 0 33.037167735765252 362.30910731313452 0 0 0 0 -30.936803446511703 -56.943244047341523 0 -56.943244047341523 525.63786297133629 0 0 0 0 1.3884569043882848 -9.1651368120016912 0 -9.1651368120016912 -1.2610095982555407 0 0 0 0 11.574486373596301 77.274565538922616 0 77.274565538922616 390.35961689421674 0 0 0 0 104.64384352095112 -160.54870233266047 0 -160.54870233266047 163.41220227554027 0 0 0 0 56.883672872440002 -218.5166194788344 0 -218.5166194788344 376.05545221865759 0 0 0 0 16.591995245487851 -126.57632177453706 0 -126.57632177453706 373.75042362774548 0 0 0 0 125.56990264438537 -250.14323712332407 0 -250.14323712332407 250.06225720090697 0 0 0 0 -39.147650266347227 -53.338062060003722 0 -53.338062060003722 173.36812571677729 0 0 0 0 -30.53304884984027 -112.97881922922534 0 -112.97881922922534 210.94963819993791 0 0 0 0 -53.255572008109539 -285.21518873506284 0 -285.21518873506284 712.12120476498239 0 0 0 0 219.83226201902562 -521.23627801941984 0 -521.23627801941984 421.43892466734542 0 0 0 0 -26.830488000865444 -195.5481579289808 0 -195.5481579289808 799.60837467255442 0 0 0 0 27.921011480979359 -213.53577565286469 0 -213.53577565286469 531.74282032393739 0 0 0 0 -27.887817920522139 -221.48785217492332 0 -221.48785217492332 530.76751893760229 0 0 0 0 11.378247919200476 -59.851299569520052 0 -59.851299569520052 -128.45046076891595 0 0 0 0 -24.904765952551315 -123.98585047003144 0 -123.98585047003144 -225.70280584942884 0 0 0 0 19.147330528780003 -216.6110716722178 0 -216.6110716722178 683.53936933146906 0 0 0 0 -5.3103021021045294 -6.2140110458151696 0 -6.2140110458151696 -2.813429533265662 0 0 0 0 113.02968258214241 -123.33292211238222 0 -123.33292211238222 751.16231834891005 0 0 0 0 16.050604489600119 -106.59791481105094 0 -106.59791481105094 -323.25585667397536 0 0 0 0 -13.730493952387405 -127.59800159805309 0 -127.59800159805309 -203.06461244874299 0 0 0 0 -121.01046706498164 -238.19512393137848 0 -238.19512393137848 -184.67911011252909 0 0 0 0 9.901920991967927 -426.95415785465593 0 -426.95415785465593 -273.20252695108502 0 0 0 0 -9.8072037225847453 -625.62049753174142 0 -625.62049753174142 307.02657192791412 0 0 0 0 -1.769660056877612 -1.9991043111141522 0 -1.9991043111141522 -0.69197936033406648 0 0 0 0 81.365494015704826 -395.67699800082119 0 -395.67699800082119 856.64142749938401 0 0 0 0 331.36305936349072 -394.64903521557062 0 -394.64903521557062 807.60927155074023 0 0 0 0 50.107199083651722 -158.76942568619233 0 -158.76942568619233 -905.69163185464276 0 0 0 0 -129.08220010124933 -411.50260475284813 0 -411.50260475284813 -372.50308969061734 0 0 0 0 -78.114066386497143 -309.03606528867749 0 -309.03606528867749 -255.06463455361745 0 0 0 0 -87.622497429149917 -324.77941823249057 0 -324.77941823249057 -182.77447557356936 0 0 0 0 -154.75600327661596 -356.48416446382907 0 -356.48416446382907 -132.73840530675079 0 0 0 0 -94.387872694386715 -529.12115541646199 0 -529.12115541646199 -16.472106284534675 0 0 0 0 -217.33806926431134 -391.57844824047788 0 -391.57844824047788 -131.55631795161912 0 0 0 0 -76.16285780322869 -239.57346684411459 0 -239.57346684411459 30.305277786350416 0 0 0 0 -205.5852292889349 124.13786853638703 0 124.13786853638703 117.95758981361723 0 0 0 0 -7.0130692161991561 -3.0797180833426907 0 -3.0797180833426907 -0.041424716811022222 0 0 0 0 -950.21927162428256 -374.4021691613234 0 -374.4021691613234 -129.67850082357472 0 0 0 0 -515.95872430191957 -250.05933920366806 0 -250.05933920366806 -76.538548617460037 0 0 0 0 -494.66024592509893 -314.80923434845317 0 -314.80923434845317 -10.98851164845837 0 0 0 0 -253.91647992586149 -445.46889499858662 0 -445.46889499858662 -132.9011532514196 0 0 0 0 -120.14326069942217 -183.63969669189282 0 -183.63969669189282 -68.429808992335893 0 0 0 0 -222.1813806253549 -218.52624568835927 0 -218.52624568835927 20.394596463469497 0 0 0 0 -43.519979570837677 -17.585523769535939 0 -17.585523769535939 15.723105822431535 0 0 0 0 -86.031868016814315 -40.020159430101558 0 -40.020159430101558 14.12043908569467 0 0 0 0 -57.20408633795796 -40.570799170141981 0 -40.570799170141981 14.009177242027363 0 0 0 0 1.2589983132772091 -16.662302658131424 0 -16.662302658131424 20.991789384162615 0 0 0 0 -5.2488010081103766 -44.192640533032318 0 -44.192640533032318 -13.15989178246673 0 0 0 0 -44.940061430640526 -58.788857848740008 0 -58.788857848740008 -14.653666811605945 0 0 0 0 -4.3389374847194873 -51.92765326842914 0 -51.92765326842914 -9.9562353963920032 0 0 0 0 -64.361067030215054 -117.50513020137987 0 -117.50513020137987 -33.273887169825684 0 0 0 0 -15.660089876339061 -29.203070011970894 0 -29.203070011970894 -5.1384526496563012 0 0 0 0 18.309163156081148 -17.843146859444161 0 -17.843146859444161 7.9881941370012157 0 0 0 0 -14.905502222350606 -38.463651874524658 0 -38.463651874524658 -4.5017349048539472 0 0 0 0 -21.937314984587374 -106.40517024352812 0 -106.40517024352812 -282.25528515404585 0 0 0 0 -246.30322017093931 -381.73592467838171 0 -381.73592467838171 -252.62048594041244 0 0 0 0 -356.35953462917678 -981.04613384797995 0 -981.04613384797995 -590.45290678532911 0 0 0 0 33.677901982823641 -111.81105117154584 0 -111.81105117154584 -956.09274855225522 0 0 0 0 -36.363012329765752 -48.027612366226094 0 -48.027612366226094 -23.479501192858152 0 0 0 0 -14.092942994681849 -48.187047594334217 0 -48.187047594334217 -25.534322222214541 0 0 0 0 -204.05927351546961 -20.308732121511639 0 -20.308732121511639 306.65220019857861 0 0 0 0 -73.353733147025366 -67.446321508078313 0 -67.446321508078313 -10.407106372584741 0 0 0 0 9.88182351477999 -22.02414872486969 0 -22.02414872486969 -11.764828147471547 0 0 0 0 -108.66325295176335 -133.50929772059317 0 -133.50929772059317 -71.746230467935675 0 0 0 0 -84.349014238155036 -64.699136384930767 0 -64.699136384930767 -8.3212562513347947 0 0 0 0 -515.74438452271716 -107.89903045038955 0 -107.89903045038955 134.07783727744027 0 0 0 0 -243.19565424485154 -545.37564231333818 0 -545.37564231333818 248.02214863763948 0 0 0 0 -540.32059834978645 -251.79605628111676 0 -251.79605628111676 262.53185719110479 0 0 0 0 -130.0633990843653 -194.73059265378834 0 -194.73059265378834 -77.306743763569102 0 0 0 0 -311.67434204505116 -128.90220656185193 0 -128.90220656185193 116.67294098892307 0 0 0 0 -38.36006269467002 -25.756449941070539 0 -25.756449941070539 23.507236791179707 0 0 0 0 -790.62818761570452 -129.36083838868944 0 -129.36083838868944 247.23247422379063 0 0 0 0 -1224.2718526139724 54.999217614160443 0 54.999217614160443 339.93105012881279 0 0 0 0 165.37093433547216 -662.87406753176947 0 -662.87406753176947 515.04080487163446 0 0 0 0 -147.00229592861524 93.972741326212599 0 93.972741326212599 202.7874094141298 0 0 0 0 -216.95077710252735 123.64096708792204 0 123.64096708792204 224.4187774499951 0 0 0 0 -42.771784133825918 -46.277750737943279 0 -46.277750737943279 -17.344659729304112 0 0 0 0 -45.203298044513872 -25.268831038489182 0 -25.268831038489182 9.1807717209260531 0 0 0 0 359.29848802086781 122.8412348916172 0 122.8412348916172 224.17871925320696 0 0 0 0 -9.5354427864284048 1.3563940619678334 0 1.3563940619678334 11.935919146083421 0 0 0 0 66.022784622240579 -308.79184060025 0 -308.79184060025 25.453151796682505 0 0 0 0 -301.13838593497167 24.657887949868382 0 24.657887949868382 366.19010614225408 0 0 0 0 -316.02861441655477 134.27092850467852 0 134.27092850467852 -177.80484458655701 0 0 0 0 233.52737984209307 100.47813520872296 0 100.47813520872296 219.78989182526129 0 0 0 0 -2.0999390272791061 93.009870230693195 0 93.009870230693195 447.12669069282128 0 0 0 0 -70.410478644168506 -247.94469521035626 0 -247.94469521035626 41.768735208941507 0 0 0 0 -251.78316230895871 -477.73360426422187 0 -477.73360426422187 -116.19176030094968 0 0 0 0 -191.18539675966895 -118.86740681602168 0 -118.86740681602168 -81.328474692098098 0 0 0 0 -893.24893561806311 -604.12544927390627 0 -604.12544927390627 -198.29087413336674 0 0 0 0 -509.96259086958889 -220.23072102625883 0 -220.23072102625883 -188.80560084330023 0 0 0 0 2.4091123569847319 -4.3325871371151337 0 -4.3325871371151337 -4.7161132431333499 0 0 0 0 -1416.6992608999681 -444.5134055288363 0 -444.5134055288363 -126.08951146992695 0 0 0 0 -559.00152089587755 380.25896342078704 0 380.25896342078704 -749.43602537836705 0 0 0 0 -877.41037736232647 -709.84178631165196 0 -709.84178631165196 -800.21271863822767 0 0 0 0 -573.89840424797148 100.27663486354868 0 100.27663486354868 202.74488984203117 0 0 0 0 -388.21551755506516 -338.2699012350713 0 -338.2699012350713 -180.5068790683581 0 0 0 0 180.21512149276396 -103.96698779777762 0 -103.96698779777762 20.833689122162468 0 0 0 0 -5.3293441721480157 -4.468654492566106 0 -4.468654492566106 5.0523953432305859 0 0 0 0 108.93413556694941 -98.447510386540671 0 -98.447510386540671 79.031944490510796 0 0 0 0 151.16018889246061 -36.415236492435724 0 -36.415236492435724 15.74243875353568 0 0 0 0 58.89927043257012 -93.454502578279062 0 -93.454502578279062 43.116502564429538 0 0 0 0 35.181287647424142 -55.098144686715386 0 -55.098144686715386 55.832668527204078 0 0 0 0 -744.62720698058502 20.339003720871915 0 20.339003720871915 356.61750590234988 0 0 0 0 -37.205464225604601 -56.6390248607986 0 -56.6390248607986 -97.579946500780352 0 0 0 0 68.817926183247437 257.25536381042184 0 257.25536381042184 409.91163673845585 0 0 0 0 -421.71149516292769 -630.00484444537324 0 -630.00484444537324 1532.7201536873035 0 0 0 0 7.1598310275072361 -13.091996179332757 0 -13.091996179332757 3.1119447087029215 0 0 0 0 79.53009825978279 -66.995011018592777 0 -66.995011018592777 10.863566825968519 0 0 0 0 -199.14441926662789 -338.67235674212861 0 -338.67235674212861 -216.75947531353449 0 0 0 0 28.519248420626809 -28.002635002094394 0 -28.002635002094394 49.279678753810003 0 0 0 0 -1075.8798277256126 -637.07707529136314 0 -637.07707529136314 422.1768715483704 0 0 0 0 238.24529298214225 83.629893068718957 0 83.629893068718957 -367.28189441941868 0 0 0 0 19.904818401489042 -31.564542620402428 0 -31.564542620402428 13.031349898901645 0 0 0 0 84.054542633199162 -54.175517691974164 0 -54.175517691974164 -2.4809750193999207 0 0 0 0 -205.65240941144589 -254.13536357758585 0 -254.13536357758585 52.746364980150247 0 0 0 0 19.32030597769273 -26.277920526411911 0 -26.277920526411911 3.0411269385103452 0 0 0 0 12.489179887783393 -33.786684576759399 0 -33.786684576759399 21.278309828441706 0 0 0 0 -33.607127749783103 -75.727251775180775 0 -75.727251775180775 -6.3922892056452838 0 0 0 0 151.50555253719881 80.900743837719347 0 80.900743837719347 -71.42272537853205 0 0 0 0 43.500752206894958 -108.74678942787978 0 -108.74678942787978 -746.12071023719909 0 0 0 0 249.68921271179124 -403.54245870981504 0 -403.54245870981504 -1769.3646345129673 0 0 0 0 -77.530018265929357 146.79946990144344 0 146.79946990144344 -796.38067130589798 0 0 0 0 -5.1192413787012825 -2.9530102405089309 0 -2.9530102405089309 -0.699703551181317 0 0 0 0 19.305197045008981 -109.7053589093166 0 -109.7053589093166 -724.8936441243095 0 0 0 0 -174.06738221636306 6.2115483003835834 0 6.2115483003835834 -505.17258614792627 0 0 0 0 -78.16761081313166 -235.73298047932076 0 -235.73298047932076 -374.31447209746329 0 0 0 0 -74.356882185930317 -132.69197957654069 0 -132.69197957654069 -115.60583083921279 0 0 0 0 32.101910644244981 -5.9905859015334499 0 -5.9905859015334499 -194.12347656275051 0 0 0 0 37.946456229834439 -116.18214824689403 0 -116.18214824689403 -410.13107803193634 0 0 0 0 -31.663197380928523 -39.403879878813314 0 -39.403879878813314 -414.58363905965416 0 0 0 0 -43.045132030079913 -252.31101163086896 0 -252.31101163086896 1131.061160354825 0 0 0 0 -10.698976289532883 -11.819077787563948 0 -11.819077787563948 -3.1062215694131456 0 0 0 0 199.08272112737944 -444.46389124947677 0 -444.46389124947677 316.4783061308699 0 0 0 0 -317.36943739668004 -148.30455904323389 0 -148.30455904323389 392.85202774679874 0 0 0 0 102.72181407133485 -325.63260274379763 0 -325.63260274379763 293.04553543940347 0 0 0 0 45.769733793023079 -225.9760371110051 0 -225.9760371110051 339.96175161550491 0 0 0 0 -12.755539849189814 -16.510819728791347 0 -16.510819728791347 -4.6475627002313882 0 0 0 0 13.811014259938929 -253.88368296742556 0 -253.88368296742556 678.19010235238966 0 0 0 0 24.017319161173873 -67.082012539998686 0 -67.082012539998686 -414.85447783369364 0 0 0 0 14.716464219200589 -142.92827297418535 0 -142.92827297418535 -402.90441980741343 0 0 0 0 8.6289754214076311 -120.53990743874419 0 -120.53990743874419 -345.12368939337466 0 0 0 0 47.791993329597062 -98.819845054929829 0 -98.819845054929829 -379.69377313997006 0 0 0 0 146.96920071690283 -175.0471974256443 0 -175.0471974256443 -398.38509333481124 0 0 0 0 72.711766700605722 -255.62709061546775 0 -255.62709061546775 -190.73716802764102 0 0 0 0 -17.977266447806187 -44.187663630396401 0 -44.187663630396401 -180.76274221675885 0 0 0 0 -191.65737375247809 -34.075694656697621 0 -34.075694656697621 44.542470915814192 0 0 0 0 -185.49311556026896 -268.47413807711928 0 -268.47413807711928 42.567025966523943 0 0 0 0 -6.4376209518522431 -7.6621131469922936 0 -7.6621131469922936 -9.450013077045476 0 0 0 0 -350.69059045138988 -55.955759836266679 0 -55.955759836266679 41.855135826786864 0 0 0 0 -447.28456893437624 -289.47552003129385 0 -289.47552003129385 41.023931242900289 0 0 0 0 56.040042008310593 317.81424729728315 0 317.81424729728315 -289.56070225411713 0 0 0 0 69.445140847881248 369.95858174022214 0 369.95858174022214 -967.85259287980307 0 0 0 0 126.69386486172436 141.94841841991638 0 141.94841841991638 -551.94901720433336 0 0 0 0 49.487749199917744 -16.913792420196842 0 -16.913792420196842 -44.004045025127198 0 0 0 0 -39.979545841632898 -15.29826733547452 0 -15.29826733547452 -32.476453397950536 0 0 0 0 26.702422290161849 -18.439299997986382 0 -18.439299997986382 -85.51344530928418 0 0 0 0 -51.471818481671562 -53.723261612385613 0 -53.723261612385613 -136.13877219982714 0 0 0 0 -13.828437966914507 -19.238644363232815 0 -19.238644363232815 -5.7302929142724714 0 0 0 0 1.2162306395848645 -184.28379610529737 0 -184.28379610529737 323.42043278305209 0 0 0 0 45.106851922377246 -221.55566382666075 0 -221.55566382666075 353.49560282047241 0 0 0 0 44.045852983659643 -62.35136544809211 0 -62.35136544809211 195.70869914345531 0 0 0 0 103.38178615805919 -119.60254390576665 0 -119.60254390576665 34.999207770913927 0 0 0 0 -16.469387167432444 -18.997205587408281 0 -18.997205587408281 -4.8739017805733269 0 0 0 0 278.69424079266173 -193.84427074670384 0 -193.84427074670384 375.75939936612235 0 0 0 0 122.29867450645361 -206.32906000526054 0 -206.32906000526054 220.64296735241805 0 0 0 0 77.401927143426292 -175.53464173242901 0 -175.53464173242901 376.84034982977755 0 0 0 0 47.036382138120416 -241.14944548292783 0 -241.14944548292783 414.75024575121643 0 0 0 0 134.61244854811775 -247.23522353503722 0 -247.23522353503722 291.85925543393205 0 0 0 0 160.91526418774447 -328.68153106718091 0 -328.68153106718091 444.56367765077266 0 0 0 0 -62.490707996330457 -94.151843393945455 0 -94.151843393945455 758.48814149088867 0 0 0 0 -15.229186839284921 4.2779363364043093 0 4.2779363364043093 16.013546115354984 0 0 0 0 -1.8325759251481912 1.2353190054634808 0 1.2353190054634808 3.6262352964179421 0 0 0 0 31.66109115351901 -141.04799008668306 0 -141.04799008668306 337.31209258808303 0 0 0 0 -9.220645560526318 -8.9620477038268973 0 -8.9620477038268973 -0.37024224936001815 0 0 0 0 63.97131323695703 -123.95730573520268 0 -123.95730573520268 579.88081272396084 0 0 0 0 20.43059593299165 -263.97660867668947 0 -263.97660867668947 599.02980955757084 0 0 0 0 234.04889425086367 -313.32044156033953 0 -313.32044156033953 384.01488164748662 0 0 0 0 -0.20957802724593577 -2.0139335178986926 0 -2.0139335178986926 -1.0460375687499948 0 0 0 0 -54.358221343438345 -18.07400063140085 0 -18.07400063140085 -9.2667652136369725 0 0 0 0 -33.1706289754311 -47.071610337061429 0 -47.071610337061429 14.146439638005177 0 0 0 0 -38.056157572074881 -49.597641032793035 0 -49.597641032793035 -38.902493995519762 0 0 0 0 -87.900382660942341 -94.187983430794702 0 -94.187983430794702 -42.084001892451852 0 0 0 0 -58.703519730525841 -49.378140834742226 0 -49.378140834742226 13.723093735199654 0 0 0 0 2.5631112042447057 -8.2368217161892971 0 -8.2368217161892971 -33.452488811541116 0 0 0 0 -197.96484745838097 -122.76693554437952 0 -122.76693554437952 -45.653235635458259 0 0 0 0 -9.955710362493619 18.253653358127849 0 18.253653358127849 26.984995668302872 0 0 0 0 -5.0037560100050484 -6.9953459932949578 0 -6.9953459932949578 13.920648483226671 0 0 0 0 -4.5256619831452554 -28.214212537004641 0 -28.214212537004641 11.07802305756195 0 0 0 0 -17.572931293598231 5.349116587492972 0 5.349116587492972 32.600323237125849 0 0 0 0 -2.8382168214429839 11.104784161325369 0 11.104784161325369 35.002324392778974 0 0 0 0 -5.897110515287352 -5.7182529093044394 0 -5.7182529093044394 15.059571197339494 0 0 0 0 95.691736310111082 56.487394907708222 0 56.487394907708222 38.198250913011179 0 0 0 0 203.82004711104855 -22.853329941624906 0 -22.853329941624906 14.292641306024962 0 0 0 0 -4.5340963780239463 -29.253637235705582 0 -29.253637235705582 40.532505727176613 0 0 0 0 -3.7012550647751077 -1.0629147085084654 0 -1.0629147085084654 5.7844301474941346 0 0 0 0 -17.518401988448204 2.3198432737553958 0 2.3198432737553958 63.161273747928135 0 0 0 0 198.41728985251302 -21.936834406800699 0 -21.936834406800699 -7.3085605059604859 0 0 0 0 -0.40879082082338769 0.70793846537942784 0 0.70793846537942784 0.3805068738647357 0 0 0 0 32.326349482874321 -191.28462283772751 0 -191.28462283772751 392.81937161650421 0 0 0 0 48.388929900940639 -230.44365591758833 0 -230.44365591758833 341.17884455393596 0 0 0 0 92.910969856626252 -137.03160752365966 0 -137.03160752365966 160.31913148357853 0 0 0 0 147.20831658789348 -167.58663521137623 0 -167.58663521137623 24.474169157852884 0 0 0 0 66.20597377177728 -232.20318256026439 0 -232.20318256026439 340.79965781522242 0 0 0 0 -151.43378551026581 -198.65335322562532 0 -198.65335322562532 52.269723912300833 0 0 0 0 -102.07081680481679 -149.55534771818202 0 -149.55534771818202 -138.10913824789168 0 0 0 0 -392.94500273020822 -26.962113075747766 0 -26.962113075747766 -93.881877840798552 0 0 0 0 -545.56986603562109 -192.26046225055325 0 -192.26046225055325 -98.535984694419312 0 0 0 0 -365.44245267249335 -69.251248349581147 0 -69.251248349581147 -275.90858325675072 0 0 0 0 -612.99734023302517 -278.07320998933574 0 -278.07320998933574 -158.74561734704184 0 0 0 0 -130.68511432114065 -160.2244109396961 0 -160.2244109396961 -171.55409537050582 0 0 0 0 -208.94441427885795 9.3330608514443156 0 9.3330608514443156 -113.35002938886646 0 0 0 0 137.7061931791136 -134.02301739928134 0 -134.02301739928134 -70.770694994280348 0 0 0 0 -30.500414788821217 -32.115215696470841 0 -32.115215696470841 -39.620107060012742 0 0 0 0 97.97571408652766 149.49646868242417 0 149.49646868242417 -67.13208719065733 0 0 0 0 -35.736173585337383 28.695359556390031 0 28.695359556390031 59.336093381385581 0 0 0 0 202.51340639799747 55.763243352838259 0 55.763243352838259 -59.112056926569494 0 0 0 0 -56.106156487492626 50.095152525987942 0 50.095152525987942 -0.91020504281186732 0 0 0 0 -46.460449065241846 131.81162052370564 0 131.81162052370564 -7.0715087257849518 0 0 0 0 23.266411471645597 73.441350754293126 0 73.441350754293126 30.324930944247171 0 0 0 0 34.346730525807288 106.25190796733659 0 106.25190796733659 25.046869699683157 0 0 0 0 -133.95012382374262 51.272243298815738 0 51.272243298815738 54.709332147524037 0 0 0 0 -147.29738295218613 76.078103970707161 0 76.078103970707161 11.579674058019009 0 0 0 0 -296.11675969015687 51.480320813425351 0 51.480320813425351 15.075874798065342 0 0 0 0 -402.87494433496067 -14.244267905956804 0 -14.244267905956804 -140.58361181651708 0 0 0 0 -89.272733709312888 110.78139615411419 0 110.78139615411419 -110.1821538994991 0 0 0 0 -222.80079667049358 47.229418763730791 0 47.229418763730791 -66.641198215813347 0 0 0 0 -34.041524148100848 3.732311763541702 0 3.732311763541702 -226.38981955923373 0 0 0 0 -295.31374857552146 -131.02173110174954 0 -131.02173110174954 -289.98720378536382 0 0 0 0 -259.30904179543631 131.0479115806047 0 131.0479115806047 -257.82105991912249 0 0 0 0 -486.83379174219954 -304.09917236662295 0 -304.09917236662295 -727.65614769536114 0 0 0 0 -534.79320745444602 189.21985249900172 0 189.21985249900172 -454.39601913700608 0 0 0 0 -786.64799805250732 -125.47846339246462 0 -125.47846339246462 -95.518547300001956 0 0 0 0 -376.19073993280472 -355.32567213607035 0 -355.32567213607035 -324.65094209334347 0 0 0 0 -314.06876910475694 -122.89447157378163 0 -122.89447157378163 -96.832555234747815 0 0 0 0 -355.50277060027111 -231.11510031195576 0 -231.11510031195576 -86.991874028157326 0 0 0 0 -315.17726118073915 95.859494810054457 0 95.859494810054457 -79.422615614643291 0 0 0 0 -222.92745734713026 -40.999844738009415 0 -40.999844738009415 23.816980423296627 0 0 0 0 -430.50564667731624 -82.773174404714155 0 -82.773174404714155 15.479424462981115 0 0 0 0 -277.12085689224205 -85.585766164464076 0 -85.585766164464076 66.027650410644128 0 0 0 0 -195.77761321918388 -165.41562277320918 0 -165.41562277320918 -19.75498310632247 0 0 0 0 -283.51982865654463 -2.8374047038851131 0 -2.8374047038851131 75.780048052307393 0 0 0 0 -86.944498742901487 -129.61555048300943 0 -129.61555048300943 12.539138364503515 0 0 0 0 -101.43516097745305 -157.69653952875524 0 -157.69653952875524 -40.690893066763238 0 0 0 0 -174.87782508744749 -130.94439106464415 0 -130.94439106464415 37.098339665998537 0 0 0 0 -169.20705380483014 -137.92641581230419 0 -137.92641581230419 -40.941099773273891 0 0 0 0 -170.42824886455855 -178.3038937348756 0 -178.3038937348756 -46.638490882913175 0 0 0 0 -44.730105425865304 -138.44737586939982 0 -138.44737586939982 -147.56718844435818 0 0 0 0 -93.175273514345463 -170.37158498069766 0 -170.37158498069766 -234.08085846001632 0 0 0 0 -99.644063026711592 -146.26611499924184 0 -146.26611499924184 -140.17254987020715 0 0 0 0 9.5004407644319144 -91.744684722860256 0 -91.744684722860256 -238.95080072377095 0 0 0 0 8.0007050177118799 -21.614614601210633 0 -21.614614601210633 17.8927142261673 0 0 0 0 2.324943277754123 -9.0842026093459367 0 -9.0842026093459367 -2.429001027115838 0 0 0 0 -30.394790892944911 -24.352298338986657 0 -24.352298338986657 20.407072125781269 0 0 0 0 -13.606550371729099 55.255835530111653 0 55.255835530111653 -108.62553162534459 0 0 0 0 -606.68927049526246 135.32800395177765 0 135.32800395177765 -31.812659904433531 0 0 0 0 -2.8729176959855369 -3.7067519878657365 0 -3.7067519878657365 0.039220292167343018 0 0 0 0 -1.3958059029737342 -97.875283986399154 0 -97.875283986399154 -407.0443906807659 0 0 0 0 138.08127818966477 -428.16120014204353 0 -428.16120014204353 120.45152894965395 0 0 0 0 -857.12268566652165 -291.86844821636259 0 -291.86844821636259 519.73179640498711 0 0 0 0 -859.90021825077201 -362.03812790455413 0 -362.03812790455413 -170.20569415400678 0 0 0 0 -698.29480547814092 -189.05702540001948 0 -189.05702540001948 11.798274891465553 0 0 0 0 -587.34357405570881 -100.24293338910502 0 -100.24293338910502 1.752141493052477 0 0 0 0 0.73684467663344932 -2.0072723345679222 0 -2.0072723345679222 0.60788964802996048 0 0 0 0 -635.57065755269059 219.00779094652444 0 219.00779094652444 -28.330372697320854 0 0 0 0 -2.2495106591477203 -2.1506662767099449 0 -2.1506662767099449 2.968536606045717 0 0 0 0 -1117.5977075044093 98.469101416316335 0 98.469101416316335 148.6385438246034 0 0 0 0 246.18681036985981 -215.88871615019889 0 -215.88871615019889 91.700138118611903 0 0 0 0 159.67660368061877 -25.657124250644301 0 -25.657124250644301 49.143681881803786 0 0 0 0 29.268276801643879 -56.000658210377878 0 -56.000658210377878 93.84697848369251 0 0 0 0 -10.927983826649424 -3.247631819950854 0 -3.247631819950854 6.5717906900154475 0 0 0 0 -1.9134864100436744 -0.55861893085941716 0 -0.55861893085941716 0.75375728872186443 0 0 0 0 -121.51710761435788 87.154588764860819 0 87.154588764860819 231.07694788479785 0 0 0 0 -118.2987449724842 0.80690348311691196 0 0.80690348311691196 86.602445164666278 0 0 0 0 -58.922164378451271 90.037885089754127 0 90.037885089754127 127.80199672192248 0 0 0 0 -13.403478993612225 -60.458820071016817 0 -60.458820071016817 12.597740493867605 0 0 0 0 -77.965785330978179 -88.366012788010266 0 -88.366012788010266 120.7036475700661 0 0 0 0 -101.07612282681475 -53.017793261235056 0 -53.017793261235056 -29.345543203122361 0 0 0 0 -20.552012521337019 -156.30274323737831 0 -156.30274323737831 -232.14169716766628 0 0 0 0 -62.020953898623702 -71.703975051805173 0 -71.703975051805173 52.728056191619544 0 0 0 0 -51.931376569489657 -33.386859186071433 0 -33.386859186071433 111.79209489817731 0 0 0 0 -79.428708762614406 -111.42525481341545 0 -111.42525481341545 63.855998512037331 0 0 0 0 -115.76381022244914 -91.219115743666407 0 -91.219115743666407 98.181611110441736 0 0 0 0 -120.9923305036391 -129.0955043142676 0 -129.0955043142676 37.161111195988497 0 0 0 0 -78.06571064983109 -145.99807648077694 0 -145.99807648077694 13.467119279201825 0 0 0 0 -122.93825429183107 -124.46821337388974 0 -124.46821337388974 61.941685439174762 0 0 0 0 -188.63670301846832 -25.348136526230519 0 -25.348136526230519 114.47205023416609 0 0 0 0 -130.23686313439975 13.909257612416695 0 13.909257612416695 74.528284873732218 0 0 0 0 -172.21806911587737 -94.210009343962156 0 -94.210009343962156 92.103559921968554 0 0 0 0 -146.29567722597312 -77.037131823104573 0 -77.037131823104573 63.455463342525036 0 0 0 0 -91.417057442660735 -68.252867301420338 0 -68.252867301420338 96.9292693993184 0 0 0 0 -75.630719486858652 -17.654964620960527 0 -17.654964620960527 108.12409592275071 0 0 0 0 -35.443252097436925 -36.840428369087022 0 -36.840428369087022 131.92526369577899 0 0 0 0 -86.629782757632711 -29.794371348261848 0 -29.794371348261848 173.64076151019253 0 0 0 0 -34.765034706802126 -16.471558088827479 0 -16.471558088827479 9.2129901617160748 0 0 0 0 -13.784367421546222 45.538738960756746 0 45.538738960756746 145.72269751976273 0 0 0 0 -124.18109203139193 -43.004955059332133 0 -43.004955059332133 138.46986089584971 0 0 0 0 -30.476101326332145 -15.541021702492365 0 -15.541021702492365 14.127465296458574 0 0 0 0 -60.976773796948692 53.354629622777793 0 53.354629622777793 207.61533064783725 0 0 0 0 -30.796692005707882 -10.403612328758754 0 -10.403612328758754 -132.78645755119396 0 0 0 0 21.553308095761167 -51.475130224382156 0 -51.475130224382156 -351.58135839586612 0 0 0 0 -4.2043212047668277 -3.765645044249851 0 -3.765645044249851 -4.0168003691864556 0 0 0 0 -0.47402750382207159 20.827483639925049 0 20.827483639925049 156.1850104886289 0 0 0 0 -60.20617053755177 40.286835662325757 0 40.286835662325757 109.27246791200741 0 0 0 0 -108.99118259114402 10.92558792420823 0 10.92558792420823 146.97605386029409 0 0 0 0 9.1803845007743803 75.171202402212657 0 75.171202402212657 87.033518459108564 0 0 0 0 -71.369704081034797 49.364273426504951 0 49.364273426504951 145.7840529508976 0 0 0 0 -74.8630402068884 85.726795382754062 0 85.726795382754062 56.480021900714064 0 0 0 0 -62.026818631561582 65.424984674871666 0 65.424984674871666 88.583323864091653 0 0 0 0 -149.45641499079011 26.365476266078986 0 26.365476266078986 112.4772856412601 0 0 0 0 94.779193102111094 78.847598554199067 0 78.847598554199067 30.312969844639156 0 0 0 0 -10.77863015972207 96.998962450178624 0 96.998962450178624 112.75367651962006 0 0 0 0 33.592199035570957 62.795010909772827 0 62.795010909772827 95.69985261871625 0 0 0 0 -15.652601480163867 114.1752050277355 0 114.1752050277355 42.833546740088423 0 0 0 0 -2.9349576603672176 2.7434624629095197 0 2.7434624629095197 39.032870834771529 0 0 0 0 -45.005713930077036 -168.30846155038307 0 -168.30846155038307 -279.97460051276357 0 0 0 0 -3.7911713677116552 2.3228187675909595 0 2.3228187675909595 5.2876297498119484 0 0 0 0 43.751403016294944 92.08710618402074 0 92.08710618402074 110.58515971973247 0 0 0 0 -4.7910101160442551 -0.98533174366768606 0 -0.98533174366768606 1.7990316604565493 0 0 0 0 -118.92181611782144 -51.435888178464666 0 -51.435888178464666 -75.446989223215496 0 0 0 0 -18.830889965348231 -8.592894919941088 0 -8.592894919941088 23.164174843002371 0 0 0 0 -51.617994531574368 -4.6101704613465699 0 -4.6101704613465699 -179.39253544502208 0 0 0 0 50.963349549805571 -4.6157242561603198 0 -4.6157242561603198 -92.017409254367521 0 0 0 0 9.8023386141067022 -30.946181740189786 0 -30.946181740189786 -68.607743994914927 0 0 0 0 -3.6301938558972324 -18.487176362606988 0 -18.487176362606988 -37.947910144761408 0 0 0 0 -4.2571450251016358 -57.700937932735542 0 -57.700937932735542 -96.655324860272231 0 0 0 0 -9.4932824621027976 -123.35644347552079 0 -123.35644347552079 -115.04016516299453 0 0 0 0 -43.961560932504653 -109.933120917427 0 -109.933120917427 -71.412680332214222 0 0 0 0 -59.52944617515459 -129.68612907831266 0 -129.68612907831266 -68.872155076940544 0 0 0 0 -67.270758959173691 -85.496474150830181 0 -85.496474150830181 22.626150484262325 0 0 0 0 -35.505656403805915 -85.005814894042487 0 -85.005814894042487 -23.072594590659719 0 0 0 0 -17.256068608468922 -67.16708950584507 0 -67.16708950584507 -33.654496867122361 0 0 0 0 -22.885727233420766 -58.661076993012102 0 -58.661076993012102 -28.628436340222834 0 0 0 0 -20.565618806584098 -51.921360789499886 0 -51.921360789499886 -36.885441361489939 0 0 0 0 -16.689181681416812 -64.700970784222591 0 -64.700970784222591 -47.675333863953711 0 0 0 0 -37.101865639604512 -114.31493816993861 0 -114.31493816993861 -133.22394552878541 0 0 0 0 -73.449281979694206 7.8559872677651583 0 7.8559872677651583 134.79559011894889 0 0 0 0 -28.859462464984972 -143.71049865688838 0 -143.71049865688838 -157.45889018899834 0 0 0 0 -4.5278501999210334 -0.94601761015272956 0 -0.94601761015272956 1.4713417344670887 0 0 0 0 21.919709180991049 -2.2550733785756165 0 -2.2550733785756165 21.881578148473636 0 0 0 0 -34.719945669719891 -47.13008167668886 0 -47.13008167668886 56.063683289146866 0 0 0 0 22.787842465499125 -41.257747108356853 0 -41.257747108356853 -31.878538468678016 0 0 0 0 -125.93467689222052 -140.45351172853043 0 -140.45351172853043 3.5458996791421669 0 0 0 0 -76.742999077197965 -71.257488242148611 0 -71.257488242148611 39.590716939535923 0 0 0 0 -133.28720617644649 -211.28357244190556 0 -211.28357244190556 -68.807512261781085 0 0 0 0 -88.077461907816541 -161.96634542241736 0 -161.96634542241736 -28.800712431802822 0 0 0 0 -115.14780352861635 -268.69396752235843 0 -268.69396752235843 -135.91696284255158 0 0 0 0 -88.701191674825168 -204.42791888533975 0 -204.42791888533975 -129.58653023312218 0 0 0 0 -61.227734435547973 -147.36237311271361 0 -147.36237311271361 -45.359680906491121 0 0 0 0 -77.234421717836085 -283.35636693283595 0 -283.35636693283595 -181.15394830264995 0 0 0 0 -64.551422316071694 -227.56034776233719 0 -227.56034776233719 -108.39824588628835 0 0 0 0 -84.324448890136409 -274.31562748455326 0 -274.31562748455326 -191.14658300147858 0 0 0 0 -133.94363581834114 -295.1473731014612 0 -295.1473731014612 -85.237478904455202 0 0 0 0 -163.25295721011207 -339.62096502781787 0 -339.62096502781787 -150.30143281486016 0 0 0 0 -136.78746110474458 -364.6582713970638 0 -364.6582713970638 -226.53063282796938 0 0 0 0 -124.16667080682782 -344.13430554318984 0 -344.13430554318984 -210.15258706523673 0 0 0 0 11.377901789622705 -144.02873418269627 0 -144.02873418269627 -651.1545791427925 0 0 0 0 -220.81790763396293 -541.32547846070702 0 -541.32547846070702 -568.16728719248931 0 0 0 0 10.333723405732599 -54.218590480391867 0 -54.218590480391867 -182.77208021879778 0 0 0 0 22.527723576735298 -139.7807747833358 0 -139.7807747833358 -366.96673730872863 0 0 0 0 29.652073004322119 -81.409833939925193 0 -81.409833939925193 -227.14635566950892 0 0 0 0 9.1787194320277194 -254.20169222856202 0 -254.20169222856202 -409.62604245234252 0 0 0 0 -111.70512565031822 -345.04579393003951 0 -345.04579393003951 -280.60515282777487 0 0 0 0 -13.570871364143386 -218.09734001897596 0 -218.09734001897596 -269.94911095694988 0 0 0 0 14.20779169400339 -177.58473918292293 0 -177.58473918292293 -211.35551389053762 0 0 0 0 -22.040322496826775 -156.02454818354636 0 -156.02454818354636 -173.4160741471278 0 0 0 0 47.615344517325866 -62.41132874818868 0 -62.41132874818868 -149.60973652863322 0 0 0 0 17.158994261917542 -111.24684275277104 0 -111.24684275277104 -149.418772384146 0 0 0 0 30.657690566738893 -63.76689602258557 0 -63.76689602258557 -137.27860687358771 0 0 0 0 -11.376827300586228 17.160017827518459 0 17.160017827518459 47.238653977758077 0 0 0 0 -117.00698123171605 -332.90542266191915 0 -332.90542266191915 -35.140784460496434 0 0 0 0 90.449595533726097 -20.941114900539105 0 -20.941114900539105 -118.79198057849499 0 0 0 0 -0.89980831881978673 0.004698650824494166 0 0.004698650824494166 -0.084257867543307441 0 0 0 0 168.8546731231495 105.0889396941302 0 105.0889396941302 -426.15488743736205 0 0 0 0 102.34120925521711 -87.821237840442336 0 -87.821237840442336 -156.31895683198127 0 0 0 0 -12.130601310316706 -123.91717026484548 0 -123.91717026484548 -116.36484601564007 0 0 0 0 -18.139794659945437 9.7745895560765348 0 9.7745895560765348 41.714850757358363 0 0 0 0 -13.149366580990318 2.9499276944115991 0 2.9499276944115991 31.335266076624976 0 0 0 0 1.4702953470878128 13.862567044854586 0 13.862567044854586 36.787881573152845 0 0 0 0 -17.040635331576446 -3.9788822792515717 0 -3.9788822792515717 24.870784973345039 0 0 0 0 -3.3282984801135171 -31.954697887271323 0 -31.954697887271323 -15.320825003804202 0 0 0 0 -92.766120489439345 -187.92031934883016 0 -187.92031934883016 -16.339738185633905 0 0 0 0 -10.324533793239425 -11.006739049386383 0 -11.006739049386383 -2.9122770258944115 0 0 0 0 -3.0544574562084676 -5.0274926101278652 0 -5.0274926101278652 34.381611719581997 0 0 0 0 -1.9277258982807837 -3.4863850910107317 0 -3.4863850910107317 -3.1113117159307961 0 0 0 0 -109.1394015173355 86.406392489880091 0 86.406392489880091 -37.883177699688531 0 0 0 0 -316.57793251931434 -83.437156255080481 0 -83.437156255080481 -36.907614885174553 0 0 0 0 -1.164137904413785 -4.0970972765953775 0 -4.0970972765953775 0.75794587460659812 0 0 0 0 5.6713016508465444 114.77616303600735 0 114.77616303600735 -400.58336294019318 0 0 0 0 -706.47721110388738 -143.00592242137282 0 -143.00592242137282 -79.083534929988673 0 0 0 0 -539.4918119816939 -618.92107952063452 0 -618.92107952063452 -484.35917715063988 0 0 0 0 -1.3173983473406103 -4.2018903063859483 0 -4.2018903063859483 -7.0282997572446675 0 0 0 0 -68.727197178359347 75.721848874738498 0 75.721848874738498 -12.986563054801081 0 0 0 0 -440.68125476258319 -72.352768283584737 0 -72.352768283584737 126.87378362177697 0 0 0 0 -44.280261286305176 -31.527632114157313 0 -31.527632114157313 -32.057548293872969 0 0 0 0 -67.02097823062104 -9.461740017432021 0 -9.461740017432021 -18.845360762788914 0 0 0 0 -37.019751222564082 -47.317829890194844 0 -47.317829890194844 -9.9701892270240933 0 0 0 0 -60.241138630135538 -25.334194059221772 0 -25.334194059221772 4.0786072553892154 0 0 0 0 -63.847119478183231 -166.78501332382439 0 -166.78501332382439 -96.98712003808032 0 0 0 0 -260.699982849148 -287.10503140780202 0 -287.10503140780202 -102.91103881708841 0 0 0 0 -210.44445324072353 -368.95046011573277 0 -368.95046011573277 -281.1735416445008 0 0 0 0 -311.05119858966054 -355.91654098919207 0 -355.91654098919207 -195.71621164961834 0 0 0 0 -197.18200092069492 -323.23046916693056 0 -323.23046916693056 -253.09544053353602 0 0 0 0 -62.627684515019155 -202.8695677036294 0 -202.8695677036294 -368.43675212204835 0 0 0 0 -78.580657959435484 -290.59354818710926 0 -290.59354818710926 -829.89046701342522 0 0 0 0 -568.55890278500283 -393.90626919826718 0 -393.90626919826718 -155.00009463469178 0 0 0 0 -360.92276227896218 9.1841548460579361 0 9.1841548460579361 -407.71595166820407 0 0 0 0 -127.88410715780356 -218.82742919008888 0 -218.82742919008888 -186.67927644491283 0 0 0 0 -20.629542625448266 -104.55053018523722 0 -104.55053018523722 -131.92636659603886 0 0 0 0 -228.86086812888061 -322.61972536959183 0 -322.61972536959183 -16.454651346721221 0 0 0 0 -166.61790097970515 -323.89574312874902 0 -323.89574312874902 -142.80678935192827 0 0 0 0 116.13259734299754 -333.46544094265482 0 -333.46544094265482 -18.903460788163102 0 0 0 0 -160.62181939610855 -403.21671750027963 0 -403.21671750027963 213.6577859547906 0 0 0 0 80.958351648471989 -138.41054613117535 0 -138.41054613117535 -21.648523108298832 0 0 0 0 5.6713883882421214 -260.64513343335693 0 -260.64513343335693 130.76767724853562 0 0 0 0 665.46899947569727 -417.04804988298201 0 -417.04804988298201 -0.0596259092380933 0 0 0 0 48.500934799081733 -226.59221763202913 0 -226.59221763202913 -454.72110579247965 0 0 0 0 -0.54941814641193076 -1.7299630818961091 0 -1.7299630818961091 1.342960034292517 0 0 0 0 -116.3181291683868 -70.024028108036873 0 -70.024028108036873 351.21264943831193 0 0 0 0 -171.53074548803124 -237.02674864479923 0 -237.02674864479923 -145.21488256045086 0 0 0 0 -202.15701530978913 -265.14704613553113 0 -265.14704613553113 -158.60356746560865 0 0 0 0 -256.99434811109086 -307.85734463855124 0 -307.85734463855124 -12.872089231546852 0 0 0 0 -0.82799457406875376 -2.993198672215911 0 -2.993198672215911 2.0328854040413589 0 0 0 0 -165.6601111646014 -275.83284932244533 0 -275.83284932244533 0.027651812015392352 0 0 0 0 -115.27008378335449 -199.25073458348197 0 -199.25073458348197 -272.16196192819916 0 0 0 0 -1.1405127989845099 -2.1200365666031757 0 -2.1200365666031757 1.0659389219337712 0 0 0 0 -77.744230865319878 -87.513402964590568 0 -87.513402964590568 -0.21298260661569657 0 0 0 0 -206.72533340027667 -242.82697231667908 0 -242.82697231667908 -247.58617809578573 0 0 0 0 -254.8266438005594 -303.19822058000136 0 -303.19822058000136 -105.2257245516812 0 0 0 0 -297.17097693661708 -369.54337328196925 0 -369.54337328196925 -179.463749634946 0 0 0 0 -256.75332003006588 -353.94380060132971 0 -353.94380060132971 -65.977014216317912 0 0 0 0 -288.27160542243291 -374.4458455204076 0 -374.4458455204076 -78.594802399009495 0 0 0 0 -158.66672893046416 -330.84763309149821 0 -330.84763309149821 -27.743617140542483 0 0 0 0 -228.97494423213357 -389.24363866559725 0 -389.24363866559725 -27.270862581305664 0 0 0 0 -271.9459615889109 -407.14014253065761 0 -407.14014253065761 -23.548010952494224 0 0 0 0 -226.47084757761513 -434.38705464295344 0 -434.38705464295344 -158.11302815748058 0 0 0 0 -203.68851824764715 -382.94634810599018 0 -382.94634810599018 -59.401810228904651 0 0 0 0 -234.1928184973367 -346.58460383163765 0 -346.58460383163765 -100.40700695197847 0 0 0 0 -192.0832032354956 -267.61330656980681 0 -267.61330656980681 -44.156801327349967 0 0 0 0 -218.90397329543521 -244.70964093729526 0 -244.70964093729526 -51.280167092038027 0 0 0 0 -196.1989737147378 -161.67222073654557 0 -161.67222073654557 9.9991154447998269 0 0 0 0 -162.55323870184111 -185.12978130996089 0 -185.12978130996089 -40.430156265756523 0 0 0 0 -293.43553233627608 -203.62201617053142 0 -203.62201617053142 -28.798430700657264 0 0 0 0 -296.86479235251318 -222.14602144483433 0 -222.14602144483433 -58.845077524703811 0 0 0 0 -311.42414364019419 -321.72995931137302 0 -321.72995931137302 -68.693482657348795 0 0 0 0 -274.39350197990279 -319.12921972453478 0 -319.12921972453478 -109.79470787460525 0 0 0 0 -349.03224243525801 -366.73812751123114 0 -366.73812751123114 -237.82898739612938 0 0 0 0 -330.1723636102397 -301.97147032122302 0 -301.97147032122302 -109.31242652181368 0 0 0 0 -312.72407548755564 -434.66445774026306 0 -434.66445774026306 -209.01237924618181 0 0 0 0 -245.67539587962892 -451.8792710186699 0 -451.8792710186699 -577.99953573015227 0 0 0 0 -554.35023234234541 -476.36829165016388 0 -476.36829165016388 -1.8745314372790745 0 0 0 0 -552.75914731668672 -267.71552873236215 0 -267.71552873236215 -44.079039927921258 0 0 0 0 -322.77912971671321 -84.499206031046924 0 -84.499206031046924 -53.591877619077422 0 0 0 0 -415.77603010558778 -100.09894415299732 0 -100.09894415299732 -13.365487047631177 0 0 0 0 -40.496206489133328 -252.82850594459887 0 -252.82850594459887 -89.424165263379109 0 0 0 0 -1189.8509342686812 -134.7295229522133 0 -134.7295229522133 25.925243501324076 0 0 0 0 -1.4670321803742574 -1.0514198135359649 0 -1.0514198135359649 -1.5546234367042189 0 0 0 0 80.232996073762479 81.021361030968365 0 81.021361030968365 12.994285914901411 0 0 0 0 183.09881339390267 -95.805188514626934 0 -95.805188514626934 -16.155280577651865 0 0 0 0 181.48106319934232 -83.039895188790979 0 -83.039895188790979 -4.0536457177695411 0 0 0 0 0.42103407761453582 -0.48751890788106778 0 -0.48751890788106778 -1.6244153642478096 0 0 0 0 -82.8574205814366 -145.1895636619447 0 -145.1895636619447 0.21514884057978634 0 0 0 0 181.32699886907722 -72.190525801401236 0 -72.190525801401236 20.912339369304391 0 0 0 0 17.127497384244634 -96.238363171716628 0 -96.238363171716628 1.76663319387103 0 0 0 0 -193.47568432968546 46.301937019419711 0 46.301937019419711 -21.76291377896996 0 0 0 0 -3.0941878647961722 -3.6590732426462722 0 -3.6590732426462722 -2.7268969316008338 0 0 0 0 2.1412095841169503 15.752776069875836 0 15.752776069875836 5.0615884857979836 0 0 0 0 -383.33630776305108 0.95746596584285726 0 0.95746596584285726 -26.867219620762626 0 0 0 0 -316.44188942461142 -68.227476688216257 0 -68.227476688216257 -37.104327633140201 0 0 0 0 -227.5030010870687 -114.60695221577043 0 -114.60695221577043 -17.984103653576312 0 0 0 0 -145.57433595446037 -33.0831299874244 0 -33.0831299874244 54.934140203862626 0 0 0 0 -3.0982709032694835 -4.2032871125128111 0 -4.2032871125128111 -4.0158044438784657 0 0 0 0 -126.00905039306235 33.284772993953084 0 33.284772993953084 96.07010422842086 0 0 0 0 -111.55180465297235 -16.836239607503558 0 -16.836239607503558 19.790633547279867 0 0 0 0 -9.02759757079059 -58.190947021810643 0 -58.190947021810643 -15.082079653388064 0 0 0 0 -5.9132497924109657 -48.60836715683763 0 -48.60836715683763 -27.880907540493354 0 0 0 0 28.916968589376737 -16.748705405053958 0 -16.748705405053958 -3.1640774019031426 0 0 0 0 16.686621641372767 -30.617505099962727 0 -30.617505099962727 -51.763653391411935 0 0 0 0 -9.8501596730712322 -37.068080589710007 0 -37.068080589710007 -21.210841206881014 0 0 0 0 -9.92989125016922 -37.901590402769216 0 -37.901590402769216 -24.214755040138698 0 0 0 0 -34.729390438939845 -49.475927477145888 0 -49.475927477145888 -2.6576921067207877 0 0 0 0 -20.366013834131991 -62.560449042844994 0 -62.560449042844994 35.693205953406505 0 0 0 0 -10.783628476895956 -27.470297003008454 0 -27.470297003008454 23.334628924254503 0 0 0 0 -20.508204180443499 -57.968282028876274 0 -57.968282028876274 -12.314702134855906 0 0 0 0 -40.947408022319735 -101.94612397115725 0 -101.94612397115725 0.93695911750546657 0 0 0 0 15.531747173815802 -84.854327773795376 0 -84.854327773795376 -17.857532561345579 0 0 0 0 3.7266146168743148 -65.169529780279845 0 -65.169529780279845 -32.158959377520659 0 0 0 0 19.13956404317787 -32.873226758489182 0 -32.873226758489182 -0.96868931516655721 0 0 0 0 20.560008469208753 -46.202738218964441 0 -46.202738218964441 -37.261206514085643 0 0 0 0 76.963616629258922 -34.781990340146876 0 -34.781990340146876 -126.77785792890791 0 0 0 0 -40.280686936076563 -160.38263811525394 0 -160.38263811525394 -105.72276902938029 0 0 0 0 0.044013091777220126 -0.41798891159975327 0 -0.41798891159975327 -2.7066998904561501 0 0 0 0 7.736205129891184 -8.3771743097751781 0 -8.3771743097751781 -1.9956798105701807 0 0 0 0 34.543791380915991 -44.244981164898491 0 -44.244981164898491 1.2903291727197939 0 0 0 0 31.923160047544329 -32.651248345422971 0 -32.651248345422971 9.7338654339945805 0 0 0 0 -113.45945894816759 -157.79480912859253 0 -157.79480912859253 -37.286034782508068 0 0 0 0 34.403210198273186 -22.43280305801888 0 -22.43280305801888 3.7555435716319892 0 0 0 0 -6.1707540603711095 -73.026767896430101 0 -73.026767896430101 -65.64270975951149 0 0 0 0 -59.62767203495423 -87.673429234655487 0 -87.673429234655487 -42.764364737500728 0 0 0 0 -45.461240766037008 -196.98575770561001 0 -196.98575770561001 -205.68927049426566 0 0 0 0 -82.667410750925228 -216.33747905304699 0 -216.33747905304699 -165.98797569487215 0 0 0 0 -23.446275604635957 -223.59451686325338 0 -223.59451686325338 -343.47220101236007 0 0 0 0 -81.619813897093081 -262.70172771561556 0 -262.70172771561556 -272.43583786271483 0 0 0 0 24.179420099535491 -185.23595268672943 0 -185.23595268672943 -233.71886111018284 0 0 0 0 -8.7746103629397112 -142.76315537604023 0 -142.76315537604023 -189.23606480496892 0 0 0 0 16.734346995924739 -80.717974489701419 0 -80.717974489701419 -105.84107108006719 0 0 0 0 -78.335306946813944 -305.52638834942991 0 -305.52638834942991 -276.1271586453804 0 0 0 0 -37.071167008411066 -256.99332221148507 0 -256.99332221148507 -219.27278839602513 0 0 0 0 -4.8901250031794916 -301.86850204145594 0 -301.86850204145594 -390.81391230533336 0 0 0 0 -22.333297990739084 -289.33048900093854 0 -289.33048900093854 -318.31895462621469 0 0 0 0 32.650935724126612 -291.55618959051571 0 -291.55618959051571 -321.13699722697493 0 0 0 0 -6.7459454721779366 -291.45953442224527 0 -291.45953442224527 -282.86530245883478 0 0 0 0 3.737540763522702 -320.65881886828356 0 -320.65881886828356 -491.48144574762409 0 0 0 0 89.94214845128954 -147.04135321712602 0 -147.04135321712602 -346.63776713524931 0 0 0 0 159.41184079437517 34.26038458730909 0 34.26038458730909 -141.53120889720839 0 0 0 0 88.986777307436569 -212.38041308290849 0 -212.38041308290849 -138.10644234647771 0 0 0 0 -7.3122589731046901 -13.89629769664316 0 -13.89629769664316 -231.97258509962012 0 0 0 0 24.870358512249368 -240.01652803949037 0 -240.01652803949037 -374.31172147952748 0 0 0 0 -12.339936292435596 -88.511272599560471 0 -88.511272599560471 -77.082197999636264 0 0 0 0 175.24489625835486 -36.845922526656068 0 -36.845922526656068 -148.54160997083454 0 0 0 0 8.0731315930461278 -177.8055911604788 0 -177.8055911604788 -235.82406578940208 0 0 0 0 14.463759933883921 -29.879702488535258 0 -29.879702488535258 -72.310467691451777 0 0 0 0 5.1258340111123175 -1.9893957156280919 0 -1.9893957156280919 -1.1373287553099942 0 0 0 0 23.224051888183091 -12.836595215660644 0 -12.836595215660644 -11.941365682606232 0 0 0 0 20.373554145562593 -8.9434036218663095 0 -8.9434036218663095 -29.648223885760672 0 0 0 0 1.1060398071884947 -32.913055088423334 0 -32.913055088423334 -4.6520897435693769 0 0 0 0 -5.6535147822090055 -21.758014334375623 0 -21.758014334375623 -18.392715765811388 0 0 0 0 159.26688296899738 -16.114097453013528 0 -16.114097453013528 -2.2270798965000722 0 0 0 0 187.16732696579311 -71.12778418700691 0 -71.12778418700691 17.101363184534421 0 0 0 0 8.9727475223108542 -11.500516716315293 0 -11.500516716315293 6.4744588798739073 0 0 0 0 -5.9656345349785624 -18.456131013859704 0 -18.456131013859704 -5.2687912759193409 0 0 0 0 0.79671818871702271 -34.62693546664741 0 -34.62693546664741 -5.505633304535877 0 0 0 0 210.3504713709699 32.885815670324519 0 32.885815670324519 -93.583396407188047 0 0 0 0 49.518299095160728 -89.460373920941493 0 -89.460373920941493 -133.76779833395995 0 0 0 0 163.30356602033987 26.590890049110385 0 26.590890049110385 -63.582075664868171 0 0 0 0 206.99803803924669 -35.003714529505487 0 -35.003714529505487 -45.57087303022854 0 0 0 0 296.67831950607433 91.21577446241281 0 91.21577446241281 1.2538538192252418 0 0 0 0 124.86103162668678 43.036962359436075 0 43.036962359436075 8.7384897703523166 0 0 0 0 66.32569276772665 -182.87509877998673 0 -182.87509877998673 -61.601871198050503 0 0 0 0 279.87638275118297 112.20327970775452 0 112.20327970775452 98.017940588288184 0 0 0 0 472.79937878449709 -210.41731455875561 0 -210.41731455875561 -38.830493812158238 0 0 0 0 6.1246751705865385 -5.4052622558303156 0 -5.4052622558303156 5.524969338184718 0 0 0 0 -17.837554731542696 -16.692564995866633 0 -16.692564995866633 -0.014770703764952486 0 0 0 0 831.01831604069594 310.11580835128916 0 310.11580835128916 48.022188277052919 0 0 0 0 2.2304973281756588 -1.4968534191618161 0 -1.4968534191618161 2.0920981796690796 0 0 0 0 -5.1145438105565972 -22.961889471934228 0 -22.961889471934228 17.458874110103352 0 0 0 0 10.999225248203402 -16.11460471915052 0 -16.11460471915052 1.9776839339956496 0 0 0 0 -16.057114040843317 -25.712714215018423 0 -25.712714215018423 -2.620176941381942 0 0 0 0 -11.68813226399925 -12.944462545427086 0 -12.944462545427086 -2.0564612177125809 0 0 0 0 -4.777306845367093 -18.193430009592703 0 -18.193430009592703 0.010257684618409257 0 0 0 0 2.5001805802357921 -12.008811904275717 0 -12.008811904275717 3.6991790661559207 0 0 0 0 6.8515238144157138 -15.949283795311203 0 -15.949283795311203 -0.023759817104291869 0 0 0 0 -0.29463722254877212 -14.043310272612871 0 -14.043310272612871 5.896801679260534 0 0 0 0 -4.7569216042200537 -14.086940559072445 0 -14.086940559072445 15.695785231044283 0 0 0 0 -4.5965560598633601 -17.184868911592275 0 -17.184868911592275 17.558955689833965 0 0 0 0 9.257895035513684 -26.69106431039836 0 -26.69106431039836 18.683402627422765 0 0 0 0 4.1453172911860747 -37.77615246158166 0 -37.77615246158166 1.3548118820726813 0 0 0 0 -5.2623754371234099 -14.604310009290202 0 -14.604310009290202 36.8960243991678 0 0 0 0 9.7137460934018236 -19.375691289456881 0 -19.375691289456881 -13.599793117798981 0 0 0 0 -13.769638343129667 -18.200872012802463 0 -18.200872012802463 -12.485657847251915 0 0 0 0 -2.5423244988340716 -2.6355334817529226 0 -2.6355334817529226 -1.9223214728333744 0 0 0 0 -15.195546968224789 5.9227049183900817 0 5.9227049183900817 12.819066656659061 0 0 0 0 -16.300291627603578 -12.694247125430635 0 -12.694247125430635 14.521515147901454 0 0 0 0 -1.2296154682099836 -1.452850304584544 0 -1.452850304584544 1.1701375420918936 0 0 0 0 -17.419617579848364 13.772587660030695 0 13.772587660030695 12.68382280161768 0 0 0 0 -40.740732984777878 -19.725271062718093 0 -19.725271062718093 30.558903287193971 0 0 0 0 -12.645364635473982 -36.755260809210085 0 -36.755260809210085 -19.501867617895186 0 0 0 0 -26.415462802312838 -28.950842055095563 0 -28.950842055095563 -12.165294248683495 0 0 0 0 0.096948266183495058 -1.3723818690049825 0 -1.3723818690049825 7.2059685803993929 0 0 0 0 2.3549782879322265 -33.865276090713451 0 -33.865276090713451 -24.448415677316007 0 0 0 0 -15.259788509664929 -37.681572872625111 0 -37.681572872625111 4.9370488178174128 0 0 0 0 -27.019869447657982 -65.627446966883099 0 -65.627446966883099 31.971348398183181 0 0 0 0 -28.997406591272934 -8.6517369898890735 0 -8.6517369898890735 3.5381020847537883 0 0 0 0 8.2420469256802704 -13.727458064297309 0 -13.727458064297309 11.320832237252972 0 0 0 0 -9.2874068708952109 -40.54080689683542 0 -40.54080689683542 -48.094636494912265 0 0 0 0 -8.865213085855487 -5.267386889874615 0 -5.267386889874615 23.776919238400296 0 0 0 0 -26.650269436352573 6.8194224855324137 0 6.8194224855324137 25.411487917585873 0 0 0 0 -12.436696095369484 13.434485632096766 0 13.434485632096766 29.427144710069115 0 0 0 0 -57.695219715079702 -12.59839278452273 0 -12.59839278452273 72.093738365643731 0 0 0 0 -102.08595694367037 -19.456493500760189 0 -19.456493500760189 18.864432987080363 0 0 0 0 -47.846060089996172 44.898746956447212 0 44.898746956447212 -31.330425788888533 0 0 0 0 0.89569682689342756 -0.87804200226597118 0 -0.87804200226597118 -1.6959346398693214 0 0 0 0 4.2244463822526086 -32.064644890331692 0 -32.064644890331692 -14.367776530951232 0 0 0 0 -73.618891285593577 -16.166686318556458 0 -16.166686318556458 0.016600380175077589 0 0 0 0 -68.240518639548981 -8.3015968535110005 0 -8.3015968535110005 -34.964995040827489 0 0 0 0 -48.926129120894984 -34.41736882517398 0 -34.41736882517398 -0.017361418194923317 0 0 0 0 -53.198559081846383 -88.663106395864816 0 -88.663106395864816 -66.92273866366304 0 0 0 0 -30.908225330559389 -47.401392833711725 0 -47.401392833711725 -29.567021691560512 0 0 0 0 1.9335798385427552 -27.446980311000516 0 -27.446980311000516 -60.455536226265622 0 0 0 0 -27.344319575565294 -41.780351843844983 0 -41.780351843844983 -37.880976638374705 0 0 0 0 -22.395940839535683 -31.262112705117033 0 -31.262112705117033 -48.920164516159275 0 0 0 0 -16.826110838136628 -0.44936742046957079 0 -0.44936742046957079 8.3920379787414277 0 0 0 0 -291.74738057840432 -272.68223086250691 0 -272.68223086250691 -164.71448963425064 0 0 0 0 -91.648972777895779 -82.7886151706698 0 -82.7886151706698 -0.21256615697259909 0 0 0 0 10.191499306727565 -37.414901043088321 0 -37.414901043088321 -142.5409077877348 0 0 0 0 -189.00202876823278 -300.32052102168927 0 -300.32052102168927 -437.15794261424162 0 0 0 0 -199.39227809167551 124.01897151776393 0 124.01897151776393 32.360151861463237 0 0 0 0 -51.710005926861982 -46.526339912215917 0 -46.526339912215917 17.576669051650242 0 0 0 0 -16.18782874752198 -5.0383737667802109 0 -5.0383737667802109 -1.1701182942534878 0 0 0 0 -55.053988374617802 -38.449902721225953 0 -38.449902721225953 143.74771067855909 0 0 0 0 -22.415305924147106 -22.527593184160651 0 -22.527593184160651 19.43370380381748 0 0 0 0 2.4276232782958687 -29.055983942702369 0 -29.055983942702369 39.25626503679814 0 0 0 0 -69.246208796310384 28.496230231980007 0 28.496230231980007 34.740151115982371 0 0 0 0 -23.452117666587558 -6.6259077842188105 0 -6.6259077842188105 -2.2005909265247503 0 0 0 0 -50.595893142945329 -43.51499426637838 0 -43.51499426637838 73.526045113801956 0 0 0 0 -24.859278856511082 8.5393626836594194 0 8.5393626836594194 67.628376845794264 0 0 0 0 -30.002901937460592 -64.44919488236701 0 -64.44919488236701 88.255227159512287 0 0 0 0 -15.174831977086797 -6.8836088654682044 0 -6.8836088654682044 0.81492046101993765 0 0 0 0 -48.122954590594418 -84.824827483391346 0 -84.824827483391346 -26.164862551155238 0 0 0 0 -271.57710714821405 0.28330993828058126 0 0.28330993828058126 105.79863182551205 0 0 0 0 -17.8327369437269 85.35286116430143 0 85.35286116430143 106.37311644503279 0 0 0 0 6.0679440515897554 -7.6744288632157307 0 -7.6744288632157307 8.5327180384706054 0 0 0 0 -30.08595770887564 -32.780773663838318 0 -32.780773663838318 -64.365292101130763 0 0 0 0 -81.755906977499762 -35.548079346834129 0 -35.548079346834129 26.609552952513695 0 0 0 0 -123.59596725972369 16.459562759071559 0 16.459562759071559 77.80493494959228 0 0 0 0 -45.996089326581568 -59.126307436974457 0 -59.126307436974457 68.1505222547421 0 0 0 0 -52.760932232165942 -24.063423929086639 0 -24.063423929086639 -20.337175523163751 0 0 0 0 -116.27775129056499 -62.96132821340143 0 -62.96132821340143 -8.6446122549205029 0 0 0 0 -83.343955242055927 -119.21324174832989 0 -119.21324174832989 -88.608813241317876 0 0 0 0 2.5260790010163063 -4.5246592888736501 0 -4.5246592888736501 5.1209207749232775 0 0 0 0 -146.86377324735986 -149.9392608684575 0 -149.9392608684575 -87.082905591389135 0 0 0 0 -10.044535493121657 -37.219332610517085 0 -37.219332610517085 -81.356210819074477 0 0 0 0 0.76637574233824068 -1.5179126217633439 0 -1.5179126217633439 1.844377303692724 0 0 0 0 4.0152559340549487 110.5956928814303 0 110.5956928814303 277.21771186491242 0 0 0 0 -115.82760685324683 -97.812887135733035 0 -97.812887135733035 260.51424914417112 0 0 0 0 12.713940553941029 -53.11902060704233 0 -53.11902060704233 36.495049918492441 0 0 0 0 73.592700194582449 24.155483246461699 0 24.155483246461699 85.127717585033679 0 0 0 0 -43.459955132199866 -108.21642959020028 0 -108.21642959020028 -18.069408522846061 0 0 0 0 -28.812018785609325 -43.241613370475534 0 -43.241613370475534 64.696673887148791 0 0 0 0 -350.20941088860673 15.217484968721692 0 15.217484968721692 25.961750442095763 0 0 0 0 -157.58338233337417 -82.02486533514093 0 -82.02486533514093 49.10346607084648 0 0 0 0 -111.30609806817029 -24.330595969422575 0 -24.330595969422575 29.437801755413602 0 0 0 0 -217.97930653034518 -161.72165393907017 0 -161.72165393907017 -12.82073947632307 0 0 0 0 81.905564768041586 -50.068762529150263 0 -50.068762529150263 -151.10609541650047 0 0 0 0 62.163755028071137 101.4701862712318 0 101.4701862712318 83.916758889834455 0 0 0 0 -45.027014894138119 -176.23210438127717 0 -176.23210438127717 -11.123587263049558 0 0 0 0 -319.23456680263189 -222.08322078625497 0 -222.08322078625497 -70.551988451741636 0 0 0 0 -26.067372653893472 -237.16422877152945 0 -237.16422877152945 -216.16975489455899 0 0 0 0 0.59634198394390125 -1.0793549379571488 0 -1.0793549379571488 0.31022609953231495 0 0 0 0 -137.79601873360298 -296.27637728265472 0 -296.27637728265472 -374.9869670393382 0 0 0 0 -97.254497482280385 -47.413687292879331 0 -47.413687292879331 -92.436163866630523 0 0 0 0 -19.625105684559458 -69.336190335310675 0 -69.336190335310675 -197.00211448116897 0 0 0 0 -11.776772332235851 -120.04962968504697 0 -120.04962968504697 -85.661477635294432 0 0 0 0 192.57249398550084 -72.874357045715442 0 -72.874357045715442 -61.305197561185196 0 0 0 0 83.079629836953245 -93.946895689881785 0 -93.946895689881785 -34.982145382127783 0 0 0 0 94.233588065802905 -45.979860853389255 0 -45.979860853389255 13.949690152861876 0 0 0 0 9.0817357593928136 -66.885088537741467 0 -66.885088537741467 -21.500662341881252 0 0 0 0 -0.69319598243193603 -2.2680971574969355 0 -2.2680971574969355 1.1145234553391958 0 0 0 0 203.38560930742506 -98.864302046740704 0 -98.864302046740704 -30.30912047898164 0 0 0 0 -153.49429021182004 -90.906956049308064 0 -90.906956049308064 218.07585662252677 0 0 0 0 -158.34445529202185 -114.90623215084088 0 -114.90623215084088 19.531247521003934 0 0 0 0 23.653061542821888 -167.27827844381682 0 -167.27827844381682 -81.681808914137946 0 0 0 0 44.414707046274998 -43.669053832483769 0 -43.669053832483769 41.801127297185303 0 0 0 0 -22.879819376683372 -225.78595734785631 0 -225.78595734785631 -11.545473931853849 0 0 0 0 -99.771500209480109 -193.58307518016954 0 -193.58307518016954 -7.7605740330909612 0 0 0 0 -0.99616242825623935 -2.6432527029680539 0 -2.6432527029680539 0.54097582333224636 0 0 0 0 29.028008934312311 -86.523188108041722 0 -86.523188108041722 -21.472674714565073 0 0 0 0 232.42341076258344 -111.85539205172972 0 -111.85539205172972 24.979491688864073 0 0 0 0 -17.503132181846922 -26.600409751223197 0 -26.600409751223197 38.543494440840732 0 0 0 0 -728.80024918084928 -196.55358529001023 0 -196.55358529001023 81.656763534381753 0 0 0 0 -240.28052348269739 -183.80058953284242 0 -183.80058953284242 -19.574950026864826 0 0 0 0 -0.65857198430946617 -1.1317952339425306 0 -1.1317952339425306 0.26184831199515202 0 0 0 0 -253.53236262390516 -357.89801993673473 0 -357.89801993673473 150.32623062380299 0 0 0 0 -177.15031417230784 -478.48249025415862 0 -478.48249025415862 73.543083454860607 0 0 0 0 -134.97955793595065 -411.29654837763883 0 -411.29654837763883 -110.81890181053313 0 0 0 0 -163.27336820889468 -408.68947966008727 0 -408.68947966008727 377.36354996568843 0 0 0 0 -0.75617717594559508 -2.0025581507712786 0 -2.0025581507712786 -1.3077223074106143 0 0 0 0 22.433475978432398 -198.78901622870035 0 -198.78901622870035 -436.78026078557014 0 0 0 0 3.7210519422023935 -159.63437242434338 0 -159.63437242434338 267.05391419059015 0 0 0 0 -73.004484281153054 -306.53652354831502 0 -306.53652354831502 -12.194051656817464 0 0 0 0 67.600282897760735 -325.08645530942886 0 -325.08645530942886 -106.63232331460313 0 0 0 0 -220.16317923067072 -265.61493871324637 0 -265.61493871324637 8.2502940728591057 0 0 0 0 -242.2595898556915 -335.04218166064402 0 -335.04218166064402 -27.106604673797847 0 0 0 0 -153.18780866063662 -273.75734119409026 0 -273.75734119409026 -219.80144106408625 0 0 0 0 -153.40160757339618 -278.31888784225703 0 -278.31888784225703 -72.842340266934116 0 0 0 0 -18.531307350414863 -154.5292893706719 0 -154.5292893706719 136.49672480474692 0 0 0 0 -356.96571220411715 -337.0041946946003 0 -337.0041946946003 -22.52965864091675 0 0 0 0 -236.1360808655154 -364.55394483188502 0 -364.55394483188502 -313.07444374828628 0 0 0 0 -445.27332667553674 -453.66552873606997 0 -453.66552873606997 -163.14925022060925 0 0 0 0 -5.9129137557696403 -2.3338733826687417 0 -2.3338733826687417 -0.93154853421474115 0 0 0 0 -667.40174808436495 -184.45354563839646 0 -184.45354563839646 136.13945164814538 0 0 0 0 -643.54675361623504 -330.03038047358314 0 -330.03038047358314 -71.493002183138742 0 0 0 0 -514.91246805773812 -54.845457175864794 0 -54.845457175864794 -138.77957935057202 0 0 0 0 -372.41353695962766 -176.72784915019474 0 -176.72784915019474 0.097942318712739507 0 0 0 0 90.507442598798661 -380.36845565586555 0 -380.36845565586555 -77.163309774223308 0 0 0 0 -251.40764837443021 -281.22537373860541 0 -281.22537373860541 -0.10036145390404272 0 0 0 0 -130.40775276667091 -135.03619286958201 0 -135.03619286958201 -18.929983714195259 0 0 0 0 144.59062695434295 -293.68394907512265 0 -293.68394907512265 0.13839662503596628 0 0 0 0 339.03704978925271 -432.07193067200387 0 -432.07193067200387 69.030848921680899 0 0 0 0 311.40450224949564 -63.11252417463038 0 -63.11252417463038 162.65205670449905 0 0 0 0 612.43535369664278 -196.99116415448043 0 -196.99116415448043 -0.20568192057180568 0 0 0 0 292.20773651122181 -298.15843150842375 0 -298.15843150842375 257.0168208079449 0 0 0 0 36.43399564068568 -14.674658578361232 0 -14.674658578361232 0.44535658947279444 0 0 0 0 127.16487163206148 58.974354559311905 0 58.974354559311905 -15.628742023579889 0 0 0 0 5.5440423128380445 -1.2588907556099684 0 -1.2588907556099684 0.36125539419285602 0 0 0 0 527.10177892731735 -127.91099426963228 0 -127.91099426963228 -234.38275113271084 0 0 0 0 16.153666802240878 -37.892986989587371 0 -37.892986989587371 -51.623786745363759 0 0 0 0 1.3675801601252715 -27.889762767923457 0 -27.889762767923457 -54.701838539400342 0 0 0 0 110.6247399011063 -62.870598549874558 0 -62.870598549874558 -195.11945735020527 0 0 0 0 157.55463532773138 -90.539495222222286 0 -90.539495222222286 -540.02532054191761 0 0 0 0 219.32678894957553 -244.97546842297925 0 -244.97546842297925 -114.21047234431171 0 0 0 0 86.705151845224236 -256.11700942149628 0 -256.11700942149628 -69.786993126523157 0 0 0 0 178.11378651692576 -285.73635224367172 0 -285.73635224367172 -138.86975415074266 0 0 0 0 186.62187256873995 -251.70718923992717 0 -251.70718923992717 -139.37792479608834 0 0 0 0 -12.69600066433668 -68.774985838574139 0 -68.774985838574139 -0.079088877759204479 0 0 0 0 35.234716832568665 -45.715547070522007 0 -45.715547070522007 -170.71109543352941 0 0 0 0 -181.16051941163096 -7.1589008747214393 0 -7.1589008747214393 21.597024903087004 0 0 0 0 -148.99790916230108 -121.4787684667167 0 -121.4787684667167 -68.025060623484023 0 0 0 0 -2.5093401046808168 -3.1611411320947695 0 -3.1611411320947695 0.89059451741717233 0 0 0 0 0.43304342880617952 0.85904642801628484 0 0.85904642801628484 0.77160481946032178 0 0 0 0 -78.278471785666625 -49.302748498093933 0 -49.302748498093933 -0.054150368268892635 0 0 0 0 41.980569038558315 -11.267342453211313 0 -11.267342453211313 -0.44795816430041668 0 0 0 0 15.06148797946166 -3.9039930366601965 0 -3.9039930366601965 0.30871617457825451 0 0 0 0 -10.254694960527559 -29.298356977396907 0 -29.298356977396907 -11.739986801701434 0 0 0 0 11.505882583955099 -77.956589707346211 0 -77.956589707346211 -150.81764771966482 0 0 0 0 -28.111180679279641 -63.217571961260546 0 -63.217571961260546 -25.523874571387296 0 0 0 0 22.11938181412097 -11.450548280559815 0 -11.450548280559815 -36.18725709292994 0 0 0 0 12.711833261682301 -11.857746192123628 0 -11.857746192123628 4.1990905523561253 0 0 0 0 -157.0507286373695 -28.575496937604839 0 -28.575496937604839 41.535706727750949 0 0 0 0 -109.84403979422314 18.758537537756638 0 18.758537537756638 -0.028123365028022818 0 0 0 0 101.55898989759589 -109.91230239839206 0 -109.91230239839206 -277.24706260538369 0 0 0 0 11.968364344829904 -13.770835023523659 0 -13.770835023523659 7.8320935340028086 0 0 0 0 -12.74052288072653 -55.530867333096467 0 -55.530867333096467 -38.219695511335885 0 0 0 0 44.024229970498709 -226.97317273771478 0 -226.97317273771478 84.878054273894122 0 0 0 0 0.51369497889820082 -1.7084366096278387 0 -1.7084366096278387 -3.0974904061045834 0 0 0 0 33.00630247393542 -310.35620734017971 0 -310.35620734017971 253.09393088148499 0 0 0 0 13.721505172999969 -89.697321923749769 0 -89.697321923749769 223.37464109108259 0 0 0 0 -35.146052746258647 -193.25349518560688 0 -193.25349518560688 25.41488134242536 0 0 0 0 -89.715291525881753 -29.561598593173812 0 -29.561598593173812 7.5124355602165451 0 0 0 0 15.197057473666479 -17.483491009555351 0 -17.483491009555351 11.096539840689246 0 0 0 0 -97.748875163109915 73.676811930390613 0 73.676811930390613 187.75199503179465 0 0 0 0 -98.616544601941314 -118.26908992996687 0 -118.26908992996687 -31.384082024786039 0 0 0 0 -81.767180570474011 -134.10616453209332 0 -134.10616453209332 -114.56348563655774 0 0 0 0 -42.898968834261439 -157.23578047114995 0 -157.23578047114995 -102.73617031541653 0 0 0 0 -40.278145569207481 -121.36496810666904 0 -121.36496810666904 -132.17098807121147 0 0 0 0 0.27040658367877768 -140.66666154102495 0 -140.66666154102495 -110.52719482101747 0 0 0 0 -18.764971657656133 -103.2648190818727 0 -103.2648190818727 -161.27645566509091 0 0 0 0 1.6446709995507263 -128.70549657277661 0 -128.70549657277661 -202.19101677108119 0 0 0 0 4.8794281508126005 -95.077320693430011 0 -95.077320693430011 -202.44980903530814 0 0 0 0 27.17739227427046 -109.18991633364567 0 -109.18991633364567 -323.45870219347853 0 0 0 0 -14.487252456085116 -81.714861906035367 0 -81.714861906035367 -293.7203164142411 0 0 0 0 5.235911403911814 -112.88226379092885 0 -112.88226379092885 -304.69904946536553 0 0 0 0 -5.2849175072933576 -95.980139888040867 0 -95.980139888040867 -399.37602888393303 0 0 0 0 -60.492583366100007 -160.41712868773539 0 -160.41712868773539 -298.62618416672922 0 0 0 0 -27.03478918156361 -78.62538320702879 0 -78.62538320702879 -361.39562526670488 0 0 0 0 -40.700958003229971 -141.37417497623392 0 -141.37417497623392 -213.94245188970672 0 0 0 0 -39.32508835563516 -115.91362622566498 0 -115.91362622566498 -248.17078856307489 0 0 0 0 -90.094751583364996 -158.48739788722014 0 -158.48739788722014 -148.4402222666231 0 0 0 0 -80.746470727082851 -142.07024469332464 0 -142.07024469332464 -226.70646247253171 0 0 0 0 -132.45560209301766 -126.40051202221366 0 -126.40051202221366 -109.76107988585136 0 0 0 0 -118.38516969835837 -200.3346583023158 0 -200.3346583023158 -240.43619431385014 0 0 0 0 -63.260638238291676 -126.27571802183115 0 -126.27571802183115 -343.77332728745387 0 0 0 0 -33.165829396300978 -118.75642447936843 0 -118.75642447936843 -410.70944070051337 0 0 0 0 -39.104396102407918 -86.170198695072031 0 -86.170198695072031 -487.80997850312997 0 0 0 0 -77.312998312714626 -178.12447362161402 0 -178.12447362161402 -389.95548877534748 0 0 0 0 -73.506324291666715 -163.30140935946292 0 -163.30140935946292 -459.00995977908315 0 0 0 0 -173.95173864641401 -255.0096935146139 0 -255.0096935146139 -345.3451409653353 0 0 0 0 -58.007595850263897 -227.46737978949386 0 -227.46737978949386 -543.04863424247378 0 0 0 0 -60.994592435482446 -253.19021424149832 0 -253.19021424149832 -763.07288120749581 0 0 0 0 -199.41792246024443 -149.20312351342636 0 -149.20312351342636 -226.04836578459799 0 0 0 0 -94.51537872056997 -149.32871032189178 0 -149.32871032189178 -247.68764889902377 0 0 0 0 -145.63402663617308 -167.60422922959333 0 -167.60422922959333 -234.53781479802274 0 0 0 0 -161.48159306173693 -197.4658453496304 0 -197.4658453496304 -220.97947467162521 0 0 0 0 -171.56027235389411 -201.29990090839419 0 -201.29990090839419 -186.01435116767243 0 0 0 0 1.0787871408805429 -5.8130637722776584 0 -5.8130637722776584 0.3726276115494116 0 0 0 0 71.798041879445918 -153.01161087117907 0 -153.01161087117907 40.216194856118818 0 0 0 0 104.8438994438493 -115.04534523179973 0 -115.04534523179973 -389.63284168711107 0 0 0 0 202.83399252981508 -191.46948592221815 0 -191.46948592221815 -51.500998860013169 0 0 0 0 -1.1208293034279393 -3.2315141099915792 0 -3.2315141099915792 -2.3854918731510395 0 0 0 0 191.60302632540152 -226.04927505025535 0 -226.04927505025535 -126.30182053666795 0 0 0 0 -0.21010681892755656 -1.383357937720497 0 -1.383357937720497 -1.1500059717576363 0 0 0 0 7.4994357825162297 -200.44489057174724 0 -200.44489057174724 281.44933536339158 0 0 0 0 42.616082593172905 -189.57893958302884 0 -189.57893958302884 -87.178166414196312 0 0 0 0 15.034153927461375 -83.704300085337309 0 -83.704300085337309 -71.101315966648599 0 0 0 0 85.087880504199347 -52.156707579655631 0 -52.156707579655631 -91.843077257028199 0 0 0 0 84.616497303508822 -126.02682033515475 0 -126.02682033515475 -197.6656693698751 0 0 0 0 93.436975756568245 -81.391566519987464 0 -81.391566519987464 -228.14973273957003 0 0 0 0 51.675660746823269 -82.119497361756657 0 -82.119497361756657 -295.50722666551155 0 0 0 0 47.241329213651397 -104.27445350076823 0 -104.27445350076823 -239.47513471878483 0 0 0 0 72.333835506379728 -88.804790459857031 0 -88.804790459857031 -241.22259120657691 0 0 0 0 83.818322475721288 -99.252929932568804 0 -99.252929932568804 -301.23690747026012 0 0 0 0 62.84209189126841 -66.904136564420696 0 -66.904136564420696 -271.17189384223457 0 0 0 0 -54.482496405477832 -186.64853215637413 0 -186.64853215637413 -226.14240125617107 0 0 0 0 69.00966812453953 -7.379845487226703 0 -7.379845487226703 -202.05716227111407 0 0 0 0 -72.015961835222697 -193.00840970803256 0 -193.00840970803256 -289.36139145609195 0 0 0 0 1.5954909201458491 -1.8227866023152757 0 -1.8227866023152757 0.60544543246446381 0 0 0 0 -16.703551371006142 -233.90256815061548 0 -233.90256815061548 -346.38534465119847 0 0 0 0 -109.22200773229997 -155.82722312377518 0 -155.82722312377518 -185.35801941757381 0 0 0 0 -46.779529369848206 -50.621503153568483 0 -50.621503153568483 -127.39136507768853 0 0 0 0 -48.804123691297718 -57.108615719800582 0 -57.108615719800582 -121.04878753625962 0 0 0 0 -72.33670651476632 -87.362497138958588 0 -87.362497138958588 -133.19077966678378 0 0 0 0 -20.818261991005329 21.435343106031723 0 21.435343106031723 -41.305145999671367 0 0 0 0 15.223984677924818 -50.069659089342167 0 -50.069659089342167 -166.97666359479626 0 0 0 0 -41.220440913210041 -44.361114257844747 0 -44.361114257844747 -168.55203040615015 0 0 0 0 -12.657608269586362 -3.322592976648167 0 -3.322592976648167 -0.019336388097272561 0 0 0 0 -63.202297966050537 -100.9202916436243 0 -100.9202916436243 -193.7440546252692 0 0 0 0 15.032972228204017 101.62996644455416 0 101.62996644455416 -186.7153724375803 0 0 0 0 -129.11430340724837 -122.7971441664231 0 -122.7971441664231 -144.83949768637558 0 0 0 0 0.74327069419893377 -0.94733989243179906 0 -0.94733989243179906 0.25305607149343246 0 0 0 0 -82.907876908709113 -170.50994436027031 0 -170.50994436027031 -231.13772653472552 0 0 0 0 100.14468058154671 -60.97714989270753 0 -60.97714989270753 -270.50083435190436 0 0 0 0 116.18487092728537 -79.322419424046529 0 -79.322419424046529 -311.97143462819804 0 0 0 0 76.667142570215219 -72.582598733148188 0 -72.582598733148188 -300.49529170889423 0 0 0 0 45.590840222182123 -65.290740499144704 0 -65.290740499144704 -355.49783054472209 0 0 0 0 35.127525038018575 -82.728362107667635 0 -82.728362107667635 -285.44862653405289 0 0 0 0 77.844980860611031 -103.61447431656779 0 -103.61447431656779 -296.19734244308347 0 0 0 0 -1.7001755447603841 -20.73134019156042 0 -20.73134019156042 -2.9555116026274 0 0 0 0 41.784953111193317 -74.309034704227088 0 -74.309034704227088 -98.399489448114764 0 0 0 0 -10.272024650301603 -3.1339042608243943 0 -3.1339042608243943 -5.8924429223563983 0 0 0 0 61.012427574496542 -1.1834957897335698 0 -1.1834957897335698 -404.41695501006325 0 0 0 0 4.6903201868544784 56.914505062138687 0 56.914505062138687 -179.14153868514768 0 0 0 0 -15.640500422498008 -93.777675920231559 0 -93.777675920231559 -223.45851614675757 0 0 0 0 58.229117547707574 86.776181943270785 0 86.776181943270785 -250.07939818470186 0 0 0 0 -34.005099860081828 97.99872491485803 0 97.99872491485803 -115.79616608392098 0 0 0 0 -186.36359685501156 19.645194691791403 0 19.645194691791403 8.5852593122253893 0 0 0 0 -96.913944221993006 -117.86047940828576 0 -117.86047940828576 -16.167502839271037 0 0 0 0 26.312030046842665 -124.09615940051663 0 -124.09615940051663 -22.351489791049971 0 0 0 0 -18.180441773540224 15.681468248541933 0 15.681468248541933 4.3654511592176277 0 0 0 0 -47.205626852985006 -27.311860556965257 0 -27.311860556965257 86.495405528028641 0 0 0 0 16.804208577599638 -14.852907474261883 0 -14.852907474261883 121.57505106412282 0 0 0 0 39.672884672665532 -30.309930573701422 0 -30.309930573701422 -50.560620451207797 0 0 0 0 -17.933896280075714 -108.47436180161094 0 -108.47436180161094 85.219715158164036 0 0 0 0 344.56573480434236 -34.761047827196307 0 -34.761047827196307 -243.83365491917402 0 0 0 0 3.9570991939099969 -1.7264061424999397 0 -1.7264061424999397 -0.10515937754701277 0 0 0 0 -25.044848929810541 -134.82986328725747 0 -134.82986328725747 285.71922393542263 0 0 0 0 80.382767089350637 1.38324710654706 0 1.38324710654706 89.038610837000306 0 0 0 0 1.6478743560560147 0.12444326863307964 0 0.12444326863307964 0.21361005804747712 0 0 0 0 -41.464666512729309 -125.2856312496624 0 -125.2856312496624 503.14894994050564 0 0 0 0 156.37595435825529 -192.61780237495918 0 -192.61780237495918 26.551229469361715 0 0 0 0 17.580777107166796 -38.197071032747772 0 -38.197071032747772 120.56216708552165 0 0 0 0 125.68005237508214 60.363816460490511 0 60.363816460490511 36.236293465910421 0 0 0 0 3.2496090039276169 -8.7386703771262546 0 -8.7386703771262546 -0.75322649674126296 0 0 0 0 28.028182790912979 -159.62692342103037 0 -159.62692342103037 -111.30586585073615 0 0 0 0 -149.33677331168201 77.891622859878225 0 77.891622859878225 -25.089673383736226 0 0 0 0 -4.0860182213667287 -21.512638588732443 0 -21.512638588732443 -7.9239947862766869 0 0 0 0 128.64829234185163 -108.67388613062212 0 -108.67388613062212 -214.09805066211629 0 0 0 0 143.21786148929823 20.252185689038015 0 20.252185689038015 -260.7284592098149 0 0 0 0 154.76851261554839 -39.423227859377221 0 -39.423227859377221 -108.98393166174014 0 0 0 0 144.13195930371285 17.745365661217875 0 17.745365661217875 -108.11021494267334 0 0 0 0 35.754936340075801 -87.098189245305548 0 -87.098189245305548 59.39764792238384 0 0 0 0 14.787188052811871 -86.766159438874183 0 -86.766159438874183 332.83573885045189 0 0 0 0 12.839594306635263 -69.790665469026862 0 -69.790665469026862 195.39943352103728 0 0 0 0 326.03492443391588 60.308495959863649 0 60.308495959863649 -598.46678808424622 0 0 0 0 29.26172211285666 38.272644124233921 0 38.272644124233921 -741.48169381543994 0 0 0 0 -50.970443448390142 -3.0446545796876308 0 -3.0446545796876308 -607.33967207215755 0 0 0 0 -23.593826625148722 -110.73548762862447 0 -110.73548762862447 -754.67986347724946 0 0 0 0 -19.944824125395826 -81.288558178632229 0 -81.288558178632229 -610.99403617218559 0 0 0 0 -23.354085359831515 -79.569481592803641 0 -79.569481592803641 -608.05850981673575 0 0 0 0 -42.832527530896186 -24.43075246718945 0 -24.43075246718945 -627.86927233974711 0 0 0 0 -44.689884599487414 -45.379218386871798 0 -45.379218386871798 -652.43034815465217 0 0 0 0 -61.062938493832917 -36.472514993634832 0 -36.472514993634832 -635.45767347344372 0 0 0 0 -5.695849909876415 -39.076847812779306 0 -39.076847812779306 -683.64029962121276 0 0 0 0 -17.682594430200652 -49.660311665589234 0 -49.660311665589234 -580.85631597666361 0 0 0 0 -15.704816582787316 -31.911969003063859 0 -31.911969003063859 -648.73853675900682 0 0 0 0 -39.044748230607183 -95.951021740167562 0 -95.951021740167562 -495.88329817948397 0 0 0 0 -24.964717987808399 -39.273152465459134 0 -39.273152465459134 -572.76643832323316 0 0 0 0 -23.278690844535276 -62.911087476137254 0 -62.911087476137254 -495.19332748881425 0 0 0 0 -16.412554329646809 14.286444861238124 0 14.286444861238124 -627.04112624574191 0 0 0 0 -6.5560733630882169 -6.0950975101695803 0 -6.0950975101695803 -585.63351354183396 0 0 0 0 -4.1137235940932442 22.374821254012204 0 22.374821254012204 -589.7425878331851 0 0 0 0 22.04915808235819 40.989290260215057 0 40.989290260215057 -715.41174619698904 0 0 0 0 -14.393930178877781 90.313786419668759 0 90.313786419668759 -650.81808666387951 0 0 0 0 -1.7047874213139877 -1.1864886667625001 0 -1.1864886667625001 -1.1936222156223693 0 0 0 0 -5.4070488492361619 -68.382763190313199 0 -68.382763190313199 209.11367120375508 0 0 0 0 -8.0133598715547123 -65.359718042818713 0 -65.359718042818713 207.34248113354624 0 0 0 0 -9.6579626554377924 -19.031391863480316 0 -19.031391863480316 -1.096725761443321 0 0 0 0 24.394193018670194 -33.291787576687057 0 -33.291787576687057 136.95384616815136 0 0 0 0 -124.72744356141993 -36.912601138339596 0 -36.912601138339596 147.85381688959023 0 0 0 0 5.3769558604399208 12.81392713895184 0 12.81392713895184 -711.58475680481934 0 0 0 0 -5.3846656107564783 -19.31124478142678 0 -19.31124478142678 -7.3759150966473825 0 0 0 0 -6.7266203895378567 37.50402442671475 0 37.50402442671475 -459.84206684123274 0 0 0 0 -18.944209109351505 -15.367189945352948 0 -15.367189945352948 149.31021755563779 0 0 0 0 -5.8950696127400164 -2.7704880121579123 0 -2.7704880121579123 3.495974320142917 0 0 0 0 -5.344715003076999 -74.171905996612622 0 -74.171905996612622 51.830972084622772 0 0 0 0 -4.649784306253423 -68.809856272062461 0 -68.809856272062461 58.201339637947967 0 0 0 0 5.0937379174720263 -54.04401080741809 0 -54.04401080741809 76.678949071501847 0 0 0 0 -36.141208602250117 67.584385059828492 0 67.584385059828492 -489.35824801691342 0 0 0 0 -30.3109061773539 9.9091404558930662 0 9.9091404558930662 -538.09832509858825 0 0 0 0 -7.6726721514414749 -29.733359303274483 0 -29.733359303274483 -488.01199145225837 0 0 0 0 -30.562818132912071 -46.563330889526696 0 -46.563330889526696 -469.03473696678702 0 0 0 0 -18.182172775148501 -81.727825619535906 0 -81.727825619535906 -387.91572318097315 0 0 0 0 -8.6998589367267414 -6.275091406343563 0 -6.275091406343563 -450.26627215582994 0 0 0 0 -5.6697617581921804 -37.883703527193575 0 -37.883703527193575 -343.53023625169044 0 0 0 0 13.04565777031803 -47.84387229794811 0 -47.84387229794811 -385.32476858786686 0 0 0 0 -33.693058633130931 -15.244803609559312 0 -15.244803609559312 -318.99805841359012 0 0 0 0 -35.68498773297506 44.911602025440516 0 44.911602025440516 -424.81910430043536 0 0 0 0 -20.026672108389903 -44.853720095041353 0 -44.853720095041353 38.389770807087189 0 0 0 0 -6.1504444621541552 -79.249543553303738 0 -79.249543553303738 56.955092922318727 0 0 0 0 -12.419073873817979 -80.782673990761396 0 -80.782673990761396 63.590387480453046 0 0 0 0 55.007399785075904 -80.687593233260486 0 -80.687593233260486 49.341217773631797 0 0 0 0 -7.9614689006648405 -90.854138511494966 0 -90.854138511494966 104.77414564367791 0 0 0 0 22.382361109899648 -214.29074558581124 0 -214.29074558581124 439.23681554004224 0 0 0 0 2.7736996773364524 -2.7348192961253943 0 -2.7348192961253943 0.12039925292230969 0 0 0 0 -103.68042412684372 73.097249406018818 0 73.097249406018818 408.75813414051663 0 0 0 0 115.20787697953165 -199.97267104415005 0 -199.97267104415005 283.50102759557194 0 0 0 0 -5.6913393694085244 -48.052581359681426 0 -48.052581359681426 6.9848529884911841 0 0 0 0 -8.8912554555645329 -81.616902968889917 0 -81.616902968889917 35.054712773402571 0 0 0 0 -21.054871502037713 -62.203721635069087 0 -62.203721635069087 66.261674479850626 0 0 0 0 -23.14052947140226 -54.225382015069044 0 -54.225382015069044 52.702594103917363 0 0 0 0 -13.811771527274686 -75.378255527755755 0 -75.378255527755755 62.365016314099194 0 0 0 0 -12.504430390101334 -81.645972036092644 0 -81.645972036092644 80.722444930463098 0 0 0 0 35.974658036766414 -163.85195497865243 0 -163.85195497865243 52.677210675523384 0 0 0 0 -29.843776009314752 -130.74511563134001 0 -130.74511563134001 166.52032795236119 0 0 0 0 3.1435624478581303 -103.57731403303478 0 -103.57731403303478 11.249699792933825 0 0 0 0 -12.028172298263598 -29.985803606798981 0 -29.985803606798981 149.78258072397875 0 0 0 0 65.82371420745767 -126.93950422852504 0 -126.93950422852504 -164.20704122820098 0 0 0 0 0.50655767502285443 -1.1648803617104946 0 -1.1648803617104946 0.29295178491688567 0 0 0 0 -5.958611448535521 -213.09741619185297 0 -213.09741619185297 731.56042053775445 0 0 0 0 83.589315406257811 -168.136934685288 0 -168.136934685288 273.70106793623563 0 0 0 0 112.36841525810905 -185.38583426756031 0 -185.38583426756031 264.79835771076978 0 0 0 0 37.129008536682875 -190.46245475674959 0 -190.46245475674959 219.69784022559179 0 0 0 0 19.801856229960322 -177.27220148713604 0 -177.27220148713604 266.95359378773719 0 0 0 0 4.220460931166599 -61.739567331414946 0 -61.739567331414946 188.56029634016886 0 0 0 0 211.01735951528644 -201.24701756671266 0 -201.24701756671266 198.46530326220818 0 0 0 0 237.9957490671768 -273.66063649714124 0 -273.66063649714124 300.28758594595274 0 0 0 0 174.23739184942679 -119.04003141802241 0 -119.04003141802241 134.97765056232311 0 0 0 0 199.01340280921431 -177.4622689212265 0 -177.4622689212265 272.66350037145457 0 0 0 0 93.257465291884728 -178.58053604282759 0 -178.58053604282759 345.55990328852204 0 0 0 0 129.80531514653194 -173.52851373074009 0 -173.52851373074009 193.9164770522766 0 0 0 0 258.52848408432328 -197.35221321106292 0 -197.35221321106292 101.71370079991175 0 0 0 0 84.475764030266873 -176.55909918932957 0 -176.55909918932957 126.83375095601968 0 0 0 0 136.22444455805316 -155.47007014489418 0 -155.47007014489418 52.335562414569722 0 0 0 0 -363.14701803083153 -0.37518012708096649 0 -0.37518012708096649 155.0688335107634 0 0 0 0 -155.92678595611505 65.080727974076581 0 65.080727974076581 107.30284804471739 0 0 0 0 -534.86377864803035 -233.98874646306285 0 -233.98874646306285 329.82835093118047 0 0 0 0 921.81605531378955 -879.01890591027677 0 -879.01890591027677 457.95769359427868 0 0 0 0 -3.5685365133893967 -2.1359129972418032 0 -2.1359129972418032 3.4394465360814621 0 0 0 0 -97.804365568914363 -439.58373776245389 0 -439.58373776245389 728.94215697721302 0 0 0 0 -1188.1805572451958 484.90613174926875 0 484.90613174926875 162.18814101788303 0 0 0 0 -270.63807412023743 -43.803270223481377 0 -43.803270223481377 -83.975664219839018 0 0 0 0 -274.23838163170149 260.8875231014772 0 260.8875231014772 -210.20446097294553 0 0 0 0 -206.61793489853017 34.690462633045627 0 34.690462633045627 -46.440110427105537 0 0 0 0 -300.96916869054348 -132.31574030985848 0 -132.31574030985848 250.2914298040414 0 0 0 0 -106.51743381380948 -230.53978489758447 0 -230.53978489758447 172.10088954640742 0 0 0 0 -10.705222885211697 -224.71330318601758 0 -224.71330318601758 137.08615660524447 0 0 0 0 14.577952856342563 -168.1462175217348 0 -168.1462175217348 221.4321758921069 0 0 0 0 290.4839971271831 -302.29924826542992 0 -302.29924826542992 165.08668669762847 0 0 0 0 -2.7965715652844665 -180.26275930448173 0 -180.26275930448173 269.7589562717767 0 0 0 0 -35.309515306593312 -241.42508375871694 0 -241.42508375871694 169.63428177226888 0 0 0 0 -304.14448471989817 34.679949609173491 0 34.679949609173491 220.22673860861687 0 0 0 0 250.83232656009204 11.347887069803619 0 11.347887069803619 325.82355126897164 0 0 0 0 441.74499112464491 -354.82824174819507 0 -354.82824174819507 217.03373130226828 0 0 0 0 120.32353570361738 -325.76201568554825 0 -325.76201568554825 624.37467018133611 0 0 0 0 0.73763388430644383 -1.3707402561694622 0 -1.3707402561694622 0.80010650845594 0 0 0 0 218.95803264984715 -438.11178563305657 0 -438.11178563305657 521.83480723273897 0 0 0 0 737.24555812730978 -271.56910593648718 0 -271.56910593648718 89.736560236131481 0 0 0 0 0.49640318464864919 -1.8794174164546273 0 -1.8794174164546273 1.5214591196082523 0 0 0 0 313.00078379531624 -181.75478467225548 0 -181.75478467225548 78.348531375828316 0 0 0 0 10.491575585476994 1.964756618701017 0 1.964756618701017 -2.4692601159222249 0 0 0 0 8.7368685292894952 -23.496019947328023 0 -23.496019947328023 42.039368881021801 0 0 0 0 9.2578606562200818 -8.1395506536359647 0 -8.1395506536359647 7.0936546118627746 0 0 0 0 -35.135880399455345 -15.802739274215128 0 -15.802739274215128 8.492626199365759 0 0 0 0 -70.614185514767087 -9.7749564862970146 0 -9.7749564862970146 7.956826553978317 0 0 0 0 -2.679655103426704 -2.7930905908427288 0 -2.7930905908427288 2.3560964670219988 0 0 0 0 148.11001891178603 -224.61805948297115 0 -224.61805948297115 322.72548652071964 0 0 0 0 193.30171195802359 -201.32034367445158 0 -201.32034367445158 232.60156674475365 0 0 0 0 89.76797744013129 -17.251937612288657 0 -17.251937612288657 158.29485727323481 0 0 0 0 69.421031202497034 -47.785257347824881 0 -47.785257347824881 113.06531010481922 0 0 0 0 38.399403004292253 0.1128484663713607 0 0.1128484663713607 118.32436847656572 0 0 0 0 147.80806544708548 -26.625564140649658 0 -26.625564140649658 81.599274033957045 0 0 0 0 151.59999378587236 -58.556856373279516 0 -58.556856373279516 -206.63505099176632 0 0 0 0 90.191067456593373 -318.92720977552199 0 -318.92720977552199 266.48081274443575 0 0 0 0 36.485059907781761 59.75709504102997 0 59.75709504102997 135.647227383688 0 0 0 0 344.21193621240491 -181.76960460095324 0 -181.76960460095324 309.82009836978614 0 0 0 0 551.90235974990355 -513.06842262539794 0 -513.06842262539794 390.8512003051701 0 0 0 0 389.11481284799811 -185.03012589182981 0 -185.03012589182981 151.55717049305531 0 0 0 0 349.27802773022313 -232.24252207370364 0 -232.24252207370364 295.51377196733665 0 0 0 0 -655.5522487319904 165.05771545948573 0 165.05771545948573 74.758382582778722 0 0 0 0 -9.7239905215895419 -5.7652105803286116 0 -5.7652105803286116 8.4091868004791763 0 0 0 0 -160.35500667126689 -98.944771317193954 0 -98.944771317193954 63.755246546563285 0 0 0 0 -273.17330512073386 75.824919751238667 0 75.824919751238667 2.7302801949408604 0 0 0 0 -13.566876408073078 -8.4949408217678801 0 -8.4949408217678801 10.618982395778943 0 0 0 0 604.70083006143977 -444.43563134868236 0 -444.43563134868236 270.5979784796009 0 0 0 0 529.16558781147069 -218.95238118776069 0 -218.95238118776069 161.52470086457379 0 0 0 0 212.13137195508534 -127.84584530147731 0 -127.84584530147731 256.55635256402093 0 0 0 0 207.38722550969396 -148.01526553545227 0 -148.01526553545227 181.16905285972734 0 0 0 0 91.031447295708858 -30.514397916441339 0 -30.514397916441339 128.9219617525996 0 0 0 0 346.23638728861988 -128.49765904541346 0 -128.49765904541346 58.84972430797643 0 0 0 0 85.626654676249018 -171.22585702599099 0 -171.22585702599099 199.30211082586175 0 0 0 0 21.04291607234336 -78.591122570338484 0 -78.591122570338484 66.931276763337337 0 0 0 0 -85.694744941481986 -122.77181819171255 0 -122.77181819171255 -15.53140299174629 0 0 0 0 -104.95178093715822 -124.00048713487104 0 -124.00048713487104 110.95840545159081 0 0 0 0 -94.053323837308199 -85.155153529577547 0 -85.155153529577547 63.257861829752073 0 0 0 0 -48.317034589548712 -29.950037525210064 0 -29.950037525210064 79.413225894649258 0 0 0 0 0.61140159097158175 -87.316344649317216 0 -87.316344649317216 137.78491840920105 0 0 0 0 15.538916136183616 3.90384158143479 0 3.90384158143479 104.6896204307377 0 0 0 0 -56.329457874842774 -21.238871389678025 0 -21.238871389678025 111.73795729126141 0 0 0 0 -58.082059200876756 -9.6821719659974406 0 -9.6821719659974406 53.21063171512651 0 0 0 0 -99.422386026268214 -16.911704503092551 0 -16.911704503092551 84.908314552485535 0 0 0 0 -62.672151828275673 3.9800550688032672 0 3.9800550688032672 72.695094870679895 0 0 0 0 -32.214665525749297 17.439418015113915 0 17.439418015113915 77.044836169603514 0 0 0 0 8.9744085439833725 -30.4237883510541 0 -30.4237883510541 101.70434997123448 0 0 0 0 -82.340051440311072 -22.542845734411458 0 -22.542845734411458 42.393530389792431 0 0 0 0 -69.252758569473372 -58.455468945834582 0 -58.455468945834582 -12.625638664474536 0 0 0 0 -122.33334096383624 -89.379806303206351 0 -89.379806303206351 6.3469420778856147 0 0 0 0 -64.887473030034016 11.271041697204055 0 11.271041697204055 50.935120446796645 0 0 0 0 -85.40785619327653 -12.820900639842876 0 -12.820900639842876 69.087218170059714 0 0 0 0 -74.925151042184552 -9.809731009944926 0 -9.809731009944926 36.10799318068166 0 0 0 0 -78.788771239709604 -36.955339444593847 0 -36.955339444593847 15.956142747803824 0 0 0 0 -106.19716207584861 -43.894588505423599 0 -43.894588505423599 23.991612228233862 0 0 0 0 -107.2686524063356 -51.046293004717882 0 -51.046293004717882 51.242112666998764 0 0 0 0 -107.42834810447494 -89.111190914733015 0 -89.111190914733015 -20.800087951029127 0 0 0 0 -125.124703190726 -67.7567015413224 0 -67.7567015413224 27.266792925955997 0 0 0 0 -111.43052616751447 -111.61813881528906 0 -111.61813881528906 -65.493289953257772 0 0 0 0 -134.55471013375609 -84.414006265249554 0 -84.414006265249554 -13.867211393924663 0 0 0 0 -152.24652418907135 -102.41474253054275 0 -102.41474253054275 -34.06321821383608 0 0 0 0 -160.28642942717124 -172.10809393839827 0 -172.10809393839827 -66.789673500796198 0 0 0 0 -176.89101576144822 -142.66625237535118 0 -142.66625237535118 -16.77084393882285 0 0 0 0 10.005935778843117 -28.739349158001787 0 -28.739349158001787 41.655249749874166 0 0 0 0 -129.16025035021812 -56.892869011349831 0 -56.892869011349831 48.996285321267351 0 0 0 0 -151.54137428459217 -118.62250810332262 0 -118.62250810332262 11.47823392404689 0 0 0 0 -208.61142808815202 -212.99657001354535 0 -212.99657001354535 -52.354378271307723 0 0 0 0 -183.74310969564613 -115.53766555965012 0 -115.53766555965012 1.8256457205825427 0 0 0 0 10.905526990286006 -22.56271000131656 0 -22.56271000131656 39.722436419452436 0 0 0 0 -34.575566841616819 -69.265997866844373 0 -69.265997866844373 26.113392961111856 0 0 0 0 -0.29445078083881526 -116.44796724622074 0 -116.44796724622074 -91.935580095811929 0 0 0 0 1.0111778779755696 -45.196662546952666 0 -45.196662546952666 -43.125257659094132 0 0 0 0 -14.229305647841102 -54.728240325025581 0 -54.728240325025581 25.872945449113104 0 0 0 0 47.571111977737019 -5.6497997584519908 0 -5.6497997584519908 23.198714370556445 0 0 0 0 -111.43052616756177 -111.61813881529088 0 -111.61813881529088 -65.493289953261865 0 0 0 0 -133.65972767335006 -163.15146284037064 0 -163.15146284037064 -283.73100127420003 0 0 0 0 -101.35372993436977 -94.401808014642484 0 -94.401808014642484 -137.9789221972469 0 0 0 0 -44.846289882025303 -74.905974442037405 0 -74.905974442037405 -9.0783469754651378 0 0 0 0 -32.741226059479231 -78.188245910090018 0 -78.188245910090018 -181.82822079353173 0 0 0 0 -141.96913925236731 -78.324580293902727 0 -78.324580293902727 -28.190335626551587 0 0 0 0 -200.64980487282037 -11.815945184477243 0 -11.815945184477243 37.18586028304162 0 0 0 0 -73.450599787774991 -4.1134599274455468 0 -4.1134599274455468 -45.000434031715713 0 0 0 0 -9.6630434173857793 -49.925745258919505 0 -49.925745258919505 -21.098374830453395 0 0 0 0 -14.635807218403158 47.625808313000405 0 47.625808313000405 102.20280234109123 0 0 0 0 -5.7277126991686984 -18.640103861009727 0 -18.640103861009727 32.727934838881382 0 0 0 0 -35.611439821530439 -58.621076966306646 0 -58.621076966306646 -47.342660854283167 0 0 0 0 13.902979926182951 -26.813990718962998 0 -26.813990718962998 6.6434395867725158 0 0 0 0 -14.864941612779511 -32.784370720977137 0 -32.784370720977137 15.110447770742354 0 0 0 0 -35.393323922653508 24.60542540659344 0 24.60542540659344 117.1888346491462 0 0 0 0 -102.57159899196813 -73.547185665888264 0 -73.547185665888264 72.81776397390513 0 0 0 0 21.747784167721932 -17.47519544270483 0 -17.47519544270483 4.4305718748668284 0 0 0 0 -106.58542427650173 -92.515518318839895 0 -92.515518318839895 -24.477094894424226 0 0 0 0 -8.9658185608190593 -18.67884630524469 0 -18.67884630524469 37.162922811524666 0 0 0 0 -102.63203325467475 -135.10128783455912 0 -135.10128783455912 -51.871525218495663 0 0 0 0 -111.43052616750356 -111.6181388152545 0 -111.6181388152545 -65.493289953272324 0 0 0 0 -51.140532334851741 -77.63439021749582 0 -77.63439021749582 -73.49351636285428 0 0 0 0 28.129630008035747 -30.096131685521414 0 -30.096131685521414 -46.658902531684816 0 0 0 0 34.048123123659025 43.998676342203908 0 43.998676342203908 83.491078171639856 0 0 0 0 -57.180072131566703 -101.16867311613532 0 -101.16867311613532 -23.580451574736799 0 0 0 0 -48.420306363990676 -67.800370833376292 0 -67.800370833376292 -37.052500633995351 0 0 0 0 -64.265219970628095 -26.313023703621639 0 -26.313023703621639 56.226702180807479 0 0 0 0 -56.365228544049643 -34.777722308141982 0 -34.777722308141982 -4.3905785440621514 0 0 0 0 -81.23132090857689 -92.022763829581891 0 -92.022763829581891 11.592890911280847 0 0 0 0 -154.55617203248494 -180.20082373807236 0 -180.20082373807236 -74.030950754012338 0 0 0 0 -2.3977288875962053 -1.7779517531637339 0 -1.7779517531637339 -0.29472233500660039 0 0 0 0 16.691086224031778 -27.602645459136511 0 -27.602645459136511 -313.32224706703346 0 0 0 0 9.2467959460841485 -31.934479203947376 0 -31.934479203947376 -203.67990638903575 0 0 0 0 -40.2832467685148 -77.678036431774672 0 -77.678036431774672 -23.630106728815008 0 0 0 0 -44.867834531252811 -60.39044609134362 0 -60.39044609134362 -25.750279493297967 0 0 0 0 -34.946627170617639 -38.320270827210734 0 -38.320270827210734 0.3128035457624776 0 0 0 0 -6.99100528918839 -18.948752999570488 0 -18.948752999570488 6.5066020216621325 0 0 0 0 -38.569433615874914 82.528147419823654 0 82.528147419823654 -39.445000596933824 0 0 0 0 5.3940273180199974 -10.231019311944479 0 -10.231019311944479 20.171081134381524 0 0 0 0 -2.8608736215956014 -75.621001961400907 0 -75.621001961400907 -12.39502472402819 0 0 0 0 -132.47315685383819 -151.56279819962947 0 -151.56279819962947 16.933871339228062 0 0 0 0 -31.104523111707749 -152.08594799934872 0 -152.08594799934872 -125.01549627071563 0 0 0 0 -81.194376225325868 -92.27932340138068 0 -92.27932340138068 49.340192350377038 0 0 0 0 -52.924340009288244 -101.47298397084342 0 -101.47298397084342 32.415408850647509 0 0 0 0 -80.847778573822325 -82.504193675973511 0 -82.504193675973511 -12.709201998506614 0 0 0 0 -85.282245754917767 -101.01300314725631 0 -101.01300314725631 39.724299655637878 0 0 0 0 -11.305635815982896 -37.874336216671509 0 -37.874336216671509 35.739806421597677 0 0 0 0 -181.92702943071981 -66.599773492001987 0 -66.599773492001987 52.772571527784748 0 0 0 0 -0.52200268430306096 -78.257199571959063 0 -78.257199571959063 24.846731909696246 0 0 0 0 -39.53420651778697 22.097790620325213 0 22.097790620325213 52.710870648981654 0 0 0 0 -115.21457835402089 -75.726488029746633 0 -75.726488029746633 93.298208409323706 0 0 0 0 -90.635767983163532 -21.496531343189417 0 -21.496531343189417 162.21358017922876 0 0 0 0 -27.938159618250211 -56.09525753491107 0 -56.09525753491107 33.164482770276663 0 0 0 0 -17.418304688699209 -47.746091109475856 0 -47.746091109475856 36.457480354714789 0 0 0 0 -0.33809398204357421 -75.58610008321557 0 -75.58610008321557 74.244011137999223 0 0 0 0 8.0382645945716149 -4.8734566601378901 0 -4.8734566601378901 65.602605602398398 0 0 0 0 -27.423122688918738 -8.4129514124615525 0 -8.4129514124615525 -5.7395351906743599 0 0 0 0 -60.370357334544678 -59.863941436000459 0 -59.863941436000459 24.613962678082316 0 0 0 0 386.86767179117942 -131.62881428645233 0 -131.62881428645233 -41.232060803034983 0 0 0 0 63.060710421690601 -214.83026155197877 0 -214.83026155197877 -124.08839148789411 0 0 0 0 -0.07082756045937888 -0.40403137493345387 0 -0.40403137493345387 0.70799801333768642 0 0 0 0 -81.226070565161422 88.218200717936725 0 88.218200717936725 -81.478796111849078 0 0 0 0 -305.60815558280137 62.072996880790015 0 62.072996880790015 60.088484365747718 0 0 0 0 238.75324329319847 16.633112016972518 0 16.633112016972518 44.352474950712349 0 0 0 0 125.73359267513661 -95.394560318316508 0 -95.394560318316508 78.425108576440834 0 0 0 0 70.357716615317258 -36.427496572418022 0 -36.427496572418022 47.544604774026084 0 0 0 0 240.68274407002536 -206.51890340748014 0 -206.51890340748014 35.929431413751445 0 0 0 0 80.425936943276611 -176.69709236992639 0 -176.69709236992639 112.3661196697285 0 0 0 0 -15.828339704610698 61.861877345036191 0 61.861877345036191 -9.8155166434298735 0 0 0 0 -75.943457023320661 -17.067994949451531 0 -17.067994949451531 76.517090839678076 0 0 0 0 101.13980775094024 -86.606198890200176 0 -86.606198890200176 72.611037957122335 0 0 0 0 8.3207740058496711 3.4369684495504771 0 3.4369684495504771 37.165892573641031 0 0 0 0 180.88957599913556 -33.610562893834867 0 -33.610562893834867 40.892494621570222 0 0 0 0 16.779283259487784 3.8304984586648061 0 3.8304984586648061 20.286237584557966 0 0 0 0 49.235102910864953 -3.4283501907921163 0 -3.4283501907921163 9.3771173663990339 0 0 0 0 97.185194002058779 -68.568397952352825 0 -68.568397952352825 54.818443386864601 0 0 0 0 101.07453794351022 -61.319098446183489 0 -61.319098446183489 39.421941171604885 0 0 0 0 7.3731571241150959 -39.515565389468975 0 -39.515565389468975 43.948180828767363 0 0 0 0 3.7165336358375498 -57.504174102032266 0 -57.504174102032266 -28.927175311830069 0 0 0 0 -36.195401727596618 -30.198355795895623 0 -30.198355795895623 -45.144000509269972 0 0 0 0 -36.039496824614616 -23.737359480641317 0 -23.737359480641317 -17.589115665701684 0 0 0 0 13.513966279049782 -28.663961867503531 0 -28.663961867503531 12.327614415700509 0 0 0 0 -16.922115360341195 -2.7147957732886425 0 -2.7147957732886425 -4.3427528996107867 0 0 0 0 -61.206351238850857 -79.376360403489343 0 -79.376360403489343 -64.832367898787197 0 0 0 0 -28.070617855330056 -21.666401038957702 0 -21.666401038957702 -74.295072601678839 0 0 0 0 -45.510681498268241 -4.0369479967703228 0 -4.0369479967703228 -39.921562996583816 0 0 0 0 -13.510056905439271 -3.4492226029110356 0 -3.4492226029110356 -0.55410344830317548 0 0 0 0 -67.719105718291758 -14.079254137443058 0 -14.079254137443058 5.8199685448380478 0 0 0 0 -71.821987824846474 -36.674743284209399 0 -36.674743284209399 -30.316820288688177 0 0 0 0 6.1787497012464883 3.4035400812317675 0 3.4035400812317675 -32.383231523490394 0 0 0 0 -20.917994653755159 -27.587119158102723 0 -27.587119158102723 -30.796731031476611 0 0 0 0 8.5289329283586994 36.515284849396267 0 36.515284849396267 -40.25972755246039 0 0 0 0 -10.85629347122017 -3.2182318797082701 0 -3.2182318797082701 -0.43232047903630288 0 0 0 0 -5.5519930483133066 22.621292618525331 0 22.621292618525331 14.099209425244908 0 0 0 0 -7.3918365170029574 12.420481106993975 0 12.420481106993975 -24.784172741186921 0 0 0 0 -15.646218973168288 13.352346478146501 0 13.352346478146501 -16.740498743895387 0 0 0 0 -35.431080999598635 -11.960218513719155 0 -11.960218513719155 -34.292475916139665 0 0 0 0 -10.529826758402123 15.303743637854495 0 15.303743637854495 -22.506276004656684 0 0 0 0 -47.507227003305161 9.7055721363813063 0 9.7055721363813063 22.281696536116215 0 0 0 0 -84.71306288674873 -104.83991561803805 0 -104.83991561803805 -106.69418513090932 0 0 0 0 25.291357360583788 66.643276080932992 0 66.643276080932992 -156.34771806429126 0 0 0 0 -2.8491120658582076 -0.67813857252622256 0 -0.67813857252622256 -119.41627182078446 0 0 0 0 -12.474125163601947 -22.574626921111943 0 -22.574626921111943 -7.3953987438652895 0 0 0 0 24.561855343643401 126.92832715875556 0 126.92832715875556 -214.77623376890733 0 0 0 0 -54.278416741002729 -21.921966488826001 0 -21.921966488826001 -40.251225352149049 0 0 0 0 -27.660759700840572 6.2381090102389862 0 6.2381090102389862 37.347540602411755 0 0 0 0 -61.416542507740814 30.587126948415971 0 30.587126948415971 37.190239274019405 0 0 0 0 -1.0833241620345007 78.762157595434815 0 78.762157595434815 -53.94777098720806 0 0 0 0 -16.394265270075266 33.389836210775684 0 33.389836210775684 78.685570782550712 0 0 0 0 -59.512073618881914 36.571954523106797 0 36.571954523106797 53.317333929837332 0 0 0 0 -53.721428070304682 11.177409742809687 0 11.177409742809687 27.876241650708835 0 0 0 0 -58.320414101090137 9.6986949530000857 0 9.6986949530000857 29.562392603191256 0 0 0 0 -40.106634872179711 2.3819996762540541 0 2.3819996762540541 25.620218637501239 0 0 0 0 -62.052179169222654 7.4392205449112225 0 7.4392205449112225 46.433638744001655 0 0 0 0 -53.699306450256699 11.769939626710652 0 11.769939626710652 40.768502225197153 0 0 0 0 -22.157515528058866 -15.280385636957362 0 -15.280385636957362 39.527643437689221 0 0 0 0 -71.381585425122466 -7.5104587311034265 0 -7.5104587311034265 42.808971808524802 0 0 0 0 -50.398153803474997 -34.543060983895884 0 -34.543060983895884 46.612032511780853 0 0 0 0 -76.088081638390577 -51.042832539384108 0 -51.042832539384108 88.407351972060496 0 0 0 0 -23.955560940768919 -42.32985332600947 0 -42.32985332600947 42.245313161258309 0 0 0 0 -41.630103325079475 -28.618889857378456 0 -28.618889857378456 -9.0654289612922447 0 0 0 0 -6.7627211881139857 -3.1005978227524338 0 -3.1005978227524338 -0.41716049362035079 0 0 0 0 -54.654170134213928 -80.521542950860749 0 -80.521542950860749 -147.61622990832211 0 0 0 0 25.645642846529881 88.607443370605324 0 88.607443370605324 -237.60981901485138 0 0 0 0 -25.66138014419343 -25.613615850904026 0 -25.613615850904026 -7.8319228394525595 0 0 0 0 20.812309504326549 -124.42312391792075 0 -124.42312391792075 -403.55686517760205 0 0 0 0 35.539190679784951 335.27576953464086 0 335.27576953464086 898.27668677150723 0 0 0 0 1.0446396684419597 -328.09297638114549 0 -328.09297638114549 -287.859907215563 0 0 0 0 0.0012471723506735088 -0.15268957405424999 0 -0.15268957405424999 -7.653484470683324 0 0 0 0 -636.3467642472242 -535.25135006464188 0 -535.25135006464188 61.141858344222783 0 0 0 0 58.568213898128306 -70.641652265183438 0 -70.641652265183438 -293.59681494964661 0 0 0 0 67.432119565084577 13.689361923382421 0 13.689361923382421 -43.552765178523259 0 0 0 0 19.978556417820073 -72.32985705968531 0 -72.32985705968531 -3.4740688908968878 0 0 0 0 69.049647130350422 -186.40536646644614 0 -186.40536646644614 -192.42752843080598 0 0 0 0 51.589999216372235 -242.02119229594155 0 -242.02119229594155 -363.55418652278604 0 0 0 0 -283.96294554857741 -350.79968149185879 0 -350.79968149185879 -46.760984839613229 0 0 0 0 7.1785974438553239 -62.75698633437878 0 -62.75698633437878 -95.270924774053128 0 0 0 0 -93.983858852730918 20.820092540394398 0 20.820092540394398 344.5992574250613 0 0 0 0 -59.522080022245063 -276.60541241462124 0 -276.60541241462124 -1146.0831731682138 0 0 0 0 -7.7530082669013893 -21.393016983475633 0 -21.393016983475633 -4.3473530687363109 0 0 0 0 -70.474184299266199 213.62435873175855 0 213.62435873175855 -876.55044395324512 0 0 0 0 -116.65967454623751 -47.222109999245731 0 -47.222109999245731 442.03866980157181 0 0 0 0 1.3482648510813817 -2.9651752731707717 0 -2.9651752731707717 -7.3597347988610551 0 0 0 0 350.2978510228204 -135.82561466693005 0 -135.82561466693005 -2605.9409106544945 0 0 0 0 1.4872561819740895 -8.2350451633305681 0 -8.2350451633305681 4.7716503639842927 0 0 0 0 -14.280984088327386 -16.933512891213468 0 -16.933512891213468 10.797872455856123 0 0 0 0 -355.09664429733311 -445.040748444977 0 -445.040748444977 -1886.3189271439478 0 0 0 0 -313.22478354917757 25.78919878265242 0 25.78919878265242 424.96052255939503 0 0 0 0 67.661970831406506 293.07545318512985 0 293.07545318512985 471.23534658834615 0 0 0 0 1.6565452447394335 -0.97286810006539781 0 -0.97286810006539781 2.5882813213302143 0 0 0 0 -0.039461765270971227 -20.364275259169517 0 -20.364275259169517 -12.826561685003981 0 0 0 0 -7.3193455799191725 -12.261956451598962 0 -12.261956451598962 -10.879751750610922 0 0 0 0 0.023489651751825713 -23.288648643139144 0 -23.288648643139144 0.96689306428015698 0 0 0 0 -6.3590052464627433 -4.6278625125821193 0 -4.6278625125821193 -1.6397473557553344 0 0 0 0 -13.804488184294314 -22.29624149735173 0 -22.29624149735173 14.749400060536573 0 0 0 0 0.20239943127671722 -999.13711956096449 0 -999.13711956096449 -1657.2609232416016 0 0 0 0 -451.68850249281968 -794.49532819790875 0 -794.49532819790875 -0.78617705513988767 0 0 0 0 -170.31584181625658 -210.26928556644634 0 -210.26928556644634 -1623.9642321591018 0 0 0 0 52.631172401852382 -460.94489874686224 0 -460.94489874686224 -1508.7377948867361 0 0 0 0 -298.70432860696019 -195.36280985418216 0 -195.36280985418216 -364.76126070334431 0 0 0 0 -0.87282781451159508 -2.6429099105433522 0 -2.6429099105433522 -1.9346198430923094 0 0 0 0 1.7626869534433354 -1264.1664121303147 0 -1264.1664121303147 -1577.6037305374766 0 0 0 0 -241.67495446353314 -1003.1009276406076 0 -1003.1009276406076 -235.29176946759981 0 0 0 0 -157.61518005703692 -897.95322612271411 0 -897.95322612271411 -336.74180366216024 0 0 0 0 -174.70390798728658 -559.32493480038283 0 -559.32493480038283 -548.47451486534555 0 0 0 0 -208.46161021999433 -762.76393411021854 0 -762.76393411021854 -689.15261945498787 0 0 0 0 -22.400598922526115 -557.19654632198217 0 -557.19654632198217 -1628.3565984068264 0 0 0 0 -0.88580592057914487 -3.0241499695676453 0 -3.0241499695676453 -1.4718441485850864 0 0 0 0 -159.43688907910837 -304.81622967913881 0 -304.81622967913881 -1089.2540652743919 0 0 0 0 61.310460495442385 -27.32070695873881 0 -27.32070695873881 -696.48411209504411 0 0 0 0 -156.10879296762141 -709.74277839018396 0 -709.74277839018396 -1327.3238636860915 0 0 0 0 -82.423070493947307 -451.21862507385595 0 -451.21862507385595 -771.15515113447145 0 0 0 0 -71.193298151611089 -343.22495677593542 0 -343.22495677593542 -394.61425828235224 0 0 0 0 -193.0763470922393 -293.33163536021129 0 -293.33163536021129 -192.15389254454203 0 0 0 0 -34.489871641908394 15.228534849193238 0 15.228534849193238 -285.01078527369737 0 0 0 0 -440.3115745346804 -519.14550287948805 0 -519.14550287948805 -152.21778725698096 0 0 0 0 -196.30781775652122 -381.96646057842145 0 -381.96646057842145 -259.36014368136966 0 0 0 0 -226.84724865396129 -681.59590617584399 0 -681.59590617584399 -261.80514782156388 0 0 0 0 -168.91733766282414 -492.62677086358235 0 -492.62677086358235 -483.93106806885044 0 0 0 0 -295.96903000668681 -755.8749448060953 0 -755.8749448060953 -316.92536734590612 0 0 0 0 -617.40279400326835 -494.20868654741025 0 -494.20868654741025 -319.18530172573315 0 0 0 0 -266.52539754300233 -580.67029077160078 0 -580.67029077160078 -909.71503187387862 0 0 0 0 -3.1463691680505406 -2.6106015196579904 0 -2.6106015196579904 0.013542337651925251 0 0 0 0 -40.56539443579095 195.36694578001698 0 195.36694578001698 329.38921271719755 0 0 0 0 -149.87975247877785 -282.81782050878519 0 -282.81782050878519 -250.60140546343609 0 0 0 0 -6.3280434443318683 -5.0031412784561837 0 -5.0031412784561837 0.76031274196556708 0 0 0 0 -154.58089298542063 -172.2959834990952 0 -172.2959834990952 341.48357704074442 0 0 0 0 -25.907516486498935 -86.321574514548047 0 -86.321574514548047 127.13811484623875 0 0 0 0 72.380747688745032 -141.26718830718528 0 -141.26718830718528 -20.722979793608829 0 0 0 0 1.12731493344711 -3.243958175625778 0 -3.243958175625778 0.29277653407300441 0 0 0 0 0.51675154090310116 -1.6922865139926557 0 -1.6922865139926557 0.21399039897538152 0 0 0 0 -136.75919485091435 -87.907318126915925 0 -87.907318126915925 350.40670989621287 0 0 0 0 84.267689639906166 -50.650234910324798 0 -50.650234910324798 -112.60998950355861 0 0 0 0 -5.9182045777415624 -10.833463280141586 0 -10.833463280141586 -122.75759438705609 0 0 0 0 15.303993934350729 -44.475962981090561 0 -44.475962981090561 -87.260556696914136 0 0 0 0 51.316287642570387 -80.69190042716582 0 -80.69190042716582 -158.05305559308908 0 0 0 0 -34.744228352356004 -4.3432523946539732 0 -4.3432523946539732 -194.84944066893513 0 0 0 0 12.979862292586404 -86.491882688879741 0 -86.491882688879741 -183.39317742954154 0 0 0 0 34.735854613830497 -72.381506398509259 0 -72.381506398509259 0.067490499895939138 0 0 0 0 -3.2367524424626026 -144.38032030634895 0 -144.38032030634895 171.68437350268186 0 0 0 0 24.619367156923545 -66.371620452509887 0 -66.371620452509887 -252.80316595889235 0 0 0 0 -4.7628541005564955 -26.202263058607173 0 -26.202263058607173 -6.065898035059984 0 0 0 0 54.863410513020426 11.476448584937316 0 11.476448584937316 -359.12340314060566 0 0 0 0 -111.48642889344046 -144.46505489409901 0 -144.46505489409901 297.21170889683617 0 0 0 0 -80.062785903683107 -80.029690620593101 0 -80.029690620593101 -462.80657044873078 0 0 0 0 -8.3498857204389196 -24.195736775091028 0 -24.195736775091028 -5.6924958929589202 0 0 0 0 58.339745284112723 -168.84610142266956 0 -168.84610142266956 -148.01685039647418 0 0 0 0 7.0302062072623812 61.363033044819531 0 61.363033044819531 -263.31351079747765 0 0 0 0 -3.7261499536180054 -143.83633184043902 0 -143.83633184043902 101.33666537919999 0 0 0 0 10.788948312401772 -165.05642704474667 0 -165.05642704474667 -199.13127765822537 0 0 0 0 0.64925044959385048 -1.9564946390615834 0 -1.9564946390615834 -3.1109332943516819 0 0 0 0 33.476315652475023 -13.211875074537602 0 -13.211875074537602 -84.436963383508555 0 0 0 0 44.544919396314071 -41.362195361483828 0 -41.362195361483828 -16.601991371906479 0 0 0 0 36.965300490294339 -62.564227714133949 0 -62.564227714133949 -50.911110642686253 0 0 0 0 66.345000803863513 -57.357653073884649 0 -57.357653073884649 -53.382472398467144 0 0 0 0 16.312882389545848 -34.180019592164172 0 -34.180019592164172 -30.499715120731253 0 0 0 0 20.551146518693713 -49.821559424746738 0 -49.821559424746738 -30.588448802065159 0 0 0 0 43.559836737480509 -45.338832317864217 0 -45.338832317864217 -29.92314006455581 0 0 0 0 26.776161313699959 -40.605305530144051 0 -40.605305530144051 -5.8544295565807261 0 0 0 0 33.597882067123109 -22.254142130950264 0 -22.254142130950264 -4.7530565163958727 0 0 0 0 27.084437934070593 -41.896879252992221 0 -41.896879252992221 -28.011350315662639 0 0 0 0 281.90170863651429 226.9873448205517 0 226.9873448205517 -237.74416817652673 0 0 0 0 61.653876880054668 -258.17849894507162 0 -258.17849894507162 -394.77070171839478 0 0 0 0 -87.859463921241058 94.940411645106451 0 94.940411645106451 45.652266681303445 0 0 0 0 175.93315093995989 88.624712287644797 0 88.624712287644797 33.501750995246766 0 0 0 0 33.093761527841636 -17.267685955081845 0 -17.267685955081845 -18.625856734040283 0 0 0 0 2.225897255160433 -29.987673625412434 0 -29.987673625412434 -7.0144754934591464 0 0 0 0 8.440008533112632 -43.741040880840956 0 -43.741040880840956 -40.009480274431553 0 0 0 0 -2.0724142556173319 -66.392782170016289 0 -66.392782170016289 -107.31934935862591 0 0 0 0 67.772758811195672 -11.669375407282132 0 -11.669375407282132 -61.424209725129913 0 0 0 0 45.599225645463591 -15.790449073024064 0 -15.790449073024064 -7.9398102174941076 0 0 0 0 -93.0921333680526 -9.231563571605875 0 -9.231563571605875 213.93408369359531 0 0 0 0 7.6135912926238447 -3.7848012980169301 0 -3.7848012980169301 -9.5729801316322209 0 0 0 0 -2.9222318913778125 1.153860116603596 0 1.153860116603596 2.5633041213743581 0 0 0 0 12.684855066290766 -53.316168541352454 0 -53.316168541352454 -104.10845463921578 0 0 0 0 -14.071830823373602 -68.048997509064066 0 -68.048997509064066 -105.58073035728239 0 0 0 0 -0.19703112251227139 -78.996153619202232 0 -78.996153619202232 -133.10020913201515 0 0 0 0 7.1325466739945114 -63.275644214321801 0 -63.275644214321801 -113.31304954815641 0 0 0 0 -3.4543768462026492 -41.103534869202122 0 -41.103534869202122 -154.82021382506355 0 0 0 0 -1.2460983737682199 -26.313540968571218 0 -26.313540968571218 -6.2096579418857782 0 0 0 0 37.873970221313357 -42.982769526970515 0 -42.982769526970515 -251.87568999717223 0 0 0 0 10.177537021503667 -44.735020956421067 0 -44.735020956421067 -134.81803125662191 0 0 0 0 -102.49125724711848 -94.882267970629073 0 -94.882267970629073 -0.51567865709694161 0 0 0 0 25.899891070894228 -87.551320580039828 0 -87.551320580039828 -130.46165975910117 0 0 0 0 34.928862616018705 -107.7309777354003 0 -107.7309777354003 -75.897744142690499 0 0 0 0 7.7825490643153898 -62.544012493290211 0 -62.544012493290211 -88.314731150954685 0 0 0 0 0.80343055367094962 -3.32611662133057 0 -3.32611662133057 0.19984724412386257 0 0 0 0 -3.2944865941572061 -50.365437005337299 0 -50.365437005337299 -76.408779980469262 0 0 0 0 25.223605128398049 -49.365525912890007 0 -49.365525912890007 -95.486159795986168 0 0 0 0 15.966219767571602 -13.574451360367675 0 -13.574451360367675 -7.1038124124952446 0 0 0 0 72.936885410505056 17.069483008377574 0 17.069483008377574 28.268087080793293 0 0 0 0 0.53619247391543468 -31.299714525637683 0 -31.299714525637683 -95.669122391420842 0 0 0 0 -52.342922504720264 -55.879021924692097 0 -55.879021924692097 232.31856076310578 0 0 0 0 10.886572829615034 -20.937312367768754 0 -20.937312367768754 129.30345057020168 0 0 0 0 -5.8218719071022917 -6.3307306539517185 0 -6.3307306539517185 1.1273494746897477 0 0 0 0 -11.366616114956742 -40.382243840082992 0 -40.382243840082992 38.657876012861379 0 0 0 0 -9.6628100057168922 -47.473207221399207 0 -47.473207221399207 -48.938503104203846 0 0 0 0 -4.2790928313025915 -7.0895171106089521 0 -7.0895171106089521 1.3034915335956452 0 0 0 0 14.829178012580087 -19.718334566263366 0 -19.718334566263366 126.08885194776167 0 0 0 0 -37.769624491860668 -17.968168800636704 0 -17.968168800636704 202.46861692415041 0 0 0 0 0.1709067783127125 -2.2707285924388145 0 -2.2707285924388145 0.10013176725772954 0 0 0 0 -7.6046446472937532 -37.725351437526115 0 -37.725351437526115 -170.86839304145906 0 0 0 0 14.863370084200142 -57.272577861203899 0 -57.272577861203899 -204.90390452922293 0 0 0 0 -7.3926918269680755 -31.841027356142149 0 -31.841027356142149 -106.40986257279292 0 0 0 0 9.6323679246456777 -68.492367480180746 0 -68.492367480180746 -140.9534208249388 0 0 0 0 -1.3893867301412683 -46.808548533244903 0 -46.808548533244903 -162.34794351159508 0 0 0 0 -51.62385118088423 -124.47598767553609 0 -124.47598767553609 -190.26523325217568 0 0 0 0 10.563188588104822 -24.828361849130488 0 -24.828361849130488 -131.00622451992967 0 0 0 0 57.489328295385349 -30.722925618596491 0 -30.722925618596491 -153.30187147710967 0 0 0 0 54.984442680834036 -4.5426330067239178 0 -4.5426330067239178 -111.37014683620873 0 0 0 0 12.464615308743305 -38.797585603437255 0 -38.797585603437255 -36.364868134107383 0 0 0 0 25.483720436841395 -2.1914977909927984 0 -2.1914977909927984 -97.108718548104662 0 0 0 0 3.0980380663022515 -78.487134453695035 0 -78.487134453695035 -138.16027003621093 0 0 0 0 11.106659162087453 -37.263145785320376 0 -37.263145785320376 -21.046295370353619 0 0 0 0 40.419059735257179 -63.782060993697087 0 -63.782060993697087 40.36980838287127 0 0 0 0 -2.9178747686002851 -7.3928936822186415 0 -7.3928936822186415 0.26913553420456537 0 0 0 0 -3.2802581730065867 -3.0478021520539187 0 -3.0478021520539187 26.969055765315716 0 0 0 0 10.592838054013555 -37.120059170287277 0 -37.120059170287277 63.460799084358769 0 0 0 0 76.629250053609212 -47.888493997545083 0 -47.888493997545083 0.1780274149714387 0 0 0 0 -0.97269495640742321 -0.07544879921371006 0 -0.07544879921371006 1.4412354673922891 0 0 0 0 -2.5643025081626547 -13.454609936314228 0 -13.454609936314228 21.32556227742316 0 0 0 0 30.002032327100096 -37.767737039874191 0 -37.767737039874191 -22.179354998923372 0 0 0 0 0.075692163344399432 -5.4610848112379777 0 -5.4610848112379777 -7.849442613039102 0 0 0 0 181.63457127735819 -143.01998260504115 0 -143.01998260504115 51.033202251934199 0 0 0 0 1.5637798162451872 -10.359081691715801 0 -10.359081691715801 -26.657571121540968 0 0 0 0 166.29871944159095 -135.82151098712711 0 -135.82151098712711 94.377403325469913 0 0 0 0 -0.64734097238397226 -15.86240060540149 0 -15.86240060540149 71.755687333687092 0 0 0 0 -0.18331662070919208 -1.3879838751346227 0 -1.3879838751346227 -1.5400927858968814 0 0 0 0 158.71270502103653 -106.95562237554623 0 -106.95562237554623 40.29613572132439 0 0 0 0 138.31952105579694 -66.404292252245796 0 -66.404292252245796 -54.925464272444515 0 0 0 0 128.86298457339944 -103.50985732470508 0 -103.50985732470508 53.587369601867977 0 0 0 0 114.0668634509675 -69.436213952640173 0 -69.436213952640173 37.642534284561407 0 0 0 0 163.21683100502923 -98.106421764015977 0 -98.106421764015977 10.52672229307791 0 0 0 0 40.712430552597198 -132.68182675230491 0 -132.68182675230491 55.98924167547375 0 0 0 0 177.64276722181421 -112.80411154948524 0 -112.80411154948524 -15.842260409532173 0 0 0 0 175.07212963808161 -220.79969779600651 0 -220.79969779600651 153.49116112203774 0 0 0 0 0.26871431844629967 -3.9963327766869483 0 -3.9963327766869483 -6.8667541310658748 0 0 0 0 22.735374667800443 23.914364486390696 0 23.914364486390696 -126.04107349548576 0 0 0 0 21.923368653384387 5.6735007762981695 0 5.6735007762981695 -110.60531419525432 0 0 0 0 -15.72516785879634 119.04128366812802 0 119.04128366812802 -273.71827617063536 0 0 0 0 30.198060787368377 -87.648663324581321 0 -87.648663324581321 -171.52094057668728 0 0 0 0 33.794132977899224 -16.967413750569563 0 -16.967413750569563 -4.1975901350685234 0 0 0 0 -7.2951291693916573 -38.502860592016077 0 -38.502860592016077 40.730054207037028 0 0 0 0 65.645805723412195 -47.426511290193957 0 -47.426511290193957 -111.25495800108183 0 0 0 0 44.192609254761919 6.0692859548798879 0 6.0692859548798879 -127.1663678559562 0 0 0 0 57.306757895620649 -25.275709253203786 0 -25.275709253203786 -89.799649140433758 0 0 0 0 50.651096116991539 -12.615197951836308 0 -12.615197951836308 -76.021721422257542 0 0 0 0 124.5745194664305 54.421168300261343 0 54.421168300261343 -61.866311219593626 0 0 0 0 48.16061015321975 -9.3866218549919722 0 -9.3866218549919722 -41.687378291459936 0 0 0 0 39.686475958693336 -46.606698435785802 0 -46.606698435785802 -26.145648427147535 0 0 0 0 37.702838597574484 -14.481782882630696 0 -14.481782882630696 -3.1933729134081368 0 0 0 0 -62.014790416862525 -133.64749699740059 0 -133.64749699740059 132.59900146331347 0 0 0 0 77.192776941383272 -2.3675302375140745 0 -2.3675302375140745 -226.04389892957988 0 0 0 0 58.040700233535972 81.651679752470955 0 81.651679752470955 -15.300605331343831 0 0 0 0 -120.97112831350751 20.441626264338993 0 20.441626264338993 -364.53367948646701 0 0 0 0 -10.622563271468835 -161.53226141191408 0 -161.53226141191408 -247.92837828421762 0 0 0 0 4.7012662917350099 -33.040257867400214 0 -33.040257867400214 -230.38203800203701 0 0 0 0 84.763202558703597 -144.34769869260708 0 -144.34769869260708 -738.07561813969733 0 0 0 0 173.26241617633423 -19.404183167402152 0 -19.404183167402152 -866.13140470116923 0 0 0 0 214.59303689123772 231.22712022316773 0 231.22712022316773 -139.1550162089934 0 0 0 0 -1.1365151900399688 1.370164882877333 0 1.370164882877333 -3.6794310427865753 0 0 0 0 -486.37630150827135 -684.17250963351398 0 -684.17250963351398 -857.69005708656914 0 0 0 0 -363.16462945424792 -386.37020374919302 0 -386.37020374919302 -367.57927376191947 0 0 0 0 115.3869862211759 -58.392994913840084 0 -58.392994913840084 3.3591599416749887 0 0 0 0 5.8764786653314935 1.7602893059482341 0 1.7602893059482341 -13.994553094269179 0 0 0 0 76.469103208634536 -122.48903119228753 0 -122.48903119228753 -90.409989338397281 0 0 0 0 -21.751910555703944 -90.325125168088562 0 -90.325125168088562 585.08661574074927 0 0 0 0 -7.3365004869945238 -15.906576444750513 0 -15.906576444750513 -1.9028518722941739 0 0 0 0 -98.852562081305223 -133.02121423919925 0 -133.02121423919925 -397.12279630582634 0 0 0 0 -3.8076067389338277 -110.92614382387546 0 -110.92614382387546 386.74773522633086 0 0 0 0 -10.703319053479255 -18.639056272952033 0 -18.639056272952033 -2.0028423969545628 0 0 0 0 -7.8197338827230851 -132.34072816388698 0 -132.34072816388698 349.4803669956309 0 0 0 0 -111.77069848642896 117.30041133087798 0 117.30041133087798 -802.48520713856124 0 0 0 0 -171.91817972633362 -58.122635225241538 0 -58.122635225241538 -435.10485552292084 0 0 0 0 -19.307206853500247 -124.57540085929941 0 -124.57540085929941 -734.50089244071023 0 0 0 0 -60.605451839147463 -343.18065524123404 0 -343.18065524123404 -1169.1332430717666 0 0 0 0 -30.619306683563536 -227.86433540099597 0 -227.86433540099597 -840.91614753822068 0 0 0 0 -82.740481190056016 -30.462204367158847 0 -30.462204367158847 -752.19879933572156 0 0 0 0 87.763598144996649 -157.36587783085815 0 -157.36587783085815 -831.70833602725543 0 0 0 0 97.217828848874888 -105.00502232376493 0 -105.00502232376493 -1288.2470096168145 0 0 0 0 -3.0636662822253768 -10.794465740160149 0 -10.794465740160149 -1.5189886857289219 0 0 0 0 0.75786715208596434 -149.82066759127792 0 -149.82066759127792 842.09954338218449 0 0 0 0 -9.478175847251805 -176.93180775217388 0 -176.93180775217388 452.59374522148937 0 0 0 0 37.095035283078687 -109.67267162297321 0 -109.67267162297321 477.92616670521966 0 0 0 0 50.034426708487786 -121.0656762478468 0 -121.0656762478468 435.99560611956986 0 0 0 0 60.61082943049405 -226.58038675343596 0 -226.58038675343596 361.74009443417162 0 0 0 0 20.454201963528249 -121.10302987126124 0 -121.10302987126124 204.24750573599158 0 0 0 0 -3.230900659074905 -196.84378005182043 0 -196.84378005182043 304.61607597445254 0 0 0 0 -11.23136687168153 -130.82541285297884 0 -130.82541285297884 401.41116978476566 0 0 0 0 17.227568418244118 -168.0907314655251 0 -168.0907314655251 365.62229728393595 0 0 0 0 16.611033324777964 -176.36634883022998 0 -176.36634883022998 271.71166971852108 0 0 0 0 -75.53726781856858 -178.77260314409978 0 -178.77260314409978 314.48220933789253 0 0 0 0 -8.8889494463264214 -204.99403260571893 0 -204.99403260571893 323.92475774602281 0 0 0 0 251.07448547480681 -354.8391132013453 0 -354.8391132013453 322.36768762702195 0 0 0 0 -4.2793850664229467 -272.98263566900459 0 -272.98263566900459 297.39027795752554 0 0 0 0 -10.452433113206098 -137.89208531566419 0 -137.89208531566419 172.56528462017013 0 0 0 0 -92.829385635946892 -175.43320038972161 0 -175.43320038972161 157.34877358290396 0 0 0 0 -1.7238424364625615 -0.71260169380161997 0 -0.71260169380161997 0.79300373287632908 0 0 0 0 -307.20382943276854 31.606364197494258 0 31.606364197494258 44.008791430627753 0 0 0 0 -74.840218648332666 -38.97248293292796 0 -38.97248293292796 32.708510521316384 0 0 0 0 -64.25110759905283 -33.598212814722046 0 -33.598212814722046 17.017835545204434 0 0 0 0 -90.118136779447013 -71.497416074628745 0 -71.497416074628745 14.132585591574752 0 0 0 0 -28.368888626109765 -69.657294182368787 0 -69.657294182368787 14.187254407603859 0 0 0 0 -50.271770955599095 -46.985342823259089 0 -46.985342823259089 10.169160396937514 0 0 0 0 -46.880097292880237 -41.812986333512526 0 -41.812986333512526 15.691201094359258 0 0 0 0 -47.177544503980243 -37.699736500353538 0 -37.699736500353538 5.0826556324973353 0 0 0 0 -25.243816577774851 -67.166296662504465 0 -67.166296662504465 -9.2819293326720071 0 0 0 0 -20.262355788003333 -122.2556273939681 0 -122.2556273939681 28.720929970219004 0 0 0 0 14.698247823625934 -69.75500587156057 0 -69.75500587156057 -12.546494770691424 0 0 0 0 -9.246548641864365 -28.333999085511778 0 -28.333999085511778 -43.691747004580975 0 0 0 0 -22.63568708940511 -70.218920264796907 0 -70.218920264796907 -6.2994302753722877 0 0 0 0 -6.5835673554520326 -70.984576542008654 0 -70.984576542008654 27.001104301547457 0 0 0 0 -5.0435412948900193 -93.476215975224477 0 -93.476215975224477 39.810554768169823 0 0 0 0 17.389127979598925 -159.92145922350392 0 -159.92145922350392 181.39707241412634 0 0 0 0 84.148410659565343 -99.400297484067778 0 -99.400297484067778 22.234137363069749 0 0 0 0 24.080099778508156 -65.7670137013356 0 -65.7670137013356 108.17849539732242 0 0 0 0 53.338791540965758 -84.835990819938161 0 -84.835990819938161 -5.2474202707053337 0 0 0 0 -166.84609436113897 -137.59156575596717 0 -137.59156575596717 83.848071403794165 0 0 0 0 20.256186925236761 3.6042688511315646 0 3.6042688511315646 -139.77025706214772 0 0 0 0 -153.48837480627844 41.814013767343567 0 41.814013767343567 7.7619142320945684 0 0 0 0 -55.153814999479437 -15.390006530780738 0 -15.390006530780738 39.055569623062183 0 0 0 0 -47.908876727327879 -10.811710107731415 0 -10.811710107731415 -5.1359091377822672 0 0 0 0 14.658701204039971 -65.284151735651903 0 -65.284151735651903 -28.204184590202203 0 0 0 0 -83.643946700205561 302.22788713175487 0 302.22788713175487 -193.25139406009248 0 0 0 0 -47.251329594768677 -40.671871573411963 0 -40.671871573411963 -33.926814318582714 0 0 0 0 -68.603985985108011 -110.44615659459032 0 -110.44615659459032 60.173392003023764 0 0 0 0 -43.009218655060032 -36.714520045420812 0 -36.714520045420812 -29.313669382841269 0 0 0 0 -224.41018386190262 129.64307250644197 0 129.64307250644197 -25.633768897829214 0 0 0 0 67.258594038503361 -13.940224046489675 0 -13.940224046489675 45.684694697260966 0 0 0 0 678.69633942316432 -208.23993197808522 0 -208.23993197808522 102.19367312540999 0 0 0 0 81.782999806066073 -53.042994813145924 0 -53.042994813145924 -367.89796208900589 0 0 0 0 -12.351317238069896 -129.74099670015585 0 -129.74099670015585 -49.783055554202292 0 0 0 0 41.045832446030545 -120.14747203012712 0 -120.14747203012712 -205.42886581277889 0 0 0 0 15.625423025951022 16.998524005222862 0 16.998524005222862 -140.15471850101676 0 0 0 0 158.03645438089734 -161.27160866737222 0 -161.27160866737222 -175.54804206968038 0 0 0 0 22.024412719307293 127.22647887060702 0 127.22647887060702 -397.41671206397461 0 0 0 0 -118.70206367140418 -52.360188054502942 0 -52.360188054502942 -188.97168016805699 0 0 0 0 -55.182464684412579 -47.90778899839588 0 -47.90778899839588 -31.689557880617034 0 0 0 0 -64.665512539287874 -171.53966465807935 0 -171.53966465807935 -111.55647183811743 0 0 0 0 -84.423147539926504 9.9333580949132738 0 9.9333580949132738 35.037205602751783 0 0 0 0 -4.1000480187885557 -9.0763966713568252 0 -9.0763966713568252 -9.4978183432378209 0 0 0 0 -137.98690686184273 38.258419362631685 0 38.258419362631685 89.535292235443194 0 0 0 0 -52.463948457181687 -22.547774778406165 0 -22.547774778406165 67.827480857311457 0 0 0 0 -51.035836987658968 -70.369849476478294 0 -70.369849476478294 78.14449979535857 0 0 0 0 -75.72542515459827 -47.624300653038517 0 -47.624300653038517 67.638584813059424 0 0 0 0 -125.06031900285598 -22.245816323324107 0 -22.245816323324107 71.748576393310941 0 0 0 0 -164.96729694905025 -94.988670396103771 0 -94.988670396103771 69.255807363020722 0 0 0 0 -46.600393549309956 -137.67435408228994 0 -137.67435408228994 -44.35663728392683 0 0 0 0 -132.95256400392645 -46.955193604710075 0 -46.955193604710075 130.63021901172033 0 0 0 0 -299.33806053333683 -151.37055051388234 0 -151.37055051388234 105.78790129166737 0 0 0 0 -123.50171878560286 -57.890030654511065 0 -57.890030654511065 17.999625053547788 0 0 0 0 -33.758850479200191 -182.50385967333568 0 -182.50385967333568 164.23220081762702 0 0 0 0 -127.95639029525864 -44.010670887193555 0 -44.010670887193555 107.56526644788391 0 0 0 0 -123.04798163995019 -10.408136514377475 0 -10.408136514377475 129.99227521940338 0 0 0 0 -103.90148690718888 15.714399450727797 0 15.714399450727797 248.99833803844376 0 0 0 0 8.4874950667499434 -76.663629915445199 0 -76.663629915445199 295.51871322751322 0 0 0 0 42.9639488263565 -114.59117695693931 0 -114.59117695693931 81.336774977302412 0 0 0 0 135.85136507537572 -198.42359799845144 0 -198.42359799845144 138.4435564029327 0 0 0 0 119.85843161486264 -250.25622176811339 0 -250.25622176811339 508.9148085719562 0 0 0 0 188.88082304881027 -292.95335887408146 0 -292.95335887408146 345.43109369039303 0 0 0 0 8.6140652793656045 -62.934824120490703 0 -62.934824120490703 428.20844988711906 0 0 0 0 126.38742867166002 -698.39206957219358 0 -698.39206957219358 464.26264751720441 0 0 0 0 -0.7417248098765441 -3.2465843440332378 0 -3.2465843440332378 -0.47208719380411601 0 0 0 0 -144.7797764297884 -455.2731860842232 0 -455.2731860842232 1474.4956696773152 0 0 0 0 126.24713088247699 -69.125755888515414 0 -69.125755888515414 743.20022485560912 0 0 0 0 -132.29697766947356 -261.69104087868618 0 -261.69104087868618 -765.98707297585861 0 0 0 0 -101.50764742027968 68.820967583176753 0 68.820967583176753 -565.4029138163578 0 0 0 0 157.44594579111617 -379.7774063872439 0 -379.7774063872439 -1674.6692306237164 0 0 0 0 -33.763132011376001 -260.75439603175255 0 -260.75439603175255 -95.137826215236601 0 0 0 0 78.176631872443977 -267.79678238537599 0 -267.79678238537599 -257.91191484645242 0 0 0 0 74.106385202234378 -110.50361415128646 0 -110.50361415128646 -56.371822211352992 0 0 0 0 51.017958840027859 -27.169427975972212 0 -27.169427975972212 -9.0618690125866124 0 0 0 0 38.36490342488456 -33.877206753056313 0 -33.877206753056313 4.9116615251502793 0 0 0 0 -91.893632564164363 -278.16722969234979 0 -278.16722969234979 -259.07837107349769 0 0 0 0 21.84872043199999 -14.192187185350875 0 -14.192187185350875 -4.8493621136932035 0 0 0 0 -373.64090071030842 -209.60434708855246 0 -209.60434708855246 15.13951871154859 0 0 0 0 -56.575448712923389 -456.08707944084745 0 -456.08707944084745 -52.998298013464591 0 0 0 0 39.083604973174261 -457.64310597360964 0 -457.64310597360964 -199.3592949894155 0 0 0 0 45.756516079971334 -56.613198226103123 0 -56.613198226103123 13.935001755510712 0 0 0 0 60.779260462637467 -47.932968516481196 0 -47.932968516481196 15.57198523215402 0 0 0 0 23.132215467332571 -71.958822913275071 0 -71.958822913275071 20.383228285609221 0 0 0 0 52.989053505014454 -75.695485510907019 0 -75.695485510907019 20.654284448399267 0 0 0 0 6.5140604792949119 -14.139417036542124 0 -14.139417036542124 -4.9077507544911754 0 0 0 0 48.913498923981024 -38.401398258562722 0 -38.401398258562722 -18.439419385271322 0 0 0 0 -3.3936317860297862 -3.4318429545669922 0 -3.4318429545669922 -5.031172862307244 0 0 0 0 43.369199684864725 -50.352605027896061 0 -50.352605027896061 48.077654682878347 0 0 0 0 87.017337690918794 -97.311864792745837 0 -97.311864792745837 60.130218209185841 0 0 0 0 54.037276619577824 -36.513060163657428 0 -36.513060163657428 25.302986757909821 0 0 0 0 7.8819873331740382 -41.928814646184037 0 -41.928814646184037 35.466192987325485 0 0 0 0 40.727074076770805 -32.264613447707234 0 -32.264613447707234 28.592215592425418 0 0 0 0 2.3553995385500457 -42.749099468954228 0 -42.749099468954228 38.133015106730454 0 0 0 0 0.82566080314427381 -47.759823835016505 0 -47.759823835016505 23.056165376525314 0 0 0 0 51.520767151065229 -60.855658291111467 0 -60.855658291111467 13.105782048929541 0 0 0 0 45.436640304455068 -45.422353895803099 0 -45.422353895803099 3.2832083039465942 0 0 0 0 41.316511625096609 -50.440269559585431 0 -50.440269559585431 15.29194187527537 0 0 0 0 51.832241758565942 -48.856144155783113 0 -48.856144155783113 -0.64059505212935619 0 0 0 0 14.798074225212986 -21.162794985016117 0 -21.162794985016117 -28.796427176982903 0 0 0 0 43.687619072210509 -39.343989011136728 0 -39.343989011136728 -12.942925077415566 0 0 0 0 39.706527308597288 -48.688808682488343 0 -48.688808682488343 0.41278315532690613 0 0 0 0 1.3752641758037498 -35.896853180460312 0 -35.896853180460312 -4.0508085694564215 0 0 0 0 -3.7939621354712472 -58.606502853515394 0 -58.606502853515394 33.142780428435799 0 0 0 0 -1.3699569946889465 -12.191053237699549 0 -12.191053237699549 1.6448970447390536 0 0 0 0 36.52606299846957 -52.066507740670204 0 -52.066507740670204 -1.0740682339237537 0 0 0 0 -4.2889500812169157 -20.332981495704971 0 -20.332981495704971 10.862579695698301 0 0 0 0 -6.4536009398752867 -32.560724376567578 0 -32.560724376567578 1.4667872750942479 0 0 0 0 3.2953454477174091 -25.334015850452488 0 -25.334015850452488 6.4032676306269423 0 0 0 0 17.121003405969532 -98.577123256232881 0 -98.577123256232881 79.215232942300645 0 0 0 0 12.30768799829093 -15.281356965180748 0 -15.281356965180748 -0.14786618876314606 0 0 0 0 -1.0196947742374505 -49.638869255711143 0 -49.638869255711143 60.965707803734404 0 0 0 0 44.904007467288466 -53.381956190925848 0 -53.381956190925848 4.6504919054386846 0 0 0 0 22.532331738976737 -22.455419920742735 0 -22.455419920742735 -29.099110752404798 0 0 0 0 39.791471051750705 -47.275642503544077 0 -47.275642503544077 0.3275279692170443 0 0 0 0 44.136434910347816 -56.173562572419087 0 -56.173562572419087 -1.5129159801581409 0 0 0 0 50.277030894867409 -39.166003705847629 0 -39.166003705847629 10.002602077195917 0 0 0 0 -75.61193014455057 -130.43918013517032 0 -130.43918013517032 -45.264221680473383 0 0 0 0 -29.005916800924751 -104.67360878271211 0 -104.67360878271211 11.92540292477679 0 0 0 0 44.188591217999402 -49.1752120260646 0 -49.1752120260646 14.865403252806473 0 0 0 0 -69.957232105083676 -108.80249628484307 0 -108.80249628484307 17.093107228436565 0 0 0 0 -85.841549022332401 -52.522858039239509 0 -52.522858039239509 69.716246053372743 0 0 0 0 17.291022696830623 -79.280329126324432 0 -79.280329126324432 -23.828940140872874 0 0 0 0 -21.04108241887846 -41.303474376428348 0 -41.303474376428348 -4.3946201484171707 0 0 0 0 -47.610688989541671 -38.646284888539924 0 -38.646284888539924 -5.9204179232782508 0 0 0 0 -54.73550264362872 -21.638252680941942 0 -21.638252680941942 2.3591823354231209 0 0 0 0 25.281710943869257 -56.712860386462125 0 -56.712860386462125 -107.14990680673145 0 0 0 0 7.6990397974568623 -20.28907500693731 0 -20.28907500693731 -57.505860269542609 0 0 0 0 -7.4618694610835519 -120.79292743683618 0 -120.79292743683618 67.058496971247223 0 0 0 0 -12.677026544311957 -25.16641163552049 0 -25.16641163552049 13.495923881004273 0 0 0 0 -48.426487341490429 -106.76142998519708 0 -106.76142998519708 -99.60517882232125 0 0 0 0 21.974235783935001 -131.42618206626048 0 -131.42618206626048 -245.57301732550786 0 0 0 0 -14.18044467495929 -141.19944696306447 0 -141.19944696306447 -27.038997835963528 0 0 0 0 -112.13590868596657 -180.95910594447105 0 -180.95910594447105 170.14549160854403 0 0 0 0 40.214372954709688 -199.43837426608934 0 -199.43837426608934 -69.692276717658842 0 0 0 0 -138.01294769611559 -81.723444521636338 0 -81.723444521636338 138.72782315768518 0 0 0 0 -130.82219217018792 -142.44798004751465 0 -142.44798004751465 346.08674401727694 0 0 0 0 290.43718436480776 -366.85346281007423 0 -366.85346281007423 107.77701957305908 0 0 0 0 278.35910378894914 -260.36497083480208 0 -260.36497083480208 278.76001548199929 0 0 0 0 0.40100834959430465 3.3795881162058947 0 3.3795881162058947 2.4267646796893274 0 0 0 0 -259.84425831647604 -177.55466130834611 0 -177.55466130834611 371.290992818218 0 0 0 0 -452.44425033318475 -0.45593873083271319 0 -0.45593873083271319 214.64883791269494 0 0 0 0 -141.21095339691419 -92.896010611969359 0 -92.896010611969359 -38.218257272061237 0 0 0 0 -133.89746567971088 -128.79399776562968 0 -128.79399776562968 -8.3271764266473838 0 0 0 0 30.321805988198321 -11.575234899836687 0 -11.575234899836687 41.64415014318547 0 0 0 0 25.29219113723957 -77.663739362654269 0 -77.663739362654269 9.9944815259441384 0 0 0 0 27.942342464448302 -41.393141136642043 0 -41.393141136642043 -2.4219042470758723 0 0 0 0 6.4016217369430137 -26.953649743755257 0 -26.953649743755257 8.8574195160135574 0 0 0 0 63.323323118835106 -63.79219336720962 0 -63.79219336720962 -13.78031360087698 0 0 0 0 -1.4350571999896964 -6.9685981002677693 0 -6.9685981002677693 8.5507173854086744 0 0 0 0 -148.70617635120834 -12.495409791948305 0 -12.495409791948305 50.927703864545038 0 0 0 0 -20.821321006098913 -49.75798574631235 0 -49.75798574631235 -6.4975075714767883 0 0 0 0 -28.251476882840507 -50.780874743591994 0 -50.780874743591994 -107.472188301399 0 0 0 0 -54.046748931275943 -110.93613664555733 0 -110.93613664555733 -47.4851699130013 0 0 0 0 -18.391145585423246 -32.818737876905054 0 -32.818737876905054 9.061844407635915 0 0 0 0 -1.7150951289142284 -5.1307610374016335 0 -5.1307610374016335 -12.179288540888003 0 0 0 0 -28.340562284754924 -31.256960714729757 0 -31.256960714729757 -5.9316220503169461 0 0 0 0 -11.021535156338359 -76.926780150864943 0 -76.926780150864943 -64.020864334845101 0 0 0 0 -32.120401351727196 -10.24522821208302 0 -10.24522821208302 -62.28118825493948 0 0 0 0 -22.834333553450051 -23.843685611989713 0 -23.843685611989713 -40.885456463787705 0 0 0 0 16.17200604939535 -32.891662861166878 0 -32.891662861166878 10.810838030338346 0 0 0 0 3.3298946723734844 -28.144004018024134 0 -28.144004018024134 26.504195819001325 0 0 0 0 -2.0452219971417342 -23.234637708775011 0 -23.234637708775011 -2.3570504004966892 0 0 0 0 4.8185538119432749 -31.539935967157362 0 -31.539935967157362 8.3106603033011197 0 0 0 0 7.7681083112838678 -25.996293927575607 0 -25.996293927575607 11.030001885057573 0 0 0 0 3.0072673892937019 -25.972122303241122 0 -25.972122303241122 12.688555128275766 0 0 0 0 60.47885816982307 -34.394131161394398 0 -34.394131161394398 -12.749930307858449 0 0 0 0 -0.18076895128228898 -0.44397781547559845 0 -0.44397781547559845 -0.4491993066773432 0 0 0 0 7.8541252127251937 -25.265683715996147 0 -25.265683715996147 16.635669838462491 0 0 0 0 1.7413904163284712 -0.55925961354885345 0 -0.55925961354885345 6.2367293146610621 0 0 0 0 -69.683983904880733 -34.137328288471508 0 -34.137328288471508 29.217964355855656 0 0 0 0 -0.75079824312314969 -6.4066500284514518 0 -6.4066500284514518 2.0226263023666604 0 0 0 0 13.741619658838317 -30.883502538898028 0 -30.883502538898028 12.011363138792149 0 0 0 0 -0.20089540475439094 -19.373933723127067 0 -19.373933723127067 12.381677402918339 0 0 0 0 -22.15213945342839 -25.581545900444326 0 -25.581545900444326 33.06040383929394 0 0 0 0 10.584477062413498 -27.035480951435602 0 -27.035480951435602 7.977093016346771 0 0 0 0 -26.385009673438617 -55.034191628612461 0 -55.034191628612461 16.026736597090348 0 0 0 0 -107.11359395489126 -45.404404731777504 0 -45.404404731777504 44.403174549346659 0 0 0 0 -0.2292122142702766 4.0881019926512252 0 4.0881019926512252 28.219369786757589 0 0 0 0 114.12104529785574 -125.70601197043106 0 -125.70601197043106 125.64812693523345 0 0 0 0 79.232573116554704 -87.980594895312151 0 -87.980594895312151 201.52056692334008 0 0 0 0 375.96696285062353 -161.87790741917524 0 -161.87790741917524 35.273846877389587 0 0 0 0 153.79485289272998 -353.42888233082385 0 -353.42888233082385 460.94160818296223 0 0 0 0 -108.00014944530994 207.38305518425477 0 207.38305518425477 294.48273559699373 0 0 0 0 1.1526236845001776 2.5247693520166905 0 2.5247693520166905 9.321510012584028 0 0 0 0 566.2317171945906 -490.98988003046998 0 -490.98988003046998 394.67284878453938 0 0 0 0 12.803331925653765 -61.189364866543656 0 -61.189364866543656 -57.732064683415956 0 0 0 0 32.483543420981732 -273.91735916752623 0 -273.91735916752623 387.73171549203335 0 0 0 0 75.311259284208063 -335.99594246995366 0 -335.99594246995366 339.83913666987428 0 0 0 0 129.4630489235351 -287.44431904331032 0 -287.44431904331032 348.51511200408459 0 0 0 0 -7.1529680878375075 -138.14503225749286 0 -138.14503225749286 276.75450455036662 0 0 0 0 21.013672434237378 -238.44448687697695 0 -238.44448687697695 618.89258276426699 0 0 0 0 78.761897824093467 -278.9037444180176 0 -278.9037444180176 388.15902074808901 0 0 0 0 0.064459600431291619 -194.69849962891658 0 -194.69849962891658 400.92836052615894 0 0 0 0 80.866546265569923 -255.61444186488916 0 -255.61444186488916 125.79011604810512 0 0 0 0 79.924619500379777 -116.68589464599063 0 -116.68589464599063 44.365618118168641 0 0 0 0 -70.804743767432228 -79.140528739129877 0 -79.140528739129877 62.481734464210604 0 0 0 0 44.42918302740145 -132.64708727880588 0 -132.64708727880588 -213.54068857124003 0 0 0 0 -74.048248095503368 -55.876502958115452 0 -55.876502958115452 -5.2580526409865342 0 0 0 0 1.1830659732096649 0.32640550140535396 0 0.32640550140535396 -0.017843849340039242 0 0 0 0 -201.90635128026042 16.012360512953819 0 16.012360512953819 16.850846168512362 0 0 0 0 -145.34429661839386 -71.791622902101153 0 -71.791622902101153 43.949468049704592 0 0 0 0 -62.959460308775306 -37.26397530713075 0 -37.26397530713075 11.912822196041816 0 0 0 0 0.17052970911026932 -53.977119450473765 0 -53.977119450473765 170.46792324681883 0 0 0 0 25.330759551630763 25.043221378100498 0 25.043221378100498 27.422351663779409 0 0 0 0 0.81219797264988358 -1.3271817179171421 0 -1.3271817179171421 0.35451763426229377 0 0 0 0 -58.764419467501284 -63.719070002121953 0 -63.719070002121953 161.0832061316105 0 0 0 0 25.89110323767818 -34.495490483931462 0 -34.495490483931462 3.9237565654839273 0 0 0 0 -44.51754149023327 -7.755635554309265 0 -7.755635554309265 -5.9503653534593468 0 0 0 0 0.76294021885916408 -1.6047738434886298 0 -1.6047738434886298 2.9314642834282267 0 0 0 0 -74.318010935992788 -61.427946375803003 0 -61.427946375803003 -38.630556113908824 0 0 0 0 -36.246577354198962 -65.88967289698121 0 -65.88967289698121 -68.658887314290041 0 0 0 0 -0.056278859228768852 -38.229813022804592 0 -38.229813022804592 -59.041318659255921 0 0 0 0 -8.1184124718965904 12.462671698604936 0 12.462671698604936 -1.3561325621558353 0 0 0 0 -34.194781140740815 -11.975441194852465 0 -11.975441194852465 11.598984585951257 0 0 0 0 -45.910106515377265 15.516869839857463 0 15.516869839857463 -35.404514251233195 0 0 0 0 -45.957262981464737 7.3147618672483077 0 7.3147618672483077 18.120367352188623 0 0 0 0 -27.962960798606218 -36.21529765156447 0 -36.21529765156447 -13.31620213680435 0 0 0 0 -27.194108720726945 -31.959108794514577 0 -31.959108794514577 -53.666291290326626 0 0 0 0 -42.413506688841153 -68.22821486905741 0 -68.22821486905741 -6.7498221290697984 0 0 0 0 -89.566634924289247 -15.719246584461871 0 -15.719246584461871 12.037416758521431 0 0 0 0 3.7227759907400468 -61.264189127930877 0 -61.264189127930877 -25.420872638758738 0 0 0 0 6.8850741590977123 -32.648958373514688 0 -32.648958373514688 -2.5643600628391141 0 0 0 0 13.575891598840826 -27.308663261133916 0 -27.308663261133916 -7.3497376589875785 0 0 0 0 6.2133047621755395 -40.411152255801426 0 -40.411152255801426 -15.502513309646019 0 0 0 0 6.8481870953110047 -32.859161688931636 0 -32.859161688931636 -2.3888580268794612 0 0 0 0 2.6729366629515425 -37.095852780808855 0 -37.095852780808855 -4.0281432214578672 0 0 0 0 -11.860918781986243 -21.202885129104001 0 -21.202885129104001 -15.316970232466225 0 0 0 0 0.8156093841753318 -40.552843123223283 0 -40.552843123223283 -2.1341580529042403 0 0 0 0 -15.071869405772304 -40.305690604833217 0 -40.305690604833217 -4.6083046597668726 0 0 0 0 -22.599406971352437 -24.853025912909288 0 -24.853025912909288 14.894112128418783 0 0 0 0 -22.759288441666286 -25.619723932733905 0 -25.619723932733905 12.573704409065613 0 0 0 0 -5.5776914568499478 -12.600900641798356 0 -12.600900641798356 -14.763056622147481 0 0 0 0 -14.222985694708768 -28.1559679347356 0 -28.1559679347356 15.899189580286475 0 0 0 0 6.8932241559150498 -58.205235106582563 0 -58.205235106582563 -8.5963556929200422 0 0 0 0 10.759795235528145 -29.884210977985276 0 -29.884210977985276 22.013774195536826 0 0 0 0 3.298945164513043 -70.630995734759836 0 -70.630995734759836 -0.14589577421793365 0 0 0 0 -785.37100520048989 -307.78362038944033 0 -307.78362038944033 -125.09590919304173 0 0 0 0 -227.26536189438048 -169.00695435930356 0 -169.00695435930356 -301.31415397111414 0 0 0 0 0.63440317117627387 -0.38836455172966566 0 -0.38836455172966566 -1.0787914634182343 0 0 0 0 -187.09135522849101 -241.3232500832346 0 -241.3232500832346 -347.08990331809036 0 0 0 0 -716.0474248877872 -252.37809150162502 0 -252.37809150162502 167.9041404495656 0 0 0 0 -195.85053605109351 -240.40694899961909 0 -240.40694899961909 -294.38249420733337 0 0 0 0 -95.493318922475737 -255.92095233111468 0 -255.92095233111468 -301.54830006573047 0 0 0 0 -138.57437792003475 -158.47787114943276 0 -158.47787114943276 -206.46324272554921 0 0 0 0 -220.28782598153066 -210.38286197490697 0 -210.38286197490697 -161.0867410158753 0 0 0 0 -0.41838567594095366 -170.52156848922095 0 -170.52156848922095 -251.9205364556401 0 0 0 0 -153.23574407714113 -129.36208316170087 0 -129.36208316170087 -72.378400560759474 0 0 0 0 -216.93389771830698 -164.90624827965257 0 -164.90624827965257 -143.12038595073682 0 0 0 0 -6.3651789412251674 -17.29707099195366 0 -17.29707099195366 12.615999265561186 0 0 0 0 -0.017080116643313659 -4.4443310956585407 0 -4.4443310956585407 4.453451068104826 0 0 0 0 15.650361755833728 -16.896563396195234 0 -16.896563396195234 -170.98810362145196 0 0 0 0 12.818998631446448 16.130163916909623 0 16.130163916909623 -123.93183384292934 0 0 0 0 -2.4210959762520758 -1.1430988207684578 0 -1.1430988207684578 -2.8709417464572837 0 0 0 0 209.79692706160131 -126.70179457097038 0 -126.70179457097038 67.55557312920044 0 0 0 0 0.24325030167540262 1.1747170158131759 0 1.1747170158131759 -1.7083913870007716 0 0 0 0 0.41812217582628364 -100.18135985186382 0 -100.18135985186382 145.77108230990052 0 0 0 0 75.259998191817431 -143.90194022032119 0 -143.90194022032119 163.56030373547765 0 0 0 0 88.501998624989938 -186.86980563823727 0 -186.86980563823727 205.43991581249429 0 0 0 0 -0.80349197838950204 -148.65183231351693 0 -148.65183231351693 41.133222912238125 0 0 0 0 133.05540339044819 -151.70484640173163 0 -151.70484640173163 -183.57670316674921 0 0 0 0 146.48888801031717 -56.39736902297409 0 -56.39736902297409 -23.340014323112882 0 0 0 0 29.597382444218965 -129.24498438473529 0 -129.24498438473529 218.55919790016014 0 0 0 0 20.399078372400254 -85.554598554894255 0 -85.554598554894255 170.67227926500323 0 0 0 0 122.18297962626093 -148.03764361202229 0 -148.03764361202229 214.46922951629193 0 0 0 0 130.49502686017513 -183.28982842099322 0 -183.28982842099322 -0.67345052660857618 0 0 0 0 -5.5797373759851325 8.3418314080145137 0 8.3418314080145137 -12.427703322646664 0 0 0 0 2.4509221638649876 -2.607329759595018 0 -2.607329759595018 -8.209028702885778 0 0 0 0 -5.5521300860636984 -3.2236739189711443 0 -3.2236739189711443 -13.970443116662864 0 0 0 0 -2.2108430423068057 1.7882409323981392 0 1.7882409323981392 -7.2775831885937805 0 0 0 0 -170.28278024567408 85.330660971470934 0 85.330660971470934 -60.972722690261435 0 0 0 0 -256.41362076495716 37.573750833395025 0 37.573750833395025 71.813816000183579 0 0 0 0 -67.472111315008078 99.069941621051839 0 99.069941621051839 -87.443581149756938 0 0 0 0 61.556611512351083 6.1034164631182648 0 6.1034164631182648 -26.406888735913526 0 0 0 0 0.11898024196298707 -0.1919522713368309 0 -0.1919522713368309 0.77322084213680853 0 0 0 0 16.932580181215599 12.932367744313524 0 12.932367744313524 3.0910511229521944 0 0 0 0 -0.6013973425039012 -4.7265380981952489 0 -4.7265380981952489 -12.295383339370098 0 0 0 0 2.1863998796592057 1.3304141257375122 0 1.3304141257375122 -3.4363041583206377 0 0 0 0 39.796621257446532 36.624613886226143 0 36.624613886226143 -37.702576544372278 0 0 0 0 -3.9267736569164242 2.4166964661135601 0 2.4166964661135601 -1.1925613784376456 0 0 0 0 -49.723087756225141 -16.747171639091903 0 -16.747171639091903 -1.2627882826569135 0 0 0 0 -28.221407044875377 34.391238041067481 0 34.391238041067481 -2.6328163803245843 0 0 0 0 -7.7615051537068211 -44.859068535417464 0 -44.859068535417464 -103.15589465803714 0 0 0 0 -16.058699591929326 -71.11746042597224 0 -71.11746042597224 -86.486256833981315 0 0 0 0 -113.85821555340954 -207.86077469245356 0 -207.86077469245356 -258.03574032546385 0 0 0 0 69.493561779585434 -180.23315264605685 0 -180.23315264605685 -462.5403843119966 0 0 0 0 58.938927312963642 -153.18295599709745 0 -153.18295599709745 -291.07058358224276 0 0 0 0 -1.0365316412120222 -1.7445159722888945 0 -1.7445159722888945 -4.2091891395084318 0 0 0 0 -122.49440453700663 206.02873974848626 0 206.02873974848626 -333.47742832955555 0 0 0 0 -266.67327572289651 -225.5842160729535 0 -225.5842160729535 -152.96200898266579 0 0 0 0 -41.776691031031078 71.471388187977936 0 71.471388187977936 -148.87282854678347 0 0 0 0 -111.66135651238795 -24.303276232525363 0 -24.303276232525363 23.994366404866014 0 0 0 0 -89.05402930494165 29.489000607343769 0 29.489000607343769 -152.75538073045755 0 0 0 0 17.678869396484515 -152.1121858163624 0 -152.1121858163624 -576.79066169782891 0 0 0 0 -117.00173690437805 187.76369311822782 0 187.76369311822782 -434.19358754209679 0 0 0 0 149.99467745513266 -28.324549393625603 0 -28.324549393625603 -446.44804054794076 0 0 0 0 142.94120621279581 -84.3296437010722 0 -84.3296437010722 -680.33692496220874 0 0 0 0 -59.983816061510879 -352.02737747056199 0 -352.02737747056199 -589.54990720153364 0 0 0 0 117.82245795620111 -84.694949797211848 0 -84.694949797211848 -350.16438211982177 0 0 0 0 103.71243861877156 -102.64845639719442 0 -102.64845639719442 -223.35359755017635 0 0 0 0 79.237037738261279 -132.36342883326324 0 -132.36342883326324 -365.57598401842188 0 0 0 0 109.59697187934216 -67.302483795149556 0 -67.302483795149556 -507.04435964033837 0 0 0 0 113.39073882504454 -95.069833593588555 0 -95.069833593588555 -328.01162415655381 0 0 0 0 3.9715999656655185 -108.79200677783547 0 -108.79200677783547 -294.87130689052719 0 0 0 0 -1.2925277281517253 -0.58981744875949005 0 -0.58981744875949005 -0.47759626893305551 0 0 0 0 38.511577693054278 46.689528290789895 0 46.689528290789895 -246.63324512607869 0 0 0 0 3.1446180862258188 179.61338649457866 0 179.61338649457866 -711.86278498714819 0 0 0 0 90.922283640007663 -125.03669989131595 0 -125.03669989131595 -594.00644204118453 0 0 0 0 -0.23199665954606072 -163.30183570112268 0 -163.30183570112268 -360.40557285568866 0 0 0 0 29.640511997316935 -33.628631987432527 0 -33.628631987432527 -155.69563274954817 0 0 0 0 0.099838077079766663 -145.12204234326327 0 -145.12204234326327 -64.389637992724602 0 0 0 0 57.376448326492664 -211.02196191578571 0 -211.02196191578571 203.55620389881551 0 0 0 0 17.332265990855376 -22.39724769683562 0 -22.39724769683562 130.93348808661176 0 0 0 0 0.036741779204021441 -134.75825362279829 0 -134.75825362279829 212.84455261441781 0 0 0 0 80.05448106404765 -205.68552744358203 0 -205.68552744358203 133.85134901055062 0 0 0 0 -1.7685712488033403 -0.4572418507698579 0 -0.4572418507698579 1.1722573514456656 0 0 0 0 71.696811883226474 -177.41141110131957 0 -177.41141110131957 370.2454873906463 0 0 0 0 0.17065957719023572 -297.3765445054878 0 -297.3765445054878 378.52728751292852 0 0 0 0 219.62570314193727 -258.10286937750425 0 -258.10286937750425 975.58128928125188 0 0 0 0 240.45164551799098 -171.20168178775566 0 -171.20168178775566 375.61329087483318 0 0 0 0 119.7835621896229 -256.27349078896532 0 -256.27349078896532 335.84531185532069 0 0 0 0 692.52998048881273 -102.45680306576833 0 -102.45680306576833 189.41426949148445 0 0 0 0 -21.246739348840492 -340.95082265899327 0 -340.95082265899327 165.84385275662157 0 0 0 0 -45.856861520980601 -842.60171412007003 0 -842.60171412007003 332.58011259827254 0 0 0 0 223.48284023917222 -216.33164351356027 0 -216.33164351356027 148.8078800726671 0 0 0 0 204.35456985899873 -62.128173299856826 0 -62.128173299856826 185.29342755878588 0 0 0 0 -2.880296312968099 -1.724407457467489 0 -1.724407457467489 -0.045819418599137407 0 0 0 0 -21.300433253629308 99.912733193676104 0 99.912733193676104 8.2724260825725651 0 0 0 0 66.175713176249701 122.11851463968105 0 122.11851463968105 -305.36964426193299 0 0 0 0 -110.08336116030932 -432.58281616558588 0 -432.58281616558588 -214.93724412076335 0 0 0 0 -96.632304950304388 -204.64206907605148 0 -204.64206907605148 201.65743687564463 0 0 0 0 -1.5932311635042709 -1.2651788808349771 0 -1.2651788808349771 -0.33162237138044759 0 0 0 0 -154.04056428383046 -348.45881463820933 0 -348.45881463820933 177.05415561090012 0 0 0 0 73.347913763602264 -446.04043421783354 0 -446.04043421783354 60.808186749191009 0 0 0 0 386.75526367411658 -294.42059745118968 0 -294.42059745118968 50.116286905231391 0 0 0 0 46.051590218870842 -281.12925007404465 0 -281.12925007404465 56.345351556513833 0 0 0 0 48.753182386557455 -85.044960061850361 0 -85.044960061850361 135.55809921395849 0 0 0 0 -7.3380333438874459 -10.234886378055641 0 -10.234886378055641 -13.832564407651162 0 0 0 0 39.775703852967126 -270.91372294256053 0 -270.91372294256053 194.25376968254932 0 0 0 0 -825.98276846655062 -91.544229032984731 0 -91.544229032984731 329.68053071079339 0 0 0 0 -36.165898974095398 -194.02640572451355 0 -194.02640572451355 135.92290268169018 0 0 0 0 143.43318854529164 -265.38630879606279 0 -265.38630879606279 239.23418880093959 0 0 0 0 -2.3517868397790949 -3.4707839126192965 0 -3.4707839126192965 -4.6898774665240381 0 0 0 0 14.75848489026248 -87.836817686082213 0 -87.836817686082213 135.59950932070205 0 0 0 0 143.19082528428407 -190.97629509376566 0 -190.97629509376566 217.32605309675273 0 0 0 0 -59.133738388500205 -177.69180448225143 0 -177.69180448225143 370.20907533575155 0 0 0 0 62.46817619013018 -168.78038865671624 0 -168.78038865671624 229.34765999010415 0 0 0 0 -589.75973901419638 -217.11065908749515 0 -217.11065908749515 564.33386530706593 0 0 0 0 -377.17670123805874 360.7723074420046 0 360.7723074420046 696.96216317267681 0 0 0 0 54.920865177256928 -247.21571059600728 0 -247.21571059600728 257.01128948207042 0 0 0 0 -136.18332603729141 -147.40008384253952 0 -147.40008384253952 365.00733512040097 0 0 0 0 -115.27377828908357 15.689763359139761 0 15.689763359139761 431.65547802393667 0 0 0 0 -153.1742378900708 -63.836119633200724 0 -63.836119633200724 274.79368068060649 0 0 0 0 8.4473168178592459 -99.436545057933472 0 -99.436545057933472 231.44039450421224 0 0 0 0 -42.263347713054827 51.876080045931303 0 51.876080045931303 216.10091582222958 0 0 0 0 -48.714197918515765 4.9834534315232304 0 4.9834534315232304 59.915639116832608 0 0 0 0 -50.442865297485696 -14.19349676551974 0 -14.19349676551974 26.344033960416709 0 0 0 0 -14.246605062013259 -54.823882072243578 0 -54.823882072243578 66.416429717175561 0 0 0 0 -5.0084110948027956 -26.466278549960407 0 -26.466278549960407 131.91514806859414 0 0 0 0 48.029384130648396 -75.002473023707353 0 -75.002473023707353 28.609800555968377 0 0 0 0 5.2181219980411697 -54.22452490311116 0 -54.22452490311116 24.338158827789812 0 0 0 0 -11.44453961292318 -19.426159847682229 0 -19.426159847682229 -19.789983372691431 0 0 0 0 238.4890937872824 4.5355491091086151 0 4.5355491091086151 -28.809984899871779 0 0 0 0 2.0052531950204866 -46.205360541927803 0 -46.205360541927803 5.8810692301740346 0 0 0 0 -20.997975079724711 -62.750802346095952 0 -62.750802346095952 20.126693235823041 0 0 0 0 -19.117267564939539 -46.479034550466167 0 -46.479034550466167 11.513887825018173 0 0 0 0 -5.8137632395046239 -15.596204261741832 0 -15.596204261741832 29.823366679611354 0 0 0 0 3.3796599718916696 -17.801326890265045 0 -17.801326890265045 -2.2750876214849995 0 0 0 0 -10.17412139746375 -28.356586433053963 0 -28.356586433053963 28.593441164724936 0 0 0 0 -5.7645959229193977 -13.853828414892178 0 -13.853828414892178 32.293103810272441 0 0 0 0 -10.276897861848184 -8.6533411180963213 0 -8.6533411180963213 0.068277499334179481 0 0 0 0 -4.35859320057898 -10.348727435271485 0 -10.348727435271485 28.136572660845559 0 0 0 0 -3.653019241766799 -21.954290339298524 0 -21.954290339298524 -6.8732969959270065 0 0 0 0 0.098726370803632335 -2.9804958255534082 0 -2.9804958255534082 -5.9410252568900388 0 0 0 0 8.1521264334442094 -46.902785338083049 0 -46.902785338083049 -36.05100350970315 0 0 0 0 133.80514271044376 -89.317857376887332 0 -89.317857376887332 19.336423915209849 0 0 0 0 166.42088019518997 -125.41025554910175 0 -125.41025554910175 20.19787395160202 0 0 0 0 13.44772226589339 -86.303037265440707 0 -86.303037265440707 -100.69040895986836 0 0 0 0 330.45593645433837 -130.20067116107566 0 -130.20067116107566 -110.0925286601705 0 0 0 0 4.6319243914177832 -4.9874005649330364 0 -4.9874005649330364 -4.4722786536083543 0 0 0 0 262.21436248277678 -350.51569012381606 0 -350.51569012381606 333.49602808618147 0 0 0 0 184.05357298578747 -210.87790861750727 0 -210.87790861750727 141.62574567473348 0 0 0 0 438.69100977005291 -290.78932946751229 0 -290.78932946751229 57.333738617307972 0 0 0 0 379.02961553296336 -69.867961824109443 0 -69.867961824109443 -141.4589408656866 0 0 0 0 111.2031217860349 -13.243489998572841 0 -13.243489998572841 -8.8956656343236773 0 0 0 0 -26.12553632961135 -181.62715959100024 0 -181.62715959100024 -193.70430479684364 0 0 0 0 -2.273330876865657 90.301444024418743 0 90.301444024418743 -216.12074506475005 0 0 0 0 92.183125939227466 18.934151459628993 0 18.934151459628993 -168.82521733981775 0 0 0 0 -43.524659692629939 73.561228037626279 0 73.561228037626279 -81.767572320766703 0 0 0 0 190.3889663727532 -111.33424864247354 0 -111.33424864247354 -65.616492051492969 0 0 0 0 90.533051900967621 19.136863893491409 0 19.136863893491409 -70.569060905836523 0 0 0 0 231.28037028224935 -24.908920818501429 0 -24.908920818501429 -119.69094841197148 0 0 0 0 126.10777711015908 -138.19464933473682 0 -138.19464933473682 -15.874284173685737 0 0 0 0 18.283801475481596 20.566603833911358 0 20.566603833911358 -58.869621946881125 0 0 0 0 -0.19971828950161807 -1.1214741635509711 0 -1.1214741635509711 -1.8714362128270445 0 0 0 0 58.484896804089658 52.300198184784676 0 52.300198184784676 -105.85292775160269 0 0 0 0 -35.925258114941244 30.857424269253897 0 30.857424269253897 -83.493336241650468 0 0 0 0 1.8583927796675255 -5.2131814042330546 0 -5.2131814042330546 -19.605362273788547 0 0 0 0 18.192211971356301 -9.5711949034011923 0 -9.5711949034011923 -4.6542408036732184 0 0 0 0 0.17819006651095037 -1.7746918321001246 0 -1.7746918321001246 -3.1061553280079011 0 0 0 0 1.2734511144000606 -1.1326027334418427 0 -1.1326027334418427 -9.4731132582847692 0 0 0 0 -70.507344671561441 -33.783952838210098 0 -33.783952838210098 -25.774354264818783 0 0 0 0 8.9009972821804695 -6.9661899204111251 0 -6.9661899204111251 34.845266648277175 0 0 0 0 -0.54313526264922984 -0.14619182188380364 0 -0.14619182188380364 -16.776748426780614 0 0 0 0 -49.540999482545885 -84.136900925729606 0 -84.136900925729606 92.658386094026355 0 0 0 0 178.91615271694536 30.333809054141966 0 30.333809054141966 -192.02678891267169 0 0 0 0 399.41087709669227 -194.72101867199672 0 -194.72101867199672 31.132851984111767 0 0 0 0 2.1502556120835408 -1.9216073324738971 0 -1.9216073324738971 1.8096104802888959 0 0 0 0 433.19568830743083 122.73753654646316 0 122.73753654646316 -13.476249853500121 0 0 0 0 120.22229583196531 11.746717720048764 0 11.746717720048764 -36.738376357436209 0 0 0 0 278.40776350425585 -114.32335694313952 0 -114.32335694313952 -97.84419089828225 0 0 0 0 294.64398550088663 -36.286801761710194 0 -36.286801761710194 -37.06767274480444 0 0 0 0 0.36986780167859479 -0.98331935583897945 0 -0.98331935583897945 -0.02386193799414138 0 0 0 0 -21.903493852607426 -47.037648472836736 0 -47.037648472836736 -15.001009865209198 0 0 0 0 -8.1143941333448595 -4.3843645500831059 0 -4.3843645500831059 7.118629662200938 0 0 0 0 -105.24114372394251 -151.80976389734042 0 -151.80976389734042 -134.12364142849765 0 0 0 0 -141.11917784081015 -138.61430954313437 0 -138.61430954313437 -124.46539244886844 0 0 0 0 -9.3582294835636901 -9.251597610514068 0 -9.251597610514068 -3.4501224891792859 0 0 0 0 95.648164242540588 -34.099127105433581 0 -34.099127105433581 -5.311690917260421 0 0 0 0 28.353729075490264 34.979966094302654 0 34.979966094302654 84.716673245769925 0 0 0 0 95.812511269197785 -8.7822448002566489 0 -8.7822448002566489 11.937187063520469 0 0 0 0 -33.726992311754657 -36.054642307506583 0 -36.054642307506583 28.72296350590841 0 0 0 0 -16.318986280944955 -104.85771517821468 0 -104.85771517821468 -200.20976815150061 0 0 0 0 -24.998565971080097 -80.151790292893565 0 -80.151790292893565 -60.67994308508969 0 0 0 0 -1.1448100516442707 -1.2780672445429175 0 -1.2780672445429175 2.1171021792196001 0 0 0 0 4.3809975745680134 -7.1268156070435396 0 -7.1268156070435396 2.7322765655948373 0 0 0 0 -43.957035123981768 -84.728305660955812 0 -84.728305660955812 -61.674056642674259 0 0 0 0 -154.0269423123973 -92.684056064419565 0 -92.684056064419565 -42.005892091008718 0 0 0 0 -122.8812533517339 -116.24805232121071 0 -116.24805232121071 -33.567862760503886 0 0 0 0 -109.68350234725222 -78.613443305039254 0 -78.613443305039254 -72.966771873459948 0 0 0 0 -126.21862924546076 -101.91119728056401 0 -101.91119728056401 17.523779154664226 0 0 0 0 -128.76781052450315 -58.392930626729139 0 -58.392930626729139 -84.639870665447233 0 0 0 0 -109.06585508246826 -135.18186319535539 0 -135.18186319535539 37.173929486427369 0 0 0 0 -101.10105934019521 -104.39792575860702 0 -104.39792575860702 -71.120097173404247 0 0 0 0 -101.4406420091982 -95.923253746783303 0 -95.923253746783303 143.18144171457243 0 0 0 0 33.833951741937199 -183.9918830756169 0 -183.9918830756169 -75.322296965990517 0 0 0 0 -109.80172848758411 -104.36703937469269 0 -104.36703937469269 -101.71595707397682 0 0 0 0 -119.5883771379813 -132.155452315611 0 -132.155452315611 -57.746039562631722 0 0 0 0 -72.466383188153486 -164.96666473102277 0 -164.96666473102277 -213.67499065681386 0 0 0 0 -29.210265192770748 -12.618680104329542 0 -12.618680104329542 14.526641387317795 0 0 0 0 10.173641055342159 -25.958052427562507 0 -25.958052427562507 -8.474691227911535 0 0 0 0 -4.9372221253104982 -4.061890466344046 0 -4.061890466344046 6.9684018048232765 0 0 0 0 -20.400275758787757 -18.472008406402892 0 -18.472008406402892 10.858700728022086 0 0 0 0 -15.990574943934917 -13.833423003656208 0 -13.833423003656208 12.353938383157868 0 0 0 0 -5.5892196037020767 -20.068754226598685 0 -20.068754226598685 16.056203767373518 0 0 0 0 103.44886672322173 -76.756024016074662 0 -76.756024016074662 14.242153241580127 0 0 0 0 42.967248053762887 45.204512085584611 0 45.204512085584611 -7.8178075378764333 0 0 0 0 -99.609733215324013 -30.084141752719916 0 -30.084141752719916 81.369790908136565 0 0 0 0 -36.605487712658942 -24.30039745007889 0 -24.30039745007889 28.86014795743904 0 0 0 0 -0.76130702023684194 -1.4099268431028804 0 -1.4099268431028804 -0.81674690981323295 0 0 0 0 8.1030429053644184 -17.234765812783735 0 -17.234765812783735 -9.752871289734685 0 0 0 0 -9.4043259447138894 0.050026453991158348 0 0.050026453991158348 -0.1855880852778774 0 0 0 0 -0.49355935910716653 -9.5084718554426217 0 -9.5084718554426217 12.290101525213686 0 0 0 0 -14.578411195991066 0.87968850488960015 0 0.87968850488960015 25.071821332133368 0 0 0 0 3.6664507486802904 13.208634108373644 0 13.208634108373644 38.370365336299074 0 0 0 0 -3.3880340518858816 -1.5032252343145149 0 -1.5032252343145149 2.1707387388756452 0 0 0 0 7.6134409778387635 -32.658231439518204 0 -32.658231439518204 50.232807212704529 0 0 0 0 -11.399947141281629 -2.0780391212583886 0 -2.0780391212583886 3.0902093543523863 0 0 0 0 -10.075699857989093 3.5936715771822492 0 3.5936715771822492 19.977054372830025 0 0 0 0 -20.447590823081555 -6.2845168955391273 0 -6.2845168955391273 11.996163475425419 0 0 0 0 -14.211512445719563 -13.366829131831764 0 -13.366829131831764 -15.872078845589783 0 0 0 0 -16.298932441364741 0.37031479332290473 0 0.37031479332290473 19.811624308674254 0 0 0 0 -22.504250779689755 1.3860966350512172 0 1.3860966350512172 24.366019296838203 0 0 0 0 -12.149038066694629 6.5139302354164101 0 6.5139302354164101 23.755380384591263 0 0 0 0 -29.360453888228221 -13.5694034717053 0 -13.5694034717053 26.47081244952642 0 0 0 0 -19.814105103028851 0.47191710625975247 0 0.47191710625975247 6.4403544603992486 0 0 0 0 -2.5225924103950099 -0.75805933311526985 0 -0.75805933311526985 0.59818486789859548 0 0 0 0 1.5530688941689732 11.125976991656898 0 11.125976991656898 25.917694594225395 0 0 0 0 -19.830936951941112 -0.25684407751032268 0 -0.25684407751032268 44.91945222853974 0 0 0 0 -8.0511879379628226 0.51949795234941121 0 0.51949795234941121 22.114083238442618 0 0 0 0 -3.2498365946266858 2.4229443184212869 0 2.4229443184212869 19.441087285806134 0 0 0 0 49.155741309503355 -21.870043713527593 0 -21.870043713527593 -21.534190114340163 0 0 0 0 -9.2952220799357832 -19.00042801107535 0 -19.00042801107535 3.9674558866285325 0 0 0 0 -67.875468320940854 -49.389148413005387 0 -49.389148413005387 30.222497871664018 0 0 0 0 -4.4822020446852662 -6.3815673836580586 0 -6.3815673836580586 30.468750716260047 0 0 0 0 -10.662424049809488 -32.315849357361913 0 -32.315849357361913 62.534943229493365 0 0 0 0 3.8677625164200435 -22.132219714990242 0 -22.132219714990242 68.780745192072573 0 0 0 0 19.479063283768483 -24.853582498210017 0 -24.853582498210017 54.407615382464428 0 0 0 0 116.59648849213772 -141.22481998446801 0 -141.22481998446801 113.86746924917179 0 0 0 0 0.37324248353893275 -1.1776634402139834 0 -1.1776634402139834 20.814285568367929 0 0 0 0 -146.64584633151389 -30.563896591859702 0 -30.563896591859702 113.29869999272341 0 0 0 0 90.049039204670407 -343.37589971306261 0 -343.37589971306261 363.9541527276233 0 0 0 0 215.94563418975304 -146.5018274413751 0 -146.5018274413751 57.545125665517844 0 0 0 0 18.463306958605244 -7.8049851374362333 0 -7.8049851374362333 157.58472174099643 0 0 0 0 24.261957711596324 -154.37375675316335 0 -154.37375675316335 1002.3592000896097 0 0 0 0 0.28410650987361485 0.087492350816731346 0 0.087492350816731346 7.6833725218518865 0 0 0 0 -66.537375908337708 248.18159003687015 0 248.18159003687015 581.37938339855646 0 0 0 0 746.38503788598973 -427.1106317033782 0 -427.1106317033782 192.96274073998575 0 0 0 0 -23.42010277729787 -381.06454512955406 0 -381.06454512955406 871.48829115581611 0 0 0 0 -70.824656227807282 -98.982788526163858 0 -98.982788526163858 62.466141400455854 0 0 0 0 -118.11441563023982 -147.01456893306568 0 -147.01456893306568 459.5124536666608 0 0 0 0 -150.15274412069266 -44.309756907477322 0 -44.309756907477322 269.94673232547029 0 0 0 0 8.6982856905851804 -216.00990614308876 0 -216.00990614308876 230.05319037149093 0 0 0 0 -106.34415144472223 -173.24668304141687 0 -173.24668304141687 279.70347029273216 0 0 0 0 -56.454960025635955 -227.76325915373127 0 -227.76325915373127 321.59148072646167 0 0 0 0 -20.080132007238035 -167.10741194989288 0 -167.10741194989288 279.7152225050213 0 0 0 0 -62.282304712305631 -161.23590320118819 0 -161.23590320118819 299.67292610746472 0 0 0 0 -19.601362290683028 -165.83072495693887 0 -165.83072495693887 185.67720000039481 0 0 0 0 31.76972082820771 -119.18760167734519 0 -119.18760167734519 212.31782061157719 0 0 0 0 -14.272118797071016 -69.622745599076552 0 -69.622745599076552 160.52642001981664 0 0 0 0 -17.035633889833662 -68.186885076426734 0 -68.186885076426734 341.98897401404065 0 0 0 0 -17.420596242947795 52.661511433678243 0 52.661511433678243 584.89152117826325 0 0 0 0 -40.309356718775234 -33.19507402009458 0 -33.19507402009458 300.74902887363169 0 0 0 0 17.44795336929019 -154.47202941748492 0 -154.47202941748492 433.94628635122535 0 0 0 0 44.567625733509431 32.702648939258552 0 32.702648939258552 414.41881944683337 0 0 0 0 -35.74699363156833 -87.300685111060375 0 -87.300685111060375 367.20602085274641 0 0 0 0 -83.203319841544726 -184.07493554070425 0 -184.07493554070425 307.09839340829149 0 0 0 0 -47.643760837137961 -136.79658087315647 0 -136.79658087315647 161.56898894110782 0 0 0 0 -11.34151486168048 -115.73858485813435 0 -115.73858485813435 166.98591856857092 0 0 0 0 -49.462613934902038 -144.24651811164495 0 -144.24651811164495 150.94066667720108 0 0 0 0 -40.078140177936319 -34.214927532684861 0 -34.214927532684861 -27.809819975242057 0 0 0 0 -73.743265202137991 4.6558918121206716 0 4.6558918121206716 -53.384729819936183 0 0 0 0 -135.28842965270633 -90.251012026622448 0 -90.251012026622448 181.79418759709188 0 0 0 0 -41.775783081069676 -53.185166014898641 0 -53.185166014898641 13.664284745889745 0 0 0 0 1.3456806394040584 -19.709185515405309 0 -19.709185515405309 5.3358592828542157 0 0 0 0 -40.073218910481046 -47.60557850605619 0 -47.60557850605619 1.905974080273154 0 0 0 0 -37.027940853026386 -34.332209032306487 0 -34.332209032306487 -24.110343711240482 0 0 0 0 -21.154645777655332 24.474621097538147 0 24.474621097538147 -31.583812411614417 0 0 0 0 65.931874296453316 -186.02851132743581 0 -186.02851132743581 47.952680434379999 0 0 0 0 -64.256333608057503 -24.176643410696443 0 -24.176643410696443 495.0780356422074 0 0 0 0 -9.6064638988497961 -9.6478327141792377 0 -9.6478327141792377 -3.4257510477863775 0 0 0 0 -235.07692307450634 -211.21724038060529 0 -211.21724038060529 587.15837037225356 0 0 0 0 -149.6434360690655 -269.01223308466069 0 -269.01223308466069 536.53090678364606 0 0 0 0 -61.227950092314131 -190.3246397213361 0 -190.3246397213361 505.13854882747 0 0 0 0 -50.286190967803122 37.357693883421234 0 37.357693883421234 509.90891791167473 0 0 0 0 -270.58426719009731 -387.16020140956243 0 -387.16020140956243 106.09801700994376 0 0 0 0 96.302047379514988 -245.33244822104734 0 -245.33244822104734 426.57117245670815 0 0 0 0 -136.86182316793565 -24.749953671735057 0 -24.749953671735057 486.39621332347906 0 0 0 0 -172.83212529618322 -68.062237412252216 0 -68.062237412252216 316.38128914863773 0 0 0 0 -315.20810039168646 -261.2944124415435 0 -261.2944124415435 537.77152297173052 0 0 0 0 -132.99127675053478 -105.85187710325931 0 -105.85187710325931 -4.1988275966086803 0 0 0 0 -118.53967806658602 -120.68019705638267 0 -120.68019705638267 -178.15936929974851 0 0 0 0 -87.203214874811238 -64.875653196266285 0 -64.875653196266285 -15.440967358866601 0 0 0 0 -143.24060110426944 -77.111090034975405 0 -77.111090034975405 -11.676664761051143 0 0 0 0 -150.27374108329775 -283.78056915514685 0 -283.78056915514685 -280.42546816004688 0 0 0 0 -153.6350182126007 -45.323539908617931 0 -45.323539908617931 -74.269455405968984 0 0 0 0 67.704441316302109 -153.19613965754797 0 -153.19613965754797 286.14908169464616 0 0 0 0 26.63694908565958 -189.50947934786018 0 -189.50947934786018 -558.56778006234754 0 0 0 0 -4.1114461911833047 -1.9792758392798966 0 -1.9792758392798966 1.2426325839555923 0 0 0 0 -1.1063294465486706 -1.8544112614913644 0 -1.8544112614913644 1.3886881307814427 0 0 0 0 -6.9440674250240875 0.033261994565869202 0 0.033261994565869202 1.6104982460379993 0 0 0 0 -4.1536785914057361 -5.1583807771146724 0 -5.1583807771146724 6.227676965219036 0 0 0 0 -96.299370037369954 66.284606940380399 0 66.284606940380399 -13.999531179295445 0 0 0 0 -118.08256886712479 -132.45070839026357 0 -132.45070839026357 -173.82339825559029 0 0 0 0 -62.171639307911391 -200.21788525869761 0 -200.21788525869761 -224.12291897437808 0 0 0 0 -7.3267032298681443 -66.386065337083892 0 -66.386065337083892 -356.09709655186634 0 0 0 0 -168.29869979579962 -153.57972019048248 0 -153.57972019048248 -35.587777011402068 0 0 0 0 252.88871853746241 -194.15866527424441 0 -194.15866527424441 -38.901981369998168 0 0 0 0 0.54127609630055673 0.54395980980699932 0 0.54395980980699932 0.19848218734230016 0 0 0 0 -346.27491368438859 24.085127769595601 0 24.085127769595601 -38.416211787432985 0 0 0 0 -23.017033638338035 100.1002383672876 0 100.1002383672876 25.312645918565977 0 0 0 0 -129.1155695342386 1.5451842721304274 0 1.5451842721304274 -48.430685192762667 0 0 0 0 -2.5320191468473325 0.083093197003314856 0 0.083093197003314856 2.8366707137715181 0 0 0 0 -219.43435210834105 68.62938845257213 0 68.62938845257213 130.39744912225433 0 0 0 0 186.35170943038247 -98.821288183789875 0 -98.821288183789875 35.523902184442704 0 0 0 0 17.339123474783264 -124.27771103553641 0 -124.27771103553641 92.086232580699289 0 0 0 0 -41.755742180790548 -58.49179785880915 0 -58.49179785880915 58.220908467177651 0 0 0 0 -82.374728364215116 -42.032623355056785 0 -42.032623355056785 72.490355969412121 0 0 0 0 -36.870684344670735 -46.672807912237658 0 -46.672807912237658 85.89225181650545 0 0 0 0 -47.679410184493463 -48.354647153895712 0 -48.354647153895712 44.738991826216079 0 0 0 0 -42.117059794449233 -20.845536863861525 0 -20.845536863861525 23.794513596429169 0 0 0 0 -70.788160266798513 -66.573301808201904 0 -66.573301808201904 105.7904544153007 0 0 0 0 -35.125825074788736 -6.1514524133672239 0 -6.1514524133672239 14.395324198474555 0 0 0 0 -6.8327272791753799 -14.054598929543637 0 -14.054598929543637 -9.3965642570307963 0 0 0 0 -10.721634403416601 -16.628740782598804 0 -16.628740782598804 5.9289585428929215 0 0 0 0 -1.6973668030963296 -2.8665119075552852 0 -2.8665119075552852 -3.2757562883278695 0 0 0 0 -62.922325556712167 -76.321625279796535 0 -76.321625279796535 -87.42921114764431 0 0 0 0 -17.266964019421721 -27.009680857410785 0 -27.009680857410785 -3.2853515677870746 0 0 0 0 -12.821652914631379 -34.606427304645592 0 -34.606427304645592 -10.788121627764848 0 0 0 0 -2.7423959414907486 -2.7411112676384661 0 -2.7411112676384661 1.7281887416588546 0 0 0 0 -14.314692140073021 -24.592181862705729 0 -24.592181862705729 115.18024968401005 0 0 0 0 10.546031531750486 -39.894642747860416 0 -39.894642747860416 42.90630903710553 0 0 0 0 -2.6720532577382983 -66.307992880745587 0 -66.307992880745587 29.451637811896944 0 0 0 0 -69.344524973304942 -89.705402776264236 0 -89.705402776264236 69.252116858704539 0 0 0 0 -30.902451920112071 -100.67913985079213 0 -100.67913985079213 28.507545358781499 0 0 0 0 -23.956406393346697 -38.530208197298634 0 -38.530208197298634 23.018255248425703 0 0 0 0 6.394570526532334 -88.659613426318174 0 -88.659613426318174 -2.9204134450410493 0 0 0 0 5.5302908446665242 -92.711521568537137 0 -92.711521568537137 19.477038520344649 0 0 0 0 -20.041022734021681 -49.493028709011014 0 -49.493028709011014 53.522882222910994 0 0 0 0 -4.4168461234729293 -2.800963741799336 0 -2.800963741799336 14.509990817996119 0 0 0 0 -125.35879952338291 -84.354128324886005 0 -84.354128324886005 -43.124432674478157 0 0 0 0 -119.36776157974236 -134.15962090649282 0 -134.15962090649282 197.44196369501969 0 0 0 0 16.979840904481534 -63.552757934314286 0 -63.552757934314286 -81.134508125417597 0 0 0 0 42.822791525532921 -40.175111182517412 0 -40.175111182517412 -69.3417218800314 0 0 0 0 -15.33853331472892 -26.282788388610243 0 -26.282788388610243 0.84349762401689077 0 0 0 0 34.50728561228425 -21.043852532583436 0 -21.043852532583436 -76.513030504430844 0 0 0 0 -17.1189854112381 -16.064613949395607 0 -16.064613949395607 4.1296270224700038 0 0 0 0 -54.414110936864745 -88.47972321076486 0 -88.47972321076486 -55.778832375948696 0 0 0 0 -1.9636339384040937 -14.397251387364307 0 -14.397251387364307 17.708578123361882 0 0 0 0 -13.995994475200206 -14.730235895892184 0 -14.730235895892184 18.388267060008889 0 0 0 0 -27.198230752651398 -37.63259164186934 0 -37.63259164186934 1.7352870985014306 0 0 0 0 -14.961418130769744 -14.24900656569298 0 -14.24900656569298 -67.155845051006281 0 0 0 0 -56.095017443731194 -80.354113471007281 0 -80.354113471007281 84.68141634398421 0 0 0 0 -1.0341905086554846 -2.4558712545602077 0 -2.4558712545602077 -3.8653433979793395 0 0 0 0 -44.660648537988891 -18.599088008543958 0 -18.599088008543958 77.010133081869185 0 0 0 0 -16.961987733891874 -10.060708468967732 0 -10.060708468967732 76.473229180802036 0 0 0 0 -79.132007789292402 -78.247452007066158 0 -78.247452007066158 175.46613527933528 0 0 0 0 -19.912216206401354 19.631316637359987 0 19.631316637359987 161.06945873030946 0 0 0 0 -51.982765087632288 -22.482193601189351 0 -22.482193601189351 108.64579743828904 0 0 0 0 60.416560467998352 -44.776193502711976 0 -44.776193502711976 106.56730587200582 0 0 0 0 -37.738301070516172 -70.274197375223025 0 -70.274197375223025 115.67240979803528 0 0 0 0 -44.469321345277422 -86.373366984683571 0 -86.373366984683571 111.79230704840433 0 0 0 0 -22.396836930536665 -65.507293586382815 0 -65.507293586382815 93.798548049737633 0 0 0 0 -60.866911358330981 -42.481260674273699 0 -42.481260674273699 97.252543821262066 0 0 0 0 -42.17991242746939 -69.519004113060362 0 -69.519004113060362 128.40789407632593 0 0 0 0 -5.9013160370506483 -20.118784838795079 0 -20.118784838795079 12.756762567030428 0 0 0 0 -26.625418591080233 -62.37192910067165 0 -62.37192910067165 -49.556173493886376 0 0 0 0 -1.3486917437821262 -2.7603291220715036 0 -2.7603291220715036 -1.1982312338007521 0 0 0 0 -24.409962105906743 -24.540454114429963 0 -24.540454114429963 99.508612512704502 0 0 0 0 -58.42934876907384 -46.380712807499492 0 -46.380712807499492 82.577947175627855 0 0 0 0 -14.531898973422358 -15.097291751918078 0 -15.097291751918078 21.294974242603075 0 0 0 0 -10.145936391869327 -38.211300160338737 0 -38.211300160338737 -162.52793180375329 0 0 0 0 -17.06311718642246 -30.076640361723548 0 -30.076640361723548 -2.3981889083811438 0 0 0 0 -3.2118884691981222 -3.5996407600545979 0 -3.5996407600545979 2.9371639420060394 0 0 0 0 -8.7132027429331416 -29.521816191696438 0 -29.521816191696438 -11.966137175987955 0 0 0 0 71.77305531393722 -35.491819638095194 0 -35.491819638095194 -24.216451875096027 0 0 0 0 29.954447410878856 -68.637955022313903 0 -68.637955022313903 -18.502816010622155 0 0 0 0 -4.7063983350451437 -13.249801667717009 0 -13.249801667717009 -16.353076156435435 0 0 0 0 -8.7175396864384709 -15.649308927651767 0 -15.649308927651767 10.075281786338319 0 0 0 0 -35.862727623491082 -24.299732883301033 0 -24.299732883301033 6.4533432869409353 0 0 0 0 -49.342041571246227 -25.899740717538236 0 -25.899740717538236 74.288828589152274 0 0 0 0 3.7705861206522968 -61.429992561710947 0 -61.429992561710947 83.773923093368808 0 0 0 0 -38.469105800395482 -39.673686581400091 0 -39.673686581400091 72.581427963537408 0 0 0 0 117.18115033935828 -198.06897144448857 0 -198.06897144448857 96.873582862637704 0 0 0 0 -27.34288957359604 -85.357726657600324 0 -85.357726657600324 103.50030151309033 0 0 0 0 -90.327403269191564 -89.133545762695348 0 -89.133545762695348 107.18724669772973 0 0 0 0 -150.77301675276249 -27.229734401026349 0 -27.229734401026349 65.745684713853734 0 0 0 0 -120.33589984376886 -85.624619526309289 0 -85.624619526309289 -31.168114597413933 0 0 0 0 -15.403055130685971 -129.41274976415957 0 -129.41274976415957 -109.44899199374822 0 0 0 0 7.4389048290904611 -59.944319448068569 0 -59.944319448068569 101.82066295321033 0 0 0 0 -92.948806530926959 -253.39941504944204 0 -253.39941504944204 -315.7920108274443 0 0 0 0 -252.44091497406771 -296.39361526781522 0 -296.39361526781522 -162.84330125643953 0 0 0 0 -481.93619773903265 -306.50477557141255 0 -306.50477557141255 -127.81736065680479 0 0 0 0 -217.17110681337272 -92.423870958425368 0 -92.423870958425368 -7.0044561428990164 0 0 0 0 -181.64071353341205 -425.07792154888216 0 -425.07792154888216 -520.88942002188196 0 0 0 0 -429.42325670021091 -499.68330357388322 0 -499.68330357388322 -490.35446931232548 0 0 0 0 -5.2333198846899904 -42.963084062377447 0 -42.963084062377447 8.9967248627922345 0 0 0 0 -7.8057281140354462 -49.607630236600698 0 -49.607630236600698 -6.7146429192043797 0 0 0 0 5.0209681128399097 -35.355839233617417 0 -35.355839233617417 -24.59071281538013 0 0 0 0 -281.55015297011414 5.6752412018402083 0 5.6752412018402083 53.234711303420909 0 0 0 0 -70.159840390126192 51.041955890377494 0 51.041955890377494 54.969814569084065 0 0 0 0 -54.828469845273503 -45.530440457062241 0 -45.530440457062241 -40.550139355329975 0 0 0 0 -39.753966612235672 -15.302568182995287 0 -15.302568182995287 6.3671405324566877 0 0 0 0 3.4841866248389124 -34.038872319912343 0 -34.038872319912343 7.1626915748486226 0 0 0 0 -44.360672325659834 -5.817445763227397 0 -5.817445763227397 35.16298135466468 0 0 0 0 -34.363449840864632 12.780466683595932 0 12.780466683595932 55.271317372711565 0 0 0 0 -72.133177039802831 31.024005804875515 0 31.024005804875515 -13.689950079428741 0 0 0 0 -158.51879295117033 -1.9237358127267044 0 -1.9237358127267044 47.356240738643464 0 0 0 0 -63.426703457276744 -3.8217877991830846 0 -3.8217877991830846 46.566122396928534 0 0 0 0 -98.961406696741733 5.112416151151713 0 5.112416151151713 91.490510256382549 0 0 0 0 -10.466340278500866 -17.888200017747863 0 -17.888200017747863 94.717104472887286 0 0 0 0 -57.271589624651824 7.8229957216578896 0 7.8229957216578896 108.1591624171037 0 0 0 0 -60.056153420751798 -30.411702692645349 0 -30.411702692645349 105.58565899027775 0 0 0 0 -21.598318953532726 26.925677694185879 0 26.925677694185879 71.316997235617919 0 0 0 0 -57.254031947770272 38.185337706572909 0 38.185337706572909 74.652548604595381 0 0 0 0 -45.171221898373915 9.6192851707428417 0 9.6192851707428417 62.749704086782913 0 0 0 0 10.692674780650123 58.395025247037211 0 58.395025247037211 74.597128301763405 0 0 0 0 11.035324217307789 65.488760538588281 0 65.488760538588281 167.12801781884173 0 0 0 0 -20.974297666478833 24.938827686445805 0 24.938827686445805 39.251636527405708 0 0 0 0 113.04894436126779 5.5035285613867018 0 5.5035285613867018 -26.925774548511754 0 0 0 0 -114.34653627708758 -171.18939708129119 0 -171.18939708129119 11.401043939256397 0 0 0 0 0.94163108767246229 -15.408079170677752 0 -15.408079170677752 18.329644799973785 0 0 0 0 0.55462081067871338 -0.74587895327908882 0 -0.74587895327908882 3.5175041556059607 0 0 0 0 -64.767768277612049 -30.961159198144742 0 -30.961159198144742 7.7214841618529135 0 0 0 0 140.90788993090291 -229.53818105386296 0 -229.53818105386296 -92.862863472678782 0 0 0 0 -145.56174802038004 177.63673534137092 0 177.63673534137092 206.13706404438562 0 0 0 0 241.89069816059055 47.720108326587933 0 47.720108326587933 32.608687523878416 0 0 0 0 52.683506113164185 -73.136851236764187 0 -73.136851236764187 170.14327168764797 0 0 0 0 -17.473239259750699 -18.454598946608257 0 -18.454598946608257 112.86474781566176 0 0 0 0 25.578452521949657 -14.62178114499784 0 -14.62178114499784 44.588770574270711 0 0 0 0 47.069415813559317 -40.926089368821522 0 -40.926089368821522 1.0818038178967981 0 0 0 0 6.2308000569119031 -21.985843364642903 0 -21.985843364642903 49.95330424075155 0 0 0 0 9.1766809242762974 10.143002194304017 0 10.143002194304017 8.0827278901333557 0 0 0 0 56.873869608491077 25.462332230338461 0 25.462332230338461 -4.3391101207969314 0 0 0 0 -43.273024379581329 -18.415958639338896 0 -18.415958639338896 10.087820520750029 0 0 0 0 -17.151975471279002 15.915130528930604 0 15.915130528930604 31.312916947901385 0 0 0 0 -1.6398076411642251 24.215302351804439 0 24.215302351804439 -7.3142854252873803 0 0 0 0 -11.486211152317992 3.1332812622417805 0 3.1332812622417805 7.7301740768625677 0 0 0 0 -25.983567047071119 7.9299944585973208 0 7.9299944585973208 33.999460059792739 0 0 0 0 6.8861897732767829 -28.651784187179487 0 -28.651784187179487 -1.2700027459982266 0 0 0 0 12.761689164974086 -20.78391782382505 0 -20.78391782382505 5.6335243457139086 0 0 0 0 2.9002870265612728 -34.138363462752977 0 -34.138363462752977 -5.3884723867445246 0 0 0 0 186.08131439493445 -190.27600244436394 0 -190.27600244436394 -446.42238842890765 0 0 0 0 1.2656001412919622 -2.3702942260994746 0 -2.3702942260994746 4.2674689420004555 0 0 0 0 -91.703040095992264 -13.914412493321009 0 -13.914412493321009 -4.1585294638443884 0 0 0 0 -90.378459304047283 -42.616475711794919 0 -42.616475711794919 16.031759141849761 0 0 0 0 205.59869670222542 78.740801078812183 0 78.740801078812183 -128.79379980007707 0 0 0 0 16.761419546672187 79.517499912974699 0 79.517499912974699 79.921327923689205 0 0 0 0 -50.686110601389373 -5.71762592632831 0 -5.71762592632831 38.731864192686317 0 0 0 0 -27.315468622102344 24.511952057275266 0 24.511952057275266 62.499480301205494 0 0 0 0 6.3322739219875075 43.17487433038491 0 43.17487433038491 -4.2223029746123757 0 0 0 0 34.937210438336479 -74.110260111807293 0 -74.110260111807293 -23.188023753296875 0 0 0 0 -6.0699398763390491 1.7263570578825238 0 1.7263570578825238 -47.496775220205109 0 0 0 0 -33.065877897315659 -34.542076059231476 0 -34.542076059231476 -26.804044110799623 0 0 0 0 4.4498400732409209 -110.69422264742116 0 -110.69422264742116 -21.225665865984865 0 0 0 0 -78.343662018050964 -56.588341555550983 0 -56.588341555550983 5.4945382877340307 0 0 0 0 -56.242690655199112 62.643677066347664 0 62.643677066347664 102.11870610653659 0 0 0 0 -8.4905345761853823 -4.784371983947949 0 -4.784371983947949 -3.891940829826126 0 0 0 0 -60.186278003435746 -33.61579003777814 0 -33.61579003777814 1.7644812938451651 0 0 0 0 -23.227427319383423 -46.371487172903016 0 -46.371487172903016 -33.329941740235881 0 0 0 0 0.069255444973805425 -1.4406260209660644 0 -1.4406260209660644 1.5770299877635381 0 0 0 0 -85.012119550578063 6.1758453572583676 0 6.1758453572583676 16.830228250957589 0 0 0 0 0.078741254149029771 -2.6331687654814289 0 -2.6331687654814289 2.1154041784605582 0 0 0 0 -7.135815742527484 1.3991904148342655 0 1.3991904148342655 17.121946451157783 0 0 0 0 103.73698683296243 -37.028047368678017 0 -37.028047368678017 -10.347772709614219 0 0 0 0 38.40089948034074 -8.542119417963022 0 -8.542119417963022 21.235571586104925 0 0 0 0 30.264607546403568 -79.878447101511483 0 -79.878447101511483 1.0431553117159638 0 0 0 0 37.301768601639196 -53.177916355011803 0 -53.177916355011803 5.4625015610198489 0 0 0 0 83.399172690522391 -25.155856506329656 0 -25.155856506329656 -1.9015332202179707 0 0 0 0 -242.22973296929558 -12.164476939756923 0 -12.164476939756923 147.20471352635332 0 0 0 0 35.277840887725233 -68.129011160996242 0 -68.129011160996242 -6.517427040002076 0 0 0 0 3.2035371953794254 -5.9681643034417462 0 -5.9681643034417462 14.655570582761564 0 0 0 0 17.904143520645448 -59.417542579174551 0 -59.417542579174551 -10.233502257415239 0 0 0 0 16.708527473456343 -72.106851718095641 0 -72.106851718095641 18.483992278856022 0 0 0 0 -77.997717047617698 -13.934391479069745 0 -13.934391479069745 2.0371805503145879 0 0 0 0 -90.961605986572977 -16.352668061122131 0 -16.352668061122131 67.325499807173401 0 0 0 0 -64.571022503674612 -108.32997997812072 0 -108.32997997812072 137.52058970140206 0 0 0 0 23.582046169471141 65.732694103532594 0 65.732694103532594 31.74284876182719 0 0 0 0 -100.40358871398075 -17.712424809012873 0 -17.712424809012873 46.586153978008952 0 0 0 0 97.98635707271751 -98.36223703642554 0 -98.36223703642554 14.394283425031972 0 0 0 0 16.699885566646117 -70.390451287523319 0 -70.390451287523319 12.619181479913095 0 0 0 0 -91.15154778494616 127.91662018207899 0 127.91662018207899 87.579186120754457 0 0 0 0 -242.50524372780637 97.115428394667106 0 97.115428394667106 150.66356650103626 0 0 0 0 -1.9171539656941832 -3.3352426201137106 0 -3.3352426201137106 4.8675441288230381 0 0 0 0 -63.947600210842211 -106.34172994618712 0 -106.34172994618712 -169.84889209203538 0 0 0 0 -24.700739802722978 -122.23443381110417 0 -122.23443381110417 -102.58128508190566 0 0 0 0 -12.205441776422589 -16.704186956524453 0 -16.704186956524453 16.560154267642417 0 0 0 0 -31.577974338913918 -55.532255414473184 0 -55.532255414473184 -110.66267302533379 0 0 0 0 -67.826379884608286 -121.15991916057442 0 -121.15991916057442 -90.759415904776688 0 0 0 0 8.2674816421767048 -10.183217044791704 0 -10.183217044791704 5.747029944551997 0 0 0 0 351.13036175411253 -93.13414727500458 0 -93.13414727500458 -75.18048042580449 0 0 0 0 -73.322078742763551 -78.177373354657902 0 -78.177373354657902 -65.524638440816489 0 0 0 0 -6.120911831387275 -109.35919148077301 0 -109.35919148077301 -106.81620999726147 0 0 0 0 -104.16270460764281 -97.5643343497768 0 -97.5643343497768 -12.391834552894579 0 0 0 0 -20.649496818935773 -14.659004062551375 0 -14.659004062551375 13.512604745507527 0 0 0 0 -39.19534586708869 -10.939751605134006 0 -10.939751605134006 0.058810920774703845 0 0 0 0 -31.457716002099914 -24.630695606712834 0 -24.630695606712834 19.326853116877828 0 0 0 0 -24.392942732192751 -41.47128437878564 0 -41.47128437878564 -15.636116763242171 0 0 0 0 -71.663056800061895 -20.79191320287805 0 -20.79191320287805 -7.1823262375764898 0 0 0 0 -1.2298413198793199 -12.812726428723138 0 -12.812726428723138 -9.5932752981360281 0 0 0 0 -8.1792807707897737 -21.998184402786137 0 -21.998184402786137 -16.763339416822419 0 0 0 0 -20.751464806572585 -45.31363398542571 0 -45.31363398542571 105.98105539112703 0 0 0 0 -16.679029568559542 -27.59400928523662 0 -27.59400928523662 18.643916588694623 0 0 0 0 -12.77191246493021 -52.369367345163482 0 -52.369367345163482 -14.450638745311153 0 0 0 0 -0.34372358315576435 -11.0569452507821 0 -11.0569452507821 -0.87138822079311318 0 0 0 0 -25.192986364127137 -25.41282031819992 0 -25.41282031819992 -53.921522077804639 0 0 0 0 -9.5268079743764247 -40.820566076806699 0 -40.820566076806699 -40.211751276180621 0 0 0 0 -13.591590738504237 -3.3126076903809007 0 -3.3126076903809007 35.494169559948659 0 0 0 0 -22.341823311162443 -35.250247666492214 0 -35.250247666492214 -36.61859996603016 0 0 0 0 -26.483406221974292 -48.657505529529772 0 -48.657505529529772 -13.543105493525218 0 0 0 0 4.2467739876434791 -5.5299902869445674 0 -5.5299902869445674 6.9717988811754523 0 0 0 0 -8.4674391980006476 -56.219540993362898 0 -56.219540993362898 -41.586602047590532 0 0 0 0 -15.17818227114185 -58.274074577577267 0 -58.274074577577267 -11.394115102196793 0 0 0 0 -102.64272698629793 -99.396742819108113 0 -99.396742819108113 -22.361821284488542 0 0 0 0 -98.923008127174398 -90.482010054274724 0 -90.482010054274724 -25.351015029720656 0 0 0 0 -19.63109131528654 -32.169783594254113 0 -32.169783594254113 -33.224069059921021 0 0 0 0 24.863761898905068 -8.1263375304802139 0 -8.1263375304802139 -37.808452944882447 0 0 0 0 -68.951979213408777 5.9724919499458338 0 5.9724919499458338 129.19576260889517 0 0 0 0 0.68989092391555573 -1.9926332626559642 0 -1.9926332626559642 2.9491403678966748 0 0 0 0 -98.359326339352265 -65.79227783382521 0 -65.79227783382521 -0.98630911770305829 0 0 0 0 -58.530442783609942 -18.451020344987455 0 -18.451020344987455 40.278069613294065 0 0 0 0 -117.09990831552568 -71.600998631416587 0 -71.600998631416587 20.355530453016399 0 0 0 0 -122.85129883671834 -77.730342815247241 0 -77.730342815247241 15.36359331625863 0 0 0 0 -78.921126160610584 -75.152349092371878 0 -75.152349092371878 -0.72813103747103014 0 0 0 0 -79.459680245456184 -71.81745772497743 0 -71.81745772497743 46.813898903285008 0 0 0 0 -97.38247128895091 -105.73196238440778 0 -105.73196238440778 73.330382866824948 0 0 0 0 -96.268449879295076 -112.26357477318379 0 -112.26357477318379 30.333359048339844 0 0 0 0 -83.563777055125684 -95.304510397299964 0 -95.304510397299964 -8.1807083763196715 0 0 0 0 -28.313733745111676 -143.11535835625 0 -143.11535835625 32.193511846275214 0 0 0 0 -24.778456246670146 -119.68709048052959 0 -119.68709048052959 -12.559794620425237 0 0 0 0 -24.763329770421677 -122.31766447817698 0 -122.31766447817698 -29.49200150033721 0 0 0 0 -97.38996749605576 -86.404217217228506 0 -86.404217217228506 -16.129808857520402 0 0 0 0 -92.059987046617607 -103.50068817599094 0 -103.50068817599094 29.471457146371904 0 0 0 0 143.02093488909304 22.344626322395925 0 22.344626322395925 -98.446663624679786 0 0 0 0 125.26588016375899 19.391747851039327 0 19.391747851039327 -41.634938805964339 0 0 0 0 21.657669938598701 -148.7471457767042 0 -148.7471457767042 16.488859155866521 0 0 0 0 218.94990472896461 -94.625135593897539 0 -94.625135593897539 -68.704093237491179 0 0 0 0 6.1560526519824634 -118.55554686925461 0 -118.55554686925461 -14.402252439789663 0 0 0 0 294.929523670653 -231.78200926109639 0 -231.78200926109639 37.006746413870133 0 0 0 0 -41.316130719955254 -123.4805447799697 0 -123.4805447799697 187.5505582787373 0 0 0 0 65.450609419043758 70.582883016144478 0 70.582883016144478 297.71343860879642 0 0 0 0 441.72124519603676 73.847022394013948 0 73.847022394013948 -33.67636920095174 0 0 0 0 -92.777876483422006 100.46843059228559 0 100.46843059228559 61.733122783067301 0 0 0 0 0.14784787171618063 -3.1604540165522081 0 -3.1604540165522081 -15.118215171203346 0 0 0 0 60.78302785716096 32.086425764106707 0 32.086425764106707 -18.219207218662632 0 0 0 0 38.296349291911611 -22.349356806072137 0 -22.349356806072137 -66.771234691781501 0 0 0 0 -0.087863487904542126 6.0006645400872003 0 6.0006645400872003 -9.3323909761847972 0 0 0 0 -0.061765332237136761 -0.11736728055451096 0 -0.11736728055451096 -1.2608144921011402 0 0 0 0 -18.354032376239047 22.346734894920246 0 22.346734894920246 -11.812759686388745 0 0 0 0 9.1579189829935785 12.894890688921805 0 12.894890688921805 106.59916943287681 0 0 0 0 -0.032395808886320765 -4.9521953649996036 0 -4.9521953649996036 -22.068257106059193 0 0 0 0 127.88835289363487 30.393843018495318 0 30.393843018495318 -93.980927650918602 0 0 0 0 39.568685136047861 -66.50547431431437 0 -66.50547431431437 -210.90823986585747 0 0 0 0 -2.1832973325872445 4.2250902319065062 0 4.2250902319065062 19.273522228650108 0 0 0 0 -2.0548512116733662 -8.5727322793472496 0 -8.5727322793472496 -14.660911049407858 0 0 0 0 -3.2571390707393562 -56.404658094667205 0 -56.404658094667205 -75.912691484956667 0 0 0 0 62.724935605379869 -63.449874399538203 0 -63.449874399538203 -12.146109719785443 0 0 0 0 29.362718259792018 4.8534650296414839 0 4.8534650296414839 -56.107697881438071 0 0 0 0 5.634514999390376 -9.9053683741854002 0 -9.9053683741854002 -7.0372068446777121 0 0 0 0 -1.979069361164278 -8.946140950980265 0 -8.946140950980265 -21.140658547336447 0 0 0 0 12.313668957351183 -4.2013656832496054 0 -4.2013656832496054 19.46591584815036 0 0 0 0 -3.0236853895769684 -11.230889013010817 0 -11.230889013010817 -22.926538822113415 0 0 0 0 10.998312393014203 -205.85494349690998 0 -205.85494349690998 -63.627289483327445 0 0 0 0 76.156208222597343 72.806024176546089 0 72.806024176546089 -90.653664795157965 0 0 0 0 -29.566021877217281 -90.287889971901677 0 -90.287889971901677 -78.073341409835848 0 0 0 0 26.520786261884496 -102.39528804885049 0 -102.39528804885049 -113.37376740161312 0 0 0 0 46.642787095479434 -138.15473266886147 0 -138.15473266886147 -72.796557827718061 0 0 0 0 25.958519697807787 -66.662529016673943 0 -66.662529016673943 -68.641465627024445 0 0 0 0 -11.258616502051154 -108.38936002680293 0 -108.38936002680293 -85.133325189832249 0 0 0 0 67.682097391894786 -84.963571948883327 0 -84.963571948883327 -124.47595291653852 0 0 0 0 0.12724613521813666 -5.2552616277697979 0 -5.2552616277697979 -1.2100363876972722 0 0 0 0 -20.559953862295515 -63.443493639086455 0 -63.443493639086455 -101.94302300350682 0 0 0 0 88.100310630907188 -50.432803929685178 0 -50.432803929685178 -68.219059854869556 0 0 0 0 30.178776696149725 -93.86475461848022 0 -93.86475461848022 -114.11933668795791 0 0 0 0 44.613936243047647 -44.744939114607405 0 -44.744939114607405 -91.430999992837314 0 0 0 0 27.977014963122201 -69.646547735916101 0 -69.646547735916101 -103.48280852885 0 0 0 0 -37.790517115499824 -37.083609592431458 0 -37.083609592431458 -87.216456199443201 0 0 0 0 -48.058797963603865 -62.534543846108136 0 -62.534543846108136 -81.724563100506202 0 0 0 0 50.339480277412804 -67.338218716613483 0 -67.338218716613483 -110.04275468801643 0 0 0 0 23.062304886043421 -47.267460810777266 0 -47.267460810777266 43.836074906197609 0 0 0 0 -84.439947505365126 -52.974094380158931 0 -52.974094380158931 -46.189008410525275 0 0 0 0 1.756865526650742 -26.560667194478114 0 -26.560667194478114 33.619903091586153 0 0 0 0 -34.185712304170011 -108.64407164753356 0 -108.64407164753356 2.7063939194922568 0 0 0 0 -236.75349913408422 -99.955261675660893 0 -99.955261675660893 46.771500673756236 0 0 0 0 7.2352265963600928 -7.1100066093327854 0 -7.1100066093327854 -12.586961602568749 0 0 0 0 40.354828646431997 -103.44523884817409 0 -103.44523884817409 -40.562748301526881 0 0 0 0 41.489864312861755 -4.0379959262500051 0 -4.0379959262500051 27.516261198266875 0 0 0 0 -2.5222076581405872 -13.622438839000964 0 -13.622438839000964 17.7502715112498 0 0 0 0 -17.786437268077862 -22.182133061534842 0 -22.182133061534842 -6.1927952660626033 0 0 0 0 -20.658435993535932 -41.373385464623425 0 -41.373385464623425 33.912248531996738 0 0 0 0 2.0279110798480815 -22.706308876049164 0 -22.706308876049164 11.876407679160067 0 0 0 0 -0.59170268009884808 -38.80016211787899 0 -38.80016211787899 36.356302974210536 0 0 0 0 -42.058191247386276 -42.016693458548616 0 -42.016693458548616 15.397116097679827 0 0 0 0 -1.8872502278827596 9.8122133132328599 0 9.8122133132328599 53.601098066312261 0 0 0 0 -13.404720411155722 -38.065426151810243 0 -38.065426151810243 45.568608838642831 0 0 0 0 -18.815806323298602 -24.108921200573604 0 -24.108921200573604 29.194589433049259 0 0 0 0 -87.794247185083805 -21.871995995690668 0 -21.871995995690668 51.532039429192082 0 0 0 0 14.958333221060457 -18.398795502940629 0 -18.398795502940629 -9.5621098816191079 0 0 0 0 33.047142647163128 -20.021531010149829 0 -20.021531010149829 -37.425876417495601 0 0 0 0 1.7751780629957352 -12.951765672947058 0 -12.951765672947058 -27.340228398770883 0 0 0 0 -1.2213430786714525 -16.149966365697765 0 -16.149966365697765 -16.951748931101868 0 0 0 0 27.937238086560683 -11.076099147523109 0 -11.076099147523109 -53.038000895250661 0 0 0 0 -8.2190328505748766 -16.39620068980139 0 -16.39620068980139 -15.21890415339476 0 0 0 0 9.660069124554866 -3.3448192703481254 0 -3.3448192703481254 -24.716098192463505 0 0 0 0 2.1982433605594167 -5.9351173751817612 0 -5.9351173751817612 -1.9092883381492456 0 0 0 0 -18.296132217272316 -21.156622119557824 0 -21.156622119557824 -3.1311600174385603 0 0 0 0 -21.345110808997561 -25.37662462860726 0 -25.37662462860726 -20.046291782655771 0 0 0 0 0.71362161469490104 -3.9369508068086958 0 -3.9369508068086958 -3.1086411004774117 0 0 0 0 0.19721468470223158 -4.8992385126813112 0 -4.8992385126813112 -2.4697221466145418 0 0 0 0 -20.280164474970661 -26.097769290490305 0 -26.097769290490305 -22.004543530703813 0 0 0 0 3.4194063236936927 -3.7084078143088846 0 -3.7084078143088846 -22.551452922496537 0 0 0 0 -4.8780594260315411 -12.179800776408229 0 -12.179800776408229 -1.4474990521557629 0 0 0 0 -10.04426953032285 -12.579433349840052 0 -12.579433349840052 -2.9341785706329158 0 0 0 0 -2.8306493940707895 -16.798862143130528 0 -16.798862143130528 3.9591577337102279 0 0 0 0 -2.6573327006481122 -17.190435461972811 0 -17.190435461972811 -10.058932526764693 0 0 0 0 -6.0075808577979757 -19.782251037224896 0 -19.782251037224896 -21.511293519971311 0 0 0 0 -17.750753948115744 -17.199467484595516 0 -17.199467484595516 -12.572259169868857 0 0 0 0 -21.539708555545076 -25.011730027303201 0 -25.011730027303201 71.374732989064796 0 0 0 0 -0.20507432069564402 -5.1608634451668998 0 -5.1608634451668998 1.8035335465945783 0 0 0 0 30.902079727396995 -29.780367333298727 0 -29.780367333298727 8.1342011923334212 0 0 0 0 1.6446917336725164 -21.602149498527069 0 -21.602149498527069 21.306693120888667 0 0 0 0 3.7045456611522241 -8.2786336764456792 0 -8.2786336764456792 -0.59064689716797147 0 0 0 0 9.4674024233681848 -16.742982598062554 0 -16.742982598062554 3.5772273386796769 0 0 0 0 -0.83953274203052786 -18.765974868717379 0 -18.765974868717379 19.300053285781967 0 0 0 0 4.3535981582826935 -18.898999370743695 0 -18.898999370743695 2.0053204020732665 0 0 0 0 7.5046119028276053 -12.869804508045666 0 -12.869804508045666 -8.9233296737384507 0 0 0 0 -6.7330162756004199 -33.458431296094204 0 -33.458431296094204 -31.956428476192137 0 0 0 0 -2.9775416390621103 -22.840835312636045 0 -22.840835312636045 -9.585107797945966 0 0 0 0 -3.472694797150325 -23.497301505711221 0 -23.497301505711221 -3.7586969638214214 0 0 0 0 -4.6277123251347803 -20.509193006662827 0 -20.509193006662827 -5.9527212721513934 0 0 0 0 -5.1145284998427627 -20.452893498773506 0 -20.452893498773506 -5.8283150534849852 0 0 0 0 -4.066551864030771 -18.500178436832357 0 -18.500178436832357 -3.0615835282660555 0 0 0 0 -3.5751339055752567 -13.204416304222363 0 -13.204416304222363 -1.9802437527944294 0 0 0 0 -5.8981496392896702 -14.205393462286906 0 -14.205393462286906 -10.983151185775473 0 0 0 0 -3.3016387826064602 -10.124358287997893 0 -10.124358287997893 -1.4821216937873487 0 0 0 0 -1.3801622731287608 -18.184835422078052 0 -18.184835422078052 -2.2280524198942615 0 0 0 0 -1.2499282219591574 -10.479918974297391 0 -10.479918974297391 0.75917198165249644 0 0 0 0 0.96520394821840938 -10.062075082117168 0 -10.062075082117168 -4.3749752511253774 0 0 0 0 -2.9680674033944427 -8.9339208869677975 0 -8.9339208869677975 0.73442875791119988 0 0 0 0 8.597058933628432 -14.492987382443971 0 -14.492987382443971 -0.9495279813727393 0 0 0 0 2.34702341466771 -5.6900853783588374 0 -5.6900853783588374 -2.832365070428974 0 0 0 0 15.445767340221209 -9.7267292864275987 0 -9.7267292864275987 -2.2013631738500408 0 0 0 0 1.3952661339217372 -8.6679581889710633 0 -8.6679581889710633 -1.5048442417755652 0 0 0 0 8.1795197544415714 -12.659034616109238 0 -12.659034616109238 -0.45717938071209119 0 0 0 0 -3.0446860790060235 -8.8104597315450377 0 -8.8104597315450377 -2.4871647710531288 0 0 0 0 -12.150605712049583 -7.3990780223844013 0 -7.3990780223844013 -4.4930483353981572 0 0 0 0 -1.7884340581658762 -22.729947142049383 0 -22.729947142049383 -10.088629260772905 0 0 0 0 -8.3229198119006469 -8.3864197528198474 0 -8.3864197528198474 -3.492198866400031 0 0 0 0 0.41733226489799335 -4.7970401717284474 0 -4.7970401717284474 -5.3804429927341157 0 0 0 0 12.596901490105665 -27.912561796443924 0 -27.912561796443924 3.3179121125967868 0 0 0 0 8.251657551722019 -15.686082101701459 0 -15.686082101701459 -5.8240867060671917 0 0 0 0 -0.44153992495317596 -7.0866161568986428 0 -7.0866161568986428 2.4389214557540626 0 0 0 0 10.002512539358577 -6.5791807186024016 0 -6.5791807186024016 -0.1963364035742643 0 0 0 0 3.3141644618707797 -7.1832693473679399 0 -7.1832693473679399 -2.4677339303306027 0 0 0 0 -2.0385941459721408 -3.4840091296277649 0 -3.4840091296277649 1.6864326887091496 0 0 0 0 -5.8187214630524977 -8.7423636620086995 0 -8.7423636620086995 -5.9180972075562579 0 0 0 0 -11.620064800679756 -17.641651709675799 0 -17.641651709675799 -0.98574366462094076 0 0 0 0 -13.455415180307682 -11.656377720567875 0 -11.656377720567875 -10.693118861342327 0 0 0 0 -17.319617417293557 -21.189274501333387 0 -21.189274501333387 -6.5127876803135223 0 0 0 0 1.7981716864701127 -5.3088403719878698 0 -5.3088403719878698 -1.449435253430126 0 0 0 0 -13.296081986838544 -16.98850898787714 0 -16.98850898787714 -10.660929485671204 0 0 0 0 -7.6492636404764056 -10.814592577509117 0 -10.814592577509117 -7.8476997322932904 0 0 0 0 1.8697096346110555 -4.4267616347133156 0 -4.4267616347133156 -0.44461797028168348 0 0 0 0 -15.353410183612141 -17.651493228990148 0 -17.651493228990148 -9.8876947133217072 0 0 0 0 -8.2034325638815062 -15.255157146396414 0 -15.255157146396414 -9.924221896320887 0 0 0 0 -4.6073582531535067 -9.148567941137344 0 -9.148567941137344 -5.7941376071851209 0 0 0 0 -4.2432751850874695 -7.500595675101323 0 -7.500595675101323 -4.1744257368828155 0 0 0 0 1.2110133278826822 -3.2846405941400718 0 -3.2846405941400718 -1.2677747682260527 0 0 0 0 -1.2358836489194118 -4.9546152821902112 0 -4.9546152821902112 0.28215250784160162 0 0 0 0 -1.2398631090309209 -5.1473627941967948 0 -5.1473627941967948 -3.6252668641691344 0 0 0 0 -1.804190263696853 -2.9866504363105264 0 -2.9866504363105264 0.36232794250468636 0 0 0 0 2.3127250110887019 -3.2385500660016788 0 -3.2385500660016788 -2.293144064272969 0 0 0 0 -2.6526172915328061 -10.044670010946902 0 -10.044670010946902 -13.293974255652756 0 0 0 0 38.697683017933741 -12.524394009566322 0 -12.524394009566322 -58.595072917622019 0 0 0 0 14.500439677227405 -48.902323684038493 0 -48.902323684038493 -20.842145628235812 0 0 0 0 -4.3466130683664232 12.305669775601928 0 12.305669775601928 -34.152477647347041 0 0 0 0 0.48904873094197399 -1.2789187537494655 0 -1.2789187537494655 -2.5292309017661196 0 0 0 0 -4.1465381153102499 -22.324472342900208 0 -22.324472342900208 -60.664760676547303 0 0 0 0 -0.82335041047554114 7.8145351357129584 0 7.8145351357129584 -51.55792760760778 0 0 0 0 9.9585974577712477 -4.0438935321762983 0 -4.0438935321762983 -39.307351122273531 0 0 0 0 -5.0239654734868964 3.2683243722376574 0 3.2683243722376574 -26.010996875427736 0 0 0 0 -0.072822910164632049 0.26330891981357496 0 0.26330891981357496 -1.118131732336602 0 0 0 0 -5.0270340192364529 -8.0163246282427281 0 -8.0163246282427281 -16.070758499639624 0 0 0 0 -7.0451367313944502 21.765182225133685 0 21.765182225133685 -55.068231927444685 0 0 0 0 -7.0837112497029011 1.028045184939856 0 1.028045184939856 -14.783718404440151 0 0 0 0 -16.700368962181528 -20.278335204054201 0 -20.278335204054201 -28.158952591196794 0 0 0 0 -0.24089156519510091 -0.79669076381755133 0 -0.79669076381755133 -0.87034514712858524 0 0 0 0 -2.0384510697476799 -5.4287631135230185 0 -5.4287631135230185 -0.70156900828378355 0 0 0 0 0.066095848359708498 -4.42896124489722 0 -4.42896124489722 -1.5014942860604863 0 0 0 0 -2.7934864720446058 -10.784401267042995 0 -10.784401267042995 -13.578817561836331 0 0 0 0 1.3458438993447963 -3.3413425726880206 0 -3.3413425726880206 -8.4779581900037613 0 0 0 0 4.0989312422516377 -5.540088231201139 0 -5.540088231201139 -15.63959189196612 0 0 0 0 -2.7827364273608026 -4.159936791124899 0 -4.159936791124899 -2.1633992551305621 0 0 0 0 -2.6996229283249704 0.020221801319166843 0 0.020221801319166843 -30.717563984511798 0 0 0 0 -0.49202013250604182 -3.238161116480331 0 -3.238161116480331 -1.3106780807089711 0 0 0 0 -3.1275043994246516 -1.8005270215144265 0 -1.8005270215144265 -25.058733872381708 0 0 0 0 -1.9958755660349823 -0.85858262162339116 0 -0.85858262162339116 2.7828975492527519 0 0 0 0 -1.7091549100732664 -7.0160762591378898 0 -7.0160762591378898 -4.0334888120260075 0 0 0 0 -1.3256266263215366 -5.790857698860691 0 -5.790857698860691 -3.4859702759267748 0 0 0 0 -3.5853347688098438 -7.7416320354436721 0 -7.7416320354436721 -4.0214936594578816 0 0 0 0 -2.0278003088096739 -6.85608110838416 0 -6.85608110838416 -4.1317978954343744 0 0 0 0 -1.9207388835893653 -6.13471835150267 0 -6.13471835150267 -3.2267782269145755 0 0 0 0 -0.25655798458840451 -3.7933647203143437 0 -3.7933647203143437 -1.8183882541646295 0 0 0 0 -1.8684746819826614 -5.7547626183786917 0 -5.7547626183786917 -3.9972253155992803 0 0 0 0 -4.2067141574807465 -1.5094629974091731 0 -1.5094629974091731 1.7964458265777807 0 0 0 0 -3.8089013118852506 -4.4632820977058287 0 -4.4632820977058287 -3.4353175847519948 0 0 0 0 -0.40154165296884337 -1.6760404696726141 0 -1.6760404696726141 0.10432423618094727 0 0 0 0 -1.5439179005874024 -1.5579519983939036 0 -1.5579519983939036 3.705358135718583 0 0 0 0 -2.6406883508097962 -6.7293314311399399 0 -6.7293314311399399 -3.6566671941181994 0 0 0 0 -4.0240781229513232 -5.9348591706138905 0 -5.9348591706138905 -4.0047358135086029 0 0 0 0 -2.1111331720661148 -4.7147548298752326 0 -4.7147548298752326 -0.34201557326779053 0 0 0 0 -2.1228929075479073 -4.9937420731011883 0 -4.9937420731011883 -2.4312056129527266 0 0 0 0 1.1753718913241755 -3.8866411693561531 0 -3.8866411693561531 0.87726705589375342 0 0 0 0 -0.86695730112052161 -1.898084629071711 0 -1.898084629071711 0.37130328062195606 0 0 0 0 -2.8881594103004318 -7.4014652947075774 0 -7.4014652947075774 -4.7760131568084034 0 0 0 0 -5.8491263149189763 -8.5072327521831426 0 -8.5072327521831426 -7.1514630101301009 0 0 0 0 1.6333323649874387 -2.9862188906330402 0 -2.9862188906330402 -1.7039366516092112 0 0 0 0 -2.6836272268483299 -6.4014378062634023 0 -6.4014378062634023 -4.3658433404907555 0 0 0 0 26.431547641383077 -53.511343549346179 0 -53.511343549346179 62.068882492974865 0 0 0 0 0.67506655283978034 -0.0061739150527131414 0 -0.0061739150527131414 0.7406141815756655 0 0 0 0 27.711072559497552 -33.415640083591143 0 -33.415640083591143 29.814514337266587 0 0 0 0 92.38642652528506 -75.160892960907518 0 -75.160892960907518 46.716626787008181 0 0 0 0 74.796227650658693 -62.98489236624561 0 -62.98489236624561 46.422804222611717 0 0 0 0 -1.2598158931382102 -0.29988999017972873 0 -0.29988999017972873 0.8327801441378202 0 0 0 0 -2.2965989491785876 -5.731631225944966 0 -5.731631225944966 -4.1745263346820138 0 0 0 0 4.5758720904996153 -4.2006542106687448 0 -4.2006542106687448 -10.190401836069668 0 0 0 0 -1.3330811835648717 -3.2239652806625543 0 -3.2239652806625543 -2.3011390108413625 0 0 0 0 16.953770653723041 9.5075475706121324 0 9.5075475706121324 -56.19038641798852 0 0 0 0 -1.4180375494330519 0.3242978827146743 0 0.3242978827146743 1.1547978851641147 0 0 0 0 -2.8783089104690589 8.5117769191019761 0 8.5117769191019761 -14.576650812314256 0 0 0 0 0.057162237371812807 -38.064289891309045 0 -38.064289891309045 56.016468435460638 0 0 0 0 2.3424758979381295 -1.7228233172290857 0 -1.7228233172290857 63.98228758098503 0 0 0 0 0.026052172557683662 -64.35128221271134 0 -64.35128221271134 -35.852001485816572 0 0 0 0 -0.84183116916605627 -0.86640143534281844 0 -0.86640143534281844 -1.3384615569515756 0 0 0 0 -0.53911682320540422 -22.244555470828288 0 -22.244555470828288 -22.828746477251116 0 0 0 0 1.4169808499653129 1.2571451937220672 0 1.2571451937220672 -4.3076872463690563 0 0 0 0 0.45800029023666866 -2.7145429134493497 0 -2.7145429134493497 -19.607051213617524 0 0 0 0 0.95308836196068114 1.0311088398388684 0 1.0311088398388684 -2.3244708315607108 0 0 0 0 -0.35930210459628142 -1.2651996585791494 0 -1.2651996585791494 -5.9268183272743045 0 0 0 0 -0.65140305786280805 -3.8456301764843488 0 -3.8456301764843488 -2.673348698072914 0 0 0 0 -6.7079082870477578 -7.7371738866002033 0 -7.7371738866002033 15.412236716298594 0 0 0 0 -1.3665204507817776 -3.6571705574516926 0 -3.6571705574516926 -2.6276760450984895 0 0 0 0 -0.75870321580441669 -2.8023546231306682 0 -2.8023546231306682 -6.3791333181397931 0 0 0 0 0.96458576152144815 -4.1476148604315881 0 -4.1476148604315881 -7.6509861940703559 0 0 0 0 0.03750246493780196 -1.5164486978839538 0 -1.5164486978839538 -3.8563657573586738 0 0 0 0 6.1503840952555038 -9.8718003462558954 0 -9.8718003462558954 -35.763550474137446 0 0 0 0 -0.58525449837259913 -3.5756962905158929 0 -3.5756962905158929 -9.8479953084982021 0 0 0 0 -5.9394976659605163 1.0638186613587095 0 1.0638186613587095 9.3617660444783724 0 0 0 0 0.32357615618442992 -2.6401013829631452 0 -2.6401013829631452 -3.655084983320136 0 0 0 0 2.1434084480279125 -4.0971561514325003 0 -4.0971561514325003 -12.50871487841232 0 0 0 0 -0.001215420266817091 -4.3143928552094621 0 -4.3143928552094621 -12.9012521256127 0 0 0 0 0.81386470983852632 -5.2596490766686657 0 -5.2596490766686657 -13.318925632227547 0 0 0 0 0.21935527788446052 -2.5006946143355435 0 -2.5006946143355435 -7.4089695825841773 0 0 0 0 0.002185479286708869 -4.1015106841996385 0 -4.1015106841996385 -6.4200106969922217 0 0 0 0 -0.86165582150801612 -2.0583990734507722 0 -2.0583990734507722 -5.881766507640549 0 0 0 0 1.6337390084299841 -2.0362042342794666 0 -2.0362042342794666 -3.9161237803382392 0 0 0 0 -32.579086150744843 62.780312580843656 0 62.780312580843656 -41.318199305886083 0 0 0 0 6.7424054436414735 48.918189790722408 0 48.918189790722408 -62.283430004214779 0 0 0 0 4.6711222062804154 -21.057468621302633 0 -21.057468621302633 -52.865763746050106 0 0 0 0 -29.642640048112298 34.051856262695424 0 34.051856262695424 -53.896055336816062 0 0 0 0 30.064394525317766 13.675786922536645 0 13.675786922536645 -68.607575394406922 0 0 0 0 8.1111239351739641 33.413096389917882 0 33.413096389917882 -73.569715648022793 0 0 0 0 22.500691026441928 5.4910747473695665 0 5.4910747473695665 -10.705645225475564 0 0 0 0 -17.436478021401854 -26.947564676189359 0 -26.947564676189359 -36.587239542880525 0 0 0 0 84.924409505911171 -72.557093603616067 0 -72.557093603616067 11.947322030781834 0 0 0 0 0.64263481995671157 -5.880144076334183 0 -5.880144076334183 -12.631442809552198 0 0 0 0 0.060831951838736131 5.5821379971037004 0 5.5821379971037004 -20.21562522102613 0 0 0 0 27.550491095025791 21.682701503672206 0 21.682701503672206 30.169975455389249 0 0 0 0 -123.27409145473212 177.36649151392385 0 177.36649151392385 -179.1012557453181 0 0 0 0 0.00088545791832565345 -2.6085649579741252 0 -2.6085649579741252 -3.420049912736431 0 0 0 0 -0.79184513051041705 -1.1868855613981992 0 -1.1868855613981992 -1.5439506812818173 0 0 0 0 24.343831277497884 -3.8758735481792428 0 -3.8758735481792428 -53.333319695771934 0 0 0 0 179.73432715813033 -315.57234139311777 0 -315.57234139311777 282.59250443585461 0 0 0 0 -3.6026671611865027 -3.8367401758686377 0 -3.8367401758686377 4.7145337473268363 0 0 0 0 -106.7109933386746 -214.62947503844953 0 -214.62947503844953 294.05401538095111 0 0 0 0 481.85857451527045 -333.19817116599734 0 -333.19817116599734 317.93883532197196 0 0 0 0 215.44143714127222 -840.53752811812376 0 -840.53752811812376 487.19374056719516 0 0 0 0 -176.09899422093144 -797.21509674348385 0 -797.21509674348385 487.53080651353503 0 0 0 0 -522.46229071274684 202.98401319126106 0 202.98401319126106 -2.6395782277477338 0 0 0 0 -3.9887243746088998 -1.1112290144784041 0 -1.1112290144784041 1.5059187550346493 0 0 0 0 209.93325848892709 -179.25737015931691 0 -179.25737015931691 567.85691732229316 0 0 0 0 275.30485923990636 -601.56352320107044 0 -601.56352320107044 742.45537865199708 0 0 0 0 -8.5014762570955398 -0.82596602015068576 0 -0.82596602015068576 4.2706508176275371 0 0 0 0 261.42430567364863 -265.13012429616992 0 -265.13012429616992 591.08854835837155 0 0 0 0 163.22074794196124 -412.6906164727061 0 -412.6906164727061 397.54283667859045 0 0 0 0 163.13202664228993 -87.498496243433692 0 -87.498496243433692 -145.20834644483421 0 0 0 0 -21.27593997931978 -3.8080999424195845 0 -3.8080999424195845 23.722535077421533 0 0 0 0 -54.901358683098806 33.187791921085591 0 33.187791921085591 -18.749455568518897 0 0 0 0 -4.1030443799400302 1.374281814519442 0 1.374281814519442 1.4991711826310024 0 0 0 0 -54.367776227416471 -66.989541208429728 0 -66.989541208429728 98.608362599379689 0 0 0 0 65.859692988352435 -102.30635042189692 0 -102.30635042189692 50.416821573717243 0 0 0 0 112.63033029984581 7.6128893072832398 0 7.6128893072832398 37.145901359422623 0 0 0 0 -23.399114185869443 -3.6006340956864396 0 -3.6006340956864396 22.063548091213839 0 0 0 0 -52.445325400869478 41.495135386050606 0 41.495135386050606 6.0629967501408828 0 0 0 0 -31.208678331148803 33.465141432961047 0 33.465141432961047 76.288950005314291 0 0 0 0 -84.89466936538156 -126.48129326932622 0 -126.48129326932622 -64.097165934118493 0 0 0 0 209.11400605473318 -70.238810001646925 0 -70.238810001646925 49.197149057625211 0 0 0 0 12.166630887603205 -23.623732874009075 0 -23.623732874009075 14.820386840606877 0 0 0 0 -7.9181941420029034 -16.336441257540741 0 -16.336441257540741 24.759909482536841 0 0 0 0 5.8520540537356283 -57.606225910971261 0 -57.606225910971261 14.169606450037463 0 0 0 0 13.705945715388225 -53.909220604346046 0 -53.909220604346046 -3.3747360162851692 0 0 0 0 -171.52163529695827 39.969576411269372 0 39.969576411269372 74.563993093312092 0 0 0 0 5.158736694672541 -18.350020119770154 0 -18.350020119770154 9.3084092603524482 0 0 0 0 1.7618281222599421 -3.9020942766513294 0 -3.9020942766513294 2.1402149002176341 0 0 0 0 27.783747012508684 -17.671494234650254 0 -17.671494234650254 -205.22485445755683 0 0 0 0 17.290821581495038 -191.96109761936214 0 -191.96109761936214 -481.10172127991882 0 0 0 0 -43.939999487924069 -275.03412906816402 0 -275.03412906816402 -383.67927548162061 0 0 0 0 -246.11191688449617 -610.17876676827609 0 -610.17876676827609 -808.33438200818262 0 0 0 0 107.60947723422487 -73.552041315272049 0 -73.552041315272049 -842.74941605706499 0 0 0 0 -23.518258047592099 30.316807288692416 0 30.316807288692416 -51.70279068587206 0 0 0 0 -1.9928922740415302 -3.0988653491522555 0 -3.0988653491522555 -3.5338330062695356 0 0 0 0 150.70464234778592 -301.88215669401893 0 -301.88215669401893 94.291605665010138 0 0 0 0 123.22555553669008 -18.945722174904859 0 -18.945722174904859 9.7603481936698699 0 0 0 0 -5.3178124354616259 -11.725223038173301 0 -11.725223038173301 -1.312680215162997 0 0 0 0 -18.988188896233396 -138.40583841866118 0 -138.40583841866118 33.981857648475852 0 0 0 0 -592.45562304290797 -199.10461160796967 0 -199.10461160796967 166.07583780832238 0 0 0 0 -335.16467508826554 -804.35313330759004 0 -804.35313330759004 -323.74675100535569 0 0 0 0 -258.09359761397718 -357.50483619899251 0 -357.50483619899251 -720.40083298200216 0 0 0 0 -750.67612002928036 -460.7444175468097 0 -460.7444175468097 -355.52533819524979 0 0 0 0 -529.14502939533122 -138.99872448332462 0 -138.99872448332462 -459.90359294354039 0 0 0 0 -260.5292852832863 -165.7735236063254 0 -165.7735236063254 -292.59813272978425 0 0 0 0 -241.58437633278299 -440.22039465103308 0 -440.22039465103308 -318.00010529159744 0 0 0 0 -247.81670128460974 -313.52268987063053 0 -313.52268987063053 -149.60926694733871 0 0 0 0 -127.80184290418765 -221.12420639330958 0 -221.12420639330958 -205.95353883283224 0 0 0 0 -275.75427100413071 -348.09666855679779 0 -348.09666855679779 -97.218517013718156 0 0 0 0 -172.21817568403821 -231.83265384581637 0 -231.83265384581637 -69.200681739334868 0 0 0 0 -235.02439657686227 -348.2418296470463 0 -348.2418296470463 -125.05028714771015 0 0 0 0 -511.80361291405097 -514.04684947762416 0 -514.04684947762416 254.3496588509629 0 0 0 0 -523.92323416601721 -443.92051719106257 0 -443.92051719106257 -80.834671685560124 0 0 0 0 -41.29652576384251 -210.52408818485628 0 -210.52408818485628 -39.947505124094391 0 0 0 0 -2.0410167483278201 -154.96567814667469 0 -154.96567814667469 -17.980293583438652 0 0 0 0 -124.42645751639793 -247.51837923853918 0 -247.51837923853918 -143.5061933842735 0 0 0 0 -77.93495223071659 -169.38494056299896 0 -169.38494056299896 -47.556658019655515 0 0 0 0 -124.3984058591268 -187.36024095247922 0 -187.36024095247922 -74.386570869887692 0 0 0 0 -110.23200514607379 -282.03344774113248 0 -282.03344774113248 -68.063499748273102 0 0 0 0 -71.009060427069926 -199.43263877088953 0 -199.43263877088953 29.277200024060221 0 0 0 0 -3.0630471138574649 -237.31476322348703 0 -237.31476322348703 -27.23840654191099 0 0 0 0 -13.613177357084624 -251.82700879374266 0 -251.82700879374266 -15.950898842375864 0 0 0 0 -237.21498881794287 -340.96015228697797 0 -340.96015228697797 -9.5943485698808217 0 0 0 0 -185.06488455703948 -235.91178942700822 0 -235.91178942700822 -7.9063882686932629 0 0 0 0 -144.42177984120281 -236.91425619483584 0 -236.91425619483584 76.794271163336361 0 0 0 0 -173.53862549902988 -340.91813834798813 0 -340.91813834798813 69.585075543290827 0 0 0 0 -408.46119582060419 -392.18555080338365 0 -392.18555080338365 -35.263993965858276 0 0 0 0 -342.02070678559357 -293.47450986701892 0 -293.47450986701892 -13.216812485301489 0 0 0 0 -332.89573268750792 -270.39905493389915 0 -270.39905493389915 50.107403653847541 0 0 0 0 -702.32499941520655 -221.56163102682785 0 -221.56163102682785 129.48589734981761 0 0 0 0 -304.98507822742249 -148.08687038029802 0 -148.08687038029802 119.54115956756505 0 0 0 0 -252.06932745408267 -323.46626464339852 0 -323.46626464339852 15.269059442727894 0 0 0 0 -368.41609922137195 -277.32770937290047 0 -277.32770937290047 69.901009131041064 0 0 0 0 -204.44050911878367 -243.68431076467277 0 -243.68431076467277 74.131970782598728 0 0 0 0 -205.91064523946534 -213.69797816965445 0 -213.69797816965445 19.09837831365985 0 0 0 0 -172.5077315812473 -119.2848711624473 0 -119.2848711624473 67.012319304862103 0 0 0 0 -263.66267701822653 -140.78651634252446 0 -140.78651634252446 63.096232963442162 0 0 0 0 -86.806151212995474 -315.07929181522962 0 -315.07929181522962 28.584700452651305 0 0 0 0 -241.07075891042041 -294.71447874678006 0 -294.71447874678006 61.873617859836486 0 0 0 0 -228.94312462905327 -301.1532603981841 0 -301.1532603981841 -1.4991363520221057 0 0 0 0 -192.40488422825365 -337.81903025512656 0 -337.81903025512656 35.261629671140099 0 0 0 0 -184.23893312870314 -303.68472163789875 0 -303.68472163789875 66.138373579276958 0 0 0 0 -177.41187645509672 -375.5034955398155 0 -375.5034955398155 -5.2012978079428649 0 0 0 0 -145.17038308926567 -315.6180826811019 0 -315.6180826811019 -146.41245808141321 0 0 0 0 -142.76697614830118 -252.93923993733779 0 -252.93923993733779 -76.370865107104692 0 0 0 0 -141.09271854064764 -290.26075519437791 0 -290.26075519437791 -0.71319895110173093 0 0 0 0 -84.103864776756382 -234.62334367951235 0 -234.62334367951235 -197.45171781123986 0 0 0 0 -61.978376403657421 -181.48420644602493 0 -181.48420644602493 -73.474698512171017 0 0 0 0 -127.89234514934424 -253.66037889544697 0 -253.66037889544697 -110.21060287114415 0 0 0 0 -110.52863871900081 -118.47117673807088 0 -118.47117673807088 15.700118309147456 0 0 0 0 -128.10652468060289 -193.57479552053974 0 -193.57479552053974 23.606492474623792 0 0 0 0 -88.398191020561171 -158.22793908351127 0 -158.22793908351127 -29.164303619940256 0 0 0 0 -80.19724913826758 -161.66349938232861 0 -161.66349938232861 -40.002544101344938 0 0 0 0 -12.738799647495398 -81.56477499767152 0 -81.56477499767152 -7.6803336216489697 0 0 0 0 -87.787000471658985 -92.983367701484525 0 -92.983367701484525 37.17261519744352 0 0 0 0 1.385604546750983 -14.174073575793955 0 -14.174073575793955 47.788965892549641 0 0 0 0 9.0432657995956163 -19.391753160481869 0 -19.391753160481869 33.70344960021896 0 0 0 0 5.2734545839075508 4.0379130200263944 0 4.0379130200263944 35.920270602946403 0 0 0 0 18.470275341227534 -25.992429644587901 0 -25.992429644587901 19.469227532320474 0 0 0 0 -9.0428845820324568 -52.286557888968787 0 -52.286557888968787 8.8575401086891361 0 0 0 0 -90.581878649636565 -36.337939133943109 0 -36.337939133943109 45.109388742253941 0 0 0 0 -68.213178488316771 -54.7315803047195 0 -54.7315803047195 20.711372531855886 0 0 0 0 -53.392519269470085 -12.28166267152983 0 -12.28166267152983 38.454916728695935 0 0 0 0 -89.363039033721634 -33.505996345669246 0 -33.505996345669246 44.075744644880615 0 0 0 0 21.470694381649082 -5.0111396665602115 0 -5.0111396665602115 21.720776926277722 0 0 0 0 -199.05295295359156 4.6905640116328868 0 4.6905640116328868 50.4799830706379 0 0 0 0 -85.453923613773441 -23.940052096560521 0 -23.940052096560521 26.90726546204769 0 0 0 0 88.348613934336754 -381.18775015092888 0 -381.18775015092888 1300.2992255887584 0 0 0 0 373.27461238643673 -615.78451143871541 0 -615.78451143871541 504.93153623253966 0 0 0 0 -7.3246749743768689 0.80706759374970805 0 0.80706759374970805 11.927106464457207 0 0 0 0 73.652279027977784 -485.13169752050271 0 -485.13169752050271 733.89893946166649 0 0 0 0 9.0634241312131962 -30.865502515372555 0 -30.865502515372555 40.255638717499096 0 0 0 0 5.5862562933516173 -16.040691664773039 0 -16.040691664773039 27.978583569912811 0 0 0 0 22.510731517999375 -5.7074274857259297 0 -5.7074274857259297 34.000414670503005 0 0 0 0 39.859388408736777 -0.4763720193914196 0 -0.4763720193914196 -458.41782891865296 0 0 0 0 1017.1045007406428 -665.63727651677527 0 -665.63727651677527 443.58354796614549 0 0 0 0 0.67305869616902925 -1.7323721616460972 0 -1.7323721616460972 1.8017572398160411 0 0 0 0 -34.078691725680073 -86.768079785018472 0 -86.768079785018472 -162.47685885691681 0 0 0 0 -22.131851498658893 -199.29672473830584 0 -199.29672473830584 -28.943927838954551 0 0 0 0 -86.644698971351318 -172.210253168294 0 -172.210253168294 -155.35945069270883 0 0 0 0 -163.80672864752705 -250.07049221880516 0 -250.07049221880516 -65.300418515762431 0 0 0 0 -95.600090808067762 -202.6509314207251 0 -202.6509314207251 -93.166590345019358 0 0 0 0 -39.107323172367614 -207.71036598394494 0 -207.71036598394494 106.43116925282447 0 0 0 0 -22.039906400215841 -257.04743171119298 0 -257.04743171119298 -50.722407342913357 0 0 0 0 -73.703965562393932 -127.21577438686018 0 -127.21577438686018 -34.615610406839551 0 0 0 0 77.941623951999645 -216.98487001916692 0 -216.98487001916692 -31.315091699241748 0 0 0 0 85.877076083539578 -82.110956494952916 0 -82.110956494952916 208.24132114676104 0 0 0 0 133.94030977770308 -401.2201035522794 0 -401.2201035522794 -2.5199246290285373 0 0 0 0 160.82276659641138 -284.73459558620834 0 -284.73459558620834 -421.29953412949544 0 0 0 0 352.16433621511987 64.294777368285395 0 64.294777368285395 310.79502365955705 0 0 0 0 -79.607072464459634 17.079750842014619 0 17.079750842014619 -17.12622031473984 0 0 0 0 899.43643020803938 -453.19093630544512 0 -453.19093630544512 82.361667155120813 0 0 0 0 -16.734482046414445 -10.595642806008737 0 -10.595642806008737 13.043001679072361 0 0 0 0 346.24828955827473 -225.80067133577722 0 -225.80067133577722 267.93568995884561 0 0 0 0 -82.610319405335758 -47.903410258029908 0 -47.903410258029908 34.022088872041422 0 0 0 0 -55.373467019500822 -18.461958472651304 0 -18.461958472651304 61.101762828693609 0 0 0 0 -40.599664893856698 -103.17841781824404 0 -103.17841781824404 71.665888954186812 0 0 0 0 4.640437721300259 -90.978424695724243 0 -90.978424695724243 72.045463501677887 0 0 0 0 -147.22332466157377 18.257882119595934 0 18.257882119595934 44.787264835940732 0 0 0 0 -139.87556976843189 58.865125815918873 0 58.865125815918873 16.425675289363426 0 0 0 0 -93.258292354410514 -36.913732327542675 0 -36.913732327542675 71.10157431220432 0 0 0 0 -77.788409721964854 -47.48209068795768 0 -47.48209068795768 71.962385467402783 0 0 0 0 -44.402839841197419 -38.43260813692541 0 -38.43260813692541 51.22077637761322 0 0 0 0 -49.906300031121646 -64.807802773331787 0 -64.807802773331787 89.599236015802489 0 0 0 0 -38.939047485531773 -49.627993123041961 0 -49.627993123041961 63.739011677682356 0 0 0 0 -58.374385327188065 -46.95300522756952 0 -46.95300522756952 71.234062958363211 0 0 0 0 -45.659231989111504 -36.325171540115662 0 -36.325171540115662 78.035593308290117 0 0 0 0 6.5689998130037566 -64.892614739020246 0 -64.892614739020246 46.009176751955238 0 0 0 0 8.4285451716386888 -73.226241896639294 0 -73.226241896639294 61.54333627654978 0 0 0 0 -12.807430503407652 -5.9207612116519197 0 -5.9207612116519197 2.1132541267315474 0 0 0 0 3.6855412293425616 -56.088540690114314 0 -56.088540690114314 65.995602399420022 0 0 0 0 -1.5157739047890573 -69.120973517266975 0 -69.120973517266975 67.488215637615212 0 0 0 0 -38.487674393600173 -54.120093263178205 0 -54.120093263178205 68.385434991483635 0 0 0 0 -30.887489451997681 -62.256573323375051 0 -62.256573323375051 68.299889029458427 0 0 0 0 -35.071051274313504 -52.958922014307973 0 -52.958922014307973 63.668457910687721 0 0 0 0 -30.969263884711836 -56.168751781591709 0 -56.168751781591709 65.152717694365492 0 0 0 0 -33.545763310619805 -45.954426578136918 0 -45.954426578136918 64.636658256127703 0 0 0 0 -35.718488814694865 -43.030898334940503 0 -43.030898334940503 60.914155262817076 0 0 0 0 -46.136315040384943 -42.169066946644307 0 -42.169066946644307 65.339546315415646 0 0 0 0 -47.519184004617273 -43.427913711417204 0 -43.427913711417204 64.21415068312308 0 0 0 0 -38.25575867776206 -32.393054790671158 0 -32.393054790671158 61.055356441858748 0 0 0 0 -40.22397695347172 -28.264467566517851 0 -28.264467566517851 52.85185223116423 0 0 0 0 -22.433712746809761 -29.609602130087296 0 -29.609602130087296 60.716382715269901 0 0 0 0 -21.7646525287226 -5.0321681542480476 0 -5.0321681542480476 24.659861532751862 0 0 0 0 215.06572427355945 243.52998641668898 0 243.52998641668898 662.51751833935668 0 0 0 0 15.426502098060155 -42.321285968493612 0 -42.321285968493612 40.003815401651082 0 0 0 0 0.28607284695779356 -2.3671073493925157 0 -2.3671073493925157 5.028465984800718 0 0 0 0 -0.47802795909228735 -25.182507666882884 0 -25.182507666882884 31.478332826896803 0 0 0 0 506.93441304817497 -719.78232479037251 0 -719.78232479037251 505.56834213079401 0 0 0 0 -3.6931221154372764 -4.6604193775029046 0 -4.6604193775029046 3.6629999045045167 0 0 0 0 470.25619262933651 -937.09197264009345 0 -937.09197264009345 275.00396041495048 0 0 0 0 -18.681256602671947 -10.628045614079273 0 -10.628045614079273 20.762156839699088 0 0 0 0 -68.078538491492509 -6.1973299517194391 0 -6.1973299517194391 44.055281642373302 0 0 0 0 -65.979779350047465 -28.483951521990093 0 -28.483951521990093 37.902161733338289 0 0 0 0 -66.993102646170883 -19.373718414166433 0 -19.373718414166433 52.019962068596215 0 0 0 0 -55.518881068011979 -34.261171357473359 0 -34.261171357473359 58.318699422394275 0 0 0 0 -52.035690528608029 -34.432155204476658 0 -34.432155204476658 56.997373587815673 0 0 0 0 -35.333787777024554 -9.1473205958827748 0 -9.1473205958827748 32.035638820389522 0 0 0 0 -62.338776146018063 -23.014320865033369 0 -23.014320865033369 56.998647257394623 0 0 0 0 -45.387720172171612 -30.771537198446524 0 -30.771537198446524 -14.801737490996974 0 0 0 0 20.716034689352455 -55.85153366268969 0 -55.85153366268969 -6.5260719667207923 0 0 0 0 34.400304542519734 -107.45880338727511 0 -107.45880338727511 -2.1119211802258633 0 0 0 0 60.954423784660321 -66.828449204629578 0 -66.828449204629578 -31.034547128512713 0 0 0 0 26.920583611217808 -33.057179272771464 0 -33.057179272771464 -70.832931367971469 0 0 0 0 8.5183970708058041 33.899954109801911 0 33.899954109801911 -27.310190147740286 0 0 0 0 11.170486242997868 -34.734487902795081 0 -34.734487902795081 -56.560973775881394 0 0 0 0 -22.030542312153557 27.071717900878866 0 27.071717900878866 35.399019937609864 0 0 0 0 3.671325919885021 -10.976546114427947 0 -10.976546114427947 -107.64248291288823 0 0 0 0 -3.9310792060859967 -99.129452417608263 0 -99.129452417608263 -117.82934004079561 0 0 0 0 1.2592515686701518 -77.275754551908904 0 -77.275754551908904 -29.147621384696322 0 0 0 0 -126.1031879688453 -29.830352920535006 0 -29.830352920535006 -13.003964354138589 0 0 0 0 -390.17300468961366 76.385469291030859 0 76.385469291030859 7.7996736175227852 0 0 0 0 -2.969786825820055 -2.2125718739277236 0 -2.2125718739277236 1.4983702522360005 0 0 0 0 -267.52359716577485 -171.22393037038637 0 -171.22393037038637 -71.394489009813697 0 0 0 0 130.86545263389598 -349.16287347940852 0 -349.16287347940852 5.0087627443726888 0 0 0 0 -38.084184771088985 -125.25226148691036 0 -125.25226148691036 -236.1609446589282 0 0 0 0 -1.4215519702138693 -0.60586795975299168 0 -0.60586795975299168 1.0035076157369218 0 0 0 0 -97.372707020731468 -144.55013112617235 0 -144.55013112617235 -99.439472130674403 0 0 0 0 36.033566745858479 16.340569633162886 0 16.340569633162886 -143.40776219229156 0 0 0 0 17.074498777987174 -305.30157516184772 0 -305.30157516184772 207.56453288055059 0 0 0 0 -140.39148730443048 -97.357142767885307 0 -97.357142767885307 30.031678769846621 0 0 0 0 22.811639841642318 -225.0351750438731 0 -225.0351750438731 -28.865385266528392 0 0 0 0 14.855765979916214 -268.80264069573877 0 -268.80264069573877 18.179031319654314 0 0 0 0 61.908227880761842 -127.74053305009693 0 -127.74053305009693 10.813522382139126 0 0 0 0 233.7462821655281 -139.85886162836141 0 -139.85886162836141 -17.178207218303214 0 0 0 0 100.20051732158208 -31.580719898502139 0 -31.580719898502139 85.113920107985905 0 0 0 0 -3.9965918591499374 -3.8969231716191324 0 -3.8969231716191324 0.47378030872557986 0 0 0 0 3.5152278523892164 -77.791436644279202 0 -77.791436644279202 128.18815040288973 0 0 0 0 121.09828875686435 -124.13837284303736 0 -124.13837284303736 76.855555348673079 0 0 0 0 -163.07580761036979 88.24475144117423 0 88.24475144117423 42.929996575006953 0 0 0 0 -95.442880978678659 -14.704328680111757 0 -14.704328680111757 65.711041401469629 0 0 0 0 35.260124572760105 0.67449357820078149 0 0.67449357820078149 -74.183476580403294 0 0 0 0 23.413008421663108 -109.98645007515825 0 -109.98645007515825 222.10648363557129 0 0 0 0 -35.936559592605917 -19.960940530161203 0 -19.960940530161203 -10.260471683989081 0 0 0 0 -63.500371110923879 -104.62995956883333 0 -104.62995956883333 122.75201650929012 0 0 0 0 -57.508885008517609 37.527440968886367 0 37.527440968886367 -47.230864478337026 0 0 0 0 -139.04941443442476 -8.9087363250243925 0 -8.9087363250243925 108.09620625779644 0 0 0 0 190.83955434368909 -6.7394145839707562 0 -6.7394145839707562 128.51530053526676 0 0 0 0 -25.739037351333536 -149.60754470365464 0 -149.60754470365464 -3.1842997771020691 0 0 0 0 -59.51311599352448 -147.25789599742893 0 -147.25789599742893 145.68827968100231 0 0 0 0 -40.744754770132765 -23.383759211526279 0 -23.383759211526279 -13.334148050092487 0 0 0 0 -52.151301065012376 -298.20684705844428 0 -298.20684705844428 349.42476436846482 0 0 0 0 399.46722426549604 -215.98469577714422 0 -215.98469577714422 244.12804916869845 0 0 0 0 -515.96791705674332 22.318392665786178 0 22.318392665786178 137.18709654246413 0 0 0 0 -0.50756110138996036 -0.12387505189473558 0 -0.12387505189473558 5.4158973393188248 0 0 0 0 703.93095538421039 -691.93753721483063 0 -691.93753721483063 336.67753492716383 0 0 0 0 223.95597463622107 -340.50675760386912 0 -340.50675760386912 156.60731055224642 0 0 0 0 -202.18006811208033 -307.84036694745191 0 -307.84036694745191 808.31902269780221 0 0 0 0 -20.858130088444341 56.746877047954058 0 56.746877047954058 37.181993790560227 0 0 0 0 -113.35816751521634 -46.236755238804108 0 -46.236755238804108 -16.254475518797335 0 0 0 0 -102.86637175353462 -38.297149016415005 0 -38.297149016415005 -45.640120090900382 0 0 0 0 112.10556254557741 -225.10906753125619 0 -225.10906753125619 270.6185209282462 0 0 0 0 -0.81108219851128638 1.723113170570187 0 1.723113170570187 15.357427101986808 0 0 0 0 -132.92514220001431 3.6432078067623479 0 3.6432078067623479 32.250332128478476 0 0 0 0 298.64185575731426 -261.2835924500896 0 -261.2835924500896 188.67882239459504 0 0 0 0 111.46936921811721 -134.85689437736437 0 -134.85689437736437 133.35074544208624 0 0 0 0 30.408551982618519 -198.26983529219615 0 -198.26983529219615 172.38631483754034 0 0 0 0 57.928452200096217 -197.41710753148891 0 -197.41710753148891 238.47744346049967 0 0 0 0 50.649392772400461 -230.20597245292993 0 -230.20597245292993 207.87485430219567 0 0 0 0 113.20858126598489 -198.36141621983859 0 -198.36141621983859 222.01132190617136 0 0 0 0 59.269669133791467 -210.70290828487123 0 -210.70290828487123 249.74076712436818 0 0 0 0 64.527609511485934 -169.07172103820631 0 -169.07172103820631 162.1754273671886 0 0 0 0 43.339087472140818 -190.66409841049017 0 -190.66409841049017 232.97065910636229 0 0 0 0 -29.001413079784072 -17.222311883209056 0 -17.222311883209056 -9.7448514704001177 0 0 0 0 74.054650121681334 -228.75077989542115 0 -228.75077989542115 194.68892742112166 0 0 0 0 49.191432227737096 -225.66180559726217 0 -225.66180559726217 200.39691114279776 0 0 0 0 26.23812981897936 -255.75563780662014 0 -255.75563780662014 182.52593266025724 0 0 0 0 76.918183150085497 -243.64916507302451 0 -243.64916507302451 155.95347679187216 0 0 0 0 43.59075166736875 -245.11900528709066 0 -245.11900528709066 167.65946350505965 0 0 0 0 33.179877786538782 -279.98677713723532 0 -279.98677713723532 177.07666429713208 0 0 0 0 -31.592899902356748 -258.89489246744927 0 -258.89489246744927 177.95899310466302 0 0 0 0 -11.289234128776684 -301.95514417683751 0 -301.95514417683751 181.1237915203601 0 0 0 0 -9.3568535974918632 -225.02982407817035 0 -225.02982407817035 152.42135668484661 0 0 0 0 -244.2175689404321 -29.830900010897494 0 -29.830900010897494 162.13704424604475 0 0 0 0 -183.1321667195225 -152.95115559405986 0 -152.95115559405986 224.38685693315347 0 0 0 0 -54.225768511591014 -242.04344867412601 0 -242.04344867412601 166.82227229027194 0 0 0 0 -73.826396531861974 -101.58359296333765 0 -101.58359296333765 40.243482459691677 0 0 0 0 3.0699335363733553 -43.146698576542803 0 -43.146698576542803 44.957112507209786 0 0 0 0 -412.18241435914388 103.02401437597109 0 103.02401437597109 125.09115543608368 0 0 0 0 -312.94890849427247 45.456948294398444 0 45.456948294398444 69.763977831138618 0 0 0 0 -3.6478293058473383 -7.1776983241568075 0 -7.1776983241568075 0.13752393922109363 0 0 0 0 -270.70415936991049 11.521534037907259 0 11.521534037907259 -119.48005526575434 0 0 0 0 -3.7285357073650118 0.42672001940743343 0 0.42672001940743343 5.1213885076870937 0 0 0 0 60.691770496836398 -38.249028199854365 0 -38.249028199854365 48.280285367160104 0 0 0 0 -59.301104108373693 -113.82968997750595 0 -113.82968997750595 142.234735016169 0 0 0 0 -34.382231993535243 -144.56109285420098 0 -144.56109285420098 78.375969977761997 0 0 0 0 -92.801705165831663 -191.98521276762585 0 -191.98521276762585 163.0500429210997 0 0 0 0 -156.41859459146508 -141.29088808925826 0 -141.29088808925826 139.17868999429629 0 0 0 0 -9.3722985221538693 -209.45463842583467 0 -209.45463842583467 172.91346445259842 0 0 0 0 -20.239819082488339 -184.48663853909238 0 -184.48663853909238 151.07882753153899 0 0 0 0 0.10524027642532019 -100.71068020341409 0 -100.71068020341409 134.36599683890441 0 0 0 0 -37.427525624922055 -1.867513244329075 0 -1.867513244329075 28.806696119088883 0 0 0 0 -32.121142272993893 -15.380010446320739 0 -15.380010446320739 38.10484565133811 0 0 0 0 -2.272213155729645 4.0234896853194755 0 4.0234896853194755 26.486630708399264 0 0 0 0 -48.250029737602745 -1.0984001460838044 0 -1.0984001460838044 37.840749599588122 0 0 0 0 -6.087467874675184 -10.826031436160598 0 -10.826031436160598 28.362038623488999 0 0 0 0 -46.595171317188942 -3.0419692879531794 0 -3.0419692879531794 35.483835055338204 0 0 0 0 -63.426715287969273 -1.1605522823174397 0 -1.1605522823174397 41.51859890158812 0 0 0 0 -32.243392714357469 -23.666273258986621 0 -23.666273258986621 37.142188519153933 0 0 0 0 -61.356200300004275 -16.668193248340685 0 -16.668193248340685 46.94542938905397 0 0 0 0 -68.544860360132589 -12.970702290615009 0 -12.970702290615009 45.51636983500066 0 0 0 0 -64.679459034108731 19.665101869139107 0 19.665101869139107 18.452824118634453 0 0 0 0 -72.272240264021093 -18.735979401591976 0 -18.735979401591976 41.638596761133158 0 0 0 0 -81.624139344128935 -0.47655919556058279 0 -0.47655919556058279 22.883516641384631 0 0 0 0 -14.395124673286773 -35.031554888862956 0 -35.031554888862956 23.162286033379132 0 0 0 0 -30.16794454724004 -14.794247048754187 0 -14.794247048754187 22.491473898682614 0 0 0 0 -65.108395290159024 -124.12992566006392 0 -124.12992566006392 86.480204721983682 0 0 0 0 -29.169206680529385 -14.934027086657586 0 -14.934027086657586 -7.6047497365650969 0 0 0 0 -3.5419284431191045 -43.921251484456661 0 -43.921251484456661 33.030966600747888 0 0 0 0 -19.334379443571379 -43.456306749727446 0 -43.456306749727446 34.324542156802636 0 0 0 0 28.72477771121703 -14.139026034476046 0 -14.139026034476046 58.48783590741732 0 0 0 0 -6.6013650676822522 -36.871768568573586 0 -36.871768568573586 52.914815882882976 0 0 0 0 -6.7322775823013217 -50.92573401160189 0 -50.92573401160189 68.464590297544419 0 0 0 0 -19.883374429133255 -43.630918057147937 0 -43.630918057147937 58.145858702206169 0 0 0 0 -16.336880732771533 -20.833405774853873 0 -20.833405774853873 44.823883893703169 0 0 0 0 -23.6638304134176 -40.264534251131408 0 -40.264534251131408 60.44434639224346 0 0 0 0 -25.441135222512457 -34.869913061158513 0 -34.869913061158513 44.303962062993378 0 0 0 0 -29.301370705099544 -45.658038541978385 0 -45.658038541978385 53.112934482880519 0 0 0 0 -24.913753941164032 -39.366169332608479 0 -39.366169332608479 59.223797866718087 0 0 0 0 -28.11491985278569 -15.879039179565691 0 -15.879039179565691 -8.2873462310404022 0 0 0 0 -35.132723422917479 -49.62869567760572 0 -49.62869567760572 56.501579440533533 0 0 0 0 -26.72477201683796 -30.968372271527187 0 -30.968372271527187 29.965586980465105 0 0 0 0 -27.573954757288448 -47.927556915972673 0 -47.927556915972673 55.873723414441884 0 0 0 0 -17.770942876317349 -40.438250810472255 0 -40.438250810472255 29.036938602712326 0 0 0 0 -9.4636385145804525 -51.417655821003791 0 -51.417655821003791 37.112163320836771 0 0 0 0 -25.22080364478461 -42.987916781232343 0 -42.987916781232343 39.23166152601334 0 0 0 0 150.88686359571875 -198.16659060701204 0 -198.16659060701204 171.43007672235763 0 0 0 0 -11.693614909999496 -4.7345414011155711 0 -4.7345414011155711 1.7721612258821366 0 0 0 0 154.64278156125329 -199.69792892827104 0 -199.69792892827104 119.10825443044087 0 0 0 0 238.8858183909615 -202.02064816054371 0 -202.02064816054371 118.08083165498488 0 0 0 0 156.85933576119351 -258.05339429068681 0 -258.05339429068681 110.36530338014563 0 0 0 0 148.19356106186751 -262.51470500091091 0 -262.51470500091091 160.83681204219647 0 0 0 0 -95.043248463967757 -9.3601193200029229 0 -9.3601193200029229 76.385258887927193 0 0 0 0 40.459466713982692 21.563949048441827 0 21.563949048441827 -79.802479917207165 0 0 0 0 -201.81605974365084 75.677435651335145 0 75.677435651335145 24.188539555820171 0 0 0 0 -0.98650143650763766 -1.3825849721914949 0 -1.3825849721914949 -0.40288721451597809 0 0 0 0 306.23084182573075 -142.19419473795165 0 -142.19419473795165 -11.228489148454173 0 0 0 0 328.73926401258723 -198.356712724104 0 -198.356712724104 67.714433905228361 0 0 0 0 400.59461981207278 -195.75208666821254 0 -195.75208666821254 -75.713700190998679 0 0 0 0 144.96768814844836 -336.42548351726509 0 -336.42548351726509 171.54200066619342 0 0 0 0 254.03988923445286 -276.95928585779802 0 -276.95928585779802 112.2797716029479 0 0 0 0 265.87521554472914 -260.70578917640159 0 -260.70578917640159 7.0154747485994449 0 0 0 0 464.94735823285737 -332.43799488145578 0 -332.43799488145578 28.142089277529976 0 0 0 0 400.6637523531972 -553.21843111124417 0 -553.21843111124417 255.91303487244136 0 0 0 0 -133.65923822746117 -155.37474260808267 0 -155.37474260808267 620.69927502356268 0 0 0 0 174.17568964737438 -415.54935830059685 0 -415.54935830059685 201.33238362251359 0 0 0 0 129.38240998044057 32.139337911668463 0 32.139337911668463 -34.736386605261032 0 0 0 0 7.2860899711939311 -2.9596138561825249 0 -2.9596138561825249 2.0262933514683832 0 0 0 0 584.21294181833946 -311.37830821416583 0 -311.37830821416583 -25.322889863614364 0 0 0 0 14.595338357154105 -68.251440762182483 0 -68.251440762182483 45.701955266137247 0 0 0 0 12.42560100373521 -126.94390547859211 0 -126.94390547859211 738.00827447117854 0 0 0 0 -165.1865031339139 -91.207838037295915 0 -91.207838037295915 3.967139268770552 0 0 0 0 -7.1645815668525756 -30.136554901114323 0 -30.136554901114323 -55.407895878021009 0 0 0 0 -44.30557963479805 0.070110922746607685 0 0.070110922746607685 71.179862705566848 0 0 0 0 0.3854765774376574 -9.4778844705679148 0 -9.4778844705679148 5.1849579290619658 0 0 0 0 -5.0671149362710821 -54.897492147104657 0 -54.897492147104657 -9.8777406765047999 0 0 0 0 -24.807306629410562 -18.40496664315425 0 -18.40496664315425 -2.2691373442446974 0 0 0 0 42.367625345234046 -83.219835384431235 0 -83.219835384431235 -14.353353588206119 0 0 0 0 18.290947749927227 -12.458330989479354 0 -12.458330989479354 3.2924769802911005 0 0 0 0 -17.484396290914447 -26.212987610387245 0 -26.212987610387245 78.113012350174358 0 0 0 0 -27.291906975632173 -156.3005279075407 0 -156.3005279075407 166.02798556468497 0 0 0 0 -40.643154924047849 -296.70466802101964 0 -296.70466802101964 -32.52219836492668 0 0 0 0 191.32319927415301 -393.86180356969135 0 -393.86180356969135 6.9399017065966291 0 0 0 0 128.65054875071564 -250.64523050970365 0 -250.64523050970365 7.0683761633381437 0 0 0 0 484.32453153883398 -627.31096175074208 0 -627.31096175074208 310.35336489119481 0 0 0 0 449.94521182485187 50.428057391434777 0 50.428057391434777 69.600440092243844 0 0 0 0 -105.21583744241593 -154.67762134078797 0 -154.67762134078797 -5.5032997254402289 0 0 0 0 -110.6260337658241 -38.718115098036833 0 -38.718115098036833 -161.07975038493987 0 0 0 0 55.012184667884867 -518.32431017536078 0 -518.32431017536078 -262.68910282682623 0 0 0 0 0.36212749126201516 -0.64744983745249129 0 -0.64744983745249129 -0.2591906566640958 0 0 0 0 -200.86353244733073 -317.99286341057746 0 -317.99286341057746 -302.76477631944636 0 0 0 0 263.52793973789085 -127.7888710977677 0 -127.7888710977677 -239.29605315456502 0 0 0 0 -118.0223606799409 -74.107344119375966 0 -74.107344119375966 -249.15706097055136 0 0 0 0 1.8223917796826754 -1.1215636488506036 0 -1.1215636488506036 -1.195362597461866 0 0 0 0 -21.527980317818219 -162.39736604152995 0 -162.39736604152995 -353.48324466026634 0 0 0 0 -27.375478833408124 -282.84490307347551 0 -282.84490307347551 -476.30239864758369 0 0 0 0 -80.058115537747653 -369.97466354940275 0 -369.97466354940275 -322.57379863615461 0 0 0 0 -21.543126434293299 -422.2951607937041 0 -422.2951607937041 -323.51424078537639 0 0 0 0 -82.747000768702492 -441.80224092956519 0 -441.80224092956519 -120.76130446900697 0 0 0 0 14.772707071198965 5.3909194029063201 0 5.3909194029063201 6.7854589716116607 0 0 0 0 -2.5385020596077084 -6.9514169885460433 0 -6.9514169885460433 36.352158582302081 0 0 0 0 -0.54257360308838543 27.82484554254188 0 27.82484554254188 21.040513033650768 0 0 0 0 -65.36858260750887 -129.42707020299713 0 -129.42707020299713 27.12453489980544 0 0 0 0 -6.0230451171363484 -16.726445700967354 0 -16.726445700967354 23.537336279117508 0 0 0 0 -6.0131189880921738 8.8495644793392785 0 8.8495644793392785 -35.459644503709569 0 0 0 0 -44.548196905532677 15.119795462253933 0 15.119795462253933 11.169755938424714 0 0 0 0 -3.2589185143515351 -96.347189774103754 0 -96.347189774103754 71.777092762938992 0 0 0 0 13.180056271328795 -70.08217966824941 0 -70.08217966824941 -82.576535567372048 0 0 0 0 -44.899976918823086 -1.797657052793511 0 -1.797657052793511 1.9767904354921484 0 0 0 0 -17.428484733303776 -25.224629788725906 0 -25.224629788725906 41.85476243553785 0 0 0 0 -13.927341188886203 -23.043018667315664 0 -23.043018667315664 53.152619966365819 0 0 0 0 -40.916395472973818 -17.898729853456643 0 -17.898729853456643 52.357623907830657 0 0 0 0 -18.786282252684032 -42.026083426883815 0 -42.026083426883815 56.134644527242926 0 0 0 0 -84.507934923574794 -27.045491400432184 0 -27.045491400432184 54.388582020437752 0 0 0 0 -59.797049050745045 -0.33869373002994507 0 -0.33869373002994507 -22.680896724994454 0 0 0 0 -44.592495331922692 2.8681382269664937 0 2.8681382269664937 12.807715259143151 0 0 0 0 -40.142480274524132 -22.116003696281041 0 -22.116003696281041 0.75343028747874996 0 0 0 0 -190.34152113115124 -150.66751545736179 0 -150.66751545736179 -9.2269384725560712 0 0 0 0 13.236747063072471 -108.98115751509431 0 -108.98115751509431 -4.7021551350753725 0 0 0 0 117.66791011257737 -72.025969000920213 0 -72.025969000920213 -4.555787499055441 0 0 0 0 -0.77419491167127319 -0.60754722155949281 0 -0.60754722155949281 -1.3071992743515857 0 0 0 0 -24.089767610374111 -50.226068482557821 0 -50.226068482557821 43.460238821101484 0 0 0 0 -387.22956364317997 -73.55534825117104 0 -73.55534825117104 160.11883259290153 0 0 0 0 -580.6036147576342 223.02748750776118 0 223.02748750776118 -50.558215199714141 0 0 0 0 -62.933480140705797 -141.53974708766373 0 -141.53974708766373 -17.27374321744901 0 0 0 0 -479.74878800316947 -106.84624913780772 0 -106.84624913780772 237.70450833450332 0 0 0 0 -105.27482802195563 -44.583132509100516 0 -44.583132509100516 -174.11798926661231 0 0 0 0 -269.29206768376025 -12.528569241908826 0 -12.528569241908826 -155.54875943151842 0 0 0 0 -241.07240899916451 -164.68682571793647 0 -164.68682571793647 -126.94676640377293 0 0 0 0 -251.74652553265332 -218.07310243485381 0 -218.07310243485381 -272.72275346154044 0 0 0 0 -174.35685979170921 -84.912546523615219 0 -84.912546523615219 -116.15140952447746 0 0 0 0 -236.25903695294619 -176.16109278427302 0 -176.16109278427302 -110.54685210102616 0 0 0 0 -304.02829742551694 -68.591274964435684 0 -68.591274964435684 -64.211697600803745 0 0 0 0 -108.50979333819669 15.715991700818677 0 15.715991700818677 8.5592383945713664 0 0 0 0 -162.49130495074496 -110.16356975463623 0 -110.16356975463623 -66.226848321011744 0 0 0 0 -42.776663983320759 32.918891768315007 0 32.918891768315007 -23.060052999444906 0 0 0 0 -23.464278641400597 -98.765481557993098 0 -98.765481557993098 -83.277583893899418 0 0 0 0 31.050321455230005 21.180166175822706 0 21.180166175822706 -38.176823320325639 0 0 0 0 -47.169030003624357 -32.584857243878105 0 -32.584857243878105 -9.1952230993174453 0 0 0 0 -1.6002864464780515 -3.2774837129825443 0 -3.2774837129825443 -5.6441133621830106 0 0 0 0 387.6703808475886 -273.17625144875331 0 -273.17625144875331 -375.40929407866224 0 0 0 0 -864.79939345926323 -351.55235820343637 0 -351.55235820343637 -174.81126558561209 0 0 0 0 -2.9811722619962282 -6.8519263884937018 0 -6.8519263884937018 -14.761373651778644 0 0 0 0 -367.51914343416138 36.483789038226405 0 36.483789038226405 109.41900675029865 0 0 0 0 -339.32759874199974 -298.82394178095393 0 -298.82394178095393 -347.28151608385633 0 0 0 0 0.071706399628240547 -0.60026722911825914 0 -0.60026722911825914 -2.5408812438008894 0 0 0 0 -351.75930288898235 -499.08924752079429 0 -499.08924752079429 -599.20926376923944 0 0 0 0 -594.11524119569367 -499.04575148849244 0 -499.04575148849244 -255.3169737095659 0 0 0 0 -209.84262150825816 -1204.5113457482398 0 -1204.5113457482398 -471.11382044976926 0 0 0 0 -360.31545443139203 -504.38870902143645 0 -504.38870902143645 -539.34488054537724 0 0 0 0 -342.58509880576094 -402.50238661379353 0 -402.50238661379353 -453.7233395661151 0 0 0 0 1.6887997665261878 -1.2632023105886958 0 -1.2632023105886958 -1.6000414563431757 0 0 0 0 -301.97235012602687 -313.28184787002692 0 -313.28184787002692 -264.62946901565442 0 0 0 0 -333.04242759372573 -203.85230194041242 0 -203.85230194041242 -59.533982111623004 0 0 0 0 -181.05009520449312 -373.99625255278988 0 -373.99625255278988 -475.92665267711391 0 0 0 0 -137.64661037823316 -386.36039540323236 0 -386.36039540323236 -448.14429303955967 0 0 0 0 -207.25066938734744 -338.32152210439676 0 -338.32152210439676 -464.52541381401807 0 0 0 0 -140.77148820658476 -296.01251458740671 0 -296.01251458740671 -394.38280108958406 0 0 0 0 -182.954559705664 -343.11148597210922 0 -343.11148597210922 -426.76124375914333 0 0 0 0 -125.23098104486417 -285.69027557127629 0 -285.69027557127629 -428.03549834438638 0 0 0 0 -138.49451218076865 -291.40562540845667 0 -291.40562540845667 -351.69874343844094 0 0 0 0 -106.82028031492518 -227.32106287480428 0 -227.32106287480428 -330.51289778647515 0 0 0 0 -94.633054450430791 -241.27237035363032 0 -241.27237035363032 -317.39336592230666 0 0 0 0 -109.48373506640201 -223.97634752740487 0 -223.97634752740487 -296.23339726803897 0 0 0 0 -92.471513044394669 -192.19000608787064 0 -192.19000608787064 -287.66182514201046 0 0 0 0 -122.26333835672813 -255.89610320941165 0 -255.89610320941165 -377.45420171830119 0 0 0 0 -109.13087913018535 -209.08331298881058 0 -209.08331298881058 -322.23569653936283 0 0 0 0 -137.75782749475911 -269.65967967560755 0 -269.65967967560755 -351.35778746354208 0 0 0 0 -176.76837684099883 -304.1590058675074 0 -304.1590058675074 -397.65427086259297 0 0 0 0 -123.41402682194894 -263.0239644166686 0 -263.0239644166686 -403.12573912911648 0 0 0 0 -164.76840648414509 -321.43027471989694 0 -321.43027471989694 -467.50632692775798 0 0 0 0 -207.5037551351561 -302.34219117432622 0 -302.34219117432622 -419.53840217641891 0 0 0 0 -149.93069806405401 -282.61058425550527 0 -282.61058425550527 -434.13879258661791 0 0 0 0 -146.01875561241468 -273.26247208788391 0 -273.26247208788391 -378.25137904415351 0 0 0 0 -163.39748678980686 -266.44169043111378 0 -266.44169043111378 -365.49504142315163 0 0 0 0 -191.33681435332255 -309.66835324394015 0 -309.66835324394015 -414.94408347635363 0 0 0 0 -128.87719876421033 -211.59510658911768 0 -211.59510658911768 -325.63664113290542 0 0 0 0 -229.55922375442606 -325.00041214222529 0 -325.00041214222529 -419.3209612410792 0 0 0 0 -168.35433828964597 -299.68103331901511 0 -299.68103331901511 -446.73743176942548 0 0 0 0 -176.55698290136934 -255.83610973070881 0 -255.83610973070881 -387.9130452118452 0 0 0 0 -238.70278962340672 -334.02585524094229 0 -334.02585524094229 -440.9315269729268 0 0 0 0 -239.5747585736608 -331.0703038718234 0 -331.0703038718234 -495.72877767336831 0 0 0 0 -188.60704176725994 -296.12247535790812 0 -296.12247535790812 -448.46370258787647 0 0 0 0 -226.43806387748918 -352.61407662320016 0 -352.61407662320016 -466.22834936086429 0 0 0 0 -262.69487802682306 -407.48178800736571 0 -407.48178800736571 -517.98751951214854 0 0 0 0 -254.86294278466812 -331.91909822806747 0 -331.91909822806747 -445.01214522254622 0 0 0 0 -173.69499855426693 -336.59762416988292 0 -336.59762416988292 -494.23834106825871 0 0 0 0 -330.10314094744535 -390.41304546822084 0 -390.41304546822084 -500.98481215001584 0 0 0 0 -397.80406431395386 -393.59847075949983 0 -393.59847075949983 -617.12721026217037 0 0 0 0 -602.56879477456459 -527.01703201719442 0 -527.01703201719442 -501.06746327912788 0 0 0 0 -496.82883878091525 -384.6224878384287 0 -384.6224878384287 -557.48354778700741 0 0 0 0 -354.92295555074816 -394.00794435760326 0 -394.00794435760326 -529.18081658216363 0 0 0 0 -428.00901915977738 -450.04254723079612 0 -450.04254723079612 -525.57312246756919 0 0 0 0 -328.33793081876502 -437.66136616148378 0 -437.66136616148378 -605.02293772499434 0 0 0 0 -320.55875252599799 -369.68230614720596 0 -369.68230614720596 -473.40109940954062 0 0 0 0 -306.43096091115149 -414.11450303218135 0 -414.11450303218135 -532.73411425147242 0 0 0 0 -227.7321685252391 -332.71048198867538 0 -332.71048198867538 -483.83786616495718 0 0 0 0 -313.05752193416265 -371.65118315958171 0 -371.65118315958171 -456.50115607874977 0 0 0 0 -198.95112817721383 -341.13618754365052 0 -341.13618754365052 -466.49544478571579 0 0 0 0 -289.87232535098155 -387.76547155121989 0 -387.76547155121989 -457.69201675969998 0 0 0 0 -306.17656503622857 -377.61083500992981 0 -377.61083500992981 -462.39085292611162 0 0 0 0 -374.32774371018786 -534.90317951271561 0 -534.90317951271561 -570.66118541783544 0 0 0 0 -271.05940752285824 -387.65686030264305 0 -387.65686030264305 -513.36289153980761 0 0 0 0 -415.9094951466468 -414.59208854506323 0 -414.59208854506323 -493.0780990954845 0 0 0 0 -374.39292856492102 -431.5712400595512 0 -431.5712400595512 -499.40092854320392 0 0 0 0 -272.46159138061921 -491.0130818996704 0 -491.0130818996704 -565.16297370505345 0 0 0 0 -382.75349523789919 -488.49146606494151 0 -488.49146606494151 -521.92995118308954 0 0 0 0 -276.97266856247734 -598.90096018456643 0 -598.90096018456643 -694.1829589914023 0 0 0 0 -473.84014864822529 -688.09441894791735 0 -688.09441894791735 -625.75579695812576 0 0 0 0 -124.55267456137813 -527.94039571056771 0 -527.94039571056771 -445.32724616828909 0 0 0 0 -725.7692868449376 -180.17532938216755 0 -180.17532938216755 -526.86001953850064 0 0 0 0 -1.7649484581906165 -0.25589128102416225 0 -0.25589128102416225 -1.0202072507950888 0 0 0 0 -186.00585111363398 -638.36389761011742 0 -638.36389761011742 -270.41627924284148 0 0 0 0 -107.1688320059402 -390.12256517890728 0 -390.12256517890728 161.38824903635305 0 0 0 0 -2.5077469001656283 -3.3744814259540856 0 -3.3744814259540856 -3.6942813083468931 0 0 0 0 40.874375016579052 32.772194845168428 0 32.772194845168428 -1143.1159358788191 0 0 0 0 47.479169756938063 -43.453187684431896 0 -43.453187684431896 -321.71231451427593 0 0 0 0 -56.837266415048362 -496.43922642587404 0 -496.43922642587404 -741.90612516753754 0 0 0 0 -284.66056743692752 -217.77796183962255 0 -217.77796183962255 -378.76259788347807 0 0 0 0 -134.38615534164273 -144.88630595207974 0 -144.88630595207974 -649.07095211430988 0 0 0 0 -154.91436391244497 -331.57171296142633 0 -331.57171296142633 -506.32007027134432 0 0 0 0 -114.77055749835563 -348.16476531777516 0 -348.16476531777516 -411.78905340019446 0 0 0 0 -36.011765412637033 -405.78901174043403 0 -405.78901174043403 -461.76601493821363 0 0 0 0 -3.6582581268521608 -441.75365725316897 0 -441.75365725316897 -784.41360495971549 0 0 0 0 -122.43360478037357 -402.15225350209244 0 -402.15225350209244 -347.61933245594446 0 0 0 0 -129.53481973824273 -399.81235724712201 0 -399.81235724712201 -251.87449170385116 0 0 0 0 -13.01330865233831 -248.75749210920048 0 -248.75749210920048 -158.01962006462873 0 0 0 0 -133.24959585925535 -268.67141725152487 0 -268.67141725152487 -301.48853308163325 0 0 0 0 -111.63905774337036 -291.64553466293773 0 -291.64553466293773 -404.1249349519012 0 0 0 0 -133.89373229106059 -267.80623324367207 0 -267.80623324367207 -295.61129708328917 0 0 0 0 -120.86592031890177 -250.30909366115611 0 -250.30909366115611 -306.80727666655548 0 0 0 0 -148.42519824380179 -182.17854691318018 0 -182.17854691318018 -153.52708035175237 0 0 0 0 -100.37534987414256 -108.68599099861058 0 -108.68599099861058 -130.00719224437444 0 0 0 0 -123.992232117198 -177.45537465875623 0 -177.45537465875623 -200.68947495183784 0 0 0 0 -94.592956902582955 -179.20012422307809 0 -179.20012422307809 -227.09281831299813 0 0 0 0 -117.07778529860298 -218.01449779677796 0 -218.01449779677796 -261.89331547105758 0 0 0 0 -219.11215741337583 -298.99490662978315 0 -298.99490662978315 -121.01060081783135 0 0 0 0 -207.15171986296264 -249.60261647132438 0 -249.60261647132438 -230.65735942129049 0 0 0 0 63.936033063484501 15.228570721212691 0 15.228570721212691 -5.3905115068373561 0 0 0 0 -0.14736760558751882 -0.07679809809460636 0 -0.07679809809460636 -0.054408739806024897 0 0 0 0 3.6178249618435814 -1.3068899467148007 0 -1.3068899467148007 0.49843647899151655 0 0 0 0 19.725071268781903 -94.524072073737443 0 -94.524072073737443 197.79085678063757 0 0 0 0 -55.064273976942786 -274.9551866380375 0 -274.9551866380375 4.2773680044374487 0 0 0 0 386.38424853393371 -306.93837867637058 0 -306.93837867637058 -5.6682849950209402 0 0 0 0 284.69847833192034 -156.77802187162797 0 -156.77802187162797 11.737675939565179 0 0 0 0 178.60281510742607 22.222249033717617 0 22.222249033717617 -19.60106436615024 0 0 0 0 165.21804637335299 -11.000190948781892 0 -11.000190948781892 -19.424506747947817 0 0 0 0 372.91924794570468 107.42680424560751 0 107.42680424560751 43.185580001906601 0 0 0 0 260.22228097401967 -190.91407767821556 0 -190.91407767821556 251.71463982613614 0 0 0 0 160.6698080251299 4.8513817644120536 0 4.8513817644120536 -28.347981518100823 0 0 0 0 -32.489937816304518 95.146896789280163 0 95.146896789280163 -57.463986267853215 0 0 0 0 -51.425470664791646 41.351540624444169 0 41.351540624444169 119.46878433768961 0 0 0 0 -91.527116736251628 -27.991024616729192 0 -27.991024616729192 112.82926121701416 0 0 0 0 -82.887515368507593 -27.744780951019493 0 -27.744780951019493 71.143645208823727 0 0 0 0 -174.18160844242811 -56.907327342493772 0 -56.907327342493772 90.232644086095661 0 0 0 0 -19.51827600262186 -104.22923118070594 0 -104.22923118070594 44.948222452244408 0 0 0 0 -23.111539095792978 -29.552081372408793 0 -29.552081372408793 -26.908914189471261 0 0 0 0 -7.8194874654166853 -3.4103152831746577 0 -3.4103152831746577 2.5504260952072926 0 0 0 0 2.0080673511013174 -9.8165769430973171 0 -9.8165769430973171 8.0575861153181911 0 0 0 0 -140.98543115762004 -92.791812070909145 0 -92.791812070909145 28.824684005901872 0 0 0 0 -70.900239143502404 58.994366010294243 0 58.994366010294243 114.96610098537985 0 0 0 0 -105.26463567367318 -63.142237323159861 0 -63.142237323159861 -14.289169158972072 0 0 0 0 -127.27717581245815 -59.02362359719973 0 -59.02362359719973 55.296912547859392 0 0 0 0 -77.952041030570399 -1.9288143492613017 0 -1.9288143492613017 35.52369962261082 0 0 0 0 -61.601718992576934 -1.1220202138301829 0 -1.1220202138301829 -17.416308573217975 0 0 0 0 -95.770306754136982 -35.714223678197186 0 -35.714223678197186 -27.67051248455391 0 0 0 0 -1.4490434916864956 -11.821337300395545 0 -11.821337300395545 6.3686842739629714 0 0 0 0 -6.1004131657937251 -16.569433459964102 0 -16.569433459964102 6.2481911740142095 0 0 0 0 -12.407820140545937 -8.4526721892751624 0 -8.4526721892751624 4.1101244193044817 0 0 0 0 -5.2822761299903505 -20.054733783119445 0 -20.054733783119445 14.819050758327649 0 0 0 0 154.54580018373599 -2.0157967306258797 0 -2.0157967306258797 -32.066501607150713 0 0 0 0 -8.3417443726344516 -9.4910179853853123 0 -9.4910179853853123 -5.2339669785212806 0 0 0 0 -2.0250646897483762 -2.1984125658803997 0 -2.1984125658803997 0.6591852436279666 0 0 0 0 177.88172972636858 35.577392626003075 0 35.577392626003075 -1.3985198097907414 0 0 0 0 -7.0398988013766939 -39.213065232939698 0 -39.213065232939698 -22.759489297595792 0 0 0 0 -84.014871931656671 -6.0848047988029066 0 -6.0848047988029066 62.457663817298453 0 0 0 0 -15.942468817338522 94.583588663415867 0 94.583588663415867 -69.895182050146104 0 0 0 0 -117.09602925536456 54.043056209686256 0 54.043056209686256 52.060054912187752 0 0 0 0 49.916112983353742 -91.460704266724633 0 -91.460704266724633 83.412365556498457 0 0 0 0 23.223544798688636 -84.918382487301869 0 -84.918382487301869 -26.195177092531139 0 0 0 0 31.234417563233364 6.6682967237229036 0 6.6682967237229036 12.645180310255455 0 0 0 0 40.138565100347478 -27.356079303131992 0 -27.356079303131992 54.652348333457667 0 0 0 0 -11.221933997123415 -35.323531389651635 0 -35.323531389651635 86.679440723224161 0 0 0 0 37.921602401278506 -48.283125246882264 0 -48.283125246882264 84.808533398159398 0 0 0 0 -6.9042161552425618 1.3513379405410646 0 1.3513379405410646 3.3876128116718149 0 0 0 0 70.594538151104643 -60.232153218837993 0 -60.232153218837993 88.357420350648681 0 0 0 0 -42.161111772881078 -17.351901288716462 0 -17.351901288716462 12.245524663230885 0 0 0 0 -33.489267480727904 -4.3663888736952003 0 -4.3663888736952003 -1.4292273506225683 0 0 0 0 -22.209591894643381 -55.68673272466458 0 -55.68673272466458 16.813858279815577 0 0 0 0 -8.9021049909629255 31.73862819362779 0 31.73862819362779 58.399062533522738 0 0 0 0 -20.724315386635766 -21.234792768351099 0 -21.234792768351099 8.4200622991668013 0 0 0 0 -60.297885030273846 8.7356810220651653 0 8.7356810220651653 46.411460649697119 0 0 0 0 -18.039733075527693 -55.158382341755328 0 -55.158382341755328 -1.1363530459452704 0 0 0 0 -4.2150393297488336 -18.516919657074141 0 -18.516919657074141 0.12317013178198977 0 0 0 0 5.2598136891983032 -16.439014745406716 0 -16.439014745406716 12.458940131289577 0 0 0 0 -53.578623133122164 -130.67420555655281 0 -130.67420555655281 -3.285844338408765 0 0 0 0 6.4901656110910793 -16.165354672162298 0 -16.165354672162298 10.66498118303916 0 0 0 0 -116.92627603601977 126.01453842335172 0 126.01453842335172 119.46121515895902 0 0 0 0 -151.72669225050777 -38.866427741137386 0 -38.866427741137386 79.228931900058342 0 0 0 0 57.043892667740693 -51.44907856766234 0 -51.44907856766234 -134.88722357679933 0 0 0 0 -30.778530938674521 -180.17422563536402 0 -180.17422563536402 23.652708515350152 0 0 0 0 -15.03487450776629 -58.322650213238376 0 -58.322650213238376 -52.057908119171771 0 0 0 0 15.035290332421312 -11.281196290476263 0 -11.281196290476263 5.8496102425296979 0 0 0 0 4.8979220593982689 -14.85691391790499 0 -14.85691391790499 13.782726190726995 0 0 0 0 -0.80958504299633205 -28.003791204413119 0 -28.003791204413119 -11.574291502910455 0 0 0 0 -3.8982400482764206 -107.37274099841807 0 -107.37274099841807 -145.6474662001292 0 0 0 0 -27.817635442021128 -90.529369372605288 0 -90.529369372605288 -100.28080900919849 0 0 0 0 -81.35014428021168 -234.71879934152821 0 -234.71879934152821 -200.72790688214582 0 0 0 0 -51.815476061598929 -174.44984490506681 0 -174.44984490506681 -107.19908325020879 0 0 0 0 -21.794616626269999 -78.062604430593638 0 -78.062604430593638 -80.680321727326373 0 0 0 0 -33.611240741611255 -169.70716469704985 0 -169.70716469704985 -126.38751201924242 0 0 0 0 -50.611171891636332 -158.04794698940714 0 -158.04794698940714 10.472204537968992 0 0 0 0 -54.333821893833374 -125.98196919406837 0 -125.98196919406837 145.6102957803887 0 0 0 0 15.055938145364053 -49.022535737720318 0 -49.022535737720318 -49.254981043966836 0 0 0 0 0.5932810814028926 -38.418180588182622 0 -38.418180588182622 -263.30841856679945 0 0 0 0 -4.6293336168528185 -53.800550783375911 0 -53.800550783375911 -307.72160522668855 0 0 0 0 5.397396296277293 -114.42524265801603 0 -114.42524265801603 -254.19307687734374 0 0 0 0 -10.492944675464969 -130.15075525943621 0 -130.15075525943621 -223.33164677295554 0 0 0 0 -25.802771509683225 -25.435745542213226 0 -25.435745542213226 -90.293418160530564 0 0 0 0 -2.8909788140408637 -277.30743772936239 0 -277.30743772936239 -268.51015420625345 0 0 0 0 24.214330790124222 -125.2964157415513 0 -125.2964157415513 -343.39529004672113 0 0 0 0 30.085796376555663 -99.410356770136787 0 -99.410356770136787 -435.97064412127838 0 0 0 0 -8.3820765136988484 -333.54234434475575 0 -333.54234434475575 -518.28494748306821 0 0 0 0 -94.031991812222259 -398.56642387557258 0 -398.56642387557258 -189.08346834457961 0 0 0 0 -97.006540996175318 -382.05257474290147 0 -382.05257474290147 -212.65393314006087 0 0 0 0 -115.81251378147499 -356.68008284192183 0 -356.68008284192183 -242.4313470920697 0 0 0 0 -30.84336194129537 -274.34524114623127 0 -274.34524114623127 -225.21184872162394 0 0 0 0 -105.87107593276232 -231.4671078452111 0 -231.4671078452111 -149.18832877746627 0 0 0 0 -87.907631175843562 -169.1461053194422 0 -169.1461053194422 -112.00618150829359 0 0 0 0 -104.85371007947106 -182.85808434422597 0 -182.85808434422597 -122.3825721853309 0 0 0 0 -180.57394060620027 -197.94267922177983 0 -197.94267922177983 -97.882383229363768 0 0 0 0 -151.4704118878908 -248.61755438924138 0 -248.61755438924138 -136.56510639728913 0 0 0 0 -159.1909262073932 -249.91447289859934 0 -249.91447289859934 -129.27323924018128 0 0 0 0 -111.39041661263764 -332.33182801375142 0 -332.33182801375142 -181.00886439312308 0 0 0 0 -229.50180007902964 -343.96241154694553 0 -343.96241154694553 -165.96210394190371 0 0 0 0 -201.34789637475296 -305.49351018034713 0 -305.49351018034713 -172.77592744170761 0 0 0 0 -283.68950836727527 -349.7588574416036 0 -349.7588574416036 -196.1595757044829 0 0 0 0 -196.20472231950407 -237.67703746764073 0 -237.67703746764073 -143.52514202166458 0 0 0 0 -259.20050240873388 -282.95868423348475 0 -282.95868423348475 -138.9324410858207 0 0 0 0 -332.05966962211915 -244.6877538492306 0 -244.6877538492306 -139.19190293537395 0 0 0 0 -252.2065471514361 -226.61078929923224 0 -226.61078929923224 -204.62156517172025 0 0 0 0 -354.19956895031191 -403.9633637854331 0 -403.9633637854331 -356.77465358035352 0 0 0 0 -435.39868561654839 -196.79598639708081 0 -196.79598639708081 -208.12137189157693 0 0 0 0 -275.0638421616859 -301.67824092195815 0 -301.67824092195815 -232.09766607635311 0 0 0 0 -199.23713530556415 -405.84525733293344 0 -405.84525733293344 -443.004024692852 0 0 0 0 -144.47885354947903 -300.22997852816843 0 -300.22997852816843 -244.75605022238233 0 0 0 0 -137.67538302538014 -334.88687592920496 0 -334.88687592920496 -81.620749855460872 0 0 0 0 -48.939164873110713 -256.0250501814885 0 -256.0250501814885 -210.98029705746964 0 0 0 0 -40.57397563359487 -400.31219981417627 0 -400.31219981417627 -197.05541229000664 0 0 0 0 -164.51050692347962 -408.79081959204814 0 -408.79081959204814 -179.22634901555466 0 0 0 0 -16.671991581504699 -76.567669432117327 0 -76.567669432117327 -79.165881700973841 0 0 0 0 -69.692162065377943 -94.609611463810211 0 -94.609611463810211 -56.375689037548 0 0 0 0 -24.758455232320557 -80.564775710829963 0 -80.564775710829963 -20.920022627093203 0 0 0 0 3.6619089776668261 -58.402604437237642 0 -58.402604437237642 -22.761586456872465 0 0 0 0 -2.5917734984141134 -141.36025829662617 0 -141.36025829662617 -3.3718274290540649 0 0 0 0 24.658134453075036 -88.96887745108279 0 -88.96887745108279 -45.273605385596966 0 0 0 0 -16.579804463792243 -111.26928735512183 0 -111.26928735512183 -67.566930277288975 0 0 0 0 -43.424371709477782 -153.3229252299875 0 -153.3229252299875 -85.248116887465585 0 0 0 0 -53.260727573957411 -136.44833821018346 0 -136.44833821018346 -113.75649978272486 0 0 0 0 -76.230761819999316 -136.11024464935053 0 -136.11024464935053 -54.971632381981635 0 0 0 0 -88.143115324142855 -119.19542541495957 0 -119.19542541495957 -78.921199324451663 0 0 0 0 -162.32651225052905 -173.17412803842581 0 -173.17412803842581 -121.85867313736344 0 0 0 0 -99.516004337681352 -169.17848139323451 0 -169.17848139323451 -165.88826207300008 0 0 0 0 -177.31671752741477 -233.82310648179703 0 -233.82310648179703 -241.25103050196776 0 0 0 0 -303.56798531618188 -278.63756574939543 0 -278.63756574939543 -374.24143878496307 0 0 0 0 -192.72451702414037 -123.14176747816146 0 -123.14176747816146 -174.85963287695404 0 0 0 0 -278.83599598016735 -199.51508156285627 0 -199.51508156285627 -135.51752521082562 0 0 0 0 -171.01060172478537 -151.13105133411182 0 -151.13105133411182 -97.231714846087925 0 0 0 0 -160.73002360515238 -153.78137183602757 0 -153.78137183602757 -131.62355625301916 0 0 0 0 -229.76195122571335 -203.20932420627287 0 -203.20932420627287 -110.80008725028711 0 0 0 0 -122.9515198220106 -111.97968373276399 0 -111.97968373276399 -104.62110460821532 0 0 0 0 -147.89953325390525 -168.26470944908488 0 -168.26470944908488 -132.82603867955368 0 0 0 0 -96.969131610956538 -118.70861558616343 0 -118.70861558616343 -128.33196992877856 0 0 0 0 -64.810473925945644 -111.89890276903589 0 -111.89890276903589 -115.98357561992088 0 0 0 0 -104.73912501524319 -98.867938886134652 0 -98.867938886134652 -74.663197221709197 0 0 0 0 -48.660077991738945 -92.48522530450191 0 -92.48522530450191 -85.926143675486401 0 0 0 0 -84.178055162374221 -129.62386130128948 0 -129.62386130128948 -76.290274375611261 0 0 0 0 -56.295270324792909 -60.976987511958214 0 -60.976987511958214 -45.960327654329376 0 0 0 0 -10.740730837078445 -48.180331737300548 0 -48.180331737300548 -59.339352522963964 0 0 0 0 -134.82670423182572 -176.40952241387458 0 -176.40952241387458 -113.62331572746245 0 0 0 0 -96.919325997598207 -113.13143236024462 0 -113.13143236024462 -97.608898558462187 0 0 0 0 -149.52970166768137 -167.59807868281086 0 -167.59807868281086 -95.158081532754295 0 0 0 0 -78.459671867474754 -120.38313710637703 0 -120.38313710637703 -69.05508872513019 0 0 0 0 37.850003895357077 -24.28767790321217 0 -24.28767790321217 -60.230439695684368 0 0 0 0 -51.961359898799856 -133.39844304294547 0 -133.39844304294547 -178.82577621224027 0 0 0 0 -79.616664791694348 -115.63553573347053 0 -115.63553573347053 -79.53459379671358 0 0 0 0 50.24648489320316 4.7592820121626573 0 4.7592820121626573 8.1479884093521378 0 0 0 0 -28.981955534869485 -37.081571364386036 0 -37.081571364386036 3.3696819259712356 0 0 0 0 -12.923183678351052 -27.347372505202657 0 -27.347372505202657 -24.712862611526361 0 0 0 0 -1.9590895283836289 -82.035142376650583 0 -82.035142376650583 -76.606950132987635 0 0 0 0 -4.2874079980865645 16.748874270315355 0 16.748874270315355 61.308268929679798 0 0 0 0 3.6820050230708148 -9.0477379931180621 0 -9.0477379931180621 -3.9141261181430309 0 0 0 0 3.6815403191612859 -24.02889674693688 0 -24.02889674693688 43.967516950389836 0 0 0 0 -20.186914068584883 -48.747916212270866 0 -48.747916212270866 -20.031262381708075 0 0 0 0 -10.113076082048792 -63.283199051913925 0 -63.283199051913925 -33.59452918790339 0 0 0 0 -31.193547001905245 -43.185398507720492 0 -43.185398507720492 -52.416004551616197 0 0 0 0 12.172263303622458 -31.111910375721891 0 -31.111910375721891 23.345010122169697 0 0 0 0 3.4782109941379531 -21.855092894576956 0 -21.855092894576956 -3.4882998606663023 0 0 0 0 17.815404380835389 -43.134897340792122 0 -43.134897340792122 -39.0966942226828 0 0 0 0 31.609014331741491 -24.910328317891981 0 -24.910328317891981 -10.527883080560059 0 0 0 0 19.931534166225902 -5.0843238574025236 0 -5.0843238574025236 23.136906722773347 0 0 0 0 29.463844721818532 -9.1750250642908213 0 -9.1750250642908213 8.4632561072230601 0 0 0 0 57.760035428091214 4.8102764156301419 0 4.8102764156301419 13.231776295030613 0 0 0 0 17.196090261160862 -32.976065946857489 0 -32.976065946857489 49.48322163991179 0 0 0 0 50.101754727114894 -27.143843463904886 0 -27.143843463904886 27.700631695272023 0 0 0 0 18.721497576261754 -3.7243307707776694 0 -3.7243307707776694 10.232972765807062 0 0 0 0 2.7799395775531366 -35.573498844488441 0 -35.573498844488441 0.71054466814496209 0 0 0 0 -88.659793930994056 58.070684219397208 0 58.070684219397208 131.65850051649954 0 0 0 0 8.1726202345491714 -5.7984965050746089 0 -5.7984965050746089 0.52979104545257538 0 0 0 0 -7.5459419365134437 -3.0316929585309675 0 -3.0316929585309675 0.68643694537196709 0 0 0 0 -3.4745541714437422 61.001011125276079 0 61.001011125276079 -30.589157790264778 0 0 0 0 24.347381465246698 -16.01718775422362 0 -16.01718775422362 8.2322215709135289 0 0 0 0 1.7144985062273008 -64.609882380818249 0 -64.609882380818249 7.2906786308637948 0 0 0 0 3.9742878605400875 -10.119455239916238 0 -10.119455239916238 5.3482081887769688 0 0 0 0 -17.445460226663727 -39.192769875686196 0 -39.192769875686196 -100.60978029100352 0 0 0 0 -30.649023862031754 -54.016275717911185 0 -54.016275717911185 -106.02734159675975 0 0 0 0 2.4494697588892329 -2.6602863336507987 0 -2.6602863336507987 -0.41924556399999435 0 0 0 0 -250.10022832507457 -56.257603903072209 0 -56.257603903072209 14.71401067430827 0 0 0 0 -6.9962621745753495 -41.959678478737715 0 -41.959678478737715 -156.10393441116412 0 0 0 0 -57.667514651648162 -112.15624489583024 0 -112.15624489583024 -132.32319802254722 0 0 0 0 -27.835539594354486 -54.03415820853786 0 -54.03415820853786 -135.43396890328546 0 0 0 0 0.19277418418793957 -0.58471103285547965 0 -0.58471103285547965 -0.24441597425153727 0 0 0 0 -82.09769063663407 -84.550130459141656 0 -84.550130459141656 220.10379018569256 0 0 0 0 24.883328324081958 -69.490781607486042 0 -69.490781607486042 -67.070730706755057 0 0 0 0 22.818636170119134 -27.856479842274894 0 -27.856479842274894 -34.61036885924841 0 0 0 0 14.024571241025114 25.962803237468506 0 25.962803237468506 95.715999579635536 0 0 0 0 -21.320549163778196 -62.675445080107238 0 -62.675445080107238 57.617239985957895 0 0 0 0 92.467276040970319 -133.81176089691638 0 -133.81176089691638 -264.31920499433727 0 0 0 0 29.001366749404724 -75.397976061977033 0 -75.397976061977033 38.112563609756762 0 0 0 0 28.470786506823679 -22.329063966603041 0 -22.329063966603041 11.693370376771252 0 0 0 0 3.3429347780944312 -6.769859358709823 0 -6.769859358709823 6.7841842654220148 0 0 0 0 2.2606366321140356 -0.72102031747087736 0 -0.72102031747087736 0.17288545808924338 0 0 0 0 1227.5538875648926 232.35033368121231 0 232.35033368121231 -225.02766429837618 0 0 0 0 429.86566158930873 -135.26189215686941 0 -135.26189215686941 -190.77694515898838 0 0 0 0 -243.7695680352856 65.719722959934401 0 65.719722959934401 212.48252800767796 0 0 0 0 -389.38316180484981 90.559379561971838 0 90.559379561971838 385.76719202248034 0 0 0 0 15.399206191541452 -70.640366225655271 0 -70.640366225655271 -67.065250418976575 0 0 0 0 27.991713753301021 -24.327777576950862 0 -24.327777576950862 13.070489337107016 0 0 0 0 6.2920058753970913 -3.1809896254095698 0 -3.1809896254095698 2.7175986273897932 0 0 0 0 219.32022704661722 -30.714437558823874 0 -30.714437558823874 -105.40111859304125 0 0 0 0 286.98269337553666 -89.966974163410129 0 -89.966974163410129 -30.434619224579365 0 0 0 0 247.44081984536024 140.74518574494937 0 140.74518574494937 -24.576889591143299 0 0 0 0 88.63880447811971 6.9205315723902459 0 6.9205315723902459 10.548279556236594 0 0 0 0 14.727472411625058 208.46130475020527 0 208.46130475020527 62.434139494833289 0 0 0 0 142.74196124203809 -142.25121964944071 0 -142.25121964944071 5.5471440991520922 0 0 0 0 60.309220044227914 -134.79186725577711 0 -134.79186725577711 30.147538192049979 0 0 0 0 14.63026398150032 -101.4043056984151 0 -101.4043056984151 4.3530658372426387 0 0 0 0 -53.238837421970857 -46.424200190390764 0 -46.424200190390764 -1.2363081138664711 0 0 0 0 -8.8722521120025704 -111.50718018722637 0 -111.50718018722637 -22.543283258673227 0 0 0 0 16.169288345794484 -78.944389169325632 0 -78.944389169325632 15.176522880166431 0 0 0 0 -16.348932252310988 -117.33641564344885 0 -117.33641564344885 21.988379440071895 0 0 0 0 59.652059079275205 -99.370179682230628 0 -99.370179682230628 39.306640072053824 0 0 0 0 124.59248147232393 -60.365127021382932 0 -60.365127021382932 -20.236429226148175 0 0 0 0 93.66448243233026 -59.131893377554434 0 -59.131893377554434 -10.402255730601837 0 0 0 0 83.722445156126923 -38.520582289986123 0 -38.520582289986123 51.481507273725583 0 0 0 0 -61.350323929759725 -116.59207278277796 0 -116.59207278277796 -101.18694535235477 0 0 0 0 -116.95190844324679 -161.85048027581274 0 -161.85048027581274 -84.039557719352445 0 0 0 0 -72.810177719133208 -120.50317798661183 0 -120.50317798661183 -42.302127119214482 0 0 0 0 -39.458099465907253 -69.990035722330958 0 -69.990035722330958 -45.068586848942232 0 0 0 0 -64.009950177982319 -96.213549391777178 0 -96.213549391777178 21.853807853492526 0 0 0 0 -19.413202905783692 -95.354641215380298 0 -95.354641215380298 11.60625647556185 0 0 0 0 -85.293052036295194 -110.25214958898692 0 -110.25214958898692 -0.36215586597427318 0 0 0 0 -132.37671647673051 -135.41850992675177 0 -135.41850992675177 33.221602535994407 0 0 0 0 -114.97051827235373 -121.09627561231093 0 -121.09627561231093 41.917020215984849 0 0 0 0 -101.35406609756637 -101.81455892688791 0 -101.81455892688791 59.096162892634766 0 0 0 0 -94.655246992955654 -109.49885557581041 0 -109.49885557581041 36.749394689930341 0 0 0 0 -135.39189622646882 -115.47786363585828 0 -115.47786363585828 58.981468994842388 0 0 0 0 -106.95993465276661 -68.596605962824469 0 -68.596605962824469 56.524657905433742 0 0 0 0 32.472740248280388 -78.352297567656194 0 -78.352297567656194 -26.902969879248758 0 0 0 0 54.445412349422668 -81.941662124450659 0 -81.941662124450659 0.070017869301409519 0 0 0 0 28.261866198985444 -82.643108127193045 0 -82.643108127193045 1.183653093131511 0 0 0 0 -17.966033791301925 -55.950495082592056 0 -55.950495082592056 47.78091327910056 0 0 0 0 -4.4414515352897297 -93.169721549254916 0 -93.169721549254916 112.77772313653395 0 0 0 0 -10.893966721141325 -5.2923669588877651 0 -5.2923669588877651 -3.7037033176380989 0 0 0 0 13.686948500020662 -31.705437269810687 0 -31.705437269810687 62.353499801325142 0 0 0 0 46.772915609653865 -18.36778170900061 0 -18.36778170900061 -415.16924342964467 0 0 0 0 -3.4424367368262239 -2.4755763232299905 0 -2.4755763232299905 -1.4327780173673288 0 0 0 0 18.773526909948487 -27.47872694827754 0 -27.47872694827754 -134.60275577897664 0 0 0 0 -20.851067021198105 -64.871843762830849 0 -64.871843762830849 -34.428429285953371 0 0 0 0 -121.68040198430754 -123.0670644365523 0 -123.0670644365523 42.812198112881561 0 0 0 0 -147.76131201739008 -146.6622500987512 0 -146.6622500987512 43.98402734931642 0 0 0 0 -241.07534348036825 -101.95252209616115 0 -101.95252209616115 153.11533510632444 0 0 0 0 -210.4012705575567 -259.28053675884121 0 -259.28053675884121 -116.03785272457117 0 0 0 0 -54.282915076611971 -130.29129630985199 0 -130.29129630985199 -279.14725277294019 0 0 0 0 -100.36222167629967 7.0863651315871721 0 7.0863651315871721 -196.40175709948858 0 0 0 0 -72.586871512950893 -50.25672030080375 0 -50.25672030080375 -81.928729427941107 0 0 0 0 -153.31035111762463 -26.40253545025287 0 -26.40253545025287 32.497805594823149 0 0 0 0 -160.98375192903131 -224.90720604751064 0 -224.90720604751064 -91.776378672776445 0 0 0 0 -1.1323285494582223 -1.1916467877625516 0 -1.1916467877625516 0.37881151142806946 0 0 0 0 -7.6906501233479503 -133.39489562682274 0 -133.39489562682274 -471.77933960699602 0 0 0 0 -343.65721329295502 -10.595078175176013 0 -10.595078175176013 323.18135560774226 0 0 0 0 7.08969962187075 -225.33758527879695 0 -225.33758527879695 -285.11074277501211 0 0 0 0 -20.809922192630438 -207.23570728203936 0 -207.23570728203936 -30.04363112846022 0 0 0 0 18.295376436424704 -161.69930830676867 0 -161.69930830676867 -173.9430914837634 0 0 0 0 -6.3326690655740094 -146.37158976745354 0 -146.37158976745354 -95.369426267119707 0 0 0 0 -27.910978100408101 -80.293727872596946 0 -80.293727872596946 -115.83517258450411 0 0 0 0 -2.4179626549938718 -2.9054167124119648 0 -2.9054167124119648 1.0502987853141499 0 0 0 0 -56.379881366389782 -106.94923287134759 0 -106.94923287134759 78.489894101619029 0 0 0 0 64.91625093672701 -167.5820827352054 0 -167.5820827352054 -264.11150160314651 0 0 0 0 -112.44546537803944 -145.29180164636682 0 -145.29180164636682 -99.994486809374393 0 0 0 0 9.7766862458843207 -82.27990234687104 0 -82.27990234687104 -86.217818437279675 0 0 0 0 -14.312636142128213 -126.17332362295963 0 -126.17332362295963 -48.823026482041314 0 0 0 0 -53.038114922157547 -129.81092588446927 0 -129.81092588446927 -20.598697625404839 0 0 0 0 229.81753843224215 -132.350120074183 0 -132.350120074183 -94.62896976229149 0 0 0 0 76.209350303237443 -122.96438720719425 0 -122.96438720719425 -34.677888237298248 0 0 0 0 114.01312634181159 -72.516246304014203 0 -72.516246304014203 -186.73310776671588 0 0 0 0 85.156665027338022 -86.383441940040939 0 -86.383441940040939 -36.125190051370737 0 0 0 0 42.507382956562651 -65.486912792896419 0 -65.486912792896419 67.892495381917342 0 0 0 0 117.42996064389627 -34.409811898990256 0 -34.409811898990256 20.121751058943119 0 0 0 0 -5.7575775774721478 -62.198308326772803 0 -62.198308326772803 55.646163743389479 0 0 0 0 -12.659820638162273 -69.980878131028248 0 -69.980878131028248 70.152731058675727 0 0 0 0 11.155447050890871 -102.61454727709452 0 -102.61454727709452 38.287746713212528 0 0 0 0 12.072243759317644 3.2228175471975646 0 3.2228175471975646 80.851449020155769 0 0 0 0 11.860476606502264 -27.098598210459652 0 -27.098598210459652 22.212613507806971 0 0 0 0 -53.164403215294442 4.5322315098549097 0 4.5322315098549097 222.84802315509819 0 0 0 0 -6.4635371517433668 -50.267499633209809 0 -50.267499633209809 -63.886084109886724 0 0 0 0 0.53344886523926771 -35.323264503711904 0 -35.323264503711904 15.397966407400347 0 0 0 0 174.6814615315941 64.43170615330871 0 64.43170615330871 90.723591093927098 0 0 0 0 177.05621734940701 22.155440564731208 0 22.155440564731208 89.618430090864422 0 0 0 0 97.419190154871785 79.362591144817657 0 79.362591144817657 110.39605451368334 0 0 0 0 101.96919430382695 -11.881521965934553 0 -11.881521965934553 75.055943712454791 0 0 0 0 86.096381534935063 -64.989264326382909 0 -64.989264326382909 99.574850208643511 0 0 0 0 -38.261086696846178 -79.712509390640662 0 -79.712509390640662 103.34709343886254 0 0 0 0 48.269936983404477 46.847629657637754 0 46.847629657637754 41.556069102585752 0 0 0 0 -16.67057527997531 22.679126165176513 0 22.679126165176513 83.252398607987743 0 0 0 0 23.950140282446228 -23.339937705928605 0 -23.339937705928605 4.2168668987992532 0 0 0 0 -17.003793720124122 -37.701092103648762 0 -37.701092103648762 -51.965770087230339 0 0 0 0 -123.34018886488229 -46.053851362744808 0 -46.053851362744808 100.97839379166942 0 0 0 0 -89.740931165859365 -58.934020345731881 0 -58.934020345731881 -14.828093771611748 0 0 0 0 5.9152773385158071 -158.46993872709891 0 -158.46993872709891 -39.929849545104844 0 0 0 0 -16.857514338737019 -146.38529677648444 0 -146.38529677648444 -39.776487801973417 0 0 0 0 -4.0852952185323375 -113.68661865302238 0 -113.68661865302238 -29.555279994460307 0 0 0 0 -29.839569015628967 -162.39693209911684 0 -162.39693209911684 101.12289008422977 0 0 0 0 -45.069394431888213 -84.172626152550492 0 -84.172626152550492 -15.894702230466919 0 0 0 0 -39.522679929024889 -112.84721951182382 0 -112.84721951182382 -43.972518944777448 0 0 0 0 -225.95514742741761 -226.77194837497586 0 -226.77194837497586 33.734556579317541 0 0 0 0 190.02786034948258 -13.919596503211324 0 -13.919596503211324 -93.753289446272902 0 0 0 0 295.52701150236499 -203.60231137708479 0 -203.60231137708479 -219.32880190674041 0 0 0 0 -432.80970884072849 79.627632786681261 0 79.627632786681261 43.887550318289641 0 0 0 0 -391.20378490066832 -77.675786437869647 0 -77.675786437869647 72.438674686948616 0 0 0 0 -0.11351268401003267 -0.5118284281075951 0 -0.5118284281075951 0.88890076659965445 0 0 0 0 161.56347587176788 -90.465148602815589 0 -90.465148602815589 -219.89934587055359 0 0 0 0 -305.50015478644491 -8.1577405286025169 0 -8.1577405286025169 -32.209081855069599 0 0 0 0 -0.69673382197637679 -0.082669704379927822 0 -0.082669704379927822 -2.4740947989979016 0 0 0 0 -362.48143175247969 -280.44114164033499 0 -280.44114164033499 301.85752392172253 0 0 0 0 -96.100203382226027 -309.08656478279727 0 -309.08656478279727 -61.99415865465653 0 0 0 0 -1.198303120850909 -1.2133743106780375 0 -1.2133743106780375 0.33120336048671373 0 0 0 0 43.976184821975039 -135.23721557139015 0 -135.23721557139015 -550.48739731250043 0 0 0 0 -92.186914991387312 -2.7835667313456725 0 -2.7835667313456725 311.87016577037957 0 0 0 0 102.2590520402664 -82.055908975310558 0 -82.055908975310558 -27.288068590001103 0 0 0 0 -119.86871273046563 -151.61413043313701 0 -151.61413043313701 -150.77947197071262 0 0 0 0 -47.209511046981788 -123.15973566085904 0 -123.15973566085904 -150.309620397289 0 0 0 0 9.5108847303163202 35.283845300104531 0 35.283845300104531 -74.270787762527107 0 0 0 0 -87.38068792831109 -137.06688126132121 0 -137.06688126132121 -109.97477205620862 0 0 0 0 -2.5020348116833659 -2.967623576746103 0 -2.967623576746103 1.0182165397525553 0 0 0 0 -26.04655736100176 -165.85543523449905 0 -165.85543523449905 -259.66870088675705 0 0 0 0 -5.3408738576872565 -85.599742075010454 0 -85.599742075010454 -214.07545339639182 0 0 0 0 -41.476240589721783 -122.08133691379953 0 -122.08133691379953 -55.180146830389276 0 0 0 0 -30.125849592851864 -92.418156752733694 0 -92.418156752733694 -99.777971485687885 0 0 0 0 -33.835327831540781 -55.90378435934781 0 -55.90378435934781 88.618989037629945 0 0 0 0 -85.603445267170173 -87.791536790229429 0 -87.791536790229429 -181.9901686805224 0 0 0 0 -0.21970965241623475 -0.033127424368814218 0 -0.033127424368814218 0.136268664778191 0 0 0 0 25.298942103243462 -51.811221041333283 0 -51.811221041333283 44.431492273711683 0 0 0 0 45.202205276829773 -18.901192392401754 0 -18.901192392401754 -40.136319343496325 0 0 0 0 6.3991898981932636 -9.4058704175415802 0 -9.4058704175415802 6.7878871412348074 0 0 0 0 61.944792131860595 -81.630035007096012 0 -81.630035007096012 -0.37793409637606601 0 0 0 0 -118.08180841773174 -117.75890505471079 0 -117.75890505471079 -57.455135174059251 0 0 0 0 65.697250098171935 -288.93976852656169 0 -288.93976852656169 -306.98008883335297 0 0 0 0 8.975731819820794 -67.335353954560333 0 -67.335353954560333 84.287057028324398 0 0 0 0 1.8769522583137856 -4.6578296558378058 0 -4.6578296558378058 3.8386959121800466 0 0 0 0 -75.882588899312395 -92.707937599664092 0 -92.707937599664092 -100.95535730928577 0 0 0 0 7.8222675893065485 -1.0730069324471465 0 -1.0730069324471465 -2.1682649420985314 0 0 0 0 28.790712436551985 -34.028792531272302 0 -34.028792531272302 -69.61208068241649 0 0 0 0 27.001596356310984 -39.127835883165062 0 -39.127835883165062 35.619656819793818 0 0 0 0 23.46494502804449 -24.579106188203301 0 -24.579106188203301 21.822570546127473 0 0 0 0 16.08275665207475 -31.331357989612115 0 -31.331357989612115 44.123476778348049 0 0 0 0 -4.2909100254037185 -100.35300140263917 0 -100.35300140263917 -63.14261419804734 0 0 0 0 40.897785037474023 -55.845699358000729 0 -55.845699358000729 -165.06851475298845 0 0 0 0 41.973292763250356 -68.977259046920381 0 -68.977259046920381 51.217280723665681 0 0 0 0 4.0248912785590107 -7.3895198765624492 0 -7.3895198765624492 5.0338282157153298 0 0 0 0 10.918077967195131 -31.968561016530657 0 -31.968561016530657 31.417908535981951 0 0 0 0 18.717945332325627 -26.481261297717882 0 -26.481261297717882 28.890593045522117 0 0 0 0 16.821821640947746 -29.997904717307392 0 -29.997904717307392 27.3066402085351 0 0 0 0 -236.91567193801166 -108.14277496090472 0 -108.14277496090472 14.509050676419065 0 0 0 0 14.3548920441369 -29.265237779509082 0 -29.265237779509082 31.24137727493239 0 0 0 0 14.896784922273582 -26.925359040390504 0 -26.925359040390504 26.88072719688995 0 0 0 0 -178.50372294271438 -227.46658299810019 0 -227.46658299810019 4.2364083097136245 0 0 0 0 -23.361980055175081 -109.66798112697961 0 -109.66798112697961 -61.96337610213601 0 0 0 0 133.20273440179699 -110.4594411913597 0 -110.4594411913597 -50.019187874187082 0 0 0 0 157.79743365594913 -125.52229714570194 0 -125.52229714570194 -123.98310652724831 0 0 0 0 22.500740317711461 -151.19039002119143 0 -151.19039002119143 -43.447995031584014 0 0 0 0 1.5085918072054483 -31.333177954432358 0 -31.333177954432358 -11.539710259478397 0 0 0 0 -14.733125140380253 -33.22185461463755 0 -33.22185461463755 36.14357885381105 0 0 0 0 20.942852310505259 -32.413595569670633 0 -32.413595569670633 14.810284147438324 0 0 0 0 6.1455455013892788 -17.577357604463032 0 -17.577357604463032 18.905635665917089 0 0 0 0 10.117260553424785 -77.984688468752552 0 -77.984688468752552 54.44851479449926 0 0 0 0 5.6517578281491296 -38.091084190550646 0 -38.091084190550646 37.232743375815744 0 0 0 0 -11.97380649640472 -14.591389955564974 0 -14.591389955564974 1.0450217727135467 0 0 0 0 37.920967893865964 -48.733829826593592 0 -48.733829826593592 27.534525799168478 0 0 0 0 24.008289943640193 -55.162341249439237 0 -55.162341249439237 -3.5307913572551115 0 0 0 0 11.355229626546134 -48.542606629986722 0 -48.542606629986722 27.533194052904445 0 0 0 0 28.783750912083864 -34.055855085289913 0 -34.055855085289913 19.108335339562338 0 0 0 0 -163.90940186462831 -154.29637788770697 0 -154.29637788770697 17.701615847136964 0 0 0 0 -4.3537941748636513 -56.517413986894553 0 -56.517413986894553 45.477086759567214 0 0 0 0 18.069941322977403 -31.554114459432796 0 -31.554114459432796 18.63607405884613 0 0 0 0 -113.38865551883646 -70.733737304249644 0 -70.733737304249644 51.059814988701419 0 0 0 0 -152.85508874862717 -129.45977139079241 0 -129.45977139079241 -17.417948738861014 0 0 0 0 -121.02671110092342 -17.487096233474404 0 -17.487096233474404 71.430733250480444 0 0 0 0 -91.132898183224825 -18.388051230796577 0 -18.388051230796577 35.019475008185509 0 0 0 0 2.7481010620537312 -2.9932172339476324 0 -2.9932172339476324 1.6917206799479256 0 0 0 0 9.8452645618626775 -26.212572533804746 0 -26.212572533804746 -9.1674429390855039 0 0 0 0 29.812473706117089 -14.91691789266315 0 -14.91691789266315 -49.764190916640018 0 0 0 0 343.86698190734023 -322.41164194465932 0 -322.41164194465932 163.22881977107613 0 0 0 0 -41.106726354177226 -30.502753726471383 0 -30.502753726471383 120.53293977701526 0 0 0 0 -3.2013602938532131 -88.909482728956391 0 -88.909482728956391 204.01941720901686 0 0 0 0 -3.268445578907631 -48.473387448736503 0 -48.473387448736503 470.43189599622747 0 0 0 0 -41.306366471566434 -175.24886326246451 0 -175.24886326246451 -122.6748830555207 0 0 0 0 -29.637561436542455 -230.31324720186558 0 -230.31324720186558 110.16836751726987 0 0 0 0 -214.43148208627827 -270.307526658386 0 -270.307526658386 -188.01935682307339 0 0 0 0 -290.19703997170109 -66.229459888612155 0 -66.229459888612155 86.933040994307703 0 0 0 0 11.374815854822415 -13.559015274288894 0 -13.559015274288894 -0.78900642245218311 0 0 0 0 -119.73396044624678 -79.499947565937873 0 -79.499947565937873 69.021454033018927 0 0 0 0 -134.6552614829925 -67.266085055139229 0 -67.266085055139229 182.61403517137114 0 0 0 0 -30.517652392511081 20.869363074411467 0 20.869363074411467 134.06174094123526 0 0 0 0 -50.076995896670269 -18.853527194179151 0 -18.853527194179151 141.81576096082063 0 0 0 0 -119.03829133496447 -9.144823866073807 0 -9.144823866073807 186.64377163938116 0 0 0 0 -175.18219541611325 -48.400680382181235 0 -48.400680382181235 138.08777373245857 0 0 0 0 -117.60837605728807 -37.217817521111684 0 -37.217817521111684 95.690524980807822 0 0 0 0 -100.07226394664031 34.039745842630964 0 34.039745842630964 111.34974743525174 0 0 0 0 -92.764750287118659 18.115797438485515 0 18.115797438485515 139.11762558614646 0 0 0 0 61.704247345245676 222.73155964648834 0 222.73155964648834 -36.270190875011394 0 0 0 0 3.3257449472683049 -2.2941461438956097 0 -2.2941461438956097 2.5887301338719944 0 0 0 0 41.295062212688208 173.24710867273075 0 173.24710867273075 351.14704171767153 0 0 0 0 389.10238485291848 -164.20314619617329 0 -164.20314619617329 -34.404192701613965 0 0 0 0 58.379171287146164 122.90278663064214 0 122.90278663064214 236.69590002380573 0 0 0 0 -70.79517889818635 -2.9206800363310776 0 -2.9206800363310776 298.26288649443359 0 0 0 0 476.79499266548919 -197.63355847541266 0 -197.63355847541266 -6.1806292690948794 0 0 0 0 416.17841331169984 -250.03112905006151 0 -250.03112905006151 90.859322886677546 0 0 0 0 401.87353798689946 129.07242760569488 0 129.07242760569488 -36.613450854487837 0 0 0 0 123.49255986607022 92.283640180616658 0 92.283640180616658 279.30281256263515 0 0 0 0 120.95470974007821 53.689479548185275 0 53.689479548185275 31.211026105353085 0 0 0 0 20.219887789462518 75.885684214629691 0 75.885684214629691 100.09013562317659 0 0 0 0 -75.710323450963187 -47.055451109838032 0 -47.055451109838032 148.39657782940321 0 0 0 0 298.5971930303258 32.19353184212514 0 32.19353184212514 -99.802707318677676 0 0 0 0 7.586066292418451 -4.5044984109867734 0 -4.5044984109867734 1.9329891476695478 0 0 0 0 -10.724522375297965 -85.011073635616867 0 -85.011073635616867 -52.651016530689958 0 0 0 0 19.903349805535981 -9.5846022241021274 0 -9.5846022241021274 -17.626453100914659 0 0 0 0 2.9193444561919648 -0.61097051346161635 0 -0.61097051346161635 -1.6850051300372506 0 0 0 0 -16.089130018379365 -10.658858927537494 0 -10.658858927537494 -37.062678949270435 0 0 0 0 -39.283330129372189 -86.639657044010164 0 -86.639657044010164 -12.185590312117711 0 0 0 0 -88.95055642616353 -153.09936419270161 0 -153.09936419270161 -160.36690785197061 0 0 0 0 -69.230203187835286 -158.78472765111474 0 -158.78472765111474 -216.3870066647105 0 0 0 0 -91.292668625274018 -163.95480577145281 0 -163.95480577145281 -205.61630443354807 0 0 0 0 -77.221305539274908 -158.2916266169118 0 -158.2916266169118 -142.13099642380257 0 0 0 0 -78.907596817138256 -100.45654351275607 0 -100.45654351275607 -144.86164810116134 0 0 0 0 -82.076892151681022 -109.03065939668613 0 -109.03065939668613 -96.521155849572096 0 0 0 0 -43.877861584216589 -119.20679754894809 0 -119.20679754894809 -173.15985079543134 0 0 0 0 0.54660710391181055 -3.542658529475375 0 -3.542658529475375 -1.0714098741500493 0 0 0 0 3.2088214195798201 -3.6447837538550942 0 -3.6447837538550942 1.0267109530671306 0 0 0 0 -7.9657669539155904 -5.4961843533255887 0 -5.4961843533255887 7.6998949898224964 0 0 0 0 -86.031371255594422 -94.369457337080348 0 -94.369457337080348 -91.436198454603073 0 0 0 0 -79.048415791607113 -106.87019877875719 0 -106.87019877875719 -120.92352933116581 0 0 0 0 -5.1587524659722703 -126.07362489315469 0 -126.07362489315469 -120.98759643052108 0 0 0 0 -63.440515804377355 -128.29342252903461 0 -128.29342252903461 -167.11365820221545 0 0 0 0 2.8627980456169002 -3.7489268144112771 0 -3.7489268144112771 1.6846134020188881 0 0 0 0 0.89280991438954516 -3.8397475383137021 0 -3.8397475383137021 2.8704811170500761 0 0 0 0 5.0457650428010368 -2.7582442821350668 0 -2.7582442821350668 -0.41873028031777082 0 0 0 0 5.1661950756553665 -4.60369563638789 0 -4.60369563638789 1.0865113518286194 0 0 0 0 -39.827847730597568 -20.148666445825484 0 -20.148666445825484 5.6000074937419413 0 0 0 0 -5.1159470875063562 -0.86245063834076063 0 -0.86245063834076063 4.4582050019098176 0 0 0 0 1.1118950787521555 -2.4996941576778724 0 -2.4996941576778724 2.8953130153952742 0 0 0 0 -35.627031750933384 -21.276352280093306 0 -21.276352280093306 64.340318527404179 0 0 0 0 -2.2255944999342319 7.3336813471796631 0 7.3336813471796631 25.099014596140478 0 0 0 0 -9.8843403434148058 26.361815934867991 0 26.361815934867991 44.435895710089426 0 0 0 0 45.211313430230803 51.798298460628303 0 51.798298460628303 -2.7889105302419921 0 0 0 0 44.697089141375727 31.237845371028698 0 31.237845371028698 -26.625904170883132 0 0 0 0 -0.60413023721230275 -5.3214952904907022 0 -5.3214952904907022 0.6827875057260826 0 0 0 0 -15.684105017822731 -5.7387305252786973 0 -5.7387305252786973 9.1267633797638155 0 0 0 0 39.670791298260156 2.2006348960858304 0 2.2006348960858304 -4.4681786454195844 0 0 0 0 -0.86604681803419226 -3.9559860793888788 0 -3.9559860793888788 7.1005354235030609 0 0 0 0 1.058718430812263 -0.64148805582551027 0 -0.64148805582551027 1.3413452348973833 0 0 0 0 0.91133079168133335 -3.822705708738404 0 -3.822705708738404 3.5096505950767973 0 0 0 0 2.5473562739807676 -3.9035271452321467 0 -3.9035271452321467 2.815056671781349 0 0 0 0 48.118355899754533 -15.031132219512756 0 -15.031132219512756 7.402499869815756 0 0 0 0 61.810685276781442 18.201826871815001 0 18.201826871815001 1.7066546725404805 0 0 0 0 107.41896173496571 14.709109127544934 0 14.709109127544934 -22.527862196222486 0 0 0 0 135.57793610643785 -5.3335805641318075 0 -5.3335805641318075 -19.417924713092361 0 0 0 0 109.54573418429572 -124.43632678998028 0 -124.43632678998028 120.49478362461582 0 0 0 0 -0.76428646044985271 0.65471213574540066 0 0.65471213574540066 -0.23071827637980835 0 0 0 0 78.571117757034699 141.32545804519719 0 141.32545804519719 -240.59121957710431 0 0 0 0 175.63432868288146 -19.701980942506452 0 -19.701980942506452 -118.64717944195627 0 0 0 0 56.690543314234674 77.256308033989399 0 77.256308033989399 46.5659694090009 0 0 0 0 -66.510179348260863 -250.66033633580537 0 -250.66033633580537 -476.30942124004605 0 0 0 0 -81.877985192116057 -258.69920747087201 0 -258.69920747087201 -455.77212507188506 0 0 0 0 -86.771914728022239 -151.97672838637845 0 -151.97672838637845 -268.75294953695538 0 0 0 0 -237.74623840093409 -513.31300234534251 0 -513.31300234534251 -606.80564316934215 0 0 0 0 -117.17173790892792 -394.93094139064925 0 -394.93094139064925 -652.04481391891295 0 0 0 0 -256.95861124591647 -511.88262436261255 0 -511.88262436261255 -577.53110144469974 0 0 0 0 -217.21511379303411 -414.5952995137859 0 -414.5952995137859 -521.98676204514231 0 0 0 0 -118.40106297968805 -271.48843149284676 0 -271.48843149284676 -452.72267673724855 0 0 0 0 -216.75412643067102 -413.53967735194601 0 -413.53967735194601 -524.73591197378619 0 0 0 0 -174.34190616789419 -297.55762553505622 0 -297.55762553505622 -411.34364583977367 0 0 0 0 -188.61626787824935 -343.90949413689759 0 -343.90949413689759 -466.52588343293939 0 0 0 0 -107.18643303017598 -260.98268266490504 0 -260.98268266490504 -428.90274776858814 0 0 0 0 -155.94858180926167 -231.85993933087411 0 -231.85993933087411 -315.04368985986366 0 0 0 0 -99.272895327274455 -239.28551598788454 0 -239.28551598788454 -347.618621351 0 0 0 0 -63.673934239925075 -161.5673049820864 0 -161.5673049820864 -321.6042697675457 0 0 0 0 -132.44556811545044 -222.92878942307652 0 -222.92878942307652 -353.69342815385244 0 0 0 0 -133.31663648740505 -288.95108941858234 0 -288.95108941858234 -397.2994366214316 0 0 0 0 -76.466447653685464 -158.17421292889998 0 -158.17421292889998 -291.7219890301003 0 0 0 0 -85.303919146070257 -219.1031889123642 0 -219.1031889123642 -392.87520251634919 0 0 0 0 16.986389879275521 -67.204984779163169 0 -67.204984779163169 -245.17468590135377 0 0 0 0 -4.1358157434297027 -194.35355096794865 0 -194.35355096794865 -276.88086765251956 0 0 0 0 -60.969194877383416 -57.887162041881311 0 -57.887162041881311 -168.52889400298045 0 0 0 0 -0.34392550431749669 -1.234740726903631 0 -1.234740726903631 1.1223905557689076 0 0 0 0 -63.956973928303341 -73.808486196292506 0 -73.808486196292506 -178.68158254648915 0 0 0 0 -51.215036371679162 -123.76545629330758 0 -123.76545629330758 -280.68217989773621 0 0 0 0 -87.440631476230919 -107.81337984639322 0 -107.81337984639322 -143.00329272026102 0 0 0 0 -72.762071757722879 -170.26575421239158 0 -170.26575421239158 -290.77994934159324 0 0 0 0 -92.960531614844513 -138.47254566166248 0 -138.47254566166248 -199.36755196286867 0 0 0 0 -38.434879992943024 -153.14308541977152 0 -153.14308541977152 -143.28056035675218 0 0 0 0 -70.868577550805639 -141.27627352369927 0 -141.27627352369927 -146.22574988664564 0 0 0 0 -71.800863542863226 -124.48913326945967 0 -124.48913326945967 -213.45490743216942 0 0 0 0 -90.39905019372236 -166.41395547643697 0 -166.41395547643697 -208.48267965980585 0 0 0 0 -95.07621422605007 -165.13564837628655 0 -165.13564837628655 -256.17112761558337 0 0 0 0 -81.653901124576805 -120.70689698720162 0 -120.70689698720162 -237.02398907230599 0 0 0 0 -129.20625031665259 -193.07044974806922 0 -193.07044974806922 -266.66480283648343 0 0 0 0 -94.159302512605791 -200.95530960243286 0 -200.95530960243286 -349.47893716430917 0 0 0 0 -151.43702323570506 -250.2779105135694 0 -250.2779105135694 -406.96841796137596 0 0 0 0 -168.20935194811318 -265.10889131088516 0 -265.10889131088516 -340.90822896755697 0 0 0 0 -122.07664113813371 -204.23046597089524 0 -204.23046597089524 -345.65432076496108 0 0 0 0 -121.34460351197049 -224.5881558890469 0 -224.5881558890469 -307.05539553981544 0 0 0 0 -100.58234563653969 -176.48679346274184 0 -176.48679346274184 -286.1978674535967 0 0 0 0 -78.245164565974846 -173.40151972287458 0 -173.40151972287458 -303.01459751684695 0 0 0 0 -90.909944152241223 -182.21180371181345 0 -182.21180371181345 -259.64021619096457 0 0 0 0 -53.306386632539215 -144.01198007221319 0 -144.01198007221319 -249.1232638144138 0 0 0 0 -58.42484867858002 -154.8956655507136 0 -154.8956655507136 -238.688723283336 0 0 0 0 -51.390497781947488 -103.32153534877943 0 -103.32153534877943 -201.03625407873005 0 0 0 0 -84.795858386147302 -156.86011621326088 0 -156.86011621326088 -231.62452280172147 0 0 0 0 -95.525506336838589 -186.92970948964103 0 -186.92970948964103 -271.08350727248671 0 0 0 0 -74.772784141870943 -143.09751790664404 0 -143.09751790664404 -245.75733278996267 0 0 0 0 -75.627727124476223 -150.07831262717309 0 -150.07831262717309 -257.25052337925081 0 0 0 0 -112.42816808708085 -194.67012096709414 0 -194.67012096709414 -266.3484450237811 0 0 0 0 -95.108247583717457 -214.05473364505997 0 -214.05473364505997 -330.68674014709904 0 0 0 0 -101.10633121639694 -202.06225920370457 0 -202.06225920370457 -250.30084811364941 0 0 0 0 -83.806654903426534 -170.68549957662435 0 -170.68549957662435 -274.48188429265974 0 0 0 0 -96.715889590588631 -181.16771510498165 0 -181.16771510498165 -230.36776217892293 0 0 0 0 -77.217042030053562 -149.70894047977345 0 -149.70894047977345 -217.78225748136447 0 0 0 0 -76.868872076272964 -128.26573328597624 0 -128.26573328597624 -184.98676202420029 0 0 0 0 -85.292564622373902 -110.02078840283502 0 -110.02078840283502 -120.14382284094609 0 0 0 0 -71.556300317985006 -122.50731786204597 0 -122.50731786204597 -198.06823464304034 0 0 0 0 -46.854053758492228 -80.493047737245433 0 -80.493047737245433 -170.75018007616154 0 0 0 0 -61.060527636240295 -107.6311535705895 0 -107.6311535705895 -183.72055742750308 0 0 0 0 -69.083086881903 -70.130176822845897 0 -70.130176822845897 -135.65235923518412 0 0 0 0 0.25855709619645495 -4.6291490636872368 0 -4.6291490636872368 2.9613844953861417 0 0 0 0 3.2347286687858059 -3.2719201273236465 0 -3.2719201273236465 1.90659608614558 0 0 0 0 -63.201455198344775 -39.134073446288312 0 -39.134073446288312 -120.66943934345727 0 0 0 0 -20.770923279953422 -62.236048555010711 0 -62.236048555010711 -172.94611762406385 0 0 0 0 -37.781903998256894 -106.79083059417917 0 -106.79083059417917 -186.70904879858426 0 0 0 0 -4.4132575990515761 -130.72546714194687 0 -130.72546714194687 -214.22946011141721 0 0 0 0 -69.130605048077996 -128.12292385315504 0 -128.12292385315504 -204.44398383446969 0 0 0 0 54.693261128530139 -107.59191625465064 0 -107.59191625465064 -197.29752960072983 0 0 0 0 -40.333533129421994 -115.12207866220706 0 -115.12207866220706 -187.93676253199374 0 0 0 0 26.452023080419167 -149.72755999638503 0 -149.72755999638503 -171.05820455771027 0 0 0 0 19.322345766529907 -100.73455280049166 0 -100.73455280049166 -107.0637554410132 0 0 0 0 14.016123703215271 -59.081292942675645 0 -59.081292942675645 -183.01282975674803 0 0 0 0 -0.88878816508513125 -2.8233918719009665 0 -2.8233918719009665 2.7635447013577146 0 0 0 0 -2.4277173906666576 1.0274957845213066 0 1.0274957845213066 -1.2933386619597513 0 0 0 0 0.39746021720384306 -4.9739463885173336 0 -4.9739463885173336 9.9168384232070821 0 0 0 0 1.6753764028981095 -3.3592839381985868 0 -3.3592839381985868 2.23600416881618 0 0 0 0 0.87445773593431397 -2.3157820238619991 0 -2.3157820238619991 4.6339062624677219 0 0 0 0 0.21668701911403332 -3.3164134146991273 0 -3.3164134146991273 4.1397279157754383 0 0 0 0 1.6789751715968677 -3.3697571144262497 0 -3.3697571144262497 3.2594830373789492 0 0 0 0 -1.5269360401525773 -5.8167457669827627 0 -5.8167457669827627 4.1455600269473507 0 0 0 0 -1.7875994560017716 -1.966534490837148 0 -1.966534490837148 3.8361532326293855 0 0 0 0 1.1066833523364039 -6.0766284337237266 0 -6.0766284337237266 3.4371390958667689 0 0 0 0 2.8695368508125796 -5.3631190559778084 0 -5.3631190559778084 0.51477126897036651 0 0 0 0 11.188362706525368 -6.7892598839425773 0 -6.7892598839425773 1.0707186574205139 0 0 0 0 34.77566394751193 -20.556140116764254 0 -20.556140116764254 -0.065554812908430904 0 0 0 0 -2.2882938270486193 -24.564206158311663 0 -24.564206158311663 25.873100811386394 0 0 0 0 2.7400191822855646 -4.8285249358765832 0 -4.8285249358765832 2.0165633145603881 0 0 0 0 17.329126889962936 -8.3711098103995027 0 -8.3711098103995027 -3.9593843092989118 0 0 0 0 7.6253346218920086 -16.60938084402688 0 -16.60938084402688 -3.8895739698886018 0 0 0 0 -0.081051424916950054 -20.396741990443843 0 -20.396741990443843 24.260985416129643 0 0 0 0 0.17834449953198828 -9.7370666491475362 0 -9.7370666491475362 4.1647346194809369 0 0 0 0 -4.2536626262026402 -7.4543166822370495 0 -7.4543166822370495 0.86214840477987309 0 0 0 0 -0.31734421445060335 -7.3737730690437786 0 -7.3737730690437786 9.044019852117696 0 0 0 0 1.499755196721253 -9.4321592815770607 0 -9.4321592815770607 12.332004694764791 0 0 0 0 -3.2383529969083611 -3.6867810960648058 0 -3.6867810960648058 29.206685187691619 0 0 0 0 1.1810665854741274 -19.379918969255868 0 -19.379918969255868 32.920691863539105 0 0 0 0 -4.6797709430265115 -11.543152110899777 0 -11.543152110899777 -1.7107953007186065 0 0 0 0 -7.2487242119022994 -17.406715524090032 0 -17.406715524090032 4.5886961040207552 0 0 0 0 -13.757992825005203 -8.5544008371775817 0 -8.5544008371775817 -0.94625679842465615 0 0 0 0 -0.69090238369972212 -13.492281953311704 0 -13.492281953311704 3.6213166310380984 0 0 0 0 0.69454913163087895 -2.8018266815872561 0 -2.8018266815872561 1.1581200268296623 0 0 0 0 3.0839168850434362 -6.0217767487361016 0 -6.0217767487361016 6.0464278333811308 0 0 0 0 0.8167639133243938 -2.3642193292007505 0 -2.3642193292007505 18.799786038540333 0 0 0 0 -0.59663668663415592 -6.0024390437761213 0 -6.0024390437761213 12.936843739424148 0 0 0 0 7.3945091129135108 2.7152765215068939 0 2.7152765215068939 9.7477643210258975 0 0 0 0 7.6462040124024497 1.0947455529894796 0 1.0947455529894796 7.6615027640918925 0 0 0 0 0.55007363566441825 -0.96772578488326033 0 -0.96772578488326033 -1.3030242157231307 0 0 0 0 2.6641479736717883 -38.229487423168393 0 -38.229487423168393 51.090757537785976 0 0 0 0 -52.089026247896982 -111.85433705313199 0 -111.85433705313199 -303.80192270180851 0 0 0 0 27.840417368832277 47.454500681504214 0 47.454500681504214 26.790239811594574 0 0 0 0 7.3873947519314243 1.7980591915375044 0 1.7980591915375044 -103.43707147104124 0 0 0 0 -3.2892679423300706 -10.113943695073186 0 -10.113943695073186 -5.996282195279254 0 0 0 0 0.1233694834227208 -17.087984766481554 0 -17.087984766481554 13.948725047971038 0 0 0 0 -6.1553218131448375 -22.33863597877712 0 -22.33863597877712 25.463499982769463 0 0 0 0 -14.622707609350073 -38.308006058675801 0 -38.308006058675801 53.712279541028693 0 0 0 0 -12.358757122160327 -7.5376284905610191 0 -7.5376284905610191 0.53968840245616345 0 0 0 0 71.690822289798234 -111.90357540933906 0 -111.90357540933906 92.048372237546118 0 0 0 0 23.28622925876698 -62.350557877125652 0 -62.350557877125652 67.032395912478478 0 0 0 0 39.20451667537418 -43.668550865898396 0 -43.668550865898396 10.358147314357666 0 0 0 0 94.529874845087761 -62.675468004745198 0 -62.675468004745198 13.032725205355746 0 0 0 0 -15.362170733317896 -11.249746496395082 0 -11.249746496395082 -4.3375220453228556 0 0 0 0 -20.797321764366643 3.6825061216759423 0 3.6825061216759423 -121.54021327840746 0 0 0 0 -6.1727907027212439 -1.3589303296406641 0 -1.3589303296406641 6.6116982080714095 0 0 0 0 -37.936908127350762 -176.34901585594434 0 -176.34901585594434 -412.42342912419554 0 0 0 0 18.7783533497186 -7.3074982828809425 0 -7.3074982828809425 -25.371146734636568 0 0 0 0 6.9490997442953812 4.5213535559200864 0 4.5213535559200864 -16.381910229610639 0 0 0 0 5.6998088331929466 -26.028453171922479 0 -26.028453171922479 17.396849918142834 0 0 0 0 14.943121763380987 -35.364412647879789 0 -35.364412647879789 30.066936860283931 0 0 0 0 26.272595839422138 -27.624081678522998 0 -27.624081678522998 13.395751163919613 0 0 0 0 17.407208288747825 -21.432836500346866 0 -21.432836500346866 0.60569540594042337 0 0 0 0 7.5003171050484525 -33.490553884829751 0 -33.490553884829751 20.706407703092623 0 0 0 0 21.025526280096528 -42.259549811107945 0 -42.259549811107945 19.998479805030001 0 0 0 0 35.285455836776237 -26.996573694815197 0 -26.996573694815197 21.470347870395926 0 0 0 0 35.056346375007706 -44.923257141852901 0 -44.923257141852901 19.065846350914398 0 0 0 0 29.312281424929097 -49.451544011360056 0 -49.451544011360056 26.23705489722488 0 0 0 0 32.176303709653439 -48.393454202739576 0 -48.393454202739576 16.703428026848655 0 0 0 0 12.740371236817737 -22.223839070759368 0 -22.223839070759368 -8.3890942356047162 0 0 0 0 0.45359675097179775 -3.5607552147474242 0 -3.5607552147474242 0.67905498121748331 0 0 0 0 31.6874036656518 -50.307425168297414 0 -50.307425168297414 19.018166185538576 0 0 0 0 25.091311903903261 -50.258401352991314 0 -50.258401352991314 58.690474674064717 0 0 0 0 29.748586938657809 -58.748742375316084 0 -58.748742375316084 40.720669510501466 0 0 0 0 18.529222928853414 -25.20359639708704 0 -25.20359639708704 21.557687611305937 0 0 0 0 2.1292177617023214 -20.970814270136209 0 -20.970814270136209 15.763953994768219 0 0 0 0 -22.23235563920025 -38.347334483093846 0 -38.347334483093846 20.146857553692911 0 0 0 0 -25.514889770311129 -47.48403607951991 0 -47.48403607951991 61.073195786135102 0 0 0 0 -4.0303624804923821 -13.896249727424156 0 -13.896249727424156 9.985833675618137 0 0 0 0 6.7496142929448979 -15.34336870521156 0 -15.34336870521156 4.6277468987473185 0 0 0 0 -29.637664325418882 1.3890248910611263 0 1.3890248910611263 16.27767173988758 0 0 0 0 -0.81401961218159613 -17.500470604045869 0 -17.500470604045869 7.7671742818029168 0 0 0 0 -5.3243618530549099 -0.38211222963575864 0 -0.38211222963575864 1.6441308402308206 0 0 0 0 -25.329816775381914 -4.8502908896916779 0 -4.8502908896916779 12.781137641332862 0 0 0 0 -24.400947420115699 -4.7313667344237729 0 -4.7313667344237729 -10.978960348344117 0 0 0 0 5.21785298611589 -9.5023452232906962 0 -9.5023452232906962 -0.29602561305153241 0 0 0 0 5.0123557788319886 -21.571532210390615 0 -21.571532210390615 11.688599055156374 0 0 0 0 -2.8564122458421437 -7.6947256978562351 0 -7.6947256978562351 3.6880337913139378 0 0 0 0 -8.9482754742784891 -19.19099884121033 0 -19.19099884121033 3.5200371443311269 0 0 0 0 -10.404132345633116 -15.834741006702529 0 -15.834741006702529 0.26177048150111659 0 0 0 0 -2.4243416471872479 -10.348288777078778 0 -10.348288777078778 6.0394637776573745 0 0 0 0 -12.586728691360605 -14.670667953205275 0 -14.670667953205275 11.665770087466885 0 0 0 0 1.6932190004318954 -12.411273137723178 0 -12.411273137723178 4.4881658885681279 0 0 0 0 -15.157779453513626 -12.507272079115374 0 -12.507272079115374 7.014135048278658 0 0 0 0 -7.9725232439963349 -9.487420547995292 0 -9.487420547995292 -1.677240245030907 0 0 0 0 -9.1978292861167574 -15.419731842327565 0 -15.419731842327565 3.7490358204185554 0 0 0 0 -6.4276979622372892 -15.116117142899384 0 -15.116117142899384 0.32736582551206084 0 0 0 0 1.2791322202351978 -16.81606596402813 0 -16.81606596402813 6.5605835987078356 0 0 0 0 21.563606107556552 -17.530978512780848 0 -17.530978512780848 -1.8538706112551608 0 0 0 0 10.448441962675133 -16.171816903053355 0 -16.171816903053355 2.2535158159116691 0 0 0 0 19.657567858652328 -21.943486230850226 0 -21.943486230850226 4.3230377104482614 0 0 0 0 14.917863707105425 -18.858260593657178 0 -18.858260593657178 2.8700420828313327 0 0 0 0 9.1895805166900573 -6.4712284584745348 0 -6.4712284584745348 -3.5182501405286342 0 0 0 0 16.016298498463584 -12.022579243244536 0 -12.022579243244536 -4.6836676037629559 0 0 0 0 11.507341470234024 -12.38270755322689 0 -12.38270755322689 3.0658664705402048 0 0 0 0 20.572303640015889 -21.83941715560178 0 -21.83941715560178 8.6173710700657296 0 0 0 0 17.177238647516788 -16.284628069128644 0 -16.284628069128644 6.102428958518658 0 0 0 0 7.6450963498178623 -11.496465729156959 0 -11.496465729156959 1.8458408924046013 0 0 0 0 9.6107424378869553 -18.434891475698851 0 -18.434891475698851 11.077586880501526 0 0 0 0 9.4519174828351566 -4.2059427477009343 0 -4.2059427477009343 1.576917637839248 0 0 0 0 156.05714041921237 11.832789247164328 0 11.832789247164328 -16.934382674000517 0 0 0 0 5.1819930424234784 -23.249291237390583 0 -23.249291237390583 12.48592464714204 0 0 0 0 15.977719379607151 -27.790398699669538 0 -27.790398699669538 9.8284947597570635 0 0 0 0 88.549902134926924 21.890289611111939 0 21.890289611111939 45.872692399552761 0 0 0 0 10.40830618544986 -17.798417521037507 0 -17.798417521037507 -1.7609551473635037 0 0 0 0 -1.1481752674108883 -25.507593257180922 0 -25.507593257180922 16.154044350574534 0 0 0 0 3.1598451771046037 -23.257610837137413 0 -23.257610837137413 15.169570650725991 0 0 0 0 3.9123406386679562 -25.492444428455428 0 -25.492444428455428 14.8743149541599 0 0 0 0 15.501889332001156 -27.242673903302261 0 -27.242673903302261 14.899119468278968 0 0 0 0 15.865522573356429 -32.503022977548596 0 -32.503022977548596 4.6277181797977391 0 0 0 0 21.61158172924479 -29.723182023313484 0 -29.723182023313484 5.0102279593847925 0 0 0 0 19.146418563974294 -29.550860032533592 0 -29.550860032533592 2.4252912462975473 0 0 0 0 13.05421570217004 -36.327677086408357 0 -36.327677086408357 4.877999628987709 0 0 0 0 13.93144853693093 -26.102498440141858 0 -26.102498440141858 -9.1466595595338731 0 0 0 0 32.260766546984087 -70.09941137038777 0 -70.09941137038777 17.27822129244305 0 0 0 0 22.739023009278753 -39.62657530378192 0 -39.62657530378192 31.721217955311545 0 0 0 0 -8.1206534206330048 -15.443824778352543 0 -15.443824778352543 -7.3164242242329962 0 0 0 0 -4.0647123846873114 -11.332811131755705 0 -11.332811131755705 -3.0802163527246185 0 0 0 0 14.872765794967563 -16.312336244911961 0 -16.312336244911961 13.941851265943114 0 0 0 0 -12.353727104971767 -36.634024323636368 0 -36.634024323636368 -0.97153119955692091 0 0 0 0 -20.215851489367196 -30.289930334949986 0 -30.289930334949986 29.506436938118441 0 0 0 0 21.979175055234464 -30.345912320979565 0 -30.345912320979565 90.19579083866239 0 0 0 0 -10.514010626645671 -7.2816993477253291 0 -7.2816993477253291 -6.1484370247327753 0 0 0 0 -9.8285778806766189 -6.0087084015869863 0 -6.0087084015869863 -4.5903488987381511 0 0 0 0 -6.8966916075733025 -42.267726054419654 0 -42.267726054419654 17.76491037804135 0 0 0 0 -13.997597631474491 -9.301593084461274 0 -9.301593084461274 13.088313902382993 0 0 0 0 11.072657849781535 -9.5355603456446261 0 -9.5355603456446261 54.938186809035869 0 0 0 0 41.389293136417464 -9.3381687119469277 0 -9.3381687119469277 -1.0048311289109477 0 0 0 0 27.247494727278081 -58.361331887818892 0 -58.361331887818892 49.032881202751923 0 0 0 0 42.434731369533026 -12.696567694249691 0 -12.696567694249691 1.4829553222742851 0 0 0 0 100.69330555376473 -32.389767110105822 0 -32.389767110105822 2.0487465999289327 0 0 0 0 51.613439099209245 -32.037888698060044 0 -32.037888698060044 37.098576846955893 0 0 0 0 59.30060208372015 -39.441973239289155 0 -39.441973239289155 -30.373881635388329 0 0 0 0 32.586357542280894 -62.798497422402079 0 -62.798497422402079 25.515082956824472 0 0 0 0 87.360471851278817 2.2796982678354993 0 2.2796982678354993 -86.149035846825655 0 0 0 0 51.378791909468418 -47.637515514301413 0 -47.637515514301413 19.803845171016292 0 0 0 0 92.050801792785933 -4.9133421762269336 0 -4.9133421762269336 7.7946447216468187 0 0 0 0 31.15842403802526 62.587391802861021 0 62.587391802861021 -15.43347810796854 0 0 0 0 41.083577113404317 29.551073007606192 0 29.551073007606192 -70.080738155378185 0 0 0 0 12.427602978712457 -2.0771483303034302 0 -2.0771483303034302 -22.767711543719088 0 0 0 0 3.3457056143452064 7.77668008540968 0 7.77668008540968 29.068626508950729 0 0 0 0 39.792994797721974 -11.883285335755453 0 -11.883285335755453 -0.51727736903390298 0 0 0 0 63.997887380555767 -3.7690362031294171 0 -3.7690362031294171 27.904422485205203 0 0 0 0 56.371634723409898 -12.981692458217594 0 -12.981692458217594 16.808124649081947 0 0 0 0 41.117708858595506 9.1754912799548265 0 9.1754912799548265 37.251850972455941 0 0 0 0 17.734289728188742 -14.152507168356351 0 -14.152507168356351 58.125859687206855 0 0 0 0 32.397024669357052 12.762434958825907 0 12.762434958825907 36.677589101492231 0 0 0 0 5.8694057642296684 30.229702310765333 0 30.229702310765333 44.801904616049796 0 0 0 0 90.071641903237833 49.008280512116698 0 49.008280512116698 39.738963116756167 0 0 0 0 144.0958575776167 -16.138785337491754 0 -16.138785337491754 9.351728690144455 0 0 0 0 19.167770448711963 31.590751756252303 0 31.590751756252303 69.315583853316184 0 0 0 0 116.84941930365312 -22.1378334682895 0 -22.1378334682895 10.664743105664002 0 0 0 0 148.49007715614698 25.384024775246189 0 25.384024775246189 -30.470554071767765 0 0 0 0 -66.630804385084048 47.2432649893708 0 47.2432649893708 23.604510132004634 0 0 0 0 23.915970914593345 4.1013181458988583 0 4.1013181458988583 34.291825631926031 0 0 0 0 -96.294450925382989 -52.620055776401387 0 -52.620055776401387 36.98597382305644 0 0 0 0 -24.066278391912874 -71.266561930543844 0 -71.266561930543844 -33.954310547203931 0 0 0 0 -4.679765548233263 -21.541646595315342 0 -21.541646595315342 42.220066201274676 0 0 0 0 -21.314477271537726 -19.476598618989328 0 -19.476598618989328 51.888786624879685 0 0 0 0 -40.724224823189616 -58.001992038756498 0 -58.001992038756498 49.125243241415774 0 0 0 0 70.442978392364239 -73.289509564798209 0 -73.289509564798209 -13.709396496406953 0 0 0 0 -54.866209261355834 -135.61385983057153 0 -135.61385983057153 -43.772825539682799 0 0 0 0 -2.3348016040727089 -107.90144161580793 0 -107.90144161580793 -79.703940791049035 0 0 0 0 -69.406823501028157 -201.81688079960941 0 -201.81688079960941 -204.22278096128639 0 0 0 0 36.700017142215074 -25.522826349348634 0 -25.522826349348634 -275.32938495644999 0 0 0 0 -1.7472557923527887 -1.4967872071338171 0 -1.4967872071338171 -3.55971348770003 0 0 0 0 -267.76967302304365 -116.70585881653642 0 -116.70585881653642 -19.830970242454896 0 0 0 0 -193.0739597700267 90.99144291927189 0 90.99144291927189 -85.442628242425599 0 0 0 0 30.849317951973717 4.9432950660884671 0 4.9432950660884671 -54.293463011790209 0 0 0 0 28.45614622738367 19.116864290838009 0 19.116864290838009 -3.3413632801111817 0 0 0 0 147.40018828273605 -6.1046521559233042 0 -6.1046521559233042 -21.630561545127421 0 0 0 0 116.78312929929962 32.377847182473033 0 32.377847182473033 -68.329992775185929 0 0 0 0 153.58478205652136 -39.277202723391383 0 -39.277202723391383 -80.13902323490845 0 0 0 0 67.399703654689802 -38.740448130570257 0 -38.740448130570257 -45.319960127802915 0 0 0 0 215.56697276040541 -141.27700341886566 0 -141.27700341886566 -167.78480238809334 0 0 0 0 -161.07451068420778 -252.99649710062567 0 -252.99649710062567 -131.79870161974782 0 0 0 0 80.145913735817885 -23.712368876319033 0 -23.712368876319033 -286.69164126241139 0 0 0 0 -27.950177972238635 -81.272308185978545 0 -81.272308185978545 64.936720184612568 0 0 0 0 85.383963335674707 -158.24748724257324 0 -158.24748724257324 6.7756245097102692 0 0 0 0 -42.919311230292806 -107.23353607046238 0 -107.23353607046238 -12.692887805971168 0 0 0 0 -60.725375393411923 -85.98417084122184 0 -85.98417084122184 18.931280523334863 0 0 0 0 -20.252036662017417 -51.87640007536811 0 -51.87640007536811 39.923954101944673 0 0 0 0 -2.5247663998865306 -43.587691297777852 0 -43.587691297777852 24.971145392811909 0 0 0 0 -32.583193816234598 -31.184299499103645 0 -31.184299499103645 48.420293670530555 0 0 0 0 -3.0060892812834936 -67.923075719683766 0 -67.923075719683766 -62.500836935267216 0 0 0 0 -6.7379565445594878 -11.180155994643293 0 -11.180155994643293 5.3075727150293623 0 0 0 0 -278.19515257715238 -9.0947395504589394 0 -9.0947395504589394 44.088712889302769 0 0 0 0 25.482049241601999 -9.7315438043143558 0 -9.7315438043143558 26.248692811989713 0 0 0 0 43.773160140255641 -55.743276451060865 0 -55.743276451060865 6.2511866619838656 0 0 0 0 -19.831934176203504 -48.493668682215457 0 -48.493668682215457 5.7352013240210908 0 0 0 0 17.939187021620455 -34.931576122244678 0 -34.931576122244678 -2.3413984850941461 0 0 0 0 17.497902044847024 -29.344193739498259 0 -29.344193739498259 -11.901408177622216 0 0 0 0 -6.4711608727739076 -42.037983729070675 0 -42.037983729070675 -6.3866513706298065 0 0 0 0 -45.21017881680018 -45.282037077130099 0 -45.282037077130099 40.419328789039355 0 0 0 0 -29.757879430224421 -23.858409643395134 0 -23.858409643395134 66.507569884179247 0 0 0 0 11.07922005749867 -33.538133210170535 0 -33.538133210170535 -0.16986697360145087 0 0 0 0 48.329420941032367 -17.458748638460975 0 -17.458748638460975 -11.115098209837015 0 0 0 0 31.907844148525328 -35.715228401669719 0 -35.715228401669719 11.126868931823353 0 0 0 0 25.225597204397673 -37.376351408458845 0 -37.376351408458845 11.780191953098438 0 0 0 0 12.813944475200998 -17.717506659853534 0 -17.717506659853534 -1.4155244812375498 0 0 0 0 9.4435761460585397 -25.146750920451904 0 -25.146750920451904 11.768555382802397 0 0 0 0 149.02961863797645 -13.57959122358352 0 -13.57959122358352 16.568906921420421 0 0 0 0 198.07305343677581 31.94280508148222 0 31.94280508148222 3.5172916097781126 0 0 0 0 11.159946021685016 -6.6367879026918288 0 -6.6367879026918288 -4.0573634768314832 0 0 0 0 211.04508364609501 -1.9469819227415428 0 -1.9469819227415428 -13.651968994972776 0 0 0 0 149.49861037843584 2.21555886307533 0 2.21555886307533 4.6773227748399222 0 0 0 0 150.22759617023439 -46.013078240637014 0 -46.013078240637014 11.325961360385918 0 0 0 0 170.8733147508392 -28.482803703725949 0 -28.482803703725949 -16.02833819395164 0 0 0 0 154.28201600666216 -25.573775716761702 0 -25.573775716761702 32.98224075941198 0 0 0 0 9.1600963688565109 -37.609993400552163 0 -37.609993400552163 -1.9361573841053286 0 0 0 0 176.004662615077 -184.66843799385833 0 -184.66843799385833 55.013688929767341 0 0 0 0 8.3410121945836693 -4.1979878743525774 0 -4.1979878743525774 2.5010506725470663 0 0 0 0 27.169147700264148 -46.808615189261673 0 -46.808615189261673 -15.638271604860165 0 0 0 0 57.589120479744452 -10.999587875418456 0 -10.999587875418456 -30.434286831746249 0 0 0 0 52.933286334797231 -48.289301183152929 0 -48.289301183152929 -31.048579790170152 0 0 0 0 11.323069256652474 -33.650422108057455 0 -33.650422108057455 -10.206174719236927 0 0 0 0 -79.144138703704812 -32.081908700966778 0 -32.081908700966778 10.52151879309713 0 0 0 0 -36.669150953795906 21.361775069119176 0 21.361775069119176 -19.45969965792392 0 0 0 0 -32.930275793072724 -27.492019503758911 0 -27.492019503758911 44.195529762694605 0 0 0 0 28.65266276908369 -72.345582432822539 0 -72.345582432822539 -34.587159744010023 0 0 0 0 32.326155520968314 -89.304020447238599 0 -89.304020447238599 11.965236108353565 0 0 0 0 43.759384184826558 -71.170773228652251 0 -71.170773228652251 -19.936498962833866 0 0 0 0 85.236875892504031 7.0835926370832567 0 7.0835926370832567 -48.018325187240407 0 0 0 0 12.891514793905209 -35.345887840466695 0 -35.345887840466695 10.931007352264395 0 0 0 0 -32.457845364220702 -10.221030745716234 0 -10.221030745716234 14.295380259829017 0 0 0 0 47.039147262930783 -74.707441734566373 0 -74.707441734566373 -41.702443471818697 0 0 0 0 0.9566698381971861 -1.2123068426147654 0 -1.2123068426147654 0.15137688991159237 0 0 0 0 33.281282095689676 -92.3005940818922 0 -92.3005940818922 -23.337499353237945 0 0 0 0 -20.041360165196238 -32.360195280700964 0 -32.360195280700964 72.674972910156612 0 0 0 0 -59.48524890761837 -167.55361525026092 0 -167.55361525026092 97.314428291800141 0 0 0 0 89.342621544445137 -5.2704138445760691 0 -5.2704138445760691 -37.023796232901077 0 0 0 0 12.23815688602156 -39.162424458245653 0 -39.162424458245653 22.619047937729054 0 0 0 0 -43.564664224516491 -63.31465639650537 0 -63.31465639650537 32.811896765153506 0 0 0 0 -124.55782453146821 -76.236319100658875 0 -76.236319100658875 -2.9820623212726787 0 0 0 0 131.13357550207184 -8.4497852649633387 0 -8.4497852649633387 -63.808641497522331 0 0 0 0 6.3422841460774109 -7.9789945929553596 0 -7.9789945929553596 -5.027522768638768 0 0 0 0 -17.226619337210664 -13.284297384825777 0 -13.284297384825777 12.431042916403516 0 0 0 0 -99.502153061104764 -113.83358456549649 0 -113.83358456549649 -29.773434199985786 0 0 0 0 16.464504364460936 -77.925898710399792 0 -77.925898710399792 -79.974814559926017 0 0 0 0 19.629087143923709 -41.34955910129149 0 -41.34955910129149 -23.862887251244828 0 0 0 0 -3.9262736165492242 -183.14674646600815 0 -183.14674646600815 128.42778738284323 0 0 0 0 129.66620643358328 -48.390242295503413 0 -48.390242295503413 -99.465318517173728 0 0 0 0 -14.014116409443886 -50.099501583292295 0 -50.099501583292295 -20.309877278626573 0 0 0 0 -3.3998211818607373 -44.482951667267741 0 -44.482951667267741 33.392686315753451 0 0 0 0 -28.821859822082843 -78.828931549564004 0 -78.828931549564004 12.0478735593897 0 0 0 0 -69.323759849927228 -104.97310685785851 0 -104.97310685785851 1.356029342245165 0 0 0 0 -23.211462047223904 -122.43704772464662 0 -122.43704772464662 -16.696932177168492 0 0 0 0 -64.290520038758586 -139.38827667064652 0 -139.38827667064652 -13.602569252892863 0 0 0 0 -51.961281923577189 -126.94896878017607 0 -126.94896878017607 -17.391021066408939 0 0 0 0 -101.86403498934806 -82.446903891483089 0 -82.446903891483089 -15.321336956010782 0 0 0 0 -59.766225438338552 -102.26504649108938 0 -102.26504649108938 -6.0155127552643535 0 0 0 0 5.936083189146875 -19.707749584126177 0 -19.707749584126177 17.34707198731428 0 0 0 0 -38.971904393554723 -38.153442323142372 0 -38.153442323142372 -7.2091668039156502 0 0 0 0 84.539454530934108 -46.147458641374669 0 -46.147458641374669 -27.28533764056192 0 0 0 0 34.115780227443324 -36.276258008287158 0 -36.276258008287158 11.691018626917838 0 0 0 0 -64.047880361624266 -55.950684744540013 0 -55.950684744540013 -31.928842180437641 0 0 0 0 16.110745543416243 -37.095429761627955 0 -37.095429761627955 -15.396463839069057 0 0 0 0 -32.649433637508352 -36.712149889670997 0 -36.712149889670997 6.8074956057925284 0 0 0 0 15.001595568887758 -35.362560818356997 0 -35.362560818356997 2.5519052051237168 0 0 0 0 18.910570958024437 -99.586659446733393 0 -99.586659446733393 0.54712036468845326 0 0 0 0 16.073579316801364 -24.330038405586016 0 -24.330038405586016 -15.274124238056245 0 0 0 0 0.7882696981605477 -57.251829309072946 0 -57.251829309072946 -36.800230865079357 0 0 0 0 2.5036941356725322 -27.133368712572395 0 -27.133368712572395 14.450087954997841 0 0 0 0 14.063895868876727 -28.277247378068367 0 -28.277247378068367 19.914119184463292 0 0 0 0 -10.761580608448639 -50.165692759346257 0 -50.165692759346257 -26.987196719095664 0 0 0 0 7.0265280354506103 -82.712884992641193 0 -82.712884992641193 -25.651569539732122 0 0 0 0 22.499116605267773 -59.032927894830209 0 -59.032927894830209 -62.970261573659968 0 0 0 0 24.637212910220114 -38.00118739372283 0 -38.00118739372283 -49.722376703721238 0 0 0 0 1.1176948170577816 -53.083318574939767 0 -53.083318574939767 -55.7545095845162 0 0 0 0 -1.3726499011481792 -52.06645295429189 0 -52.06645295429189 -50.925948979958775 0 0 0 0 -0.92546613038766168 -40.988883732749294 0 -40.988883732749294 34.02645811701268 0 0 0 0 -12.598190639257155 -77.293061915142971 0 -77.293061915142971 -63.714158469860422 0 0 0 0 2.5388651728608238 -84.899934006682088 0 -84.899934006682088 -85.747453588497592 0 0 0 0 0.0080639033576375141 -40.838583202198464 0 -40.838583202198464 32.738016131213598 0 0 0 0 19.236389495125422 -119.01339544334746 0 -119.01339544334746 -71.692572657183518 0 0 0 0 -9.1174509345564729 -103.67637436284167 0 -103.67637436284167 -58.294191306124048 0 0 0 0 -31.243170983976256 -97.086706292644521 0 -97.086706292644521 -37.679777239965915 0 0 0 0 -17.74808796020443 -75.074574354215656 0 -75.074574354215656 -60.713792199305317 0 0 0 0 -0.8323401839043072 -85.940746532527555 0 -85.940746532527555 -54.471394624575623 0 0 0 0 -9.2268905614837422 -113.80436966502748 0 -113.80436966502748 -35.065801258836473 0 0 0 0 16.983430262513139 -121.54709793107759 0 -121.54709793107759 -37.063953670014598 0 0 0 0 -4.9259965118135369 -152.75045955772748 0 -152.75045955772748 -28.825645112556231 0 0 0 0 11.324213496705852 -126.70034863085311 0 -126.70034863085311 -39.821951064834138 0 0 0 0 31.553648670203529 -87.294517554287268 0 -87.294517554287268 -53.232415934005985 0 0 0 0 77.318117485996481 -35.988176391449088 0 -35.988176391449088 -48.149206943369791 0 0 0 0 85.997886226014089 -92.693159482681949 0 -92.693159482681949 -55.50410217503304 0 0 0 0 34.752216744144562 -46.335768081967899 0 -46.335768081967899 -48.601994404030847 0 0 0 0 39.409605010114319 -85.15389511727335 0 -85.15389511727335 -54.540182727530919 0 0 0 0 13.988909873676675 -56.539537016644317 0 -56.539537016644317 -53.331784497873741 0 0 0 0 40.480434428507124 -18.029985015488592 0 -18.029985015488592 -33.094561438403616 0 0 0 0 45.310993025757853 -48.158780100031436 0 -48.158780100031436 -51.100318298300408 0 0 0 0 15.099796624184819 -16.766346859181795 0 -16.766346859181795 -25.767795997814574 0 0 0 0 10.851228929815989 -18.703206605237938 0 -18.703206605237938 -20.17175818071064 0 0 0 0 13.95407586598958 -15.26955571290182 0 -15.26955571290182 -16.636623544993199 0 0 0 0 4.8772052406020521 -15.407857293218512 0 -15.407857293218512 -12.866974623852002 0 0 0 0 0.20111292476212839 -23.358223685987468 0 -23.358223685987468 -18.178641779759346 0 0 0 0 14.514720597164342 -29.098752461371987 0 -29.098752461371987 -35.465473824413493 0 0 0 0 11.999903762189206 -34.246376404040348 0 -34.246376404040348 -41.574329982344352 0 0 0 0 -2.1311793967724952 -44.117504186189763 0 -44.117504186189763 -45.432673646995681 0 0 0 0 12.92830700225386 -40.288297377734125 0 -40.288297377734125 -51.077740230182826 0 0 0 0 -7.6251143161680375 -32.183693426410173 0 -32.183693426410173 -21.058986912717955 0 0 0 0 5.3517617062207137 -28.320529603629438 0 -28.320529603629438 -37.068229698787036 0 0 0 0 -1.615865750824014 4.6862318233615952 0 4.6862318233615952 -86.743888818360119 0 0 0 0 -49.250825573151815 -42.501581492993864 0 -42.501581492993864 -40.328441576930345 0 0 0 0 12.851162612183543 -29.10203096143232 0 -29.10203096143232 -53.045684875261941 0 0 0 0 5.6903794161344194 -52.655884564761436 0 -52.655884564761436 -63.497753545671003 0 0 0 0 21.257189750933321 -71.472262030842103 0 -71.472262030842103 -92.621988692510058 0 0 0 0 -10.391703195404261 -44.103849107301357 0 -44.103849107301357 10.050564401602969 0 0 0 0 -70.394012638123968 -12.044577689215657 0 -12.044577689215657 59.718340671541227 0 0 0 0 -3.9988238766585624 -2.2768475453710835 0 -2.2768475453710835 6.6410630065737735 0 0 0 0 -10.990967262781226 -21.664360056202582 0 -21.664360056202582 -19.248461207229656 0 0 0 0 18.711739175931143 -8.535590377090557 0 -8.535590377090557 -5.1827766054266249 0 0 0 0 -11.272950599377509 -49.299951187444094 0 -49.299951187444094 57.351808652958425 0 0 0 0 11.566681407537544 -39.713826191717089 0 -39.713826191717089 -42.27300183808984 0 0 0 0 -18.442294315100298 -77.044312822770735 0 -77.044312822770735 -32.888316153146661 0 0 0 0 11.231674880466016 -35.434863430942642 0 -35.434863430942642 -37.676056619077826 0 0 0 0 10.479089260074034 -36.6570000174288 0 -36.6570000174288 -44.838538327545393 0 0 0 0 11.040837699045369 -38.435491788579384 0 -38.435491788579384 -43.692662249355635 0 0 0 0 14.595857040072588 -21.521787394289277 0 -21.521787394289277 -16.664256908886273 0 0 0 0 -2.0172134809843554 -16.504785635604932 0 -16.504785635604932 -10.042682936802166 0 0 0 0 5.7118704026412956 -19.725486827628476 0 -19.725486827628476 -0.28217797839351988 0 0 0 0 8.810964641679675 -7.7451351914775017 0 -7.7451351914775017 -8.4459713327413901 0 0 0 0 -6.5781879953818176 -24.829974287289787 0 -24.829974287289787 -12.659523999809224 0 0 0 0 -9.32261991996711 -36.712163961026818 0 -36.712163961026818 22.380924161065195 0 0 0 0 5.7880900286600081 -72.864636185997369 0 -72.864636185997369 -6.9016948965290794 0 0 0 0 8.4637300576199141 -17.391960139972419 0 -17.391960139972419 -21.421406311832115 0 0 0 0 13.43677953495353 -19.449853823218291 0 -19.449853823218291 -43.394917331417673 0 0 0 0 24.411672379451375 -19.593409052915376 0 -19.593409052915376 -41.263932225934695 0 0 0 0 4.6714040014412603 -17.911878748440358 0 -17.911878748440358 -36.925626946569537 0 0 0 0 9.2965874201272527 1.9487922511616489 0 1.9487922511616489 -36.424573278862226 0 0 0 0 19.762694347029537 -17.375569256848394 0 -17.375569256848394 -2.3191557915542944 0 0 0 0 47.073721585145904 -34.873022364916324 0 -34.873022364916324 -31.103519293876161 0 0 0 0 53.527948004150858 -10.759996388811032 0 -10.759996388811032 -90.557387483378989 0 0 0 0 -63.824131250174105 -20.007679190865019 0 -20.007679190865019 27.783016216282704 0 0 0 0 9.5912969058076598 -14.614099573730162 0 -14.614099573730162 -18.058766364771415 0 0 0 0 -14.531364548636702 -34.60112288109849 0 -34.60112288109849 0.31231054077943554 0 0 0 0 13.967870431495612 -13.610562403438962 0 -13.610562403438962 -19.377563636517152 0 0 0 0 -1.3049367779294556 -3.4644900522077862 0 -3.4644900522077862 -4.5228024773375211 0 0 0 0 32.889652365294751 -15.10780275297202 0 -15.10780275297202 -24.185015931270755 0 0 0 0 -12.66963675613664 -17.120410780445866 0 -17.120410780445866 -15.976119209626631 0 0 0 0 45.186967157280378 -51.341873125711572 0 -51.341873125711572 -0.5651522979260335 0 0 0 0 3.1115334001009032 -1.3136590513419542 0 -1.3136590513419542 -0.50570763138247798 0 0 0 0 -12.840087054792093 -20.545715376443695 0 -20.545715376443695 5.5243198138941807 0 0 0 0 -41.399079986258585 1.4020940687842085 0 1.4020940687842085 -1.6535546314535168 0 0 0 0 -50.44209135580877 -52.493245578959431 0 -52.493245578959431 -27.185318815925712 0 0 0 0 -32.6068181499395 -31.324620487128414 0 -31.324620487128414 -25.542837766903176 0 0 0 0 -1.8342364194535818 -6.7568610942973599 0 -6.7568610942973599 -3.8360581048192728 0 0 0 0 -4.4084134290878865 -20.350107991152981 0 -20.350107991152981 -44.132945765391923 0 0 0 0 -4.1899154147449735 -22.552798117127168 0 -22.552798117127168 -30.543230115741608 0 0 0 0 -15.126011272541291 -44.528832747542765 0 -44.528832747542765 -33.521953245200166 0 0 0 0 -4.3078865859715734 -38.522357723930327 0 -38.522357723930327 -37.787108798498593 0 0 0 0 -13.674659213542327 -46.429248584605375 0 -46.429248584605375 -62.412045715012937 0 0 0 0 -48.390338914823587 20.058173269336294 0 20.058173269336294 -41.78990631729539 0 0 0 0 -4.176152064859707 -20.384423398498257 0 -20.384423398498257 -48.953036064835032 0 0 0 0 -9.652891377278138 -4.2973868900298839 0 -4.2973868900298839 -89.106038274225284 0 0 0 0 23.399545920043238 -3.5141966981718724 0 -3.5141966981718724 -54.899503898708645 0 0 0 0 23.514151989383208 -25.631319953733509 0 -25.631319953733509 -39.699755678600923 0 0 0 0 13.453030319160462 -14.670666958825677 0 -14.670666958825677 -78.048711356743297 0 0 0 0 16.404882850944887 -9.6447750000543238 0 -9.6447750000543238 -74.648847586904594 0 0 0 0 8.2418265696960589 -11.491013451875915 0 -11.491013451875915 -67.573231789905549 0 0 0 0 11.23259547725138 -0.47357047199329827 0 -0.47357047199329827 -35.754194898455353 0 0 0 0 -7.4094677525537946 -19.582350067117915 0 -19.582350067117915 -33.510984668773673 0 0 0 0 31.482493545775469 -20.019980488482361 0 -20.019980488482361 -37.013618171171402 0 0 0 0 26.59345386002542 -7.8653739368564857 0 -7.8653739368564857 -48.990938409413502 0 0 0 0 -2.476772318706935 -8.1752975958079332 0 -8.1752975958079332 -21.835219027132553 0 0 0 0 11.48233218513451 -4.649381376331803 0 -4.649381376331803 -34.598436776686867 0 0 0 0 5.653294097421167 1.1254316787344578 0 1.1254316787344578 -39.316178098648379 0 0 0 0 0.59724238952331987 -3.0278868542483508 0 -3.0278868542483508 -0.63380400444346563 0 0 0 0 -46.707603038512389 28.64247205742322 0 28.64247205742322 -7.1070544516078371 0 0 0 0 -28.683888199770081 -41.971275813910324 0 -41.971275813910324 43.89873200740476 0 0 0 0 -4.8100318860542757 -30.61289509118069 0 -30.61289509118069 -15.05352053342358 0 0 0 0 -125.16066267000633 40.876330641486675 0 40.876330641486675 89.570322368992493 0 0 0 0 -53.419617215801281 -103.84703259259845 0 -103.84703259259845 150.43045829815674 0 0 0 0 -57.06164132290445 -26.220725444226332 0 -26.220725444226332 36.372083820482658 0 0 0 0 -161.55598407412344 -26.333978869375642 0 -26.333978869375642 203.26972605191986 0 0 0 0 -40.42118113804645 -15.581766925224656 0 -15.581766925224656 7.2395516556407529 0 0 0 0 -5.9049025045265999 -11.942497027660529 0 -11.942497027660529 14.110064993789649 0 0 0 0 3.5045706710152444 -17.90877313949386 0 -17.90877313949386 -0.29548345852526836 0 0 0 0 -7.3568036767319427 -16.67265643221981 0 -16.67265643221981 -16.367126231853035 0 0 0 0 -13.319343715145806 -17.953945055214717 0 -17.953945055214717 -3.1321640193636995 0 0 0 0 -8.850244633047005 -16.983203191263733 0 -16.983203191263733 -12.220133802835733 0 0 0 0 -6.9001167345488668 -12.829969919499518 0 -12.829969919499518 4.762566924961483 0 0 0 0 -26.303688390689786 -26.399751567632848 0 -26.399751567632848 -39.505497465335793 0 0 0 0 -28.224095746065359 -25.432137554882502 0 -25.432137554882502 -21.423459074329003 0 0 0 0 -12.980391918453229 -14.89182731014585 0 -14.89182731014585 0.31731880144784697 0 0 0 0 -5.3348468063063983 -14.286954918329625 0 -14.286954918329625 -4.5121952886491954 0 0 0 0 -30.388217865785919 -29.706232562712103 0 -29.706232562712103 -4.8730031498653261 0 0 0 0 -16.665710953797316 -46.543434776260256 0 -46.543434776260256 -21.810050340473026 0 0 0 0 -27.537565376549537 -51.163709906428267 0 -51.163709906428267 -15.69938824071869 0 0 0 0 -62.117445139203483 -40.066825728149524 0 -40.066825728149524 -14.992845002212562 0 0 0 0 -36.425578587039126 -69.342006894534279 0 -69.342006894534279 -26.502613627075334 0 0 0 0 -0.84116221133745483 -4.4525331247838853 0 -4.4525331247838853 -2.4809461750030977 0 0 0 0 -10.409381783374556 -27.482727473015984 0 -27.482727473015984 -1.9192066949690343 0 0 0 0 48.159902952924313 16.624794109382492 0 16.624794109382492 -174.07238750826218 0 0 0 0 -9.666076830448219 -67.324708442083647 0 -67.324708442083647 -45.799710031154973 0 0 0 0 -19.646437639104988 -64.068226049817895 0 -64.068226049817895 -35.398811229402781 0 0 0 0 -13.071556801207976 -15.024563879559423 0 -15.024563879559423 30.903355819107674 0 0 0 0 -50.939665904703361 -36.358031215874689 0 -36.358031215874689 -4.6259825416054809 0 0 0 0 -1.1860911268015606 -5.3389823784928936 0 -5.3389823784928936 0.41860244437945937 0 0 0 0 -33.01712271366705 -13.356273863257229 0 -13.356273863257229 24.521334820772609 0 0 0 0 -8.4705558223186301 -12.737860760701437 0 -12.737860760701437 -8.5762901937690685 0 0 0 0 6.6331398734873801 -37.349254493643457 0 -37.349254493643457 -27.793395984277595 0 0 0 0 -12.730363206082984 -34.856083570706687 0 -34.856083570706687 -27.492750580961001 0 0 0 0 -8.382855402862333 -44.51862885969058 0 -44.51862885969058 -13.599835198030632 0 0 0 0 11.645715954677144 -25.835826379481659 0 -25.835826379481659 -12.1652612443213 0 0 0 0 -15.907248250208795 -27.238517160309129 0 -27.238517160309129 -26.211091684366693 0 0 0 0 -7.6870674301862891 -38.591045013617986 0 -38.591045013617986 -22.24943822035857 0 0 0 0 -15.72569834816386 -32.397853615897475 0 -32.397853615897475 -26.18108703330654 0 0 0 0 -13.790169863149458 -13.55745459462014 0 -13.55745459462014 2.3002534959232435 0 0 0 0 -12.331113668486289 -22.141270049844586 0 -22.141270049844586 -13.248995064406685 0 0 0 0 -2.3953652528320859 -23.127638351177367 0 -23.127638351177367 -18.744385343939172 0 0 0 0 -0.68947622185805812 -13.0959376203391 0 -13.0959376203391 2.1848731021455023 0 0 0 0 -13.831766058257834 -25.220771366322598 0 -25.220771366322598 -3.2865848205263362 0 0 0 0 -8.2791005873684682 -17.295743393226992 0 -17.295743393226992 -9.6708643306417699 0 0 0 0 -5.6490432513885267 -16.470290546879767 0 -16.470290546879767 -14.342774280428387 0 0 0 0 -1.8373889450995193 -16.589299950178429 0 -16.589299950178429 -5.2469625952398928 0 0 0 0 -11.453732207339204 -20.40493859289856 0 -20.40493859289856 -12.978706681312545 0 0 0 0 -13.958331803490637 -36.64519410079447 0 -36.64519410079447 -27.028550566952617 0 0 0 0 -0.52773541451824713 -16.399745514299866 0 -16.399745514299866 -25.296121617521749 0 0 0 0 -9.3138850237191946 -21.109687336589559 0 -21.109687336589559 -4.8442566703670309 0 0 0 0 -0.50055659376266703 -16.018729888455709 0 -16.018729888455709 -2.0754883824010903 0 0 0 0 6.6173827779921339 -23.001322717819676 0 -23.001322717819676 -10.440144992659043 0 0 0 0 7.5563471063978795 -25.431111492973287 0 -25.431111492973287 -6.4263041435972355 0 0 0 0 -7.2929356806488892 -13.417328356273455 0 -13.417328356273455 -5.9948658693531769 0 0 0 0 4.3692874140697313 -22.17823221011713 0 -22.17823221011713 -5.4353304394026054 0 0 0 0 12.149420856669167 -16.857804469524126 0 -16.857804469524126 -1.8595904778740078 0 0 0 0 19.253706941111886 -25.450035234749521 0 -25.450035234749521 1.5694463072322833 0 0 0 0 7.6574634519279243 -11.734786219364651 0 -11.734786219364651 19.652033135149395 0 0 0 0 16.645329007691544 -24.694642681664845 0 -24.694642681664845 16.576074474789493 0 0 0 0 -4.3673942058394459 -17.213744262863429 0 -17.213744262863429 9.3250675593644701 0 0 0 0 1.5885521524396609 -22.028507263655229 0 -22.028507263655229 2.7226659158523034 0 0 0 0 -5.9048989275198167 -14.045060080021837 0 -14.045060080021837 5.7257592171593501 0 0 0 0 -20.054698768022718 -32.528751546069543 0 -32.528751546069543 6.0382623502591741 0 0 0 0 -14.317516691806304 -39.264362347121278 0 -39.264362347121278 13.801673801397556 0 0 0 0 -8.9161918751588018 -36.39320693498189 0 -36.39320693498189 -2.004537800916296 0 0 0 0 -8.7563529698727507 -41.594781327607052 0 -41.594781327607052 3.7583569667294796 0 0 0 0 -8.7778032091453042 -33.987382423669146 0 -33.987382423669146 4.8029073369543767 0 0 0 0 -41.510376692527643 -30.940045111572545 0 -30.940045111572545 17.112427043008211 0 0 0 0 -61.899661675840434 -390.5876574968479 0 -390.5876574968479 119.29456190681958 0 0 0 0 -12.064416539854392 -6.1238934312550555 0 -6.1238934312550555 37.969234422838781 0 0 0 0 15.564049511689518 -19.041469889834843 0 -19.041469889834843 -15.076185373647604 0 0 0 0 -0.64373473024534178 -34.9212487431505 0 -34.9212487431505 -2.3362987315413193 0 0 0 0 -5.3072417124822096 -43.718920160303242 0 -43.718920160303242 -18.169969348880841 0 0 0 0 11.675425461833584 -27.908473005010819 0 -27.908473005010819 -33.111570432025474 0 0 0 0 2.7371944739570608 -52.060207327558601 0 -52.060207327558601 -55.493540762774501 0 0 0 0 -9.9940480737095641 -48.287330626746552 0 -48.287330626746552 -21.474435253410775 0 0 0 0 -6.0206217162012763 -46.94380394255495 0 -46.94380394255495 -25.19025137348217 0 0 0 0 -10.109437083519879 -38.220593788399128 0 -38.220593788399128 -10.632336093542108 0 0 0 0 -7.3447711773742412 -44.948443894295451 0 -44.948443894295451 -5.5716521840586211 0 0 0 0 -9.2352917575444735 -39.422786999533855 0 -39.422786999533855 3.1458665076497709 0 0 0 0 -7.9011964974924922 -45.109656395328784 0 -45.109656395328784 10.461439918115502 0 0 0 0 -4.6745218329597265 -35.897265030711424 0 -35.897265030711424 3.6478102498476801 0 0 0 0 -11.478231450536441 -37.914482062319621 0 -37.914482062319621 3.2050886032011476 0 0 0 0 -10.02012623537 -36.742533375016322 0 -36.742533375016322 -16.226723469990247 0 0 0 0 -6.2303540250868537 -42.062340208889509 0 -42.062340208889509 -10.600926168455771 0 0 0 0 -8.7047617196512874 -25.46154592937819 0 -25.46154592937819 -2.7097057269420475 0 0 0 0 8.4492724603167062 -31.325703116134264 0 -31.325703116134264 -0.73338456101555494 0 0 0 0 26.409038037791106 -36.425843219607486 0 -36.425843219607486 7.1498167726749671 0 0 0 0 10.361492688178259 -27.353985518511763 0 -27.353985518511763 2.6721297094845795 0 0 0 0 10.405951375626501 -41.953622135766636 0 -41.953622135766636 27.558151385666861 0 0 0 0 -0.9945631340528962 -52.959745281596042 0 -52.959745281596042 39.526321804449253 0 0 0 0 11.117122171686788 -40.110592879889737 0 -40.110592879889737 16.159907263572677 0 0 0 0 -0.15366061582608381 -40.578739224050878 0 -40.578739224050878 16.274292264366522 0 0 0 0 2.3475425628294033 -40.922652816796472 0 -40.922652816796472 7.0113879329728661 0 0 0 0 -10.647445000584412 -39.713625397424039 0 -39.713625397424039 13.014129046647213 0 0 0 0 -8.2794163135904455 -45.80443833816571 0 -45.80443833816571 24.110398084390908 0 0 0 0 -10.63902498540665 -40.463304287099163 0 -40.463304287099163 23.761468523915937 0 0 0 0 -19.374345788321079 -38.100480286753736 0 -38.100480286753736 23.997167292989616 0 0 0 0 -12.466268160221034 -48.175093029455184 0 -48.175093029455184 37.007489897921914 0 0 0 0 -13.451023622535558 -44.928684855785832 0 -44.928684855785832 23.640348381741205 0 0 0 0 -17.951569277660383 -37.787498420104384 0 -37.787498420104384 13.777095748753368 0 0 0 0 -25.46819024396018 -37.102459825601727 0 -37.102459825601727 56.9285983730515 0 0 0 0 -18.618339409804321 -40.108959369856166 0 -40.108959369856166 37.63139377806192 0 0 0 0 -26.100006580973968 -34.323001269852739 0 -34.323001269852739 44.736626002671983 0 0 0 0 -21.087770310868109 -43.987909923927873 0 -43.987909923927873 38.201410809931986 0 0 0 0 -10.688261375144066 -41.24740412149913 0 -41.24740412149913 43.032382599144512 0 0 0 0 -12.151168053345828 -46.772934394317417 0 -46.772934394317417 44.42511975679372 0 0 0 0 -19.455935832731484 -31.800252007211384 0 -31.800252007211384 75.333667566088479 0 0 0 0 -19.539032437507558 -33.970390899490667 0 -33.970390899490667 48.669042606699804 0 0 0 0 -2.056715779041042 -35.280295102381388 0 -35.280295102381388 70.653528115843073 0 0 0 0 -3.785248950629466 -40.148820722402888 0 -40.148820722402888 133.26008994323638 0 0 0 0 6.8613664769985689 -43.307735973082117 0 -43.307735973082117 57.890009601418569 0 0 0 0 5.4709162633716915 -56.885448174229168 0 -56.885448174229168 58.02893797505385 0 0 0 0 32.442253325341881 -51.903616105231777 0 -51.903616105231777 30.876192439482111 0 0 0 0 27.773768583230776 -49.351011477680004 0 -49.351011477680004 46.580784814665094 0 0 0 0 41.649336013164429 -49.920702619756412 0 -49.920702619756412 46.53159954509465 0 0 0 0 14.61954005737789 -44.893944803388877 0 -44.893944803388877 90.019760620208217 0 0 0 0 23.568804107075266 -84.112679536276119 0 -84.112679536276119 177.45468881384295 0 0 0 0 23.600207747123932 -66.112416268439119 0 -66.112416268439119 86.674241210734181 0 0 0 0 1.0639142131811745 0.061791778244259632 0 0.061791778244259632 0.13785132894754781 0 0 0 0 -11.369590259399047 -9.201444475163953 0 -9.201444475163953 190.73306980050256 0 0 0 0 -10.626510184371 -37.843852444886579 0 -37.843852444886579 -80.373457690253417 0 0 0 0 -17.655374201263839 -35.332227610993868 0 -35.332227610993868 -80.020842256496508 0 0 0 0 -2.4028274603520003 18.1583205081497 0 18.1583205081497 79.169138125849713 0 0 0 0 -3.6309000706314691 18.083570907288959 0 18.083570907288959 115.67569628141791 0 0 0 0 -25.274756872668149 -21.801242258388811 0 -21.801242258388811 28.265886751662038 0 0 0 0 -10.226376779953171 -22.325224475298455 0 -22.325224475298455 7.0389655132166808 0 0 0 0 -2.3185092141896995 -6.3122888072789891 0 -6.3122888072789891 -0.71952166700735987 0 0 0 0 -6.8126188263977383 -3.4774412428923824 0 -3.4774412428923824 16.705143933430008 0 0 0 0 -23.535930571877543 -10.09581333195456 0 -10.09581333195456 55.701617239894404 0 0 0 0 3.8220310801187622 -17.786203301441049 0 -17.786203301441049 13.451932439255042 0 0 0 0 1.9144271565019153 -41.003272556832599 0 -41.003272556832599 25.775573730726819 0 0 0 0 62.038633823001874 -70.94580880685362 0 -70.94580880685362 -75.56015792630842 0 0 0 0 -8.7698553599475417 -21.616254356715217 0 -21.616254356715217 45.095312017677315 0 0 0 0 -9.1168393867602351 -14.611181091381376 0 -14.611181091381376 42.602462391888203 0 0 0 0 -61.008787351295723 34.650080460413847 0 34.650080460413847 34.82819311399362 0 0 0 0 -3.7841259535220999 -3.3181173297217246 0 -3.3181173297217246 4.5135901234084237 0 0 0 0 -21.297438384634006 -39.502242098118586 0 -39.502242098118586 26.624900284572504 0 0 0 0 15.584805557986328 2.9551482465794834 0 2.9551482465794834 4.6021447726216138 0 0 0 0 -4.4620382813127613 -3.9326803515235227 0 -3.9326803515235227 8.2525054673852907 0 0 0 0 34.740255733155209 -16.049148034942846 0 -16.049148034942846 10.370009420985298 0 0 0 0 56.616992482051501 -47.434200733910984 0 -47.434200733910984 32.143429617062793 0 0 0 0 44.883082563901553 -29.892852974535344 0 -29.892852974535344 13.468677013912384 0 0 0 0 126.5230038782247 -53.861680612979399 0 -53.861680612979399 29.829187268296664 0 0 0 0 39.141629635110803 -53.860234103183757 0 -53.860234103183757 78.946162804226333 0 0 0 0 96.40746659708384 -107.03272698321598 0 -107.03272698321598 86.845188511066226 0 0 0 0 -5.7000212839557207 -2.958685659130424 0 -2.958685659130424 44.100378667695622 0 0 0 0 15.467800433286587 -27.106144111779809 0 -27.106144111779809 21.904879796610018 0 0 0 0 44.817337581607717 -127.43326343559602 0 -127.43326343559602 41.17241227575505 0 0 0 0 27.359793783662099 -59.029057793439506 0 -59.029057793439506 72.330883396681656 0 0 0 0 51.387422451849488 -78.093419738976763 0 -78.093419738976763 59.655732031138655 0 0 0 0 2.8598825724357546 -8.664836735691626 0 -8.664836735691626 -4.4073076775048925 0 0 0 0 -112.40864795535708 18.239777110509976 0 18.239777110509976 197.17261438627247 0 0 0 0 12.227479304321605 -121.64257762967509 0 -121.64257762967509 -127.11239981669041 0 0 0 0 -9.091076978822457 -41.192810090483363 0 -41.192810090483363 126.93972593403021 0 0 0 0 38.923741968354989 -30.251958965910717 0 -30.251958965910717 129.19970024516806 0 0 0 0 -1.7263048008135229 -128.38681918113434 0 -128.38681918113434 -35.377856148739738 0 0 0 0 -64.21640460305025 -41.646103410057549 0 -41.646103410057549 -30.155023301163965 0 0 0 0 82.950777906052281 -15.579487663444752 0 -15.579487663444752 -20.877741206842984 0 0 0 0 -1.586062361348743 -3.2676450148278349 0 -3.2676450148278349 3.705760527096416 0 0 0 0 -70.420996403941899 -35.233983817118087 0 -35.233983817118087 -6.3920659441355383 0 0 0 0 -1.4489707959904905 -2.1684098257792002 0 -2.1684098257792002 0.18596031194107354 0 0 0 0 -61.264679873219848 -21.57927832976975 0 -21.57927832976975 13.792212096166622 0 0 0 0 -41.337865069752297 -38.884038232989951 0 -38.884038232989951 17.920633664205525 0 0 0 0 21.07870209095563 4.4887923478663652 0 4.4887923478663652 21.57691658875774 0 0 0 0 -2.3482113507852773 -30.33043836687466 0 -30.33043836687466 8.3313604817230953 0 0 0 0 -52.382042253622785 -61.218923011226252 0 -61.218923011226252 -13.080558116354041 0 0 0 0 -36.942193209888501 -33.108958720700684 0 -33.108958720700684 8.3681613183216541 0 0 0 0 -54.282071046292003 -52.834088706308023 0 -52.834088706308023 -8.9404599833978864 0 0 0 0 -44.32049994944191 -93.366601333254721 0 -93.366601333254721 -46.337135804002173 0 0 0 0 -82.699201181123499 -47.488642799733498 0 -47.488642799733498 -9.8623874206158462 0 0 0 0 -139.19537183394641 -140.22468341160538 0 -140.22468341160538 -30.112857508914431 0 0 0 0 -167.56713305916492 -13.815707175000171 0 -13.815707175000171 -36.17334742406365 0 0 0 0 -68.609141145370813 -92.385190521008553 0 -92.385190521008553 -46.376763011632647 0 0 0 0 -37.710971155622246 -93.155042282605791 0 -93.155042282605791 -62.963908907917357 0 0 0 0 -9.4704639965693787 -100.47764912301091 0 -100.47764912301091 -61.10012253450077 0 0 0 0 -40.495932770845684 -127.10470791675561 0 -127.10470791675561 -34.648827980757005 0 0 0 0 8.5290749681230409 -125.78727133500001 0 -125.78727133500001 -92.938216924505468 0 0 0 0 8.599632628425752 -56.707275276238761 0 -56.707275276238761 -118.76818564457199 0 0 0 0 5.3904925549932159 -20.513410564703349 0 -20.513410564703349 -30.796288276306768 0 0 0 0 0.61103233921676292 -52.50783109336362 0 -52.50783109336362 -30.230470727721695 0 0 0 0 -7.6971998577282648 -63.255500900488187 0 -63.255500900488187 -43.196913319420673 0 0 0 0 -11.313721319846991 -50.928611346004345 0 -50.928611346004345 -30.133140772067236 0 0 0 0 -12.214166885187296 -32.451735639764138 0 -32.451735639764138 -5.1343573260455742 0 0 0 0 -2.7907260817592032 -48.693713629661488 0 -48.693713629661488 -18.593295080417761 0 0 0 0 -10.388236981449154 -38.143832298015695 0 -38.143832298015695 3.0708973792025063 0 0 0 0 -13.937240791849035 -74.901452394311491 0 -74.901452394311491 -78.463734010554617 0 0 0 0 0.85919089368785251 -0.52360749325113431 0 -0.52360749325113431 -6.8716278850575208 0 0 0 0 -13.961164748633255 -35.010094771488603 0 -35.010094771488603 -5.3089863573352005 0 0 0 0 -14.10367617290467 -65.902214971203648 0 -65.902214971203648 -49.726729929447174 0 0 0 0 -3.7361612049585489 -23.109670007768823 0 -23.109670007768823 12.979238106053739 0 0 0 0 -10.902477796746098 -42.754337758904512 0 -42.754337758904512 0.94316101914046158 0 0 0 0 -18.626209513677168 -34.106111707234049 0 -34.106111707234049 4.316631500285439 0 0 0 0 2.1060685459087836 -35.35397294383074 0 -35.35397294383074 3.6405771703648497 0 0 0 0 -1.5589156508995075 -37.082356407537191 0 -37.082356407537191 1.4466902913482045 0 0 0 0 -5.1210229223652277 -22.690107336605251 0 -22.690107336605251 -12.240152187179774 0 0 0 0 -14.929544171728594 -12.594114252931831 0 -12.594114252931831 4.2282337068609195 0 0 0 0 0.45616266764955071 -33.056356126064202 0 -33.056356126064202 -5.8121170074050497 0 0 0 0 -1.6283995295685934 -14.58833076007074 0 -14.58833076007074 3.0398581028832155 0 0 0 0 8.3740733147242281 -15.779912136046732 0 -15.779912136046732 -4.5942559279501438 0 0 0 0 3.649272415540123 -15.275429245242529 0 -15.275429245242529 -8.8775196430543275 0 0 0 0 -22.860130135639338 -23.872341216363566 0 -23.872341216363566 0.71849595893581863 0 0 0 0 -0.45557166776479541 -24.079540604615286 0 -24.079540604615286 -7.3687068300386862 0 0 0 0 -11.920101878738471 -17.897318043522816 0 -17.897318043522816 12.682570158917127 0 0 0 0 -13.983688794747337 -16.059283113110681 0 -16.059283113110681 6.0151174364621482 0 0 0 0 -20.245514546328195 -34.457645997171312 0 -34.457645997171312 -20.018264941826601 0 0 0 0 -5.3853018693048398 -31.462005962483545 0 -31.462005962483545 -0.90413607613572822 0 0 0 0 -14.571316964033919 -16.833231119215689 0 -16.833231119215689 18.019325441260193 0 0 0 0 -36.885627690615365 -21.237844715977189 0 -21.237844715977189 26.946176310112605 0 0 0 0 -8.1399091285857139 -34.462547561165593 0 -34.462547561165593 -21.027502626761361 0 0 0 0 3.7936731615549775 -3.561378728165117 0 -3.561378728165117 4.4605058371434652 0 0 0 0 -21.880649780832755 -37.339400802012278 0 -37.339400802012278 -18.166961191235259 0 0 0 0 -4.6819935390085448 -18.202819940747759 0 -18.202819940747759 -17.059090117212463 0 0 0 0 -18.064923575839202 -22.318949127431551 0 -22.318949127431551 -15.82381563357194 0 0 0 0 1.7723987384462987 -1.3621735329876756 0 -1.3621735329876756 0.8980001162328044 0 0 0 0 -0.033053674225811847 -18.69185553530906 0 -18.69185553530906 -21.039843222655691 0 0 0 0 -11.109582030494494 7.1259944996222657 0 7.1259944996222657 112.24656974484787 0 0 0 0 -129.49597223901947 -154.90431923797405 0 -154.90431923797405 91.205195486657544 0 0 0 0 -62.859535362193128 -120.68734324094748 0 -120.68734324094748 -1.2754093583903341 0 0 0 0 -84.74065906544638 -184.65439471629816 0 -184.65439471629816 -161.94416159301363 0 0 0 0 -47.634428396901058 -11.295330739419114 0 -11.295330739419114 -61.119548240964832 0 0 0 0 -72.419469709533587 -96.623097898499964 0 -96.623097898499964 -39.650163419164528 0 0 0 0 -19.001219930753194 -12.223690125866575 0 -12.223690125866575 -1.4461474088688759 0 0 0 0 0.64181178299254782 -10.186406188752677 0 -10.186406188752677 4.1214945400036562 0 0 0 0 -14.067734642267169 -0.55713793542417989 0 -0.55713793542417989 -4.5396282319286456 0 0 0 0 -24.31832215594477 -36.435786593358898 0 -36.435786593358898 -0.48303454181768757 0 0 0 0 -20.648448861451442 -15.119979141509248 0 -15.119979141509248 -3.9710913060161119 0 0 0 0 -50.696393378037101 -47.742770188299346 0 -47.742770188299346 -2.2413557416793992 0 0 0 0 100.42477517300722 -100.36706654002683 0 -100.36706654002683 35.75877043781702 0 0 0 0 114.52001058765745 -59.071032479609357 0 -59.071032479609357 9.3204641696431736 0 0 0 0 -2.9071889170831184 -5.4791776064125273 0 -5.4791776064125273 -0.44126456535343905 0 0 0 0 -29.030160526377585 33.108931298198968 0 33.108931298198968 -1.2927142456674119 0 0 0 0 -32.177600341514335 -27.961037209577057 0 -27.961037209577057 18.540719640961925 0 0 0 0 -36.227022299164673 -146.09525774263875 0 -146.09525774263875 -143.1902980084858 0 0 0 0 8.7139823708785116 -18.063521663006213 0 -18.063521663006213 -77.746405066206535 0 0 0 0 -10.476364963619488 -8.392021350995865 0 -8.392021350995865 -4.7890550824309699 0 0 0 0 14.015225041788653 -78.409176250418113 0 -78.409176250418113 -170.17800684749045 0 0 0 0 11.373267454163454 1.7409505702527284 0 1.7409505702527284 -4.5231277747878398 0 0 0 0 -3.6374880144248891 -35.937837227620548 0 -35.937837227620548 -45.44435970488712 0 0 0 0 -20.299173841369338 -24.078848257145182 0 -24.078848257145182 25.978000287866962 0 0 0 0 -20.423341741055992 -16.177944241615933 0 -16.177944241615933 17.781611153235644 0 0 0 0 -9.3010696348501369 -20.826584960044784 0 -20.826584960044784 -11.802634170865531 0 0 0 0 0.013474601852067281 -28.851518761919579 0 -28.851518761919579 -0.086110976467352884 0 0 0 0 -13.060292245678284 -26.035278775573943 0 -26.035278775573943 34.559943346954242 0 0 0 0 -0.31047556886238681 0.57589436765837121 0 0.57589436765837121 -3.2017688330060077 0 0 0 0 -0.0065650345786707476 -9.7454763281548367 0 -9.7454763281548367 -11.532461300739669 0 0 0 0 0.27313030833659013 -0.56765676098416584 0 -0.56765676098416584 -4.5620459250662231 0 0 0 0 -3.9912498186313314 -3.1737046526131962 0 -3.1737046526131962 50.781940698549079 0 0 0 0 15.852741874106869 -18.574868370983495 0 -18.574868370983495 -260.55577836531052 0 0 0 0 -41.753454535930359 -53.875424545815804 0 -53.875424545815804 38.466843932365919 0 0 0 0 0.021941750721452991 -73.177116033165248 0 -73.177116033165248 -95.97571550215207 0 0 0 0 31.118472635527723 -12.297684356263289 0 -12.297684356263289 -135.503355881179 0 0 0 0 0.1460341744027005 0.69182451748860707 0 0.69182451748860707 -0.1169308304997857 0 0 0 0 -21.382438783359248 -40.000761399176668 0 -40.000761399176668 -14.756508765785838 0 0 0 0 -0.057366103027869486 -55.548408378504099 0 -55.548408378504099 -26.665863373586035 0 0 0 0 -0.031856877629877545 1.0934666833767359 0 1.0934666833767359 0.015063082230007074 0 0 0 0 17.42934902630077 11.698126448862922 0 11.698126448862922 -167.49827542951326 0 0 0 0 -3.4132962355288328 -17.42051453413012 0 -17.42051453413012 26.338814950139863 0 0 0 0 -3.5393678275795537 -72.399684555893941 0 -72.399684555893941 54.54178836488893 0 0 0 0 45.068020759434148 -26.044468403552401 0 -26.044468403552401 -12.634191718358579 0 0 0 0 45.680571734250407 -46.108284817607341 0 -46.108284817607341 61.969076567891079 0 0 0 0 11.130494850260675 -66.277092371621976 0 -66.277092371621976 82.829796821475611 0 0 0 0 53.966691425666795 -75.933813309362677 0 -75.933813309362677 57.732864465447705 0 0 0 0 87.488339378605815 -47.975989122637429 0 -47.975989122637429 76.70132456021247 0 0 0 0 61.37488570518326 -81.268166240289247 0 -81.268166240289247 74.704242502421948 0 0 0 0 43.80799719064089 -53.041649183983964 0 -53.041649183983964 56.442901759793585 0 0 0 0 -0.009350239848572528 -57.595479727871862 0 -57.595479727871862 60.104615759112448 0 0 0 0 10.082526980178955 -50.104488976793277 0 -50.104488976793277 63.706198371863678 0 0 0 0 -2.6231628419482149 -4.8365062141267572 0 -4.8365062141267572 34.714932315137276 0 0 0 0 -10.645857384995907 -13.820373067076162 0 -13.820373067076162 25.918782934207684 0 0 0 0 -4.8517160657211207 -14.848231768888809 0 -14.848231768888809 9.3874976760014306 0 0 0 0 -36.19680875557242 -27.428380235687655 0 -27.428380235687655 29.984971361093812 0 0 0 0 -1.1609313325613471 0.26738763590450532 0 0.26738763590450532 1.3932660625565605 0 0 0 0 -44.595639375489554 -4.2027023966077195 0 -4.2027023966077195 2.6850850597738827 0 0 0 0 -1.240514739532955 -3.7530704065982263 0 -3.7530704065982263 -2.1742048145320041 0 0 0 0 -4.9239927289998207 -4.2373336295730084 0 -4.2373336295730084 0.78958832853000116 0 0 0 0 0.27676906642142285 -0.29450124899882724 0 -0.29450124899882724 -0.95029652935303144 0 0 0 0 33.000270416145213 36.939546278896159 0 36.939546278896159 -73.927695627470257 0 0 0 0 0.26336239374575143 -1.5532495777077031 0 -1.5532495777077031 -2.1915997788893757 0 0 0 0 3.6721381692696013 -28.208174694927834 0 -28.208174694927834 69.427753255615926 0 0 0 0 -1.8107127498074078 5.6627487403814172 0 5.6627487403814172 31.366004272386363 0 0 0 0 -17.552258369214542 -15.406454146962119 0 -15.406454146962119 8.5540323710415578 0 0 0 0 -32.710602901614038 28.539066770628324 0 28.539066770628324 94.761145456588565 0 0 0 0 186.40850849252456 -123.92870770046738 0 -123.92870770046738 38.499890475383609 0 0 0 0 95.03572148405874 -82.943884816489415 0 -82.943884816489415 21.608513709029921 0 0 0 0 -11.529059739536024 -3.5037311732548915 0 -3.5037311732548915 38.698462436061391 0 0 0 0 -43.168471282704559 -0.90183383558149899 0 -0.90183383558149899 50.09761631478159 0 0 0 0 -0.38487093546347495 -0.63416410044577276 0 -0.63416410044577276 1.4864095436196854 0 0 0 0 76.613087101890414 -140.61866634668453 0 -140.61866634668453 93.553856393706155 0 0 0 0 -1.4598391666368116 -63.42418811448124 0 -63.42418811448124 119.14772418045743 0 0 0 0 -13.722024477378 -68.789134297481269 0 -68.789134297481269 109.36377627783463 0 0 0 0 -32.191238279825484 -16.618197396342566 0 -16.618197396342566 70.577835605655309 0 0 0 0 -12.616138860408682 -28.501476243228808 0 -28.501476243228808 36.565225935398985 0 0 0 0 -14.690765520481364 -17.318497379802039 0 -17.318497379802039 32.062306686415468 0 0 0 0 -21.360525841386334 -38.667784968813521 0 -38.667784968813521 36.756796570920415 0 0 0 0 -23.209889212550479 -39.793207196599724 0 -39.793207196599724 36.683089862943234 0 0 0 0 46.580755397408211 -86.971468799846434 0 -86.971468799846434 24.078271531555401 0 0 0 0 20.505580918594205 -80.026085707834227 0 -80.026085707834227 1.5677831849070571 0 0 0 0 5.96505461257766 -82.511231207673973 0 -82.511231207673973 28.575276904395878 0 0 0 0 30.526825362932868 -113.49297629383454 0 -113.49297629383454 64.781745110705742 0 0 0 0 21.495896356311277 -117.451814699436 0 -117.451814699436 -12.582937003248617 0 0 0 0 78.156693723220087 -13.511545970118277 0 -13.511545970118277 -144.4812668509594 0 0 0 0 132.99595446844978 -48.792773640727432 0 -48.792773640727432 -5.2236749930148108 0 0 0 0 -25.201720757948351 -43.838747905883793 0 -43.838747905883793 1.825327538534566 0 0 0 0 22.843321850684788 -2.1080288156719469 0 -2.1080288156719469 -1.8672357227407828 0 0 0 0 -30.225679664683412 -42.89594845106717 0 -42.89594845106717 -91.768750877832645 0 0 0 0 20.28803046966641 -54.137753623070012 0 -54.137753623070012 -253.583852210023 0 0 0 0 -31.754371753413579 -60.158727897265635 0 -60.158727897265635 -243.57068538166925 0 0 0 0 0.03747168800546774 0.6059273848940574 0 0.6059273848940574 -0.064500197722752395 0 0 0 0 -245.80902280885493 -211.90063686004851 0 -211.90063686004851 315.69250398933036 0 0 0 0 246.1866233506189 319.49062364627628 0 319.49062364627628 -127.11564329193516 0 0 0 0 30.513091048039968 -3.9384795286705518 0 -3.9384795286705518 -1.2160087464978555 0 0 0 0 44.698335353212315 -146.38942973026769 0 -146.38942973026769 -146.92015007571945 0 0 0 0 154.9460510303179 -37.421384374527179 0 -37.421384374527179 -288.1574547488168 0 0 0 0 -25.49207031273545 -37.19912475383444 0 -37.19912475383444 -28.589221021506972 0 0 0 0 43.619668150000507 -1.2790036789072019 0 -1.2790036789072019 -10.342056337303347 0 0 0 0 24.788571276427319 30.398718302849772 0 30.398718302849772 -55.401354918092466 0 0 0 0 12.752359944424825 -33.261128034084095 0 -33.261128034084095 -43.48375732200634 0 0 0 0 32.203061891765827 -6.7249906127326682 0 -6.7249906127326682 -3.7566223375987606 0 0 0 0 -6.3266931480247877 -52.074370797010033 0 -52.074370797010033 -51.465188728685462 0 0 0 0 27.327546732427436 -65.677002452946454 0 -65.677002452946454 -159.1442106568087 0 0 0 0 22.802975448550569 -112.33837310016992 0 -112.33837310016992 -44.192788498395203 0 0 0 0 -24.528116619509092 -27.323954913927309 0 -27.323954913927309 -50.448077194366306 0 0 0 0 -19.76101773706614 -55.081547335215873 0 -55.081547335215873 -32.45743833482129 0 0 0 0 -25.001402138776029 -48.643475704069715 0 -48.643475704069715 10.162970285461597 0 0 0 0 -1.3537897919559327 -55.852366879094461 0 -55.852366879094461 -51.98562040050183 0 0 0 0 -24.019687387103659 -33.375248781167699 0 -33.375248781167699 5.1006609619134906 0 0 0 0 -33.454229872936594 -11.454457156938503 0 -11.454457156938503 14.676425163433123 0 0 0 0 -23.003358208443387 -24.203948604279731 0 -24.203948604279731 21.715006569563684 0 0 0 0 -22.431895377178535 -33.909245106700659 0 -33.909245106700659 -6.5861629342753076 0 0 0 0 -16.454204611174646 -32.306781915045576 0 -32.306781915045576 -7.7006059224368073 0 0 0 0 3.7886924743725103 -31.062805349934251 0 -31.062805349934251 -13.860000904688604 0 0 0 0 -13.310353409902291 -29.359742577522297 0 -29.359742577522297 8.0105478252330613 0 0 0 0 -18.029684389321119 -47.101350021346477 0 -47.101350021346477 -19.600145337264621 0 0 0 0 -12.484858305382659 -22.985297223990301 0 -22.985297223990301 4.6913657365489598 0 0 0 0 -13.395487424739258 -18.601212342052463 0 -18.601212342052463 13.48268275826149 0 0 0 0 -5.7727436211498571 -11.972295990603698 0 -11.972295990603698 -10.754762679560599 0 0 0 0 -9.7963219360462972 -30.313983932847577 0 -30.313983932847577 8.2466960806655152 0 0 0 0 -12.348176929818209 -11.372480496880044 0 -11.372480496880044 -7.0163845370179896 0 0 0 0 -2.9913822162392307 -3.4814767601677516 0 -3.4814767601677516 -3.1643080964028849 0 0 0 0 5.5606771354068769 -22.310580508048815 0 -22.310580508048815 -9.7082100933593694 0 0 0 0 -9.1767198607412865 -31.138905250917901 0 -31.138905250917901 11.918483525117608 0 0 0 0 -21.143595981760882 -16.310254062774675 0 -16.310254062774675 -0.52029647070253304 0 0 0 0 -16.738057129332446 -13.875023944614668 0 -13.875023944614668 2.8233691595123673 0 0 0 0 -17.25273373357777 -12.828482919120574 0 -12.828482919120574 12.16116027192993 0 0 0 0 -3.6190066899580415 -25.062466343076039 0 -25.062466343076039 5.1777602825844724 0 0 0 0 11.774191175710257 -16.242608257857114 0 -16.242608257857114 -19.80702076705802 0 0 0 0 2.8637391944021644 -9.2309158893372114 0 -9.2309158893372114 -7.23972097757939 0 0 0 0 4.4809909389587119 -4.7951832722887957 0 -4.7951832722887957 -21.810498616315272 0 0 0 0 33.310137360458612 -15.980053874025998 0 -15.980053874025998 -24.712162400045599 0 0 0 0 -25.335340817480756 -5.8127694074210012 0 -5.8127694074210012 17.206884885000818 0 0 0 0 3.911921970489832 0.13691406265483863 0 0.13691406265483863 -0.17529901680078197 0 0 0 0 2.6788917783196666 -8.7150062041594083 0 -8.7150062041594083 -8.4693062915906694 0 0 0 0 3.9472897330026626 -34.644062254498124 0 -34.644062254498124 -12.975995186345699 0 0 0 0 -6.8049975650744301 -10.646334290513757 0 -10.646334290513757 -9.9746708950469589 0 0 0 0 17.80710899704718 -23.295829382132069 0 -23.295829382132069 -24.28616194212168 0 0 0 0 1.7721606767307776 -8.9707806072948202 0 -8.9707806072948202 -12.251673539598356 0 0 0 0 -0.35795803225482814 -16.571879138361965 0 -16.571879138361965 -15.527544655816428 0 0 0 0 -1.1360234335807036 -8.0999948596963804 0 -8.0999948596963804 -19.62619972786888 0 0 0 0 -4.3090854847210665 -6.7558764134665594 0 -6.7558764134665594 -6.1586187704616648 0 0 0 0 -0.64476445790933212 -6.8675807055771543 0 -6.8675807055771543 -6.3956607649868999 0 0 0 0 10.849283354631226 -11.005544182380731 0 -11.005544182380731 -12.834520699844312 0 0 0 0 4.6898090534080268 -5.7108458307152077 0 -5.7108458307152077 -7.4711767200149533 0 0 0 0 9.1089789260877296 -7.0084760867626983 0 -7.0084760867626983 -11.96591447492392 0 0 0 0 3.7827467420086052 2.8857217322624038 0 2.8857217322624038 -9.7302804521653208 0 0 0 0 6.8227793902187841 -2.1437076124867644 0 -2.1437076124867644 -13.85738053268085 0 0 0 0 1.2806479426122053 0.57143110822422116 0 0.57143110822422116 -2.3517816925307606 0 0 0 0 -167.87780377143645 107.30959681985178 0 107.30959681985178 101.96138684381998 0 0 0 0 -1.4477470635215468 -0.80922735521018296 0 -0.80922735521018296 -1.5426591675570056 0 0 0 0 -0.44107455053017475 -7.1906608347399725 0 -7.1906608347399725 -8.3155023818966924 0 0 0 0 -433.09426609794173 -73.42939695001769 0 -73.42939695001769 40.371279304010613 0 0 0 0 95.130458603118313 31.350214296353442 0 31.350214296353442 -394.56403986614578 0 0 0 0 17.055391457834048 -128.70994126819619 0 -128.70994126819619 -413.41273300692592 0 0 0 0 -604.64602906386699 -120.83563857742922 0 -120.83563857742922 -98.163886145329343 0 0 0 0 -63.911869267456495 168.30578949578876 0 168.30578949578876 48.96210823856245 0 0 0 0 350.1647212924363 66.644669611477184 0 66.644669611477184 -280.68752084570201 0 0 0 0 305.20058846152824 27.562599309363122 0 27.562599309363122 -517.78462295297322 0 0 0 0 119.22132129558304 79.483910652895247 0 79.483910652895247 -279.5630572553398 0 0 0 0 37.075969249810441 112.67868730357222 0 112.67868730357222 -81.775587088455723 0 0 0 0 -12.342273032671073 -216.61726238274946 0 -216.61726238274946 -447.68346120142269 0 0 0 0 17.865401829913026 15.125337721267215 0 15.125337721267215 -320.42867170781028 0 0 0 0 68.017144646393717 -79.870573453070847 0 -79.870573453070847 -215.80610404356298 0 0 0 0 -7.0575538971097558 72.226271403296323 0 72.226271403296323 53.960003980173269 0 0 0 0 -7.6234878066661622 43.637454437807378 0 43.637454437807378 -245.12886663744621 0 0 0 0 0.11605847073404618 0.55762908624884133 0 0.55762908624884133 -1.7792024269991717 0 0 0 0 0.070408580944338439 -0.099121473692065365 0 -0.099121473692065365 -2.5646269679046192 0 0 0 0 172.95251449324132 -202.82902465318466 0 -202.82902465318466 -344.44397103751248 0 0 0 0 68.476499298682029 -16.585981855713726 0 -16.585981855713726 21.259919387442892 0 0 0 0 118.39135528187671 -50.166366125439879 0 -50.166366125439879 -59.493951956015735 0 0 0 0 91.571963931906794 57.653845728962096 0 57.653845728962096 -31.760731916524051 0 0 0 0 117.17571006822254 -108.16438254944842 0 -108.16438254944842 -19.556944291089621 0 0 0 0 76.218630074366956 14.833819307179283 0 14.833819307179283 116.30076197380367 0 0 0 0 -106.3319548362706 -410.62462115616654 0 -410.62462115616654 481.53632523590045 0 0 0 0 -19.771307744926162 -12.474638022256539 0 -12.474638022256539 -5.0435556825059802 0 0 0 0 -339.75179891037988 -81.237012756913828 0 -81.237012756913828 -61.177608710586355 0 0 0 0 357.25116850799532 -416.17275109187631 0 -416.17275109187631 -3.9509055021146651 0 0 0 0 -41.308029207786603 -119.53836345211403 0 -119.53836345211403 -254.09333409474311 0 0 0 0 -56.915027232484135 -34.8741249672903 0 -34.8741249672903 -379.66990922198011 0 0 0 0 -1.1096039805925102 -55.437630680332404 0 -55.437630680332404 -222.4471438423152 0 0 0 0 -104.99184248336314 -336.43638373137674 0 -336.43638373137674 -127.45245343078022 0 0 0 0 -30.42893361408278 -223.63259932812207 0 -223.63259932812207 -316.99489762738995 0 0 0 0 -185.40439960175354 -415.14916782324872 0 -415.14916782324872 -363.29060771574132 0 0 0 0 -129.63954676837602 -442.74210001642996 0 -442.74210001642996 -482.61044714826153 0 0 0 0 -464.82805378905323 -759.77871848195491 0 -759.77871848195491 -787.48727912085633 0 0 0 0 -564.81085031035036 -366.44512587990812 0 -366.44512587990812 -380.00488075606745 0 0 0 0 -775.74263850391435 -440.0862621950946 0 -440.0862621950946 -230.78920550813018 0 0 0 0 -1928.9974643142123 -1148.5066738124897 0 -1148.5066738124897 -709.84919644106958 0 0 0 0 -1235.8867894644036 -896.15847737488684 0 -896.15847737488684 655.94301743576807 0 0 0 0 7.9568297021687613 -123.49784199077749 0 -123.49784199077749 -1046.9063477878972 0 0 0 0 -9.56065379583805 -4.6366391853932925 0 -4.6366391853932925 -2.025905725966715 0 0 0 0 -97.787849030930374 -524.82976956805578 0 -524.82976956805578 -1838.2260863046063 0 0 0 0 -0.74450024487609312 -1.0016925036977646 0 -1.0016925036977646 -0.29852737013660358 0 0 0 0 94.959241873788415 -246.92026810179527 0 -246.92026810179527 -247.08848878751201 0 0 0 0 670.67184894764068 205.61324227283637 0 205.61324227283637 926.19025939944731 0 0 0 0 429.20376658157329 -211.66268228362298 0 -211.66268228362298 221.28826377864993 0 0 0 0 -1234.6791020170581 -923.36823434964833 0 -923.36823434964833 -687.9325494578552 0 0 0 0 -1024.2091673690884 123.48630552824852 0 123.48630552824852 -13.324082568643462 0 0 0 0 1021.1254349467563 -424.55199875505338 0 -424.55199875505338 -1042.8294003031915 0 0 0 0 -2.5167041744346754 -7.08613946119182 0 -7.08613946119182 -10.981821530865858 0 0 0 0 -834.01562489847129 -209.62122611640098 0 -209.62122611640098 -16.550939837850819 0 0 0 0 -85.22607669932404 75.30279096896993 0 75.30279096896993 -289.57034596775429 0 0 0 0 560.382388199243 -340.24264147378744 0 -340.24264147378744 135.33005571667081 0 0 0 0 -4.1200089998787348 -14.039040003944663 0 -14.039040003944663 -24.52992160431117 0 0 0 0 46.450782089566928 -240.63653521008519 0 -240.63653521008519 313.28158972541405 0 0 0 0 -139.7258474420596 -204.9447847697628 0 -204.9447847697628 303.37077060832382 0 0 0 0 36.287268637468514 -60.96559032201003 0 -60.96559032201003 85.831245501654166 0 0 0 0 -2.6126883311684139 -1.293247457722341 0 -1.293247457722341 -0.054439715945029832 0 0 0 0 -60.311196655511594 -72.3893163411106 0 -72.3893163411106 93.997864135340876 0 0 0 0 84.070209934521699 -305.16049691734486 0 -305.16049691734486 -421.07047629512101 0 0 0 0 -21.51290586432151 -400.74609000198706 0 -400.74609000198706 -396.56520423876168 0 0 0 0 -97.810294491831883 -213.21895190613822 0 -213.21895190613822 -277.01980576127346 0 0 0 0 -332.95053547959105 -317.57507896031075 0 -317.57507896031075 -208.365934815652 0 0 0 0 -238.48767722086632 -532.79589843301335 0 -532.79589843301335 -695.36428056921886 0 0 0 0 -119.39317620189286 -585.81825085361686 0 -585.81825085361686 -692.07442768096917 0 0 0 0 204.47149346408696 -668.92310928572658 0 -668.92310928572658 -882.34784139843327 0 0 0 0 -258.45632222168933 -792.7540969489279 0 -792.7540969489279 -729.42521577242542 0 0 0 0 -284.67639511574089 -707.13465087108125 0 -707.13465087108125 -440.18439727191469 0 0 0 0 989.68363242612759 -444.80123149117833 0 -444.80123149117833 -875.76157224099245 0 0 0 0 -99.420024936669506 -1002.7384586912482 0 -1002.7384586912482 -1091.0156931488209 0 0 0 0 -1946.5938588864665 -1188.3297390557527 0 -1188.3297390557527 -368.27697789242575 0 0 0 0 -597.70373469212939 -607.23405269895534 0 -607.23405269895534 -1415.8103543314428 0 0 0 0 -1013.001743968387 -282.66437162411762 0 -282.66437162411762 -289.03220587358624 0 0 0 0 -936.56485784882534 -1060.1132509650033 0 -1060.1132509650033 -631.1058252940386 0 0 0 0 -210.54925140544947 -263.5111867677515 0 -263.5111867677515 -328.90576812014331 0 0 0 0 -254.57011535312995 -336.77321403946576 0 -336.77321403946576 -445.95552392736613 0 0 0 0 -358.52833484212169 -203.8199141246314 0 -203.8199141246314 -138.31403999504141 0 0 0 0 105.83884048780601 -330.91083276759719 0 -330.91083276759719 -130.12721080447886 0 0 0 0 -449.19759124881239 -643.80183774199725 0 -643.80183774199725 -462.33776534134722 0 0 0 0 -3.4247224819811208 -0.52509177380932925 0 -0.52509177380932925 3.857637451959739 0 0 0 0 -246.87960175488115 -408.34487940872157 0 -408.34487940872157 -345.2156707802763 0 0 0 0 -175.99602924599822 -455.97619635830392 0 -455.97619635830392 -754.06317579355346 0 0 0 0 -125.77411950839451 -631.42244826927936 0 -631.42244826927936 -567.45329810939927 0 0 0 0 -10.176829897885909 -10.06963336614217 0 -10.06963336614217 -12.621899341068456 0 0 0 0 -7.8301835081677211 -5.9921872959086961 0 -5.9921872959086961 3.2927348422683651 0 0 0 0 -8.6110205666554975 -13.092089938746312 0 -13.092089938746312 -15.653126361495197 0 0 0 0 -8.06785925537406 -10.900308224641094 0 -10.900308224641094 -12.477170905796982 0 0 0 0 -6.7315499398391694 -12.068508091539115 0 -12.068508091539115 -12.782280857288697 0 0 0 0 -7.1812872207083274 -11.145972167204036 0 -11.145972167204036 -13.394979215418971 0 0 0 0 -9.7066494644241175 -9.5227917580391477 0 -9.5227917580391477 -13.467429522304613 0 0 0 0 -2.0998000118869697 -2.9731863490444397 0 -2.9731863490444397 0.070777690003525962 0 0 0 0 -11.742326594343467 -7.16983464252462 0 -7.16983464252462 -15.53761905666579 0 0 0 0 -79.307649634349218 -9.5851704549231727 0 -9.5851704549231727 -11.463341796777968 0 0 0 0 38.21871073510556 -10.350608647359877 0 -10.350608647359877 -267.99933088215039 0 0 0 0 -3.6004448436185754 -1.4473475010549066 0 -1.4473475010549066 1.7339631661033486 0 0 0 0 -3.5710284753731685 -20.150096271826442 0 -20.150096271826442 -28.070471838371304 0 0 0 0 -9.5475365963466174 -7.6367605332983004 0 -7.6367605332983004 -21.007795366654591 0 0 0 0 13.913904831046239 -27.655319003340765 0 -27.655319003340765 -50.498466987866323 0 0 0 0 37.31278605173884 -8.1094230425947558 0 -8.1094230425947558 -155.91616419471757 0 0 0 0 -51.248228282187483 -106.170544562533 0 -106.170544562533 -41.079519915005903 0 0 0 0 2.2687954564589745 -120.68711250457756 0 -120.68711250457756 -49.566211809689776 0 0 0 0 -27.092255520299659 -36.346017952018883 0 -36.346017952018883 -20.893889528732871 0 0 0 0 -27.967978846918413 -49.683816687532044 0 -49.683816687532044 84.798323763283406 0 0 0 0 -130.90594598209645 -89.937752037131304 0 -89.937752037131304 228.17092964897984 0 0 0 0 -63.920053943056701 35.748034089235261 0 35.748034089235261 212.08036841464946 0 0 0 0 -45.879628661918105 369.90474677945622 0 369.90474677945622 589.79201422987171 0 0 0 0 38.354133649663709 -33.078259878938979 0 -33.078259878938979 -21.953563792989371 0 0 0 0 -0.54500152906440746 -0.76217028333418568 0 -0.76217028333418568 -1.6062086867993628 0 0 0 0 15.500449205559562 -27.05655471888258 0 -27.05655471888258 -10.754105778121357 0 0 0 0 -173.51488925041485 -239.51193940874327 0 -239.51193940874327 5.833868116836129 0 0 0 0 -0.67594403329712804 -146.42164505720757 0 -146.42164505720757 -271.70943255690008 0 0 0 0 -12.660086536066956 -31.921041137394809 0 -31.921041137394809 17.839665894017344 0 0 0 0 -5.2403951033784466 -0.99650630298347309 0 -0.99650630298347309 1.1972261127889512 0 0 0 0 -50.783613469655393 -21.433019078999223 0 -21.433019078999223 -45.887510626047288 0 0 0 0 -7.6173609151883284 -18.936559645760099 0 -18.936559645760099 -47.116741134595259 0 0 0 0 -21.351052139922103 -21.44130513073992 0 -21.44130513073992 6.3370901263213 0 0 0 0 -18.889352547832459 -11.981316002853077 0 -11.981316002853077 -20.062222871409176 0 0 0 0 -30.701155952818226 -21.784348982959273 0 -21.784348982959273 33.892483786610725 0 0 0 0 -6.6043584842336713 -25.661288723761686 0 -25.661288723761686 -11.219934901429951 0 0 0 0 14.442286111210706 -15.829440680165135 0 -15.829440680165135 -46.403272567345084 0 0 0 0 -314.79833176811735 -335.40003574374646 0 -335.40003574374646 -991.46383690363223 0 0 0 0 -6.2757648277774933 -4.0887787382012171 0 -4.0887787382012171 2.6968407231490885 0 0 0 0 -10.240434331059078 -11.950681699783615 0 -11.950681699783615 -7.0950180673230534 0 0 0 0 -230.93141510601708 -475.10963364045142 0 -475.10963364045142 -912.50031590161416 0 0 0 0 -123.05072831817961 -408.72141005823988 0 -408.72141005823988 -871.66093484945316 0 0 0 0 -116.62701052404009 -554.96853268914253 0 -554.96853268914253 -836.10765234517328 0 0 0 0 -221.20956943863894 -580.56377588195596 0 -580.56377588195596 -1039.4653287523852 0 0 0 0 -95.926208926626714 -201.34969174277467 0 -201.34969174277467 -586.68944687427927 0 0 0 0 -352.60354229508084 -630.62714098330162 0 -630.62714098330162 -751.61168513490099 0 0 0 0 -6.3445491160790652 -3.7622496135453147 0 -3.7622496135453147 -2.653235487477775 0 0 0 0 -696.39553875021375 -723.66035570014014 0 -723.66035570014014 -1267.0722485523559 0 0 0 0 -817.17345874902821 -742.55673412749411 0 -742.55673412749411 -604.88204499484164 0 0 0 0 -622.1079543990636 -1087.2520570148004 0 -1087.2520570148004 -1028.4209539163248 0 0 0 0 -804.94803328649505 -691.8288587813463 0 -691.8288587813463 -1056.7299470057415 0 0 0 0 -2.8677666672879951 -1.8547173576055336 0 -1.8547173576055336 0.33986492414805802 0 0 0 0 -54.258111765026115 26.289332145769208 0 26.289332145769208 -10.167433951946805 0 0 0 0 -124.15019979581848 18.239538371717344 0 18.239538371717344 -10.053609924664215 0 0 0 0 -668.7575053361652 -801.7489133937936 0 -801.7489133937936 -1135.2539858882506 0 0 0 0 -590.13749226178334 -606.68324653094305 0 -606.68324653094305 -645.21653839864848 0 0 0 0 -1004.4466689036744 -522.44842179821057 0 -522.44842179821057 -639.74967058748598 0 0 0 0 -662.81243439599348 -474.76318466204748 0 -474.76318466204748 -488.79566644254919 0 0 0 0 -686.00859184960791 -509.77537902480458 0 -509.77537902480458 -377.76680668633753 0 0 0 0 -598.53695924885324 -651.35641965897241 0 -651.35641965897241 -467.53547527149794 0 0 0 0 -3.4572130391911315 -0.85426339452544298 0 -0.85426339452544298 0.52920856407383354 0 0 0 0 -378.93064686175057 -544.32397168207399 0 -544.32397168207399 -622.18412642678913 0 0 0 0 -237.32767873012966 -545.56446356702338 0 -545.56446356702338 -644.35107240664365 0 0 0 0 -377.76843671644747 -574.77570789008087 0 -574.77570789008087 -718.01296366723955 0 0 0 0 -628.07780592722702 -634.99804434132898 0 -634.99804434132898 -563.89230647178556 0 0 0 0 -704.35653116516187 -907.44848462574771 0 -907.44848462574771 -1002.8436604132044 0 0 0 0 -72.84276894071445 -450.84578396834559 0 -450.84578396834559 -980.49527562634785 0 0 0 0 44.661495925800409 -55.706945628991434 0 -55.706945628991434 -577.87323048828512 0 0 0 0 -148.0852206984564 -103.26228118225163 0 -103.26228118225163 -157.20385147191064 0 0 0 0 -83.017150872019556 -431.26875536075204 0 -431.26875536075204 -1676.1792777014048 0 0 0 0 -6.1699926024030844 -4.725743988619298 0 -4.725743988619298 -3.0382780442563497 0 0 0 0 -567.87206174320022 -498.65223719058798 0 -498.65223719058798 239.42564677796258 0 0 0 0 20.112768846309336 48.94164088053094 0 48.94164088053094 -64.729812544393099 0 0 0 0 -307.76906697335244 -97.540608307477967 0 -97.540608307477967 -118.37049222714677 0 0 0 0 63.670540539242211 85.204850729241571 0 85.204850729241571 -83.939819407988125 0 0 0 0 41.217063017480541 82.980881867098788 0 82.980881867098788 -31.18135418006932 0 0 0 0 85.289805925349356 74.453935285169337 0 74.453935285169337 -276.5167429813846 0 0 0 0 67.121457579167327 228.32007904170769 0 228.32007904170769 -123.97749553050198 0 0 0 0 166.30084255299153 -102.47819764845917 0 -102.47819764845917 7.5869934743777776 0 0 0 0 172.27310348462925 -22.133352778500239 0 -22.133352778500239 -107.58246430511963 0 0 0 0 92.186160006598584 38.894151861002854 0 38.894151861002854 -19.913222122090701 0 0 0 0 82.373809067416005 -31.123413114962659 0 -31.123413114962659 -32.069114433933009 0 0 0 0 76.802803867511102 -9.4822437203488334 0 -9.4822437203488334 -8.5364653945721329 0 0 0 0 20.139130771887721 -14.088824765136451 0 -14.088824765136451 12.038312013441896 0 0 0 0 66.180325513385469 -16.0120001833277 0 -16.0120001833277 11.307915781426345 0 0 0 0 20.201959933314356 62.749088702219979 0 62.749088702219979 8.3463087594604985 0 0 0 0 18.074053561940673 25.635998418350027 0 25.635998418350027 47.835013213791171 0 0 0 0 -4.6719665157725103 36.431799031732226 0 36.431799031732226 77.549347593674838 0 0 0 0 -0.2549881133454619 -15.237233848627056 0 -15.237233848627056 55.90750578600273 0 0 0 0 -5.3763647479354404 -9.1210939305494776 0 -9.1210939305494776 90.803681174467783 0 0 0 0 32.065740523717977 4.6930749160160303 0 4.6930749160160303 40.151287071827937 0 0 0 0 -3.9007203412184026 -23.468348966460326 0 -23.468348966460326 37.327990831607224 0 0 0 0 22.088502249382145 -40.547523672342322 0 -40.547523672342322 -25.73119243833753 0 0 0 0 -5.6712770863377955 -58.216978674646271 0 -58.216978674646271 11.891529650345362 0 0 0 0 56.535995335216285 -138.51093989306227 0 -138.51093989306227 3.9009398534225852 0 0 0 0 13.65223327883723 -27.204843828402545 0 -27.204843828402545 12.393349075498918 0 0 0 0 -5.0982372015714645 -29.700036714335965 0 -29.700036714335965 58.261209421869353 0 0 0 0 -13.648752115113894 -47.216882097954112 0 -47.216882097954112 31.893605376284995 0 0 0 0 -85.226405261943 13.157053570475398 0 13.157053570475398 -20.861062968509586 0 0 0 0 -3.03800855773693 -2.223240289245517 0 -2.223240289245517 -1.0886496767200335 0 0 0 0 57.378700498253352 -39.511736222548755 0 -39.511736222548755 232.80054240445699 0 0 0 0 -102.88528620461875 48.419891863285329 0 48.419891863285329 -18.281253231518463 0 0 0 0 -110.94637739242171 45.990583562242819 0 45.990583562242819 -15.958044110681556 0 0 0 0 -58.971227482368704 52.560796954988291 0 52.560796954988291 1.0001445637185498 0 0 0 0 -89.377430826221826 -11.642005982856801 0 -11.642005982856801 -101.45622272525543 0 0 0 0 -42.6625402799109 9.1263160336238798 0 9.1263160336238798 184.39809974757554 0 0 0 0 101.44657341999118 -357.65793844939446 0 -357.65793844939446 -124.014460071386 0 0 0 0 -10.976614256185783 -8.274733409614484 0 -8.274733409614484 -5.6253679633673004 0 0 0 0 -13.417932777811075 -19.80447407831798 0 -19.80447407831798 108.72785286274302 0 0 0 0 -33.930589741008589 63.461882947451159 0 63.461882947451159 163.97720668450893 0 0 0 0 -7.3491577641798358 47.123384420498269 0 47.123384420498269 61.815845224431541 0 0 0 0 19.058349544087832 115.62050726366761 0 115.62050726366761 -28.953081483155074 0 0 0 0 22.519878058403265 75.450649620246622 0 75.450649620246622 77.813216126980478 0 0 0 0 -59.808704226321424 128.08594765162206 0 128.08594765162206 261.67849984028999 0 0 0 0 -5.5041889945714502 231.49687128053347 0 231.49687128053347 159.15746688791842 0 0 0 0 -41.190292934406898 98.176021049449901 0 98.176021049449901 87.400416621743716 0 0 0 0 4.8159026423381874 140.78295894092207 0 140.78295894092207 -31.433572299236403 0 0 0 0 -11.18808189991978 147.31023996699423 0 147.31023996699423 103.43383520569409 0 0 0 0 29.660115200982546 241.11436488033041 0 241.11436488033041 -17.395033422334564 0 0 0 0 -511.8514576719972 168.1083574342598 0 168.1083574342598 87.943223660466884 0 0 0 0 126.11970532819396 287.57085377859056 0 287.57085377859056 -209.14579901051894 0 0 0 0 471.54038487125217 151.24757742007961 0 151.24757742007961 -712.16151797859561 0 0 0 0 -838.00967834165931 -175.3792408343588 0 -175.3792408343588 -17.912194276529988 0 0 0 0 -664.64048346232084 -687.86243557070816 0 -687.86243557070816 -604.87778202110815 0 0 0 0 -196.89784930629685 42.274557102631093 0 42.274557102631093 -133.08820080944204 0 0 0 0 -328.64761957072915 -17.318032160446478 0 -17.318032160446478 37.824730954466986 0 0 0 0 -245.79711192293689 89.607152053410061 0 89.607152053410061 -29.287335724767217 0 0 0 0 -82.63299510689103 -49.606076076669524 0 -49.606076076669524 -316.1374849648488 0 0 0 0 -66.357596726607881 45.284435756145172 0 45.284435756145172 -108.86996685334861 0 0 0 0 -97.493840520211961 160.7933128499958 0 160.7933128499958 -243.33742155569075 0 0 0 0 -118.60476659499909 24.054009962063702 0 24.054009962063702 -71.09322629480539 0 0 0 0 -140.50283545886487 81.534551097109215 0 81.534551097109215 -10.510841705928669 0 0 0 0 -155.55363366790425 22.862532709757275 0 22.862532709757275 17.514914902274541 0 0 0 0 19.754704577248049 -121.08292573596827 0 -121.08292573596827 68.149932651243716 0 0 0 0 -99.849194535705465 101.50588424626324 0 101.50588424626324 84.718790528848558 0 0 0 0 -197.36526784970192 -40.31122715292986 0 -40.31122715292986 233.54167345017186 0 0 0 0 -169.50448382044124 69.047815618612731 0 69.047815618612731 193.82116928594473 0 0 0 0 -2.0155392119217481 -0.12150796503719974 0 -0.12150796503719974 0.43713680566983903 0 0 0 0 -80.900617250561481 -13.700212884972188 0 -13.700212884972188 59.927751445885235 0 0 0 0 -174.29316139158618 -61.802811767514868 0 -61.802811767514868 49.931869643668335 0 0 0 0 -16.483351603669689 -21.398114414501009 0 -21.398114414501009 11.274372326355206 0 0 0 0 -22.211148957852856 -36.474393059874046 0 -36.474393059874046 13.19183568853137 0 0 0 0 -45.785689550659299 7.8783228289233733 0 7.8783228289233733 22.75522616987746 0 0 0 0 -67.414096712804167 11.395178627317819 0 11.395178627317819 22.612682634161047 0 0 0 0 -43.342087008220915 -26.654447860825286 0 -26.654447860825286 16.424469142982161 0 0 0 0 16.97883593212191 -26.18688846631018 0 -26.18688846631018 5.6457009020300575 0 0 0 0 12.247690093226083 31.342176628027033 0 31.342176628027033 2.0939210503534014 0 0 0 0 -101.52871676310315 37.016040296870415 0 37.016040296870415 27.563832730455943 0 0 0 0 -66.018847735525924 39.346044550349689 0 39.346044550349689 27.710038981603304 0 0 0 0 -137.07058590027736 13.754043035245957 0 13.754043035245957 55.092552489009449 0 0 0 0 -146.64365005806758 41.210175017274878 0 41.210175017274878 68.673736434613602 0 0 0 0 -139.78482659610745 62.215468028132932 0 62.215468028132932 51.649940059177425 0 0 0 0 -132.67775323091337 -2.1109309149046567 0 -2.1109309149046567 33.40476502405545 0 0 0 0 -84.336046586809971 -56.188083322750572 0 -56.188083322750572 81.040570686318006 0 0 0 0 -84.464378761644184 -33.15014421707474 0 -33.15014421707474 45.790729392727371 0 0 0 0 -53.401911967077467 -29.97144965348275 0 -29.97144965348275 18.108476114990935 0 0 0 0 -56.782985115930387 -46.456345562274777 0 -46.456345562274777 -15.126304709261149 0 0 0 0 -18.3993795278584 -120.36173051281526 0 -120.36173051281526 -35.14148920896514 0 0 0 0 25.506694917550703 -60.898185220007463 0 -60.898185220007463 12.279769029330055 0 0 0 0 -20.454838899791866 -124.35206591427658 0 -124.35206591427658 53.95075104927264 0 0 0 0 -153.23039686749689 -93.227022940346842 0 -93.227022940346842 57.939993258847153 0 0 0 0 -43.351525999174555 -64.296411829575163 0 -64.296411829575163 36.439827320824406 0 0 0 0 -60.206355851416447 -68.225723798219178 0 -68.225723798219178 40.680453610215864 0 0 0 0 33.867192296923349 -100.13858639958238 0 -100.13858639958238 12.303996788652512 0 0 0 0 20.426048673273726 -65.294568629958007 0 -65.294568629958007 -8.1724407370220433 0 0 0 0 -67.479192617932767 -32.616879563635706 0 -32.616879563635706 -8.8791374847892257 0 0 0 0 -118.98247510956571 -64.558764913895175 0 -64.558764913895175 7.7482733063884552 0 0 0 0 -106.14402344232803 -26.218002811759106 0 -26.218002811759106 65.654221656198843 0 0 0 0 -96.078384611973888 -8.7561087150202184 0 -8.7561087150202184 38.959476526718618 0 0 0 0 -104.27584748499248 -96.61587972613961 0 -96.61587972613961 9.5498707884535179 0 0 0 0 1.1443127001690243 -1.8478958755197255 0 -1.8478958755197255 1.1213651612403197 0 0 0 0 -16.233754742555902 -20.015373951098809 0 -20.015373951098809 -40.51174373782942 0 0 0 0 -31.850739359186264 -115.69254431716558 0 -115.69254431716558 9.9289335910634691 0 0 0 0 0.84846276587433067 -1.2320492072474636 0 -1.2320492072474636 0.25221432485928474 0 0 0 0 -29.333766510426358 0.40847603784959574 0 0.40847603784959574 -38.458312656307726 0 0 0 0 -113.86688363944086 -79.057634463247723 0 -79.057634463247723 37.352336863088567 0 0 0 0 -15.566296816679824 -17.539582006651244 0 -17.539582006651244 -59.241205914280727 0 0 0 0 -98.314335787508753 -202.08381015604937 0 -202.08381015604937 51.018592584376734 0 0 0 0 15.028342648483545 -21.083040826695999 0 -21.083040826695999 18.026236366804696 0 0 0 0 -121.8425282622884 12.095152335302203 0 12.095152335302203 -17.105842289283828 0 0 0 0 14.289162444139947 -110.5363780151165 0 -110.5363780151165 -31.3039649074708 0 0 0 0 5.3914948389369783 -22.18498135816791 0 -22.18498135816791 17.505079384812092 0 0 0 0 -7.76411090453621 -47.408941998481168 0 -47.408941998481168 -58.010160951125727 0 0 0 0 -15.003041322961508 -38.585357690368255 0 -38.585357690368255 -7.6898363202381006 0 0 0 0 -0.4850007553359319 6.4564415391903367 0 6.4564415391903367 -59.749863861141421 0 0 0 0 93.253337037007441 -180.6467323526449 0 -180.6467323526449 -301.17778063251444 0 0 0 0 3.6992349313426871 -22.326587059189251 0 -22.326587059189251 16.277179877047484 0 0 0 0 -20.530121227156087 -9.2836392679166693 0 -9.2836392679166693 -91.978334970412106 0 0 0 0 0.079158509703120217 -102.52155077010684 0 -102.52155077010684 -41.197046904664603 0 0 0 0 59.839813161110214 -230.40356549747048 0 -230.40356549747048 -97.664783830336091 0 0 0 0 9.4580067436481272 -18.796250864035205 0 -18.796250864035205 17.566490298463851 0 0 0 0 -55.382792857082677 -116.06199533385916 0 -116.06199533385916 84.376893662163639 0 0 0 0 -65.802288385324573 -62.223868118499809 0 -62.223868118499809 172.92026605352112 0 0 0 0 24.339050532031251 -108.50647147709333 0 -108.50647147709333 143.91174114119349 0 0 0 0 2.623822233982736 1.0782372855760101 0 1.0782372855760101 -0.069808473012601624 0 0 0 0 134.539517408135 -105.30417482953453 0 -105.30417482953453 7.0456001993306927 0 0 0 0 -16.205885736562777 -29.809210739048467 0 -29.809210739048467 144.83417568628101 0 0 0 0 -11.007361131807556 -67.229855591228443 0 -67.229855591228443 122.1924601363844 0 0 0 0 15.681042197666102 -93.926466621810505 0 -93.926466621810505 -0.37424451434867478 0 0 0 0 48.593884037415592 -74.538756547997195 0 -74.538756547997195 0.11143123452256987 0 0 0 0 65.038963351651546 -107.20605942944474 0 -107.20605942944474 4.0304425525719125 0 0 0 0 88.722515242796362 -76.007617922701229 0 -76.007617922701229 -3.5423869573464799 0 0 0 0 43.970715823299543 -48.385103279646955 0 -48.385103279646955 -19.03800658871296 0 0 0 0 44.227711705418187 -95.417019038466151 0 -95.417019038466151 38.128004372682881 0 0 0 0 0.64934094541968079 -50.131064702595722 0 -50.131064702595722 9.527049798383814 0 0 0 0 4.0685248811324186 -5.3807385366783471 0 -5.3807385366783471 -10.829617655023288 0 0 0 0 21.334691131691216 -46.101117128688657 0 -46.101117128688657 -23.115361568576191 0 0 0 0 5.7595846567855915 -37.710418026898878 0 -37.710418026898878 -0.77830662808992201 0 0 0 0 -4.0505653141504965 -18.690932831513152 0 -18.690932831513152 -25.905495411120675 0 0 0 0 54.565136167646415 -15.037912650664111 0 -15.037912650664111 -25.59487644514229 0 0 0 0 21.08750499173766 -45.855786064786116 0 -45.855786064786116 -111.12926094352952 0 0 0 0 21.530704094890098 -24.515114527744117 0 -24.515114527744117 -161.88505401494695 0 0 0 0 5.5116677163023269 -10.557178085954547 0 -10.557178085954547 -37.568359668992343 0 0 0 0 22.440053989856096 -29.044595791048778 0 -29.044595791048778 -119.1918333702888 0 0 0 0 32.64422880775237 -4.2406968894720194 0 -4.2406968894720194 -3.3554287849874527 0 0 0 0 12.5879707738805 -26.316838048367192 0 -26.316838048367192 -0.22461581153129906 0 0 0 0 26.586321010108804 5.7657833919583936 0 5.7657833919583936 -19.74856641065162 0 0 0 0 17.208323277465752 -27.780739864213047 0 -27.780739864213047 -34.157710375406168 0 0 0 0 48.494306031952874 -4.9423685630736145 0 -4.9423685630736145 -42.271211590305029 0 0 0 0 8.5858167686710658 -24.483373750276769 0 -24.483373750276769 -29.198782652439604 0 0 0 0 68.157549645577092 -31.120482801606158 0 -31.120482801606158 -63.53698903595614 0 0 0 0 -5.4069288681457195 -16.363664073497873 0 -16.363664073497873 -27.644593714276649 0 0 0 0 3.7984603122113185 -58.006627030601862 0 -58.006627030601862 -120.52527432531315 0 0 0 0 -21.21297382328612 -78.888384529979476 0 -78.888384529979476 -46.749972172368871 0 0 0 0 -47.890622023893229 -59.109124376414002 0 -59.109124376414002 -28.403239985393611 0 0 0 0 -287.87766589773673 -79.058840194486038 0 -79.058840194486038 10.516610901786407 0 0 0 0 -5.217744976050696 -16.695995798239679 0 -16.695995798239679 -27.767464486507428 0 0 0 0 99.164947113189555 -101.75590727603162 0 -101.75590727603162 13.894000141533752 0 0 0 0 83.950971158999891 -78.507719283774804 0 -78.507719283774804 -4.7501543750299788 0 0 0 0 182.98493176874854 -95.840958549153584 0 -95.840958549153584 -9.7519629668304333 0 0 0 0 86.185997692555247 -102.77436195600421 0 -102.77436195600421 -6.6157655474426065 0 0 0 0 99.811135862786614 -101.63231908989997 0 -101.63231908989997 6.6524607117712549 0 0 0 0 186.36856646630258 -87.567639364048091 0 -87.567639364048091 4.261142441332936 0 0 0 0 45.736328302173206 -111.30477312165891 0 -111.30477312165891 132.36839117223781 0 0 0 0 424.66995281629352 -165.75647518465234 0 -165.75647518465234 31.842234335217199 0 0 0 0 -446.77264288507649 10.960733500820879 0 10.960733500820879 82.854690167006083 0 0 0 0 -121.91978311717503 -58.694688262791487 0 -58.694688262791487 -4.037855405927985 0 0 0 0 -4.8582033823972672 -15.744551570025607 0 -15.744551570025607 -27.163848720902216 0 0 0 0 251.75737046337599 -146.04119404028881 0 -146.04119404028881 31.848879652641244 0 0 0 0 -520.3468032249948 -274.60684733495691 0 -274.60684733495691 72.551661628503098 0 0 0 0 -566.41373918737372 -348.22168890168859 0 -348.22168890168859 -30.840742688742466 0 0 0 0 -445.50023825326934 -358.39389996879254 0 -358.39389996879254 -217.93487974328059 0 0 0 0 -376.59330516137197 -259.04823492689661 0 -259.04823492689661 -84.434510241275348 0 0 0 0 -286.69396927801427 -428.84331294829508 0 -428.84331294829508 124.39641800927984 0 0 0 0 -313.89401128269583 -340.68806155922425 0 -340.68806155922425 -131.85956823363813 0 0 0 0 -235.9756435344043 -540.54375303371467 0 -540.54375303371467 -217.78120398700594 0 0 0 0 -193.83318695543858 -372.85432127716604 0 -372.85432127716604 -142.15378689343652 0 0 0 0 1.6087076881953948 -1.8474501085817003 0 -1.8474501085817003 0.32200105103795096 0 0 0 0 -154.73416302443729 -399.76022205385198 0 -399.76022205385198 -430.24173814902679 0 0 0 0 -249.72599033471488 -352.10164422210596 0 -352.10164422210596 -364.61619543102461 0 0 0 0 -158.65651621337747 -166.84434010429595 0 -166.84434010429595 -270.95721696183909 0 0 0 0 -60.466292927998438 -154.91868877746856 0 -154.91868877746856 -196.52568229822373 0 0 0 0 -153.06376464958936 -341.95926051542551 0 -341.95926051542551 -76.409959641323439 0 0 0 0 -220.20732224591484 -273.15550077107946 0 -273.15550077107946 62.653345413222041 0 0 0 0 -137.45449657492281 -210.01717764648629 0 -210.01717764648629 -196.9774871134432 0 0 0 0 -102.30484190269271 -114.57714769858285 0 -114.57714769858285 -54.577229854809048 0 0 0 0 -20.829452685202341 -65.822363880904959 0 -65.822363880904959 -179.6861946216668 0 0 0 0 -47.229543320408993 -75.829567637752689 0 -75.829567637752689 -66.126412312272805 0 0 0 0 -11.903202741101268 -8.4982365898467833 0 -8.4982365898467833 -46.929620418302875 0 0 0 0 31.78164914734225 -9.7577024815545883 0 -9.7577024815545883 -62.837228683857177 0 0 0 0 -25.39723861839957 -4.4758955880852227 0 -4.4758955880852227 78.686171646966613 0 0 0 0 12.422187989116026 -22.853482855895997 0 -22.853482855895997 12.247743340895981 0 0 0 0 2.2415453516041453 21.24024087039561 0 21.24024087039561 50.542624180652638 0 0 0 0 26.402144583451445 -42.576321589976033 0 -42.576321589976033 -72.759661053200034 0 0 0 0 -46.433049885643413 -19.750334535346155 0 -19.750334535346155 -74.576436946443209 0 0 0 0 -37.859934697038852 -133.89639376445552 0 -133.89639376445552 -132.65616742282873 0 0 0 0 -57.577746456773639 -228.79868783814345 0 -228.79868783814345 -330.967950298098 0 0 0 0 -112.5456058897762 -128.33705567549714 0 -128.33705567549714 -137.85190631432215 0 0 0 0 -218.20883861251787 -231.30754584817714 0 -231.30754584817714 -290.75519939001879 0 0 0 0 2.6774531442266749 -2.7666742439000451 0 -2.7666742439000451 0.42292387043522695 0 0 0 0 -261.47234926713736 -336.23829994433777 0 -336.23829994433777 -309.13994581943916 0 0 0 0 -450.54479505697236 -342.2292649370238 0 -342.2292649370238 -306.81669729831265 0 0 0 0 -56.789031424612403 -292.18250218781066 0 -292.18250218781066 -492.44330420233018 0 0 0 0 -12.054031884290453 -78.049312843100779 0 -78.049312843100779 -223.35674418863164 0 0 0 0 200.45490431777944 25.828596706151075 0 25.828596706151075 -204.20473914394097 0 0 0 0 -0.33647100410665587 -0.8962868882955064 0 -0.8962868882955064 -4.7204650016444134 0 0 0 0 -22.269900345265341 -87.38578533314103 0 -87.38578533314103 -0.13661756527289981 0 0 0 0 -10.049528179410117 -17.353739919207328 0 -17.353739919207328 -50.829903690763786 0 0 0 0 11.15199707064312 -311.23071899815204 0 -311.23071899815204 -369.54560178950305 0 0 0 0 -150.68879447018116 -307.11684015986793 0 -307.11684015986793 -261.2155881160088 0 0 0 0 -358.83816948470485 -140.00848336422951 0 -140.00848336422951 -18.896221614530077 0 0 0 0 -162.12280524001835 -333.72117094293753 0 -333.72117094293753 -289.6317635296291 0 0 0 0 -419.98905983949226 -548.81154930677803 0 -548.81154930677803 -536.09906764536936 0 0 0 0 -191.64379231315979 -222.29019262408292 0 -222.29019262408292 -401.17317958841835 0 0 0 0 -291.98084233376721 -307.05698865974773 0 -307.05698865974773 -292.8046809062696 0 0 0 0 -823.28495005139484 -430.09354425233209 0 -430.09354425233209 -183.26704451012847 0 0 0 0 -123.7279794297574 -403.95201115029249 0 -403.95201115029249 -398.01271860320048 0 0 0 0 0.11876094125449284 -250.05395485669064 0 -250.05395485669064 -327.14984157451545 0 0 0 0 -4.2401072644670421 -276.91845786294107 0 -276.91845786294107 -459.49158404829723 0 0 0 0 -0.094430218181514647 -258.32105310504539 0 -258.32105310504539 -477.37933006750609 0 0 0 0 1.4898860652061074 -0.81417553054846437 0 -0.81417553054846437 -1.1461885478850817 0 0 0 0 -128.79349298511079 -293.13891393567064 0 -293.13891393567064 -693.08365524722831 0 0 0 0 -203.18040299305721 -425.7730184277616 0 -425.7730184277616 -484.1269686721007 0 0 0 0 -139.73279546405684 -273.86632216162798 0 -273.86632216162798 -430.69027913295395 0 0 0 0 -0.013023773426539265 -328.20445937319164 0 -328.20445937319164 -410.67991708144473 0 0 0 0 -132.57960623005783 -317.02654725067077 0 -317.02654725067077 -208.08679481257786 0 0 0 0 -256.24970369321818 -433.0355082960441 0 -433.0355082960441 -353.13264667693602 0 0 0 0 -105.80756719272176 -315.95303898759448 0 -315.95303898759448 -445.68686748351683 0 0 0 0 -284.10078659868668 -321.30558331110069 0 -321.30558331110069 -183.7392957695165 0 0 0 0 3.1925046717547758 -3.6846023495243934 0 -3.6846023495243934 1.541326751907242 0 0 0 0 -150.80754553046427 -338.98615135296859 0 -338.98615135296859 -189.41867672731996 0 0 0 0 -104.44049006549176 -221.80127654908847 0 -221.80127654908847 -73.912194528553755 0 0 0 0 -220.8746561396124 -243.69880226447998 0 -243.69880226447998 -2.3807222856685257 0 0 0 0 -84.303774931751832 -150.08666562666212 0 -150.08666562666212 31.324712292373079 0 0 0 0 -90.41281880193128 -65.320690889807338 0 -65.320690889807338 689.37097824973898 0 0 0 0 0.060844785882602129 -395.48773101606741 0 -395.48773101606741 -10.891083715334389 0 0 0 0 3.9696689100310323 -321.43735461214783 0 -321.43735461214783 -209.70455245005178 0 0 0 0 -175.84872411091237 -314.23157007639543 0 -314.23157007639543 138.25596812252661 0 0 0 0 258.60491834907953 -540.30543555705844 0 -540.30543555705844 861.44584485886298 0 0 0 0 175.03462347241293 -641.01654552600667 0 -641.01654552600667 742.24831283829553 0 0 0 0 0.30241834402477252 -676.17814905143314 0 -676.17814905143314 926.7772751782868 0 0 0 0 58.153512737480924 -669.90079005874395 0 -669.90079005874395 742.71510185475631 0 0 0 0 0.081786251383164199 -778.59293072223954 0 -778.59293072223954 584.35232990673467 0 0 0 0 138.88905786443502 -863.76121498621433 0 -863.76121498621433 574.89293334135436 0 0 0 0 186.26845248017344 -793.92097159578407 0 -793.92097159578407 670.70049016381017 0 0 0 0 214.52432115151169 -903.08562169385186 0 -903.08562169385186 529.12369881289487 0 0 0 0 215.05131872598577 -726.15396153174515 0 -726.15396153174515 576.22582017841341 0 0 0 0 278.07956337925816 -825.96373998800482 0 -825.96373998800482 617.37215732265031 0 0 0 0 343.27442973942379 -767.73070441140408 0 -767.73070441140408 650.09845745032453 0 0 0 0 209.66894576796039 -614.28358614175249 0 -614.28358614175249 809.86938700754399 0 0 0 0 222.41757919773954 -776.8812673467055 0 -776.8812673467055 807.78396576641535 0 0 0 0 247.38842992082573 -707.62266490361617 0 -707.62266490361617 554.52951264533476 0 0 0 0 32.10400131116694 -485.10700548237764 0 -485.10700548237764 651.37361156654151 0 0 0 0 147.90833796220977 -650.05087456758883 0 -650.05087456758883 881.20645035904818 0 0 0 0 -190.7615929773965 -243.59747596543821 0 -243.59747596543821 912.21840893333911 0 0 0 0 20.870367530660587 -196.72191431178908 0 -196.72191431178908 516.25893436934712 0 0 0 0 438.91258049296448 -832.1897952969266 0 -832.1897952969266 1016.8545175568579 0 0 0 0 -25.42301803103328 -533.77804823035149 0 -533.77804823035149 1414.395282592599 0 0 0 0 552.89336340111595 -292.27915923167541 0 -292.27915923167541 1108.6523879006236 0 0 0 0 68.853979773168248 -591.8592432783571 0 -591.8592432783571 1028.7362728213739 0 0 0 0 -0.18279926143077319 -434.54833561382475 0 -434.54833561382475 1487.5943387221705 0 0 0 0 219.47288096018019 -747.8765093522743 0 -747.8765093522743 1207.9437627660336 0 0 0 0 869.0984474147026 -534.84307624129929 0 -534.84307624129929 154.62154998683036 0 0 0 0 0.79252929597939925 -1.6651520996672815 0 -1.6651520996672815 10.397600374262581 0 0 0 0 41.019310766139824 36.294006153029841 0 36.294006153029841 239.29230903918074 0 0 0 0 0.35160690462726052 -273.3205383971017 0 -273.3205383971017 437.69333057717813 0 0 0 0 -76.654651965713128 -162.21114089505681 0 -162.21114089505681 -203.29001458588937 0 0 0 0 153.89337791045546 -267.44162812469949 0 -267.44162812469949 264.48711389795426 0 0 0 0 0.70752569686865741 0.97208618357841559 0 0.97208618357841559 -0.63641297489014548 0 0 0 0 -0.4291705720786112 -8.4884874361841582 0 -8.4884874361841582 25.343941893645933 0 0 0 0 -84.056438211948489 -72.587191761336726 0 -72.587191761336726 -52.630465750127769 0 0 0 0 29.589555376154749 -40.432196028970793 0 -40.432196028970793 47.568868462523824 0 0 0 0 -0.91077183768916825 -0.99892468807557577 0 -0.99892468807557577 2.2751112073081927 0 0 0 0 -126.06085250367323 -125.31475097601833 0 -125.31475097601833 -114.31642621270839 0 0 0 0 -0.28835693147955793 -211.84812125909727 0 -211.84812125909727 -206.70002758843839 0 0 0 0 1.8351909694915705 -5.7959198863104717 0 -5.7959198863104717 -13.293906927985084 0 0 0 0 48.159756195327645 -59.335683948874248 0 -59.335683948874248 3.9621028706242214 0 0 0 0 -138.9759186213355 -71.912697081782426 0 -71.912697081782426 84.535085871972115 0 0 0 0 3.7012309308873625 -24.253446939612068 0 -24.253446939612068 13.436285715958265 0 0 0 0 31.61460114622605 -124.00409615821263 0 -124.00409615821263 -72.850947219776572 0 0 0 0 -53.791590423677917 -17.970712251940313 0 -17.970712251940313 -3.7207165296858875 0 0 0 0 55.508964518739049 69.322322021348498 0 69.322322021348498 272.01471922147539 0 0 0 0 52.738459477943252 -131.02154362541296 0 -131.02154362541296 99.439941845703288 0 0 0 0 -167.89305900164618 334.63880382717753 0 334.63880382717753 857.7359788575086 0 0 0 0 -22.723696263237798 -93.484495322249131 0 -93.484495322249131 550.75529662906047 0 0 0 0 52.405370428401511 -158.88130795360848 0 -158.88130795360848 449.37582988008944 0 0 0 0 -28.793195219623158 -25.790929649767349 0 -25.790929649767349 353.67702879635181 0 0 0 0 56.842973250000796 -59.717242452246865 0 -59.717242452246865 325.01434674397751 0 0 0 0 26.215568605657609 -67.5889146077443 0 -67.5889146077443 335.60030408023886 0 0 0 0 -15.987598085372156 -14.144360802461051 0 -14.144360802461051 310.29282920721744 0 0 0 0 15.851624429469666 -6.4672261656651244 0 -6.4672261656651244 76.24014084731607 0 0 0 0 19.517441591728129 -27.626426620492566 0 -27.626426620492566 240.69164795421011 0 0 0 0 -28.199157612674753 -42.349134353928093 0 -42.349134353928093 242.64226200294797 0 0 0 0 -31.798540935174969 -17.097716264201154 0 -17.097716264201154 228.21746389184682 0 0 0 0 27.321411126082239 -64.219151481935114 0 -64.219151481935114 243.76396287239186 0 0 0 0 58.45933205219626 -102.75001663445437 0 -102.75001663445437 42.215677599620903 0 0 0 0 11.864411743059463 -109.66023540771857 0 -109.66023540771857 -1.4003588491705159 0 0 0 0 -73.261973129519902 -38.843157088438602 0 -38.843157088438602 -45.854064255676349 0 0 0 0 7.4723537765700314 -24.476063542334494 0 -24.476063542334494 11.619026432261997 0 0 0 0 -51.219352257656283 -40.787103901708178 0 -40.787103901708178 108.46740249115464 0 0 0 0 50.777236856945819 -138.39077138905122 0 -138.39077138905122 -192.61165808758233 0 0 0 0 -17.932763488619457 -20.749710672570473 0 -20.749710672570473 -54.658972544362769 0 0 0 0 40.449716994702612 23.109693824893839 0 23.109693824893839 -115.86436856531145 0 0 0 0 10.296267121887013 -24.037523974575155 0 -24.037523974575155 11.153572975532875 0 0 0 0 28.087230061364608 -128.02921364283156 0 -128.02921364283156 -127.51073920971976 0 0 0 0 72.11500578034611 -74.678192723418761 0 -74.678192723418761 -282.92610177882307 0 0 0 0 -1.1852973569839378 0.58787403055976029 0 0.58787403055976029 -1.8423061068424431 0 0 0 0 50.72296001824725 -94.299654015696433 0 -94.299654015696433 100.8000090043206 0 0 0 0 29.150508014165098 -34.46372099106884 0 -34.46372099106884 105.63961804600694 0 0 0 0 158.77197653173062 -52.839604056774988 0 -52.839604056774988 18.287083773373524 0 0 0 0 134.64487036830542 -44.035896732846595 0 -44.035896732846595 -52.274004085000342 0 0 0 0 60.334888548408344 14.751286588592848 0 14.751286588592848 -52.196173592979903 0 0 0 0 45.313802908167418 4.1827426552008546 0 4.1827426552008546 2.3732528893597191 0 0 0 0 94.572770691833284 -143.51927881828306 0 -143.51927881828306 358.18857819616096 0 0 0 0 102.51267488417216 -3.0829654533590656 0 -3.0829654533590656 300.38266302553529 0 0 0 0 96.667721188670839 7.9507244497181091 0 7.9507244497181091 403.56291903401143 0 0 0 0 42.657274652876367 -25.907507962867385 0 -25.907507962867385 347.74239531705098 0 0 0 0 129.14361419435591 52.893955158229801 0 52.893955158229801 307.19565604145464 0 0 0 0 50.874100678149262 -71.956290329195326 0 -71.956290329195326 610.26427891751518 0 0 0 0 257.01887557189912 -154.10413444096775 0 -154.10413444096775 438.7208077872674 0 0 0 0 364.17416864971165 59.26066466170596 0 59.26066466170596 338.09259338027914 0 0 0 0 4.2482838875148445 3.7714976882343763 0 3.7714976882343763 182.25081449555 0 0 0 0 98.102324338913604 -106.71538082495681 0 -106.71538082495681 164.70927157074038 0 0 0 0 26.066920643948833 -3.0030099912728474 0 -3.0030099912728474 319.03661374940566 0 0 0 0 18.795649006888198 -40.779934813770979 0 -40.779934813770979 246.00960700507858 0 0 0 0 5.0890257631035638 13.962529437565536 0 13.962529437565536 308.22763261713771 0 0 0 0 54.92926858355554 20.001610042086213 0 20.001610042086213 294.72996889041679 0 0 0 0 55.06344361093943 14.416648971400718 0 14.416648971400718 288.08194275706046 0 0 0 0 67.905082687451795 13.191848431590188 0 13.191848431590188 247.00304755250545 0 0 0 0 26.959807519124297 -23.628221422752176 0 -23.628221422752176 289.86202121286624 0 0 0 0 61.080503304503509 6.6671215331625717 0 6.6671215331625717 284.16759104217454 0 0 0 0 227.95864974740107 -38.950196000685537 0 -38.950196000685537 282.50113121263712 0 0 0 0 62.886593240415095 -4.2694603783238563 0 -4.2694603783238563 278.02213077178749 0 0 0 0 91.784954472808749 -20.277656361409754 0 -20.277656361409754 375.82540291312034 0 0 0 0 104.70476665075694 14.259891434885503 0 14.259891434885503 365.42362629459967 0 0 0 0 79.637092987002688 36.051286249625264 0 36.051286249625264 286.24517544167975 0 0 0 0 144.18653998049558 13.881168572215756 0 13.881168572215756 204.21395401115296 0 0 0 0 55.507100854163582 5.8479064932689653 0 5.8479064932689653 160.31216553509148 0 0 0 0 106.26075204226072 -4.9295067809689499 0 -4.9295067809689499 170.44123429858882 0 0 0 0 70.45723416605324 -23.888225762384536 0 -23.888225762384536 203.13552558309857 0 0 0 0 102.78155409034662 -55.922396633246535 0 -55.922396633246535 86.060086517525633 0 0 0 0 95.620641946297837 -60.936759792808516 0 -60.936759792808516 171.82067836124043 0 0 0 0 25.274094226962916 -51.152531663887203 0 -51.152531663887203 100.84620478819124 0 0 0 0 153.16186401878804 -133.16339017902646 0 -133.16339017902646 -24.125430579722888 0 0 0 0 151.1425027471123 -144.57878318633266 0 -144.57878318633266 106.54261221651177 0 0 0 0 173.35733389203233 -156.19941516491053 0 -156.19941516491053 111.78766530937719 0 0 0 0 101.76063589181285 -46.763672368437255 0 -46.763672368437255 204.38511331013797 0 0 0 0 96.176221481320681 -12.411867149625323 0 -12.411867149625323 253.45935683260905 0 0 0 0 110.58437568811496 -81.472792264994496 0 -81.472792264994496 292.49987592759157 0 0 0 0 91.690816251379147 -39.471575447409123 0 -39.471575447409123 200.0531280145151 0 0 0 0 52.490512724478322 -104.40079064213569 0 -104.40079064213569 372.98343645709974 0 0 0 0 195.79536582133733 -238.29207383643734 0 -238.29207383643734 307.94084842482516 0 0 0 0 154.43573766895861 -413.64050003300508 0 -413.64050003300508 576.29960301840583 0 0 0 0 2.4823330890358193 -168.56973889117762 0 -168.56973889117762 477.49065668071853 0 0 0 0 117.7270089675294 -308.93850710793322 0 -308.93850710793322 291.9054066734243 0 0 0 0 288.22541483188252 -468.16397613728441 0 -468.16397613728441 405.16035595910034 0 0 0 0 365.92943514506624 -333.26272259127109 0 -333.26272259127109 96.795798131390256 0 0 0 0 153.96704999284702 -186.21385079215452 0 -186.21385079215452 244.73120141849358 0 0 0 0 338.09877191353735 -587.57767841926034 0 -587.57767841926034 222.82890221446723 0 0 0 0 278.13121203386117 -819.60163644433487 0 -819.60163644433487 390.26255058693641 0 0 0 0 305.2856248600001 -708.78218785175704 0 -708.78218785175704 514.64259909696557 0 0 0 0 433.94836729686358 -921.96037763856657 0 -921.96037763856657 454.81921001042429 0 0 0 0 493.96196798238088 -807.01354828975309 0 -807.01354828975309 217.5792880109293 0 0 0 0 455.78930985748048 -529.69863090096169 0 -529.69863090096169 -10.592016208967834 0 0 0 0 537.67485439925076 -884.41220945586429 0 -884.41220945586429 341.20017112946516 0 0 0 0 525.75949273373408 -724.11043767091178 0 -724.11043767091178 302.84780612388931 0 0 0 0 803.72450172850222 -807.94508749776651 0 -807.94508749776651 -9.9800105081210404 0 0 0 0 198.29262383407877 -26.880703503093173 0 -26.880703503093173 -298.54740769355703 0 0 0 0 862.65176977064402 -506.32963760273924 0 -506.32963760273924 -401.02976143773503 0 0 0 0 -246.82803443170997 -230.65974905059556 0 -230.65974905059556 -71.060017518124369 0 0 0 0 50.761303028928523 -42.272313086396025 0 -42.272313086396025 -89.891435086934507 0 0 0 0 578.05360008633579 -457.82671293795283 0 -457.82671293795283 -4.7280818430263025 0 0 0 0 291.01330631527162 -217.98313235687965 0 -217.98313235687965 -79.200026222806628 0 0 0 0 -146.05819240538403 -126.25348453785409 0 -126.25348453785409 -239.11364012222839 0 0 0 0 -164.27381016658546 -410.68558003605176 0 -410.68558003605176 -384.24832384732144 0 0 0 0 4.4605228348232799 -5.6956254626784002 0 -5.6956254626784002 5.0321033440610847 0 0 0 0 -41.705136663826124 24.312476817560309 0 24.312476817560309 -24.84912153003097 0 0 0 0 -8.3391550615615415 -23.879105762453037 0 -23.879105762453037 -6.3779466047380993 0 0 0 0 16.360001303510217 -14.978734888038161 0 -14.978734888038161 -11.482184117248835 0 0 0 0 -1.1756619943644182 -13.645498138134826 0 -13.645498138134826 -1.6062394483888056 0 0 0 0 1.6488469958638037 -8.2184136634102032 0 -8.2184136634102032 -3.4887778276652028 0 0 0 0 17.861090816448268 -6.0120656223425613 0 -6.0120656223425613 -5.3308734734312111 0 0 0 0 0.98320109545602907 -9.0504574844071612 0 -9.0504574844071612 -4.0462862282780776 0 0 0 0 20.235200798782216 -3.3835092094827814 0 -3.3835092094827814 13.553661166297388 0 0 0 0 -2.1438342255532916 -16.292663391532187 0 -16.292663391532187 -3.3660827237599733 0 0 0 0 -0.057949765432184108 -5.703845713344565 0 -5.703845713344565 6.122517744960092 0 0 0 0 -213.93182510043698 -275.5669534250228 0 -275.5669534250228 -209.48809088523558 0 0 0 0 -229.65716321481887 -279.35365538301085 0 -279.35365538301085 -160.42301816375402 0 0 0 0 -369.08306650405575 -207.76394976794472 0 -207.76394976794472 -173.88972784570797 0 0 0 0 -202.00817561328904 -146.98016706304452 0 -146.98016706304452 -96.871932078844111 0 0 0 0 6.6874083199198964 -7.291281447868684 0 -7.291281447868684 2.8827485576895384 0 0 0 0 3.925829090973366 -31.665346245625642 0 -31.665346245625642 -143.3289039123556 0 0 0 0 67.547868646910501 -12.516428444236226 0 -12.516428444236226 -6.7813756682589883 0 0 0 0 1.2026157139097835 -3.0586829420460475 0 -3.0586829420460475 -0.78722300549969759 0 0 0 0 -106.03767374536255 -197.51089212915394 0 -197.51089212915394 -107.9439417788235 0 0 0 0 -278.55684757805648 -166.80683515335659 0 -166.80683515335659 35.52425146807218 0 0 0 0 -156.8341514156491 -123.88306272605405 0 -123.88306272605405 47.683295844790337 0 0 0 0 -165.70353383600013 -190.15224257994123 0 -190.15224257994123 -49.646789763715788 0 0 0 0 -195.25737509089231 -238.7208529657255 0 -238.7208529657255 -218.1620677496976 0 0 0 0 -224.99676416032344 -58.358049431618383 0 -58.358049431618383 -92.107548158171994 0 0 0 0 -214.4486624658457 -155.60828201119148 0 -155.60828201119148 55.477912455688056 0 0 0 0 -194.78302951456863 -74.227946520495607 0 -74.227946520495607 38.230325858858123 0 0 0 0 -159.09792538383317 -134.27790146781967 0 -134.27790146781967 109.23296016170207 0 0 0 0 -162.58934190396121 -85.824777257775622 0 -85.824777257775622 154.61364877169399 0 0 0 0 -107.52924799011089 -69.412713670808444 0 -69.412713670808444 133.8725452981671 0 0 0 0 -97.207042011170415 -131.41124647746983 0 -131.41124647746983 39.630849279859831 0 0 0 0 -164.27167244397424 -113.21256471352172 0 -113.21256471352172 41.769195872428099 0 0 0 0 -255.29803779538997 -169.55532686265587 0 -169.55532686265587 -105.12634166797216 0 0 0 0 -145.35565992251213 -213.1767814437444 0 -213.1767814437444 -102.75258173993279 0 0 0 0 -128.54786897118174 -100.66704592292444 0 -100.66704592292444 45.14281660503184 0 0 0 0 -111.05924233466794 -194.42410184418804 0 -194.42410184418804 -155.14765395472932 0 0 0 0 -156.17380197830971 -129.02094569338988 0 -129.02094569338988 52.237033604324097 0 0 0 0 34.08708480308178 -107.46337790696975 0 -107.46337790696975 -1.5259360709678731 0 0 0 0 -50.193848145347147 -37.496561945623398 0 -37.496561945623398 106.5966932219817 0 0 0 0 -45.132381918105239 -118.01501423358059 0 -118.01501423358059 19.471328755258583 0 0 0 0 50.810681611390919 -76.775022492260632 0 -76.775022492260632 118.28895735453989 0 0 0 0 98.946582223681617 -64.784113891935704 0 -64.784113891935704 216.72780670688735 0 0 0 0 -22.204355397087056 -21.304215536412812 0 -21.304215536412812 201.12417531103711 0 0 0 0 -12.43244643851358 -99.950200458403515 0 -99.950200458403515 140.93049086151586 0 0 0 0 -24.412898500580923 -64.532407906473964 0 -64.532407906473964 300.03997728605464 0 0 0 0 -23.094059479437419 -39.883385259323404 0 -39.883385259323404 216.61035532642563 0 0 0 0 -11.194738111109473 3.4597500846939511 0 3.4597500846939511 296.9401596363823 0 0 0 0 38.461575388850179 -12.235745437981677 0 -12.235745437981677 313.61127580915127 0 0 0 0 -6.1656276957291993 -16.436517648766312 0 -16.436517648766312 316.05482792839757 0 0 0 0 60.253294353471574 -75.877151216720449 0 -75.877151216720449 430.03138477778703 0 0 0 0 -104.64392680619494 -70.34940079543594 0 -70.34940079543594 146.89405899936719 0 0 0 0 -152.86856305206311 -99.813672021329694 0 -99.813672021329694 206.99829158873763 0 0 0 0 -110.96345569381447 -90.109283536174189 0 -90.109283536174189 225.92077213786251 0 0 0 0 -71.290886598624638 -37.354510032295366 0 -37.354510032295366 218.81018918460177 0 0 0 0 -61.056610405976244 -47.567787909822073 0 -47.567787909822073 208.24547883534979 0 0 0 0 -73.229657470437814 -54.431267163156008 0 -54.431267163156008 293.39103370165685 0 0 0 0 -122.97889122040942 -57.02866953082048 0 -57.02866953082048 261.44664901008946 0 0 0 0 -112.63254095098819 -57.669612584775678 0 -57.669612584775678 205.24383582334849 0 0 0 0 -102.30810283495521 -25.152052206947701 0 -25.152052206947701 262.72164101640374 0 0 0 0 -56.529591299884487 -28.197543250527815 0 -28.197543250527815 235.76042500972835 0 0 0 0 -12.083977451431565 35.81196516448108 0 35.81196516448108 282.6310494857571 0 0 0 0 -74.155581639104639 -23.248430905587156 0 -23.248430905587156 308.94895424006972 0 0 0 0 -28.65226697838807 -9.5780245643982198 0 -9.5780245643982198 263.6206996602923 0 0 0 0 -6.0071860915995785 80.171955444056948 0 80.171955444056948 372.12627880423679 0 0 0 0 -13.853801360972284 34.53111774392346 0 34.53111774392346 289.22841066354886 0 0 0 0 86.148579863700434 177.02093237391091 0 177.02093237391091 309.31777543642966 0 0 0 0 126.65519515360938 123.48608658336161 0 123.48608658336161 197.69731056669843 0 0 0 0 3.7774085068667773 79.121823452413082 0 79.121823452413082 315.56029913875682 0 0 0 0 48.179388796619605 64.889470259236987 0 64.889470259236987 190.08735976157914 0 0 0 0 21.096251281509467 50.254070592884091 0 50.254070592884091 233.80225763045019 0 0 0 0 -46.28011100779986 22.845460559306957 0 22.845460559306957 286.43055205028213 0 0 0 0 -44.75870934347904 -11.187234265997063 0 -11.187234265997063 217.57743624817522 0 0 0 0 -26.870830193700385 24.785621079907287 0 24.785621079907287 224.3806882511999 0 0 0 0 -20.331491774195456 21.389388074872841 0 21.389388074872841 217.114729621273 0 0 0 0 -55.284328642745095 -25.361484688544806 0 -25.361484688544806 153.7314635454677 0 0 0 0 -50.215841802288196 -0.55121980292460648 0 -0.55121980292460648 196.98729461285984 0 0 0 0 -13.399352436623303 120.4249972153666 0 120.4249972153666 563.05914607050272 0 0 0 0 40.461894741098149 -142.89515015165671 0 -142.89515015165671 101.67415807692305 0 0 0 0 45.513445925229462 -6.1200597671413561 0 -6.1200597671413561 -88.747646881849505 0 0 0 0 1.2786567949028722 -1.3230636492266576 0 -1.3230636492266576 2.6179389006973324 0 0 0 0 -15.884658559676609 11.507836349497666 0 11.507836349497666 483.1285690543009 0 0 0 0 12.341872527133091 27.253123743437754 0 27.253123743437754 430.64425484130334 0 0 0 0 -12.083611237598234 -26.074788909631025 0 -26.074788909631025 409.03984486113768 0 0 0 0 -13.646638950449415 52.936680098020588 0 52.936680098020588 395.37779417856291 0 0 0 0 -43.160576981201302 -5.9707892975093273 0 -5.9707892975093273 353.78421345476818 0 0 0 0 -24.595968893161626 78.167438439748366 0 78.167438439748366 429.41978341739741 0 0 0 0 -12.777624817448668 30.790622237131174 0 30.790622237131174 368.58234955646913 0 0 0 0 8.1806838965858333 34.881525152362883 0 34.881525152362883 315.27126370012411 0 0 0 0 16.944475186755881 182.89215394247003 0 182.89215394247003 447.52724687483806 0 0 0 0 1.6679677465171494 0.40381544777166312 0 0.40381544777166312 0.34325594930939474 0 0 0 0 43.690474939714477 9.6620362124158419 0 9.6620362124158419 9.0037661139504053 0 0 0 0 -7.187515421959688 8.0203434667273541 0 8.0203434667273541 9.9261409348328016 0 0 0 0 8.5072878433275037 17.645725673857669 0 17.645725673857669 -1.7017259690182982 0 0 0 0 16.275501904732664 -23.030775248207647 0 -23.030775248207647 -63.763736484963374 0 0 0 0 -11.156522754492471 -1.5099820203904528 0 -1.5099820203904528 -30.001668186547249 0 0 0 0 -9.2962885977030965 -10.910594145436335 0 -10.910594145436335 -1.3150528138648951 0 0 0 0 3.7564600048644934 0.84291885183483828 0 0.84291885183483828 -30.896855591396161 0 0 0 0 2.5985117034485938 -3.5849271633385413 0 -3.5849271633385413 -3.47241963845768 0 0 0 0 -61.813787911625695 -77.451338995609149 0 -77.451338995609149 -66.950372597957539 0 0 0 0 -3.9772677089749777 -2.6037928169844236 0 -2.6037928169844236 -34.32872627960387 0 0 0 0 78.225563113286626 42.905520527318004 0 42.905520527318004 112.96127884794259 0 0 0 0 83.710388189530931 54.519733837361855 0 54.519733837361855 126.15813258319395 0 0 0 0 35.061899340769742 12.954613731752033 0 12.954613731752033 101.94525953168704 0 0 0 0 -24.437214815756306 -1.7104268229159061 0 -1.7104268229159061 139.27125347428591 0 0 0 0 -26.771698558222852 -4.8336839377043361 0 -4.8336839377043361 162.04088898593909 0 0 0 0 1.8889161518891342 15.002246257543447 0 15.002246257543447 142.18689975477173 0 0 0 0 2.5181595504691359 19.207311827893136 0 19.207311827893136 151.64731379404839 0 0 0 0 3.3987514760447084 -9.5929636640630633 0 -9.5929636640630633 -37.270511013142823 0 0 0 0 -1.9582820441828517 -14.246183733663656 0 -14.246183733663656 -34.838781594276952 0 0 0 0 2.5926579926890554 -15.893695437074712 0 -15.893695437074712 -71.752271186989674 0 0 0 0 11.084579775444581 -10.881447790117818 0 -10.881447790117818 -77.880129885259521 0 0 0 0 23.655537319653376 -58.219951956865771 0 -58.219951956865771 -191.71146636269987 0 0 0 0 2.1823108202370349 9.493829180533794 0 9.493829180533794 -55.442946022765682 0 0 0 0 -5.1216380879432108 -85.450622624976859 0 -85.450622624976859 -71.181374791431153 0 0 0 0 -11.121589133023008 -27.416443089298355 0 -27.416443089298355 -65.889966982205806 0 0 0 0 9.3364644381581456 -87.562071869595457 0 -87.562071869595457 -169.64598833651598 0 0 0 0 -60.133294012077386 -64.525271960912505 0 -64.525271960912505 1.6526909049862297 0 0 0 0 -2.9397444576782021 -37.644233940870322 0 -37.644233940870322 13.011805310788233 0 0 0 0 -0.37515142459405837 -23.100602160432381 0 -23.100602160432381 -62.048337641718035 0 0 0 0 11.015549887721136 -39.028728635795233 0 -39.028728635795233 -68.628590173320845 0 0 0 0 -8.9620702622778481 -10.930351959104883 0 -10.930351959104883 109.49960966579783 0 0 0 0 -2.0172752192021406 -10.496350694684367 0 -10.496350694684367 4.0065952855036926 0 0 0 0 -105.74546573251064 -53.892353888557409 0 -53.892353888557409 18.493297686291044 0 0 0 0 3.6296550057025456 -6.5183283054017611 0 -6.5183283054017611 -1.7474452809446746 0 0 0 0 19.702460629487177 -53.880365573004383 0 -53.880365573004383 10.511544189124834 0 0 0 0 -19.988787614871399 -11.321388483826013 0 -11.321388483826013 118.03114753101545 0 0 0 0 -42.810569704866793 -32.862921234755049 0 -32.862921234755049 113.15547207230702 0 0 0 0 -91.147284589751507 -72.158339078079734 0 -72.158339078079734 129.75490123266354 0 0 0 0 -94.458151180675486 -96.897784422770201 0 -96.897784422770201 122.20019719656375 0 0 0 0 -63.624036483939562 -82.384743302067363 0 -82.384743302067363 26.080031145822431 0 0 0 0 -78.016555410940782 -77.114445193928987 0 -77.114445193928987 24.195900179736782 0 0 0 0 -43.893873682445701 -91.148241853843501 0 -91.148241853843501 10.835639161348809 0 0 0 0 -53.035524122169591 -111.52210699864372 0 -111.52210699864372 90.581283788873407 0 0 0 0 -32.430316147914709 -83.792013750357 0 -83.792013750357 -10.350453732811729 0 0 0 0 -50.206047046849562 -160.82381472568159 0 -160.82381472568159 144.63494098225055 0 0 0 0 -94.536544986600347 -114.23297398573959 0 -114.23297398573959 161.47988446714589 0 0 0 0 -87.441424526987248 -115.67454762155103 0 -115.67454762155103 90.361380824208027 0 0 0 0 -147.83195297465136 -131.86289625224163 0 -131.86289625224163 183.38289039650772 0 0 0 0 -118.1830046519899 -113.95538428715372 0 -113.95538428715372 166.94620558895986 0 0 0 0 -113.27802886633799 -166.97268083076415 0 -166.97268083076415 188.47608024126384 0 0 0 0 -107.65926461384879 -163.15311140834638 0 -163.15311140834638 150.62563790264539 0 0 0 0 -68.226346293835377 -27.212300029244943 0 -27.212300029244943 193.52665246135439 0 0 0 0 -121.31284801929723 -65.492562372688553 0 -65.492562372688553 207.5144106235166 0 0 0 0 -87.431473422111594 -59.020723864538013 0 -59.020723864538013 149.60438430418435 0 0 0 0 -123.49702401582908 -96.933684142328275 0 -96.933684142328275 171.32471800896565 0 0 0 0 -81.413563953025005 -72.104647107993515 0 -72.104647107993515 168.4165418465418 0 0 0 0 -167.4552927857294 -105.22935207650153 0 -105.22935207650153 209.29258530576408 0 0 0 0 -114.61896550860547 -81.715884014312905 0 -81.715884014312905 195.53374891259591 0 0 0 0 -96.489282748914775 -46.052925844029232 0 -46.052925844029232 219.17924218768894 0 0 0 0 -151.72457520100579 -87.237049672730791 0 -87.237049672730791 227.12228223454986 0 0 0 0 -145.91379521116323 -88.895014244166305 0 -88.895014244166305 194.04711804575345 0 0 0 0 -153.00712513500184 -130.2375971592719 0 -130.2375971592719 194.93061509427207 0 0 0 0 -186.29345962147636 -112.38469093261665 0 -112.38469093261665 185.39593236726796 0 0 0 0 -183.31742994017259 -137.27007079745817 0 -137.27007079745817 160.50509800447617 0 0 0 0 -225.82711578528688 -87.016495667019626 0 -87.016495667019626 119.67669311157442 0 0 0 0 -206.83654849826416 -106.20346817332756 0 -106.20346817332756 193.28039325480745 0 0 0 0 -154.99466283148649 -77.04049032961484 0 -77.04049032961484 131.40899238444399 0 0 0 0 -25.922891426074784 -220.19860632966811 0 -220.19860632966811 172.05810306649801 0 0 0 0 -179.56326401488332 -160.73686909318349 0 -160.73686909318349 195.12512024953685 0 0 0 0 -160.80137234942231 -148.46353024846758 0 -148.46353024846758 169.79351517080067 0 0 0 0 -218.60694155696547 -165.03060040805963 0 -165.03060040805963 165.46913232632505 0 0 0 0 -139.83158879419534 -217.97918055208174 0 -217.97918055208174 231.96389384158101 0 0 0 0 -167.24462202413815 -132.08610986653548 0 -132.08610986653548 206.57868216011411 0 0 0 0 203.80631544535208 -351.16260579841764 0 -351.16260579841764 220.74521211411047 0 0 0 0 -13.524651265019202 -196.44237383947075 0 -196.44237383947075 136.60654231964145 0 0 0 0 132.89049710111067 -47.193593018822867 0 -47.193593018822867 486.85854085172468 0 0 0 0 464.80937432113205 -75.719960746153447 0 -75.719960746153447 22.375993443776679 0 0 0 0 120.83671622548718 -71.824138595653494 0 -71.824138595653494 27.711496622954655 0 0 0 0 143.01187873512754 -68.727719588874606 0 -68.727719588874606 0.42056483628766728 0 0 0 0 61.521956570795737 -212.61440752870112 0 -212.61440752870112 119.72651783909532 0 0 0 0 176.4032841891094 -119.20802979863583 0 -119.20802979863583 13.251854583439126 0 0 0 0 -26.699950229925889 -138.69016710534015 0 -138.69016710534015 70.778780957232811 0 0 0 0 12.289104570758354 -142.31323986529242 0 -142.31323986529242 66.230134263334548 0 0 0 0 48.280678360513775 -90.606106751075458 0 -90.606106751075458 -16.161636404576711 0 0 0 0 60.752474489614542 -110.79912008337124 0 -110.79912008337124 15.679012084856367 0 0 0 0 28.270473225966271 -42.699374190622621 0 -42.699374190622621 -38.433978707886126 0 0 0 0 91.380127791378982 -26.005328230778105 0 -26.005328230778105 -34.373665305625764 0 0 0 0 11.913046295230743 -63.598223090171814 0 -63.598223090171814 -98.834773780028627 0 0 0 0 24.965440603786192 -21.813782948208427 0 -21.813782948208427 -70.499272905886755 0 0 0 0 3.5340857175913385 -17.127247174348241 0 -17.127247174348241 5.6500655155481461 0 0 0 0 0.82336759326560127 -20.238954121124298 0 -20.238954121124298 23.384045171478768 0 0 0 0 -22.606572047749069 -32.45272898604162 0 -32.45272898604162 -125.81836409668904 0 0 0 0 -23.024177142004191 -81.436416628781444 0 -81.436416628781444 -17.059798922997743 0 0 0 0 1.9654551012354204 -113.63580600661953 0 -113.63580600661953 -23.103032216979955 0 0 0 0 -12.714955291652586 -7.1602577134253806 0 -7.1602577134253806 -20.600494636874828 0 0 0 0 -7.3101027181328391 0.36027743805607315 0 0.36027743805607315 -10.60582695951598 0 0 0 0 -11.275371477364388 -16.435650525176243 0 -16.435650525176243 -18.586447577392391 0 0 0 0 19.803640624508262 -5.6799026350563508 0 -5.6799026350563508 -44.129350217492174 0 0 0 0 -2.9009778917170479 -24.218360258364555 0 -24.218360258364555 -45.037482218096557 0 0 0 0 0.87852131229010411 -23.102888287852693 0 -23.102888287852693 -47.892792283295421 0 0 0 0 40.705649543953768 10.407791210014693 0 10.407791210014693 -32.167784636410943 0 0 0 0 6.3332200295189978 12.469066103298246 0 12.469066103298246 -8.5725200841843616 0 0 0 0 29.994777809573861 5.864315544738929 0 5.864315544738929 -9.0318083719680544 0 0 0 0 -54.792129318622756 10.643931456026621 0 10.643931456026621 6.8494261987762002 0 0 0 0 -24.209156409677234 11.175697794184089 0 11.175697794184089 6.0145060785434907 0 0 0 0 -5.9402150443784194 4.732673909769801 0 4.732673909769801 -11.2143057758949 0 0 0 0 -28.961899993968473 -10.273233780990267 0 -10.273233780990267 3.3363050574698718 0 0 0 0 -11.271952236093057 -12.949205890241501 0 -12.949205890241501 -3.4811108656504075 0 0 0 0 -42.950505308734137 -10.697981112645721 0 -10.697981112645721 4.6351063272159081 0 0 0 0 -102.50529456694585 -1.6423309140106994 0 -1.6423309140106994 33.838963266920473 0 0 0 0 -94.715863701967464 62.083644920949155 0 62.083644920949155 31.585968915540434 0 0 0 0 1.9242659677593394 -2.4055235068218224 0 -2.4055235068218224 9.1485914280675047 0 0 0 0 -237.29160271474757 -0.83563267248609918 0 -0.83563267248609918 14.491972933719808 0 0 0 0 1.4620502949983347 45.685030270113202 0 45.685030270113202 7.9355964316710015 0 0 0 0 15.452655665352722 78.610245583322921 0 78.610245583322921 -47.094696770334849 0 0 0 0 118.89284545521332 60.863657541186967 0 60.863657541186967 -4.2093001910980092 0 0 0 0 28.999321923489333 21.857758512167493 0 21.857758512167493 100.57913882792491 0 0 0 0 2.7846953749394743 -151.47729538958265 0 -151.47729538958265 109.16049970691893 0 0 0 0 129.24470126936649 -90.223747413247111 0 -90.223747413247111 91.285070956560958 0 0 0 0 83.749566831276752 -111.03324310626704 0 -111.03324310626704 94.102377609968244 0 0 0 0 69.092863209525603 -52.634628890595195 0 -52.634628890595195 -58.475326439154742 0 0 0 0 -106.20727410914151 -232.31950909535999 0 -232.31950909535999 -75.508057859660767 0 0 0 0 -0.30299903017348129 -0.66851460299083953 0 -0.66851460299083953 3.2728881043413764 0 0 0 0 -37.101632877233897 123.61783063017401 0 123.61783063017401 19.262227969134983 0 0 0 0 -474.26523717337295 -69.896948473045995 0 -69.896948473045995 182.14890931650007 0 0 0 0 -338.27388713277469 185.96545080876876 0 185.96545080876876 212.54414128947246 0 0 0 0 15.840731139128961 -49.876550121432977 0 -49.876550121432977 39.128144926132023 0 0 0 0 -219.53442461186569 -227.13386617419019 0 -227.13386617419019 59.821603130998483 0 0 0 0 261.29700917564332 -282.15778134932407 0 -282.15778134932407 19.124708060397097 0 0 0 0 105.07677985159171 -154.60655182714981 0 -154.60655182714981 227.96828015153733 0 0 0 0 10.88414606686456 -110.82128344075045 0 -110.82128344075045 308.13095803475881 0 0 0 0 405.64284440410847 -247.93926993797504 0 -247.93926993797504 142.93552651179562 0 0 0 0 -50.674978616276348 -100.58490256198274 0 -100.58490256198274 -1.074304177382146 0 0 0 0 3.0997823156327939 -1.9422282297987117 0 -1.9422282297987117 1.6592003501135224 0 0 0 0 384.47267010028736 86.785499977864674 0 86.785499977864674 6.3547544691646181 0 0 0 0 -50.490940044088347 -125.2829378016977 0 -125.2829378016977 380.78374077345688 0 0 0 0 71.681303048913833 31.486326739222932 0 31.486326739222932 24.406414273758855 0 0 0 0 190.78822422353369 -73.094822703822501 0 -73.094822703822501 5.6293956382505712 0 0 0 0 203.56921903390958 7.6997762411856456 0 7.6997762411856456 -31.881522827636218 0 0 0 0 170.52046636355954 -91.60210354823721 0 -91.60210354823721 -4.964507591090296 0 0 0 0 99.45582435207325 -12.783996053600276 0 -12.783996053600276 -34.11137117823273 0 0 0 0 94.232792447473912 -28.881008828739141 0 -28.881008828739141 -8.8072105533829017 0 0 0 0 115.6602652264919 -11.682741837037611 0 -11.682741837037611 -20.258462020929073 0 0 0 0 124.41590804265434 -25.713147495911471 0 -25.713147495911471 -29.285962716909125 0 0 0 0 83.71845426208165 -100.5355765127897 0 -100.5355765127897 -47.232126215600147 0 0 0 0 -31.237652364477981 -114.28953079395797 0 -114.28953079395797 8.7362412671536731 0 0 0 0 -118.77142697090403 -22.296016185007375 0 -22.296016185007375 109.90271860812209 0 0 0 0 20.624599135020787 -51.330865272941743 0 -51.330865272941743 39.335964025812245 0 0 0 0 98.27039948359743 -56.923262506898027 0 -56.923262506898027 -17.011083153665822 0 0 0 0 102.38603558397153 -85.295240947863931 0 -85.295240947863931 -42.688605640403694 0 0 0 0 68.523715692299447 -76.789890448144433 0 -76.789890448144433 -25.556471069750842 0 0 0 0 -10.568709749015397 -36.507757756036426 0 -36.507757756036426 9.5074054115975741 0 0 0 0 21.940432450170192 -28.740824188982515 0 -28.740824188982515 6.2515245856629917 0 0 0 0 -66.564819162349067 -66.825727467945853 0 -66.825727467945853 34.516185765780392 0 0 0 0 15.109120267759913 -29.189224717284393 0 -29.189224717284393 9.6072827650678789 0 0 0 0 -9.2856586147314601 -6.9260257512191856 0 -6.9260257512191856 7.1785774082847666 0 0 0 0 10.86366174955765 -103.84222378052254 0 -103.84222378052254 -6.5236998528489494 0 0 0 0 25.45898355586769 -30.53558365462262 0 -30.53558365462262 20.097440650342449 0 0 0 0 -3.7726901580717822 -48.916968988844019 0 -48.916968988844019 61.918598092330285 0 0 0 0 34.785057972690993 29.048526536245845 0 29.048526536245845 21.803034844055219 0 0 0 0 1.1066735509633077 -0.86015865205044406 0 -0.86015865205044406 -1.0627724971960291 0 0 0 0 81.665325351475076 -55.398485584244099 0 -55.398485584244099 16.916549133031367 0 0 0 0 63.808617968421458 27.822555374830699 0 27.822555374830699 -7.4075301284246962 0 0 0 0 47.918339327865397 -4.4444147816539044 0 -4.4444147816539044 -70.213860530930106 0 0 0 0 31.163139531134178 -19.229377190000356 0 -19.229377190000356 11.964269155944095 0 0 0 0 99.974043406815326 -92.85862674290729 0 -92.85862674290729 -97.88670307940265 0 0 0 0 20.061185466945972 -24.002679813976101 0 -24.002679813976101 4.2012470672270865 0 0 0 0 32.884891727422655 -18.869819218882185 0 -18.869819218882185 6.0759135808621068 0 0 0 0 22.744989264500916 -17.851514863947941 0 -17.851514863947941 11.728081829732439 0 0 0 0 33.221358448178876 -34.661863737915269 0 -34.661863737915269 33.557095161828329 0 0 0 0 47.107457975253055 -22.896099013390995 0 -22.896099013390995 18.422402959666215 0 0 0 0 74.847651484829839 -49.339492974222594 0 -49.339492974222594 18.038875784324773 0 0 0 0 -20.429937804765359 -25.958510649674281 0 -25.958510649674281 52.654304004656296 0 0 0 0 21.344410922292809 -28.777117698883558 0 -28.777117698883558 -5.6446835591559648 0 0 0 0 -2.5541794755404368 -5.4289707657625712 0 -5.4289707657625712 4.275510950275816 0 0 0 0 24.46372805210558 -38.44455571447179 0 -38.44455571447179 21.740550557067763 0 0 0 0 4.6122017473893742 -26.529984937650617 0 -26.529984937650617 16.930091693555113 0 0 0 0 -0.090453531633102102 -27.079901258701284 0 -27.079901258701284 8.968052758860722 0 0 0 0 -81.676016443686649 -22.268541881876445 0 -22.268541881876445 82.058945081036654 0 0 0 0 -38.11372103330541 -50.542933505617839 0 -50.542933505617839 23.299140711662403 0 0 0 0 -56.483522744585571 -24.566846779785919 0 -24.566846779785919 17.533040390357201 0 0 0 0 -33.153621977772552 0.058006685129683433 0 0.058006685129683433 5.0002756213993607 0 0 0 0 -66.513849119371116 22.89996203541159 0 22.89996203541159 44.081661591328157 0 0 0 0 -48.44899049529522 -20.924138487970595 0 -20.924138487970595 19.410483271138219 0 0 0 0 -5.9826583200392633 -6.7825114572915481 0 -6.7825114572915481 -8.1649046100646956 0 0 0 0 -32.775048582669115 -17.662404952610814 0 -17.662404952610814 48.116186910527176 0 0 0 0 -2.350673247526089 -8.746561317004133 0 -8.746561317004133 16.49002011098716 0 0 0 0 -10.163742184873627 -11.946254119768128 0 -11.946254119768128 25.284524402653915 0 0 0 0 3.9365313554767454 -8.2758896331530245 0 -8.2758896331530245 13.614911831324349 0 0 0 0 -4.5280912765747416 -22.171931452313402 0 -22.171931452313402 10.734721782013366 0 0 0 0 -3.5430687374500849 -8.2397516949058627 0 -8.2397516949058627 22.884435396619665 0 0 0 0 -2.5208208413429247 -2.225002534483238 0 -2.225002534483238 3.6250799418294832 0 0 0 0 -0.59805930111346584 -0.55658221516430473 0 -0.55658221516430473 0.7337624529192226 0 0 0 0 -28.881415722197744 35.529337130485146 0 35.529337130485146 48.318293165648356 0 0 0 0 45.43703142493905 10.069840103635215 0 10.069840103635215 -29.494964504505333 0 0 0 0 -191.8854315659155 -24.172436429187655 0 -24.172436429187655 -30.09428537686108 0 0 0 0 -145.73812548235765 -211.2478311072864 0 -211.2478311072864 -240.37867325845582 0 0 0 0 -181.54710949374203 55.98328682959982 0 55.98328682959982 22.153506804577773 0 0 0 0 -1.6275442221995888 -1.2400259805474718 0 -1.2400259805474718 0.003075271426691728 0 0 0 0 -8.740298032258579 -10.392518089651276 0 -10.392518089651276 -57.936673451142269 0 0 0 0 -59.515178185058176 -15.561513919783465 0 -15.561513919783465 17.140348176407315 0 0 0 0 -8.3066204764763825 -1.5500438106246293 0 -1.5500438106246293 20.681027188584267 0 0 0 0 28.476169766937346 -33.471806021741031 0 -33.471806021741031 17.600846105829987 0 0 0 0 23.170032625283056 3.6281516919443675 0 3.6281516919443675 -4.4760307113895124 0 0 0 0 -3.7520184029711601 -2.7657161481134693 0 -2.7657161481134693 1.642994103351338 0 0 0 0 4.0504819441216977 -7.7330349050286138 0 -7.7330349050286138 1.2451079668889236 0 0 0 0 0.36752626766913465 -9.0543606914556705 0 -9.0543606914556705 7.7031386585997268 0 0 0 0 -2.9498778533052246 -8.1029201465826191 0 -8.1029201465826191 -1.6756580841611139 0 0 0 0 4.3076629049296571 -10.860842447210196 0 -10.860842447210196 5.7617386887149706 0 0 0 0 -47.382630650739884 -40.654279008347658 0 -40.654279008347658 -13.708890260168118 0 0 0 0 -0.26429457317235894 0.70785198391876847 0 0.70785198391876847 0.37506256898382162 0 0 0 0 -37.378164009929606 -44.017653351807894 0 -44.017653351807894 -52.857968421194528 0 0 0 0 -94.8848816449281 -54.345760257157963 0 -54.345760257157963 -0.10982088293894776 0 0 0 0 -200.29754066788064 -134.6886637201037 0 -134.6886637201037 -54.32750695496361 0 0 0 0 -198.79937587079257 -125.93638531834222 0 -125.93638531834222 -48.602873836709477 0 0 0 0 -31.559242158723464 -67.707743158178346 0 -67.707743158178346 -105.43678596170503 0 0 0 0 0.40172529744393159 -1.4960899281637055 0 -1.4960899281637055 1.0778028695352475 0 0 0 0 121.75954516248021 -22.301849945200956 0 -22.301849945200956 22.010416859848192 0 0 0 0 63.986627598624182 -85.454707067267009 0 -85.454707067267009 207.1631632074932 0 0 0 0 142.22216656604724 -104.18585725226148 0 -104.18585725226148 11.387095400583348 0 0 0 0 -65.610383609950077 32.888682278746273 0 32.888682278746273 121.36329109350118 0 0 0 0 419.79384735446365 -331.46245116282807 0 -331.46245116282807 197.39814209285851 0 0 0 0 4.6442128023263649 -56.389149247843307 0 -56.389149247843307 0.32625427596940426 0 0 0 0 29.286712685501698 -35.200846078772884 0 -35.200846078772884 11.673355602149968 0 0 0 0 0.65821054927073419 -3.789346737532469 0 -3.789346737532469 2.1524493241886375 0 0 0 0 1.6255690455982084 0.30449773036808381 0 0.30449773036808381 -0.59454370226222863 0 0 0 0 5.8472391176357235 -6.2327833871333809 0 -6.2327833871333809 2.7429670808205397 0 0 0 0 13.346894195572531 -12.949083986281039 0 -12.949083986281039 6.5359656087480289 0 0 0 0 1.9390666554463678 -4.9419490009386209 0 -4.9419490009386209 1.9607130461590714 0 0 0 0 2.6166284052699353 -4.0846726055289295 0 -4.0846726055289295 1.9524875578492242 0 0 0 0 10.655448067140242 -13.779354457099544 0 -13.779354457099544 11.577578216241818 0 0 0 0 21.473109802907857 26.935403305404179 0 26.935403305404179 7.659064942621626 0 0 0 0 74.453644485489349 -4.1323502246232238 0 -4.1323502246232238 -53.472533577994909 0 0 0 0 -0.40643602082127472 -8.9211520703429414 0 -8.9211520703429414 1.646484599365067 0 0 0 0 6.3657774552525979 -7.8197363302538605 0 -7.8197363302538605 -0.079680274474763557 0 0 0 0 6.7803683919773903 -7.8826313328463584 0 -7.8826313328463584 -43.539058969050529 0 0 0 0 -80.16715360571834 4.7254923902837618 0 4.7254923902837618 2.8741903441696195 0 0 0 0 5.6962664618002918 -4.3163976759963703 0 -4.3163976759963703 -1.5998678181943262 0 0 0 0 130.97248148692597 31.427371069075889 0 31.427371069075889 -31.131020372180501 0 0 0 0 -6.3419964545428229 -10.175192222293845 0 -10.175192222293845 2.7455782810684468 0 0 0 0 1.8923295483632678 -1.5949872491105594 0 -1.5949872491105594 -0.72040684954413337 0 0 0 0 -1.8233313541932148 -13.926854919853213 0 -13.926854919853213 -0.0049862154701258987 0 0 0 0 22.06308016445837 -16.269342994440194 0 -16.269342994440194 2.2401363312455942 0 0 0 0 23.04813106553047 -12.35472493089037 0 -12.35472493089037 5.4597357089951402 0 0 0 0 15.863694425344875 -27.109342104635289 0 -27.109342104635289 3.2676074091796181 0 0 0 0 -7.0393925571625005 -8.9180324965855107 0 -8.9180324965855107 10.582353242883983 0 0 0 0 30.791387875911823 -37.886459021216069 0 -37.886459021216069 32.685362817304849 0 0 0 0 43.521719091726482 -21.249501696942389 0 -21.249501696942389 7.8641291497697239 0 0 0 0 38.094049729632388 -16.131073097618355 0 -16.131073097618355 16.098440744986874 0 0 0 0 -33.474815361540095 -0.40000122830588225 0 -0.40000122830588225 24.558256619602616 0 0 0 0 0.12298967975289798 0.28293299276194261 0 0.28293299276194261 -0.91525579173222127 0 0 0 0 442.97782272841869 -231.74570212591425 0 -231.74570212591425 24.587986303879006 0 0 0 0 485.88930791279745 -62.722622395938743 0 -62.722622395938743 -115.25983674274175 0 0 0 0 254.52004909230163 134.06203482810088 0 134.06203482810088 -174.80094495177582 0 0 0 0 628.61776421904506 -175.57789583612248 0 -175.57789583612248 -251.41334978058512 0 0 0 0 979.97054746862705 -324.0832550474006 0 -324.0832550474006 -150.59072504274809 0 0 0 0 609.28676673017526 -230.14126308221785 0 -230.14126308221785 42.327887227933388 0 0 0 0 1764.132756529827 -328.65401983439369 0 -328.65401983439369 -211.58059736595169 0 0 0 0 4.0341865851878538 -14.820613954303553 0 -14.820613954303553 -0.85819477993209148 0 0 0 0 2.3507566156036441 -12.095410418571568 0 -12.095410418571568 1.2875358117682936 0 0 0 0 -0.74148353598138783 -29.938473421732851 0 -29.938473421732851 313.50977718607101 0 0 0 0 7.2810815918383014 -12.041997538375654 0 -12.041997538375654 -2.595794685279543 0 0 0 0 4.581204333131609 -9.5951758441678976 0 -9.5951758441678976 -0.47875840560300276 0 0 0 0 37.51239564147545 -12.095636762875074 0 -12.095636762875074 -55.146454506742884 0 0 0 0 -190.62877902486071 -83.572633384545043 0 -83.572633384545043 27.725920429402322 0 0 0 0 60.502427691259072 -127.62089899865532 0 -127.62089899865532 27.962120564516226 0 0 0 0 202.04405856771336 -17.775861569520202 0 -17.775861569520202 -64.540941254403151 0 0 0 0 148.9945336994133 -774.53201556632121 0 -774.53201556632121 663.06026264803768 0 0 0 0 -247.95609911591487 129.83347892248116 0 129.83347892248116 505.70727247734612 0 0 0 0 4.228630793666829 -3.2402932157320592 0 -3.2402932157320592 -1.0884505684165617 0 0 0 0 13.983282547888678 -3.9136756037802485 0 -3.9136756037802485 -1.4154188908249061 0 0 0 0 552.48989924041962 -756.25637930606172 0 -756.25637930606172 1432.8286075936294 0 0 0 0 864.60810535688506 437.51323198935825 0 437.51323198935825 -22.528030710935127 0 0 0 0 1291.7484123034737 -1238.4825274170216 0 -1238.4825274170216 804.12970604092698 0 0 0 0 2147.2338337081565 -931.51872820320864 0 -931.51872820320864 68.714690175496798 0 0 0 0 1154.9600602264327 -558.72837045420965 0 -558.72837045420965 0.36082525212259497 0 0 0 0 376.99283364109579 -339.40440784575185 0 -339.40440784575185 334.34447061251785 0 0 0 0 -273.24176562330103 -18.342902939752094 0 -18.342902939752094 203.44338646787946 0 0 0 0 387.88213202135012 -438.67116982203152 0 -438.67116982203152 341.08697603976179 0 0 0 0 1159.54183742438 -743.48223832055191 0 -743.48223832055191 310.83306965246447 0 0 0 0 310.4339056443423 -484.39598940734868 0 -484.39598940734868 324.82282925800246 0 0 0 0 1142.8638839465748 -819.93375586747061 0 -819.93375586747061 413.32218209266284 0 0 0 0 2134.796997419925 -459.8012871140981 0 -459.8012871140981 202.4654614412284 0 0 0 0 1720.6334436276229 -749.27483912559546 0 -749.27483912559546 0.5868827143643961 0 0 0 0 1201.5845371599062 -1065.3952812704483 0 -1065.3952812704483 711.32666972127208 0 0 0 0 1432.1426625962631 -547.38376894503926 0 -547.38376894503926 825.20338029142295 0 0 0 0 1136.9243307592296 -922.3694475561424 0 -922.3694475561424 374.02557709557004 0 0 0 0 1072.7856741220812 -1021.9879758193431 0 -1021.9879758193431 402.88258205398597 0 0 0 0 1069.1076484616387 -856.85548381981062 0 -856.85548381981062 423.34729962401616 0 0 0 0 1566.755112634095 -1107.6629666719055 0 -1107.6629666719055 306.34328353971796 0 0 0 0 1379.435543265201 -858.38248992334047 0 -858.38248992334047 52.19920744481351 0 0 0 0 835.20906854326313 -588.91224675881313 0 -588.91224675881313 35.353868752077688 0 0 0 0 903.13431776987954 -675.48640429779562 0 -675.48640429779562 113.59405040070851 0 0 0 0 1031.439149181726 -859.87408678912652 0 -859.87408678912652 262.02376608654595 0 0 0 0 820.78010806500606 -849.66888177296096 0 -849.66888177296096 428.91987223955948 0 0 0 0 592.54668149708596 -566.60822763624128 0 -566.60822763624128 185.64912424395152 0 0 0 0 891.12319326187935 -686.69691527640134 0 -686.69691527640134 310.8793287668268 0 0 0 0 285.37091432417947 -350.29323984375878 0 -350.29323984375878 381.08154006000404 0 0 0 0 111.16683372666012 -44.184586181487248 0 -44.184586181487248 184.8343967637702 0 0 0 0 629.81845527120458 -474.67227863097287 0 -474.67227863097287 136.37999947743447 0 0 0 0 576.62718812431297 -510.34406532176007 0 -510.34406532176007 209.1327225337518 0 0 0 0 575.40960704684039 -257.45713279027956 0 -257.45713279027956 -17.918938099493971 0 0 0 0 111.25714562420035 -129.1209889966558 0 -129.1209889966558 110.80718941883242 0 0 0 0 177.37224911270459 -64.649816542143526 0 -64.649816542143526 43.092031565218349 0 0 0 0 54.112027106416463 -129.09272953559957 0 -129.09272953559957 60.803240424895193 0 0 0 0 216.13377063494409 -234.36570227560151 0 -234.36570227560151 195.01062106915924 0 0 0 0 0.74909025917543981 -11.554185217452904 0 -11.554185217452904 12.186368841451554 0 0 0 0 -85.256425817839045 -3.7437902765996114 0 -3.7437902765996114 18.553782984221471 0 0 0 0 -4.3529723596002441 -15.048207412295596 0 -15.048207412295596 -18.767966711486224 0 0 0 0 -115.44227393597976 -40.277084298604677 0 -40.277084298604677 119.12506114685675 0 0 0 0 4.9001247846899787 114.87461121521847 0 114.87461121521847 34.90462924586609 0 0 0 0 0.27426163674916637 0.37149458992308837 0 0.37149458992308837 -0.43830483005706355 0 0 0 0 -16.144060631006141 17.661230407193216 0 17.661230407193216 -19.196222622798814 0 0 0 0 50.339535720995627 -11.333100433184882 0 -11.333100433184882 -68.171019911213079 0 0 0 0 2.3186167303356342 -22.056166712442064 0 -22.056166712442064 31.047681563562946 0 0 0 0 -52.747943628761277 -66.026183123092778 0 -66.026183123092778 48.727782039015437 0 0 0 0 83.848242631764151 5.5056678826076677 0 5.5056678826076677 -114.98960866312518 0 0 0 0 55.454565350715711 -122.41268553242844 0 -122.41268553242844 -74.037730196447228 0 0 0 0 164.09543301364465 -63.063022392256244 0 -63.063022392256244 69.164609662046132 0 0 0 0 75.293611367465928 13.72834825287282 0 13.72834825287282 -12.201477145626995 0 0 0 0 -3.8689496875886107 84.376042098316248 0 84.376042098316248 -1.2360951361188199 0 0 0 0 5.3949985471044783 -6.0147430250581237 0 -6.0147430250581237 85.26688616512547 0 0 0 0 155.05233159027193 -80.525555416988936 0 -80.525555416988936 37.89820511736616 0 0 0 0 20.419952672875297 -8.6973327236828482 0 -8.6973327236828482 -100.1413897996099 0 0 0 0 69.070121167016623 63.375305658217258 0 63.375305658217258 -17.619544491037232 0 0 0 0 -56.81602388167812 44.3371948608401 0 44.3371948608401 15.325610470943502 0 0 0 0 22.439698075035267 -9.15022124222196 0 -9.15022124222196 -39.3406404139605 0 0 0 0 33.667766077918714 13.525347440134283 0 13.525347440134283 5.8754033031946165 0 0 0 0 4.8545537261881186 -2.0430687154618141 0 -2.0430687154618141 -9.5142761340792106 0 0 0 0 18.143987511145113 -7.7021277832281712 0 -7.7021277832281712 -1.0583697876652387 0 0 0 0 4.873155993889668 -18.202421807221981 0 -18.202421807221981 -9.9309728200896643 0 0 0 0 4.795572123650345 -17.811656358742766 0 -17.811656358742766 -11.627969717710585 0 0 0 0 -82.97922754578758 -95.908021414246832 0 -95.908021414246832 -80.238551321199338 0 0 0 0 -12.631028100193362 103.94488288350112 0 103.94488288350112 87.390268142931745 0 0 0 0 -224.33443529090073 -47.51218904626694 0 -47.51218904626694 208.41937740503636 0 0 0 0 8.4465444258457865 -456.99962164433327 0 -456.99962164433327 1003.9430311270553 0 0 0 0 212.89346454342922 -87.226173023906995 0 -87.226173023906995 50.671344636641152 0 0 0 0 146.59600182503345 -157.25410696175459 0 -157.25410696175459 -9.7960911603222485 0 0 0 0 23.913962125399848 -127.50348800066786 0 -127.50348800066786 118.97706670318075 0 0 0 0 15.39897206300158 -6.1960400053449405 0 -6.1960400053449405 2.0469544358050662 0 0 0 0 845.93022037058836 -810.92862544825402 0 -810.92862544825402 812.41301938528704 0 0 0 0 1112.6349380375977 -576.33843601859917 0 -576.33843601859917 721.74253114656312 0 0 0 0 1316.3393746436741 -943.42868047636694 0 -943.42868047636694 576.35735435367678 0 0 0 0 341.89311838596768 -797.16570810908888 0 -797.16570810908888 1318.3140630908601 0 0 0 0 6.6165482719987665 -3.1379809895947588 0 -3.1379809895947588 1.3215149556730417 0 0 0 0 476.86918582264479 -90.231853173809213 0 -90.231853173809213 -381.92654100348591 0 0 0 0 1642.7351393400968 -976.04539772538919 0 -976.04539772538919 663.91036800101574 0 0 0 0 3.3827114204868565 -2.6460792546465619 0 -2.6460792546465619 1.5269186200456204 0 0 0 0 1413.1533722440327 -919.81846497042898 0 -919.81846497042898 275.53253458881954 0 0 0 0 131.01543140629656 -152.42949255710482 0 -152.42949255710482 296.37906036075583 0 0 0 0 764.68930489296872 -898.79838587014729 0 -898.79838587014729 268.63510210347886 0 0 0 0 723.98239559750073 -761.12122865920537 0 -761.12122865920537 520.95374314556102 0 0 0 0 778.28011931057426 -958.03994946942021 0 -958.03994946942021 347.29724074606929 0 0 0 0 503.76454263001142 -946.07892624044507 0 -946.07892624044507 565.88587127722712 0 0 0 0 284.63384043323458 -953.66735068422895 0 -953.66735068422895 465.08861766458904 0 0 0 0 550.61804964472321 -1041.9563320962998 0 -1041.9563320962998 482.36664422805916 0 0 0 0 522.78085309570088 -880.60917945187248 0 -880.60917945187248 695.29130895611524 0 0 0 0 952.86698936992616 -951.49951860505098 0 -951.49951860505098 522.62005708756988 0 0 0 0 986.05184317634962 -1051.9440650281324 0 -1051.9440650281324 717.95812978051254 0 0 0 0 1015.6537478471221 -663.94872359591807 0 -663.94872359591807 650.58708065994142 0 0 0 0 585.36133543769392 -975.13811709182391 0 -975.13811709182391 418.52203109222319 0 0 0 0 0.86497670607660382 -6.0012310407463616 0 -6.0012310407463616 3.5416414815194628 0 0 0 0 2599.4192506416039 -763.26863297308046 0 -763.26863297308046 120.61891467013265 0 0 0 0 1492.5152179435609 -1175.9219122750255 0 -1175.9219122750255 671.96447575602724 0 0 0 0 1299.3379821540548 -791.64541109141464 0 -791.64541109141464 449.58582306276367 0 0 0 0 1129.5362443553386 -775.5076569194789 0 -775.5076569194789 466.31069445839239 0 0 0 0 1161.5958066474559 -890.88735287409509 0 -890.88735287409509 313.26866689396411 0 0 0 0 1185.3830195454284 -703.68448390964477 0 -703.68448390964477 648.17223681355608 0 0 0 0 1225.9613532548201 -833.49293171398995 0 -833.49293171398995 413.17430518810579 0 0 0 0 923.11777024737239 -788.77104441144184 0 -788.77104441144184 615.22059025952331 0 0 0 0 1008.3855501979378 -822.28662527359302 0 -822.28662527359302 229.56012940788059 0 0 0 0 1015.8116546136589 -864.02685567587105 0 -864.02685567587105 463.30684408340858 0 0 0 0 992.94890710633626 -926.24200460374595 0 -926.24200460374595 315.7429052698717 0 0 0 0 1024.3436503134617 -942.06137740856866 0 -942.06137740856866 281.59548589043334 0 0 0 0 995.21513295637851 -899.62901357453666 0 -899.62901357453666 327.68231968586042 0 0 0 0 1141.140302447966 -845.71820586725335 0 -845.71820586725335 209.52643780258586 0 0 0 0 916.39299175220003 -788.71141819912918 0 -788.71141819912918 280.03771143189078 0 0 0 0 793.51719659110313 -704.95130660040013 0 -704.95130660040013 226.49678472446612 0 0 0 0 1012.2782308543174 -934.5804379832698 0 -934.5804379832698 278.63169021987414 0 0 0 0 956.84341617442988 -924.82413631343661 0 -924.82413631343661 426.40796965565823 0 0 0 0 916.51939628414402 -886.53764057599983 0 -886.53764057599983 487.40139645312593 0 0 0 0 788.82241001558577 -813.25293423595258 0 -813.25293423595258 509.01704367644561 0 0 0 0 923.28627390507609 -866.35857022836353 0 -866.35857022836353 375.77044380840744 0 0 0 0 657.75086336627282 -755.88284506715354 0 -755.88284506715354 430.97409584693378 0 0 0 0 779.03322599305102 -762.67450066898164 0 -762.67450066898164 403.20193646474218 0 0 0 0 501.96496959031356 -899.33665652123273 0 -899.33665652123273 1045.6730949827761 0 0 0 0 33.229997989896219 -79.030248991060944 0 -79.030248991060944 -201.65087172207859 0 0 0 0 -0.18911097684880929 -2.4795584607219752 0 -2.4795584607219752 -0.39152375136876927 0 0 0 0 317.76999550338223 -577.49858631241659 0 -577.49858631241659 767.32420149695099 0 0 0 0 566.27343122952152 -1389.2116381214 0 -1389.2116381214 -0.97111977547747608 0 0 0 0 957.48474860206625 -1100.4666917076138 0 -1100.4666917076138 48.807064566653935 0 0 0 0 701.55185310792876 -934.94897944153308 0 -934.94897944153308 548.36080743504863 0 0 0 0 4.5638909797497718 -10.800389097875325 0 -10.800389097875325 13.666561782702047 0 0 0 0 5.0121486809216371 -2.8007519864982129 0 -2.8007519864982129 0.10722846711584566 0 0 0 0 -19.286350532114739 21.203679095895495 0 21.203679095895495 -0.37963735908223922 0 0 0 0 293.05149803422682 -131.120804507711 0 -131.120804507711 28.792573537593853 0 0 0 0 98.240829650780142 -229.93210556859776 0 -229.93210556859776 431.47287628194317 0 0 0 0 -2.6912297128298093 -7.4691903368790804 0 -7.4691903368790804 0.2017293961764608 0 0 0 0 650.07599032909832 -556.5357520544718 0 -556.5357520544718 196.79960512623802 0 0 0 0 106.95341240303969 -200.86330960972373 0 -200.86330960972373 279.53367384525336 0 0 0 0 -46.291637134760094 -133.86737353343824 0 -133.86737353343824 -177.87839199952577 0 0 0 0 1.9236688642913515 -16.026024154114737 0 -16.026024154114737 6.2103723431200422 0 0 0 0 0.63639762486478979 -13.368051867109372 0 -13.368051867109372 7.254492359444896 0 0 0 0 915.89557957818761 -453.92527197809068 0 -453.92527197809068 161.30457530969943 0 0 0 0 -726.49643976044194 -329.67649782929368 0 -329.67649782929368 -4.6022487148075015 0 0 0 0 618.28637311437342 -175.55600580488863 0 -175.55600580488863 -47.129804733143828 0 0 0 0 806.9322520114365 -674.910369740428 0 -674.910369740428 284.63410786191162 0 0 0 0 1210.8834497901812 -406.34800225034132 0 -406.34800225034132 41.343633564487391 0 0 0 0 1128.2401888775785 -897.57729182887851 0 -897.57729182887851 324.57513565694171 0 0 0 0 528.55574318354047 -459.96157635295094 0 -459.96157635295094 0.86788344556043739 0 0 0 0 -256.73047075894283 -527.07684879167937 0 -527.07684879167937 -200.19972067115441 0 0 0 0 52.339721687865676 -554.02584848601782 0 -554.02584848601782 -370.66813379077939 0 0 0 0 -63.583871071819885 -380.4233171650485 0 -380.4233171650485 -177.55990904613282 0 0 0 0 78.155816505466646 -511.30559851668295 0 -511.30559851668295 -170.85241158305962 0 0 0 0 -116.21096159305307 -231.04893803648883 0 -231.04893803648883 -1.4216205772099784 0 0 0 0 -62.43987571839898 -133.72897688517878 0 -133.72897688517878 -157.09387634608356 0 0 0 0 -130.9098431223083 -296.29475143149375 0 -296.29475143149375 -255.3870629931771 0 0 0 0 0.16138277896627073 -1.7135434590072975 0 -1.7135434590072975 -1.3738847916963053 0 0 0 0 119.16478514950722 -80.365232633081177 0 -80.365232633081177 -1532.6803318206585 0 0 0 0 -50.015665954302676 -511.40549684770667 0 -511.40549684770667 168.72401365836413 0 0 0 0 -34.350506176546332 -73.076719703291019 0 -73.076719703291019 -256.51076932862361 0 0 0 0 16.47830062132104 -6.8440828842359878 0 -6.8440828842359878 -2.8590679790076834 0 0 0 0 137.43297386532356 -228.03746978315871 0 -228.03746978315871 383.88947368814843 0 0 0 0 605.68076063089393 -1452.6376233126975 0 -1452.6376233126975 719.80969132674727 0 0 0 0 -1.7550657996289374 -1072.492282785066 0 -1072.492282785066 889.7818945063882 0 0 0 0 195.04956369028514 17.414442950012017 0 17.414442950012017 -1428.998661704798 0 0 0 0 4.8366415952169177 -2.8889328532894751 0 -2.8889328532894751 -1.3148002728215324 0 0 0 0 0.32030775735793782 -2.1528210845832376 0 -2.1528210845832376 -1.0317821117743691 0 0 0 0 518.02110534924577 -1036.4054250896243 0 -1036.4054250896243 486.59446985005707 0 0 0 0 137.30477300663915 -417.21644071124319 0 -417.21644071124319 -1112.6613219603814 0 0 0 0 134.59598665135854 -361.24453531897598 0 -361.24453531897598 -163.19511243969464 0 0 0 0 13.048009614281909 -669.15632319480574 0 -669.15632319480574 -283.98618436677316 0 0 0 0 -0.12361511643030099 -753.42028418326481 0 -753.42028418326481 -476.4885684548608 0 0 0 0 -7.6947041389976221 -587.86453397621153 0 -587.86453397621153 -275.80318495535539 0 0 0 0 0.014248229167671612 -759.70975786164786 0 -759.70975786164786 -42.573600407951744 0 0 0 0 -14.248276600621466 -605.32786067567758 0 -605.32786067567758 117.43859935366709 0 0 0 0 -100.06468541781214 -729.04342573317626 0 -729.04342573317626 384.00577750808588 0 0 0 0 -180.33984815521762 -641.58679246173779 0 -641.58679246173779 21.464816333078488 0 0 0 0 -280.6612097331672 -440.17048538021118 0 -440.17048538021118 -216.5683915722102 0 0 0 0 -1623.5185569689133 -664.33055844107093 0 -664.33055844107093 357.20925745460409 0 0 0 0 23.268169476170442 -1122.2302771430077 0 -1122.2302771430077 484.50880999793662 0 0 0 0 -64.797836725396337 -642.27926945443869 0 -642.27926945443869 21.146229070244317 0 0 0 0 -310.15949416886724 -827.91115713697855 0 -827.91115713697855 587.94764508574008 0 0 0 0 146.68730751394469 -909.45577160020002 0 -909.45577160020002 468.02983481328374 0 0 0 0 183.2599882686045 -1018.8238172267411 0 -1018.8238172267411 591.35269012263598 0 0 0 0 283.46536723809436 -918.13040355268856 0 -918.13040355268856 527.1530749696467 0 0 0 0 13.673466489012753 -771.25628515158814 0 -771.25628515158814 544.15475157367473 0 0 0 0 77.24078865165211 -973.61222273537896 0 -973.61222273537896 564.79049931519876 0 0 0 0 -17.003915862253052 -679.26690648278782 0 -679.26690648278782 529.91645081747993 0 0 0 0 -0.083800584658936028 -768.29953599539397 0 -768.29953599539397 352.60549438656017 0 0 0 0 52.98327648736813 -808.05341841343215 0 -808.05341841343215 383.52421686894377 0 0 0 0 10.714164578549795 -7.0623081806244556 0 -7.0623081806244556 4.2847880491101193 0 0 0 0 46.68450430222947 -57.41554425297727 0 -57.41554425297727 -74.319142128028034 0 0 0 0 -16.001418467255462 -51.662810483063367 0 -51.662810483063367 -50.056436523820594 0 0 0 0 -20.15984975122592 -71.059846657155504 0 -71.059846657155504 -68.680886179594381 0 0 0 0 -136.97223977316025 -69.614707419274055 0 -69.614707419274055 -42.973628301688223 0 0 0 0 -75.924816415475107 -77.118496196693741 0 -77.118496196693741 -42.328859302256205 0 0 0 0 52.033926438514754 -15.706783568501123 0 -15.706783568501123 -35.468279969063587 0 0 0 0 179.26665129043613 -26.724507851133239 0 -26.724507851133239 -39.709317352535436 0 0 0 0 20.410867535218131 -31.033883015901665 0 -31.033883015901665 -10.047089265732211 0 0 0 0 -226.02560034573662 -169.041152659609 0 -169.041152659609 -44.251472497475334 0 0 0 0 6.7314197931955082 -13.902363222330411 0 -13.902363222330411 -3.9762725687083673 0 0 0 0 52.434809008900629 -6.6793461807537824 0 -6.6793461807537824 -44.167883633279416 0 0 0 0 -10.258663164514473 -113.92900027244104 0 -113.92900027244104 -139.65340147489769 0 0 0 0 -40.568988983131931 -119.62989362816006 0 -119.62989362816006 279.48312861834529 0 0 0 0 -125.457665024569 -9.6369949470845313 0 -9.6369949470845313 -16.323558718715503 0 0 0 0 3.8563158123013466 -2.2334565767061747 0 -2.2334565767061747 1.1820610399844611 0 0 0 0 -518.08467171375923 -300.32487784748628 0 -300.32487784748628 608.13815342925955 0 0 0 0 4.9130434790755722 -12.139076058381605 0 -12.139076058381605 -1.4640860040828159 0 0 0 0 -100.79361755309037 17.356944360486523 0 17.356944360486523 -381.20108383517072 0 0 0 0 34.872896028635296 16.151474111986317 0 16.151474111986317 4.7450147571216803 0 0 0 0 -98.742254443262482 -132.25401339001246 0 -132.25401339001246 -211.08812915378076 0 0 0 0 -273.58129920421197 128.9149844653366 0 128.9149844653366 -267.59863030225824 0 0 0 0 -0.36780586411525107 1.4875353472531625 0 1.4875353472531625 0.7903442066595403 0 0 0 0 929.54703417843848 -243.91121257489431 0 -243.91121257489431 94.500829523771245 0 0 0 0 -45.54174274010802 -282.62151219027328 0 -282.62151219027328 188.76438229911582 0 0 0 0 -142.69084921974513 -316.07859381711387 0 -316.07859381711387 183.21384054110968 0 0 0 0 -153.52508710193433 -131.038086454515 0 -131.038086454515 20.340064096868446 0 0 0 0 -224.89354159998948 -124.84200019291893 0 -124.84200019291893 62.268029397193459 0 0 0 0 168.68987012199887 -250.18129327514544 0 -250.18129327514544 78.603091462526208 0 0 0 0 -43.695075336228456 -68.702970210834792 0 -68.702970210834792 -10.63125632332958 0 0 0 0 47.914655735283304 -59.160212278909967 0 -59.160212278909967 -79.320560270614806 0 0 0 0 57.868243349926161 -57.481397674525397 0 -57.481397674525397 -207.33457320247544 0 0 0 0 -12.796610049143055 -70.252308584193088 0 -70.252308584193088 -74.361547383644393 0 0 0 0 -26.261911441616576 -42.563234703617127 0 -42.563234703617127 -26.486803717285511 0 0 0 0 -17.801735330152042 -25.487372147155838 0 -25.487372147155838 7.0058800283659366 0 0 0 0 21.627702835636228 1.373434203065699 0 1.373434203065699 -28.602222380384774 0 0 0 0 -91.376966573433492 -83.174604432340857 0 -83.174604432340857 -19.346214759514623 0 0 0 0 -26.354327976636341 54.168735010334785 0 54.168735010334785 -118.1382767517498 0 0 0 0 -0.98174794692774903 -0.69830862958245632 0 -0.69830862958245632 -3.4614050946366888 0 0 0 0 25.510242198740798 -2.6550936289122546 0 -2.6550936289122546 -5.7573931222359533 0 0 0 0 33.328073503273117 -12.351925703803545 0 -12.351925703803545 -4.9094788773072651 0 0 0 0 3.0301371590044912 -4.8941544817152902 0 -4.8941544817152902 -8.2754044576650188 0 0 0 0 31.435455752929556 1.7558916296438838 0 1.7558916296438838 -15.182796034514467 0 0 0 0 14.003577321505873 4.0194701732689282 0 4.0194701732689282 -9.4819398155050294 0 0 0 0 -8.4092394518120273 10.819607270663255 0 10.819607270663255 -15.023196388530778 0 0 0 0 96.665295908310327 -10.851287845707702 0 -10.851287845707702 -50.554284638707031 0 0 0 0 77.254167950478404 -67.073145558684701 0 -67.073145558684701 -62.975695696863113 0 0 0 0 53.367141344150369 -32.937612542593854 0 -32.937612542593854 9.3983137073446414 0 0 0 0 34.458887300217611 -63.08431819017278 0 -63.08431819017278 -42.260894392726186 0 0 0 0 53.25107191142186 -27.645611843693757 0 -27.645611843693757 -122.6031367318792 0 0 0 0 45.665057052470729 -74.540758408507827 0 -74.540758408507827 -58.234686849817081 0 0 0 0 51.964196918331027 -53.899051823501395 0 -53.899051823501395 -23.272842954727821 0 0 0 0 -0.88527516168571641 -10.422737346418158 0 -10.422737346418158 -20.389473938403341 0 0 0 0 -8.1865511473152885 -15.132530427684449 0 -15.132530427684449 -20.725259403786623 0 0 0 0 23.508667188124491 -14.410948824603111 0 -14.410948824603111 3.2014328175428091 0 0 0 0 7.5616771460213386 -119.4280093054349 0 -119.4280093054349 -151.00827329023014 0 0 0 0 35.631970816901003 -79.030516950868332 0 -79.030516950868332 -241.81946473618154 0 0 0 0 -119.25522048944276 -156.03271247892917 0 -156.03271247892917 -4.9314745358205982 0 0 0 0 17.299658431218269 -12.145912620115325 0 -12.145912620115325 9.491756941453616 0 0 0 0 -5.81069762887455 133.30160218400852 0 133.30160218400852 -51.350399855071373 0 0 0 0 -30.541437188110649 -52.091882707765762 0 -52.091882707765762 -28.682714218633919 0 0 0 0 1.4859067478500947 -35.449625968013606 0 -35.449625968013606 -21.179659492190694 0 0 0 0 25.585998865725671 -20.706125465447599 0 -20.706125465447599 7.8101070384888089 0 0 0 0 9.2100303979741511 -49.885076658014441 0 -49.885076658014441 -10.181959034620377 0 0 0 0 -10.184271702056321 -31.548696647339966 0 -31.548696647339966 75.439242497728628 0 0 0 0 28.077825659183873 -22.923437804463902 0 -22.923437804463902 -118.61291542635809 0 0 0 0 0.55521626260815538 -53.049145721372042 0 -53.049145721372042 -254.54026301346494 0 0 0 0 1.4534465998274086 -5.5656309751715156 0 -5.5656309751715156 -0.47837046976711406 0 0 0 0 -2.659853581183377 1.2176760770101538 0 1.2176760770101538 1.6573666780692378 0 0 0 0 -107.23525578940826 -87.770614109220332 0 -87.770614109220332 57.161190246864862 0 0 0 0 6.5749602628837964 -25.713833621944524 0 -25.713833621944524 -26.957941754530836 0 0 0 0 0.51790362493579778 -67.380468738510444 0 -67.380468738510444 -46.061686285342148 0 0 0 0 -17.139767297858985 -43.893766575090709 0 -43.893766575090709 -29.051423966435777 0 0 0 0 18.350151682849173 -84.159417560680595 0 -84.159417560680595 -31.294005549534631 0 0 0 0 -6.6346853511833483 -38.011203399941749 0 -38.011203399941749 -28.943330102923213 0 0 0 0 6.0392316107172519 -86.497631968624773 0 -86.497631968624773 -22.800545537743801 0 0 0 0 9.6210453536738214 -30.07289292007863 0 -30.07289292007863 -21.012109936287743 0 0 0 0 6.4670555115530952 -24.971739542574483 0 -24.971739542574483 -26.758732344463766 0 0 0 0 16.423776071121438 -81.173878691825848 0 -81.173878691825848 13.400169702355925 0 0 0 0 2.5664214091139002 -102.71998134688693 0 -102.71998134688693 -19.385564096319285 0 0 0 0 9.6198328528742003 -31.066080944255503 0 -31.066080944255503 -30.074286714932668 0 0 0 0 7.8202623056558878 -29.189948856190313 0 -29.189948856190313 -47.824575377671863 0 0 0 0 27.655845741304574 -24.692702919371641 0 -24.692702919371641 -70.332483057580248 0 0 0 0 22.775996844142718 -11.171544307322932 0 -11.171544307322932 -31.052425529616009 0 0 0 0 -10.05479278470807 -23.769496643999446 0 -23.769496643999446 -56.348587138994631 0 0 0 0 6.8629411849378812 -26.019348670677573 0 -26.019348670677573 -39.310357997463143 0 0 0 0 38.942845797866539 -45.40310802134627 0 -45.40310802134627 -69.209958348190412 0 0 0 0 7.9754221679626864 -22.053967856497206 0 -22.053967856497206 -38.490578436263633 0 0 0 0 -51.498314296955868 -51.220034796686377 0 -51.220034796686377 -60.776984419877408 0 0 0 0 -5.6002438663053908 -79.4049829678479 0 -79.4049829678479 -56.073530979205316 0 0 0 0 -3.6110887335263429 -10.457599635980028 0 -10.457599635980028 3.9989942291496448 0 0 0 0 10.767736471042554 -60.25649932378019 0 -60.25649932378019 -77.559593452555418 0 0 0 0 -3.5561547071767983 -28.516663510201099 0 -28.516663510201099 -63.748637805236498 0 0 0 0 18.14542125091566 -71.711982073422405 0 -71.711982073422405 -63.483199428959779 0 0 0 0 9.2715596180070854 -15.598918139275057 0 -15.598918139275057 -4.8238591281459691 0 0 0 0 26.789439278809368 -22.260654911518941 0 -22.260654911518941 -72.323519780133211 0 0 0 0 56.071286145255726 -43.088910794556796 0 -43.088910794556796 -85.327360450755805 0 0 0 0 -10.386865613267918 -23.984911433722061 0 -23.984911433722061 -48.773045881755507 0 0 0 0 63.237247001946344 -44.868856126986429 0 -44.868856126986429 -65.71561402378029 0 0 0 0 40.794690963469293 -48.80220993063358 0 -48.80220993063358 -49.854356134535919 0 0 0 0 38.004646955538192 -19.986170205309463 0 -19.986170205309463 -65.349703255455097 0 0 0 0 4.7860276771298231 -44.525812814394158 0 -44.525812814394158 -42.767122294198998 0 0 0 0 9.3570689409016268 -41.624351227696025 0 -41.624351227696025 -64.858251051238767 0 0 0 0 5.8483018757583523 -52.447986703711422 0 -52.447986703711422 -80.198251282708952 0 0 0 0 -111.38282858592117 -94.657031917931619 0 -94.657031917931619 -45.781376359635033 0 0 0 0 -112.17965350533525 -44.722054098256564 0 -44.722054098256564 -17.623098325537285 0 0 0 0 -1.6472850970767468 -38.600221103211879 0 -38.600221103211879 -76.193856554004014 0 0 0 0 -34.111410996942595 -40.715679211301904 0 -40.715679211301904 -28.834792698526144 0 0 0 0 -23.39579014447736 -68.168604766327917 0 -68.168604766327917 -50.103339311746822 0 0 0 0 -61.561950610215717 -64.824814019935729 0 -64.824814019935729 -50.008889043223007 0 0 0 0 -52.376610746620145 -14.756929847522315 0 -14.756929847522315 -23.940933821715589 0 0 0 0 2.0085125119861722 -0.89661483050177182 0 -0.89661483050177182 -1.3973494287933192 0 0 0 0 37.884321026691396 -28.456705990158298 0 -28.456705990158298 -21.035274820402265 0 0 0 0 41.256027863228155 -15.203656902987859 0 -15.203656902987859 -16.076152866547545 0 0 0 0 -4.5690516934710104 -17.966137938274187 0 -17.966137938274187 -11.368307803692005 0 0 0 0 8.9093322509488644 -9.7743881717615295 0 -9.7743881717615295 -22.908539080812261 0 0 0 0 -3.0388165049330382 -11.359452223357721 0 -11.359452223357721 -19.625035708362702 0 0 0 0 -1.5541016992901859 -25.659094599868695 0 -25.659094599868695 -11.93513370331857 0 0 0 0 27.811995391621139 -6.3623187494701483 0 -6.3623187494701483 -54.957645113594481 0 0 0 0 -10.865465555943956 -85.198470881063258 0 -85.198470881063258 -54.856531316916517 0 0 0 0 -37.315717132178179 -130.37649340624557 0 -130.37649340624557 -128.94057104613421 0 0 0 0 29.107582361211826 -44.208787440289598 0 -44.208787440289598 -146.06534621911123 0 0 0 0 -12.455396832587212 -63.267254352016607 0 -63.267254352016607 -92.280832391876174 0 0 0 0 -4.4210268458089104 -37.115362094873035 0 -37.115362094873035 -40.507529775797593 0 0 0 0 -30.994638414617839 -82.036165824616546 0 -82.036165824616546 -50.841465399345907 0 0 0 0 -48.282589250937235 -57.258380297553231 0 -57.258380297553231 -36.704493845354591 0 0 0 0 168.8551408326166 -74.09420672428314 0 -74.09420672428314 -14.207074358957698 0 0 0 0 -3.1275220022607755 -50.779123830609933 0 -50.779123830609933 22.860551198107714 0 0 0 0 6.7732006251536312 -13.296634841543939 0 -13.296634841543939 -8.0536503306100826 0 0 0 0 6.3230598865626213 -11.929016802223872 0 -11.929016802223872 -12.790681570104312 0 0 0 0 -52.506303778627625 -2.6873337966753752 0 -2.6873337966753752 -11.500465074954263 0 0 0 0 -20.089491707292837 -32.587854073572089 0 -32.587854073572089 -36.749658182277926 0 0 0 0 92.059638126385835 14.45773857621316 0 14.45773857621316 -18.56424053565388 0 0 0 0 -41.650612581677706 26.450673375158658 0 26.450673375158658 66.704376018868061 0 0 0 0 126.96251605604903 -106.0648900150145 0 -106.0648900150145 57.512026121534291 0 0 0 0 8.3122998124831966 -2.6988057728010233 0 -2.6988057728010233 0.5662354920623045 0 0 0 0 70.044444159791965 45.57551552744917 0 45.57551552744917 -105.37127936114848 0 0 0 0 3.8646408278191302 -43.86165943475612 0 -43.86165943475612 -131.67989233630942 0 0 0 0 27.836327831075323 -15.464347250202991 0 -15.464347250202991 -18.444794797513168 0 0 0 0 -2.6407953029083728 -2.8266218986682361 0 -2.8266218986682361 -13.976511953242152 0 0 0 0 5.6686943825288978 -8.4583557056625267 0 -8.4583557056625267 -2.9749821376932175 0 0 0 0 0.20200217655656161 -18.026087683407241 0 -18.026087683407241 -16.885919525080226 0 0 0 0 -5.8565980619032416 -18.450597801645927 0 -18.450597801645927 -40.671200551638321 0 0 0 0 7.5811724803489149 -11.12316220470127 0 -11.12316220470127 -18.532148036153245 0 0 0 0 39.622950290598965 -11.746435270069924 0 -11.746435270069924 -24.817612951064802 0 0 0 0 11.405651143124487 -1.6919543252533913 0 -1.6919543252533913 -11.967237510732957 0 0 0 0 111.30910673463586 -37.009736432433783 0 -37.009736432433783 -51.155274546210421 0 0 0 0 70.079392243960683 16.470872361551301 0 16.470872361551301 -12.052557213311957 0 0 0 0 3.5660324314275726 -1.2131014863436107 0 -1.2131014863436107 -0.053166863730282898 0 0 0 0 316.6313710606737 96.29960584141736 0 96.29960584141736 19.667433419163444 0 0 0 0 22.181252648759255 -7.1038582463261264 0 -7.1038582463261264 -3.6627841598710802 0 0 0 0 127.57580966101341 75.103841657877638 0 75.103841657877638 17.604892293362354 0 0 0 0 439.56265982732293 -144.45397811434304 0 -144.45397811434304 -10.898782924477928 0 0 0 0 260.15777228788102 -46.143366606032941 0 -46.143366606032941 -56.977199332541204 0 0 0 0 178.77647298769261 -105.71583278419894 0 -105.71583278419894 -15.648270680307178 0 0 0 0 147.46711731060327 -107.69615285856355 0 -107.69615285856355 -48.301335238822503 0 0 0 0 142.7305578959058 -26.673595611820929 0 -26.673595611820929 -59.219113244053005 0 0 0 0 84.974237263366376 -89.671821645315504 0 -89.671821645315504 -51.566981536569074 0 0 0 0 63.299583134506065 -141.91091496972331 0 -141.91091496972331 -40.934889088493946 0 0 0 0 67.781900497026072 -121.04679808928267 0 -121.04679808928267 -30.482853812101894 0 0 0 0 -40.511236321848628 -127.8951937260008 0 -127.8951937260008 -17.680728850216838 0 0 0 0 23.752476701960404 -174.2412377012588 0 -174.2412377012588 -8.8525374731107149 0 0 0 0 31.959786241472102 -122.31435272523231 0 -122.31435272523231 -1.1402399097278249 0 0 0 0 -30.65003389632875 -146.43175952449747 0 -146.43175952449747 25.034277502600162 0 0 0 0 142.67504554550214 -173.89288634737386 0 -173.89288634737386 -7.9792798418784514 0 0 0 0 162.96248035859389 -89.275611077337089 0 -89.275611077337089 -31.619504472590052 0 0 0 0 50.068354624199856 -161.07099016213942 0 -161.07099016213942 76.475808686729579 0 0 0 0 140.39632268787136 -95.86383548140293 0 -95.86383548140293 20.229336318428977 0 0 0 0 88.305757508423994 -76.390424676341354 0 -76.390424676341354 55.439313571207094 0 0 0 0 85.429321036819601 -94.012353705860733 0 -94.012353705860733 67.440791942215583 0 0 0 0 -56.234827777427199 -130.27458091234075 0 -130.27458091234075 15.641023755793867 0 0 0 0 15.221575495867 -92.770319715717051 0 -92.770319715717051 -2.3411696761177154 0 0 0 0 34.108899710716287 -124.35246640794867 0 -124.35246640794867 31.172828928254603 0 0 0 0 80.306449597515893 -75.018501820748497 0 -75.018501820748497 9.1073947067088739 0 0 0 0 16.590738179886102 -100.19966380439018 0 -100.19966380439018 20.900108348709182 0 0 0 0 14.888283678159496 -91.996979460597686 0 -91.996979460597686 -16.98115010804031 0 0 0 0 -56.979874646851385 -86.345991957638034 0 -86.345991957638034 20.005199939027079 0 0 0 0 77.281897418699373 -57.94401383227887 0 -57.94401383227887 4.8660472731717164 0 0 0 0 22.308226039616784 -106.53701152062422 0 -106.53701152062422 -2.3224701166909654 0 0 0 0 193.40402984619959 -49.421923205165513 0 -49.421923205165513 -59.903136769949924 0 0 0 0 163.89819693034588 -18.613763724482851 0 -18.613763724482851 26.698393550945184 0 0 0 0 97.181392021650026 -77.065391413143516 0 -77.065391413143516 -20.169112552641309 0 0 0 0 181.11525734556926 -48.910826223509503 0 -48.910826223509503 -57.642029425256624 0 0 0 0 10.422635378381528 -90.943440132075921 0 -90.943440132075921 -28.17816700336698 0 0 0 0 181.6433303169797 -36.484310253952572 0 -36.484310253952572 -109.29593836503045 0 0 0 0 -38.124844722391572 22.925758514096742 0 22.925758514096742 -34.913329657589202 0 0 0 0 71.57504419927136 22.911094417664572 0 22.911094417664572 -100.24871093381807 0 0 0 0 0.80605774165027722 -2.1173049701853763 0 -2.1173049701853763 1.0718815764054455 0 0 0 0 546.09003214678341 -62.235681785499764 0 -62.235681785499764 -101.43143508319918 0 0 0 0 -215.39077429379722 -194.08659374681156 0 -194.08659374681156 133.24828261978837 0 0 0 0 156.6572810946127 -49.434425291085063 0 -49.434425291085063 14.354388402571203 0 0 0 0 316.59373592041811 82.475810954667395 0 82.475810954667395 -40.764212721048352 0 0 0 0 413.34026626466948 57.754639395185222 0 57.754639395185222 -78.160991545504658 0 0 0 0 396.4429233387782 -137.41523439691082 0 -137.41523439691082 3.426150194456568 0 0 0 0 97.55919884548166 -262.20386335363401 0 -262.20386335363401 29.025002590380609 0 0 0 0 357.59248960710102 -262.4868632906946 0 -262.4868632906946 123.57100434625318 0 0 0 0 -181.48553678950702 -13.94223429077465 0 -13.94223429077465 212.7263219559245 0 0 0 0 140.12369821867304 -106.734249776225 0 -106.734249776225 298.38184641131375 0 0 0 0 257.33537755625002 23.691668162831775 0 23.691668162831775 2.4279859930102248 0 0 0 0 301.03103167183144 -122.5947712311463 0 -122.5947712311463 -46.333313317012653 0 0 0 0 48.555849441132523 -389.27970196048773 0 -389.27970196048773 72.839745168937952 0 0 0 0 20.445884803629205 -40.749656114985456 0 -40.749656114985456 -4.4604861489009977 0 0 0 0 -251.13476686523791 -92.006065506458981 0 -92.006065506458981 -2.5970522981515387 0 0 0 0 -9.5468701380623813 -7.2828194976120031 0 -7.2828194976120031 14.840237691448465 0 0 0 0 -10.044455477043812 -13.290267346845212 0 -13.290267346845212 -12.938995692955359 0 0 0 0 -10.741620798762597 -13.98179722819259 0 -13.98179722819259 -11.382853045780394 0 0 0 0 196.39766118757871 10.707461814856288 0 10.707461814856288 -32.80701761373075 0 0 0 0 5.637810161282232 -117.55001244009009 0 -117.55001244009009 26.900570247213182 0 0 0 0 2.3852261575180389 -8.425186945064258 0 -8.425186945064258 13.075063881401263 0 0 0 0 342.30617484930735 56.997183344497898 0 56.997183344497898 -63.285068095831775 0 0 0 0 -181.23631675702927 -85.837000151208485 0 -85.837000151208485 -41.565266213972791 0 0 0 0 -163.06862837962944 -73.095889087690011 0 -73.095889087690011 -1.8449543616879964 0 0 0 0 -243.81488656981446 -138.12362909102285 0 -138.12362909102285 -0.012133557378547266 0 0 0 0 -63.204295134415588 -157.82627767803206 0 -157.82627767803206 -23.340194646993041 0 0 0 0 -149.14051647802034 -129.27903612316777 0 -129.27903612316777 -3.9998604554057238 0 0 0 0 -126.70855369721903 -118.8946687593052 0 -118.8946687593052 -10.095607502174971 0 0 0 0 -183.56913602150235 -140.10927781512146 0 -140.10927781512146 9.8368030318160891 0 0 0 0 -118.5436205307451 -156.47905922144491 0 -156.47905922144491 -22.848682625444781 0 0 0 0 -32.31927673100995 -129.45972071363258 0 -129.45972071363258 -33.470187095634174 0 0 0 0 -78.53232736659993 -91.495092491769356 0 -91.495092491769356 -28.923270133767801 0 0 0 0 -198.04354091643836 -113.57392271522622 0 -113.57392271522622 16.991557680237747 0 0 0 0 -61.896598944110337 -112.02225787333373 0 -112.02225787333373 -28.988669606398616 0 0 0 0 -140.01153487206102 -75.728881880080735 0 -75.728881880080735 19.376546020306705 0 0 0 0 -338.12312382142409 -37.020307966147811 0 -37.020307966147811 -17.834038227927522 0 0 0 0 -170.83722367731571 -136.72336306213037 0 -136.72336306213037 8.9981957177515142 0 0 0 0 -199.89175557331373 -128.62621405977211 0 -128.62621405977211 -74.582286673074123 0 0 0 0 -410.5848600679501 -136.59562745143558 0 -136.59562745143558 11.290428039152175 0 0 0 0 2.2069517939055565 -7.40887252263924 0 -7.40887252263924 6.2192140983392505 0 0 0 0 -588.44585664133592 -191.28544536510344 0 -191.28544536510344 106.92003368040605 0 0 0 0 0.84968781867784848 -2.8683750704573647 0 -2.8683750704573647 1.7351806910525056 0 0 0 0 551.88109873518806 78.986062440622845 0 78.986062440622845 -120.16709695980717 0 0 0 0 -49.671254731336376 -164.41773739584823 0 -164.41773739584823 69.009685710127087 0 0 0 0 14.587369700009189 -44.947590736521363 0 -44.947590736521363 17.136328760932642 0 0 0 0 -238.73041349795676 -89.385619135126035 0 -89.385619135126035 -2.0521993827796905 0 0 0 0 -69.972702103614211 23.677490953075903 0 23.677490953075903 23.325710419658208 0 0 0 0 -171.08928173860954 -224.5625694989958 0 -224.5625694989958 212.35560726250696 0 0 0 0 15.99955758652208 -48.39696894830854 0 -48.39696894830854 32.57125265722955 0 0 0 0 -180.611494951434 -254.09507639157709 0 -254.09507639157709 68.11435479674401 0 0 0 0 44.315707007061974 -135.56966469074177 0 -135.56966469074177 27.402552994048165 0 0 0 0 -178.70729993717032 -137.30967149872231 0 -137.30967149872231 109.49987660226543 0 0 0 0 -255.03118511802404 -116.41442944293885 0 -116.41442944293885 109.32105393482198 0 0 0 0 -191.48659359561316 -70.396027852242696 0 -70.396027852242696 35.063472802539764 0 0 0 0 -133.16135299748021 -128.49930541489084 0 -128.49930541489084 87.725471393205225 0 0 0 0 -38.610027199532851 -123.00323394314182 0 -123.00323394314182 26.952707762662612 0 0 0 0 -101.28791141843976 -86.778772627934813 0 -86.778772627934813 53.381444492857554 0 0 0 0 -123.13406535638569 -136.15854025446242 0 -136.15854025446242 129.74940622360009 0 0 0 0 -28.978720669663744 -112.40250803595336 0 -112.40250803595336 54.611785105829767 0 0 0 0 -166.31899918899217 -92.434561854217463 0 -92.434561854217463 93.970582585032389 0 0 0 0 -118.58951054002682 -104.42606326341411 0 -104.42606326341411 114.8490933592584 0 0 0 0 -193.50582268406833 -121.73995475119227 0 -121.73995475119227 133.90354568626935 0 0 0 0 -61.491118107498551 -16.943172072533343 0 -16.943172072533343 14.77050530815859 0 0 0 0 -109.35549236466795 -135.80096276167387 0 -135.80096276167387 19.84247388257063 0 0 0 0 -144.10451121675214 -46.454539672227838 0 -46.454539672227838 75.89995317584544 0 0 0 0 -272.46412624390541 -8.0370514588794322 0 -8.0370514588794322 64.489111207061796 0 0 0 0 -183.58232579301387 -63.893062178581658 0 -63.893062178581658 70.475260010149213 0 0 0 0 -109.34811203624122 -116.50899096244029 0 -116.50899096244029 106.83714392519323 0 0 0 0 -102.43114147716733 -44.927796297133682 0 -44.927796297133682 35.336561035586783 0 0 0 0 -118.71953647643431 -73.501246652062491 0 -73.501246652062491 9.6635408528745756 0 0 0 0 -137.98936072080892 -24.355210463258118 0 -24.355210463258118 32.484387123389752 0 0 0 0 -215.92920086917002 -53.267473606078056 0 -53.267473606078056 55.981906078879547 0 0 0 0 -101.83899769885466 -64.247096143430099 0 -64.247096143430099 22.379276494564692 0 0 0 0 225.47743266146063 -57.800303268832067 0 -57.800303268832067 48.91615002391336 0 0 0 0 283.88648302377442 -125.61361676169145 0 -125.61361676169145 -18.912378166467533 0 0 0 0 363.74159216172484 -19.113419665602123 0 -19.113419665602123 56.230395229459646 0 0 0 0 0.26231115415034267 0.086388884400712129 0 0.086388884400712129 0.82876096950121791 0 0 0 0 -34.093967465634705 63.976458540259046 0 63.976458540259046 -16.803146107951761 0 0 0 0 648.18828689756538 -293.18705887476972 0 -293.18705887476972 -240.05507873200986 0 0 0 0 1.6562573257740674 -3.9587904541780343 0 -3.9587904541780343 3.1236701118091332 0 0 0 0 415.4737126773889 91.992524446828611 0 91.992524446828611 138.22284618462436 0 0 0 0 108.27455617231135 111.38041002274258 0 111.38041002274258 -56.515314973396016 0 0 0 0 150.94750172477325 101.69394731881948 0 101.69394731881948 -63.516515342111234 0 0 0 0 376.40527025347546 3.3255795843724627 0 3.3255795843724627 -31.673162014933041 0 0 0 0 241.53899648107927 -71.559381599953667 0 -71.559381599953667 -37.368806163896807 0 0 0 0 205.68490644563281 -24.491049403630313 0 -24.491049403630313 -95.186152171008871 0 0 0 0 220.7072014615951 -104.05471002711784 0 -104.05471002711784 -56.376549255161081 0 0 0 0 191.91656612454244 -73.481139451389026 0 -73.481139451389026 -80.686339708976448 0 0 0 0 168.06950793367832 -96.783903374474903 0 -96.783903374474903 -37.516994848934701 0 0 0 0 141.47612318697065 -71.697596049685671 0 -71.697596049685671 -25.778214531350386 0 0 0 0 119.70935882668527 -142.47552989802716 0 -142.47552989802716 35.978826763457619 0 0 0 0 187.40344838998317 -101.33442914626721 0 -101.33442914626721 -23.685213094518986 0 0 0 0 196.70297131487314 -113.13424333008152 0 -113.13424333008152 -30.259758810014318 0 0 0 0 -1.7781143479514867 -78.76728062067923 0 -78.76728062067923 8.1745507752784761 0 0 0 0 72.213109930502469 -122.76198598922565 0 -122.76198598922565 11.037526632499066 0 0 0 0 96.19326522317715 -112.43952225396788 0 -112.43952225396788 10.445690132009076 0 0 0 0 81.212023753059839 -188.09982931105696 0 -188.09982931105696 106.04463526584004 0 0 0 0 -23.508226597385146 -137.43233527168923 0 -137.43233527168923 86.358891483119805 0 0 0 0 149.06925709300049 -133.63645527922563 0 -133.63645527922563 31.780856013921948 0 0 0 0 165.94567589576582 -160.88272286642677 0 -160.88272286642677 66.758687669520441 0 0 0 0 124.55867210443375 -186.26908131609343 0 -186.26908131609343 209.38301956550276 0 0 0 0 366.85035799104298 -217.54628817893172 0 -217.54628817893172 80.498009600098158 0 0 0 0 116.95960964653841 -207.88128478117687 0 -207.88128478117687 167.80826272608829 0 0 0 0 2.55265669567234 -92.250061231388827 0 -92.250061231388827 196.3421890501013 0 0 0 0 327.07131568188561 -193.20960016492609 0 -193.20960016492609 176.23910885805526 0 0 0 0 -5.8439123998941795 -123.10639739732505 0 -123.10639739732505 133.48633598158267 0 0 0 0 -56.585153031945083 -168.26306892799221 0 -168.26306892799221 136.98542072103737 0 0 0 0 -79.747203172824811 -76.236098565565044 0 -76.236098565565044 139.19628559424802 0 0 0 0 -12.484969947508944 23.271980074976454 0 23.271980074976454 124.71574754263565 0 0 0 0 -21.928307765092541 -125.76794400500876 0 -125.76794400500876 150.57403839957988 0 0 0 0 25.830512118120168 33.97068194077292 0 33.97068194077292 202.45774845957567 0 0 0 0 63.694067580663614 -27.629543364259007 0 -27.629543364259007 -30.849068492243532 0 0 0 0 92.636731254569895 -242.29637436998019 0 -242.29637436998019 296.75177062610601 0 0 0 0 -2.5268933983243187 -166.0466861953646 0 -166.0466861953646 520.43481244033137 0 0 0 0 396.36581422153176 -462.79536453755645 0 -462.79536453755645 318.69005296190153 0 0 0 0 1.0326411618403357 -2.0426962352091955 0 -2.0426962352091955 1.9940894399993567 0 0 0 0 874.1392836015475 -192.91202659570718 0 -192.91202659570718 4.2256667252222542 0 0 0 0 4.0257450281907197 2.8114329006454568 0 2.8114329006454568 3.5492373217225008 0 0 0 0 304.51309728671913 193.92979189056132 0 193.92979189056132 185.21288284562979 0 0 0 0 500.54169503726916 -197.26186323028196 0 -197.26186323028196 10.994781241039163 0 0 0 0 -122.86939938984415 -273.92736315459388 0 -273.92736315459388 264.03122403369343 0 0 0 0 637.76982268986831 -405.29827679272421 0 -405.29827679272421 186.94478739912665 0 0 0 0 480.09318670656285 -390.6560048306419 0 -390.6560048306419 208.4756449795459 0 0 0 0 461.86081088008086 -271.58745098042618 0 -271.58745098042618 180.54239962663269 0 0 0 0 710.29146109569774 -279.69167455121351 0 -279.69167455121351 156.82476298855545 0 0 0 0 583.47178350867034 -130.588560436845 0 -130.588560436845 61.827502369822469 0 0 0 0 705.49255655829347 -264.58829191259247 0 -264.58829191259247 168.46830722026061 0 0 0 0 662.29430979251583 -330.41732529677438 0 -330.41732529677438 -110.11949386711058 0 0 0 0 251.93664405991512 -33.797748540229804 0 -33.797748540229804 55.734687956495691 0 0 0 0 141.87702777835693 -76.030124440625514 0 -76.030124440625514 8.1072609216425917 0 0 0 0 -106.18904009038852 -3.40918405040793 0 -3.40918405040793 -12.590326570825709 0 0 0 0 51.736406838797848 -39.43446626027071 0 -39.43446626027071 71.845378589103348 0 0 0 0 191.30106719033392 -129.1915543938012 0 -129.1915543938012 54.223353038338246 0 0 0 0 361.20451262909774 -24.806477551814169 0 -24.806477551814169 -413.62897575560055 0 0 0 0 386.93718310022996 -430.9246849623778 0 -430.9246849623778 407.82077917828065 0 0 0 0 2.1190409369368339 -1.5856518507367383 0 -1.5856518507367383 0.022289745364179048 0 0 0 0 1.3529116868559257 -2.4200642522225735 0 -2.4200642522225735 0.091336828049610741 0 0 0 0 49.250460419923911 -59.191685137600871 0 -59.191685137600871 -57.97816487855016 0 0 0 0 96.876188930058561 -261.17251103230228 0 -261.17251103230228 28.539299043233086 0 0 0 0 -82.540264634928462 -49.639945802409784 0 -49.639945802409784 62.228997016201902 0 0 0 0 301.60967353515298 -186.69160411654229 0 -186.69160411654229 -223.10010089410207 0 0 0 0 -307.31658840638738 -452.43583919029697 0 -452.43583919029697 -177.27252257375221 0 0 0 0 -0.86941744446623659 -1.5900869493834762 0 -1.5900869493834762 -1.9516224219320435 0 0 0 0 112.97434909165304 -39.112118124000972 0 -39.112118124000972 -177.31121665188402 0 0 0 0 -28.321248524967814 -187.99986469206488 0 -187.99986469206488 -11.545711699669482 0 0 0 0 92.657489021170477 -117.65550115181395 0 -117.65550115181395 5.8792171743543804 0 0 0 0 9.4364287302068988 -113.71419945227171 0 -113.71419945227171 92.980933257276774 0 0 0 0 -1.2286225743023209 -3.0039453839182784 0 -3.0039453839182784 -4.1221818285142291 0 0 0 0 69.42390485227952 -78.503564630515029 0 -78.503564630515029 97.385520622898184 0 0 0 0 -216.43266148027033 255.62671964110268 0 255.62671964110268 17.083405139812385 0 0 0 0 -71.528171237319839 262.49968065641224 0 262.49968065641224 132.16942587137964 0 0 0 0 154.39079867806322 66.398509288166679 0 66.398509288166679 26.389514681497531 0 0 0 0 -2.348537481540248 0.19718017767780083 0 0.19718017767780083 1.2448131784425698 0 0 0 0 49.67041644227811 -188.87155998091202 0 -188.87155998091202 38.091241081565386 0 0 0 0 -61.679935040974669 53.336302307536243 0 53.336302307536243 77.935986732316451 0 0 0 0 135.01288574920272 -65.953538212062995 0 -65.953538212062995 64.162131895129278 0 0 0 0 68.077453907993913 -95.895308047289291 0 -95.895308047289291 104.09822666621767 0 0 0 0 259.28218125897729 -128.38595658307531 0 -128.38595658307531 69.517568932387803 0 0 0 0 122.1932781693431 -127.40960090954832 0 -127.40960090954832 101.59859605944621 0 0 0 0 538.01813922301699 -147.7380519658891 0 -147.7380519658891 31.704675145214424 0 0 0 0 199.56956326904765 -133.58613966377379 0 -133.58613966377379 103.80854374918272 0 0 0 0 95.700873248591961 -87.217381984381063 0 -87.217381984381063 110.79479835286111 0 0 0 0 195.33563120325562 -66.491137468285615 0 -66.491137468285615 88.409533167403424 0 0 0 0 -67.858969027811327 -114.42263315766104 0 -114.42263315766104 -32.032759567577159 0 0 0 0 -84.140144036753782 -35.264390559269032 0 -35.264390559269032 46.260166359003051 0 0 0 0 -93.49714785521428 -46.625794485087681 0 -46.625794485087681 32.787993965582416 0 0 0 0 -35.349928800569614 -72.225493505799022 0 -72.225493505799022 69.720451340988802 0 0 0 0 -172.87113556157237 -26.621464834359358 0 -26.621464834359358 48.547883673563774 0 0 0 0 11.496146880275774 69.925270283907594 0 69.925270283907594 98.875127294872073 0 0 0 0 -111.79014160624456 24.807054434702877 0 24.807054434702877 -7.1420095804933226 0 0 0 0 -173.7090957156106 -173.74318884314198 0 -173.74318884314198 -157.44700067422309 0 0 0 0 -0.75953914946369849 -0.61317438140618208 0 -0.61317438140618208 0.28641654102785541 0 0 0 0 -591.14530977670074 148.60454724650481 0 148.60454724650481 561.77527270575865 0 0 0 0 -176.38620097111152 -33.109390853284367 0 -33.109390853284367 245.8521131122834 0 0 0 0 -547.52715105483003 20.320974833826767 0 20.320974833826767 251.46033069075565 0 0 0 0 -631.84361985802389 -132.17664736607003 0 -132.17664736607003 121.08467270330584 0 0 0 0 1.5261073317069531 -41.108284747573634 0 -41.108284747573634 -18.329438220578595 0 0 0 0 -136.75485761401796 -134.18280242171022 0 -134.18280242171022 -57.659152822125179 0 0 0 0 -7.6474089530984628 -0.081767207519249041 0 -0.081767207519249041 0.22631991843352495 0 0 0 0 -251.57232246989679 -396.63605692177225 0 -396.63605692177225 -485.81001985170587 0 0 0 0 -183.97868311527054 137.0124975851686 0 137.0124975851686 235.12696836373289 0 0 0 0 -20.363693500113662 2.1358020328842855 0 2.1358020328842855 -0.30673458536855946 0 0 0 0 -136.64858116885625 -129.85579916708593 0 -129.85579916708593 -91.583636942097655 0 0 0 0 -94.101613008420827 -80.115743524379013 0 -80.115743524379013 -36.613881321936788 0 0 0 0 -76.914138335005191 -8.6345104211650323 0 -8.6345104211650323 15.112332804965263 0 0 0 0 -51.110880102272858 12.078309063283086 0 12.078309063283086 187.9915978026329 0 0 0 0 -277.67390787793738 43.202367622619931 0 43.202367622619931 42.435513132470078 0 0 0 0 -371.31453989922011 -182.47200891599641 0 -182.47200891599641 18.386858916011988 0 0 0 0 -150.91619056471245 -76.050216378464029 0 -76.050216378464029 22.307531731348718 0 0 0 0 -156.88019233069281 -65.260735154606664 0 -65.260735154606664 3.3390567429451039 0 0 0 0 -180.53515282484295 -160.5013488726463 0 -160.5013488726463 -35.961981541713612 0 0 0 0 -208.80205675238903 -127.69908711564494 0 -127.69908711564494 -4.362683005459985 0 0 0 0 -197.85467520866132 -197.68058629432926 0 -197.68058629432926 -184.7729483610965 0 0 0 0 -178.06526104611476 -142.04087662936581 0 -142.04087662936581 -33.531160669017936 0 0 0 0 -4.1191965990665338 0.006003351458254258 0 0.006003351458254258 2.1617151493156967 0 0 0 0 -163.35026394953456 -153.96421339765038 0 -153.96421339765038 -41.852926776475215 0 0 0 0 -191.90022906556646 -7.0675910976133309 0 -7.0675910976133309 152.32387022524199 0 0 0 0 -4.2668916435975746 0.34937282525840629 0 0.34937282525840629 2.0153677579837534 0 0 0 0 -83.34541311024077 -72.400068093580558 0 -72.400068093580558 -45.349288108496694 0 0 0 0 -64.68574419156505 -43.058232759498651 0 -43.058232759498651 -12.135812719490787 0 0 0 0 -63.425950259092133 -54.272901232370714 0 -54.272901232370714 -6.6482220114266966 0 0 0 0 -65.2844185252834 -57.159810436914995 0 -57.159810436914995 7.760947807408229 0 0 0 0 -49.807414735776547 -57.652171628975339 0 -57.652171628975339 -0.034332334063947201 0 0 0 0 -64.680745196569887 -42.595144556435116 0 -42.595144556435116 1.2641407241317211 0 0 0 0 -75.04982739852494 -47.455459621240152 0 -47.455459621240152 -0.66267698567753541 0 0 0 0 -19.23177361872149 22.77010539173807 0 22.77010539173807 49.247714508837817 0 0 0 0 -2.5512117907335323 -0.28774746366622139 0 -0.28774746366622139 1.5793538969209777 0 0 0 0 -150.76686505976249 -21.879801229275472 0 -21.879801229275472 52.578100846138113 0 0 0 0 -312.71072468919738 -116.66778454917949 0 -116.66778454917949 0.11513594462895348 0 0 0 0 -427.81838048855207 -162.68288478016621 0 -162.68288478016621 -50.801580320860012 0 0 0 0 -437.83233720708813 -213.92364624511174 0 -213.92364624511174 -185.85405925759551 0 0 0 0 32.583620698764207 -10.093585559250641 0 -10.093585559250641 -33.053296708028938 0 0 0 0 54.590439968039391 -28.429808701489492 0 -28.429808701489492 -135.51277362160909 0 0 0 0 0.77613551318018636 -0.77542662470489176 0 -0.77542662470489176 -2.089917062004389 0 0 0 0 170.12905985895395 -169.31860449619489 0 -169.31860449619489 111.50397468473238 0 0 0 0 116.52804523037412 -59.413499974747538 0 -59.413499974747538 -22.772813682066044 0 0 0 0 -0.16571773862409955 -2.1812737269702183 0 -2.1812737269702183 -3.7249125703030046 0 0 0 0 -32.237512931647871 -28.834788691383437 0 -28.834788691383437 -0.77865610257686058 0 0 0 0 -31.052452164953138 -38.40702430460442 0 -38.40702430460442 -57.516022846844407 0 0 0 0 -222.86845367537535 -141.71003124968411 0 -141.71003124968411 -42.740221515745361 0 0 0 0 -76.135023722608821 -29.387174729545222 0 -29.387174729545222 -24.563234590808861 0 0 0 0 -28.541011723218958 -41.399773934281882 0 -41.399773934281882 -46.343173994602694 0 0 0 0 -28.432548083231808 -46.370969285582817 0 -46.370969285582817 -23.172932499364833 0 0 0 0 -64.407996504978655 -55.552608091002185 0 -55.552608091002185 0.01643129038711777 0 0 0 0 -49.99635216273964 -45.203576978430647 0 -45.203576978430647 -20.153533926648379 0 0 0 0 -34.717502034187874 -65.402967253624411 0 -65.402967253624411 -0.037062345010781428 0 0 0 0 -0.48069119925276027 -64.119101836451591 0 -64.119101836451591 -31.460483249662502 0 0 0 0 34.732331671712018 -107.8081291671042 0 -107.8081291671042 -88.227556875572191 0 0 0 0 5.1055195293638462 -100.69589318305225 0 -100.69589318305225 0.0054030719911679626 0 0 0 0 -0.73197351776278197 -78.332830646460479 0 -78.332830646460479 -38.338189976544527 0 0 0 0 50.831150033161975 -79.580983499352442 0 -79.580983499352442 -35.907300482489518 0 0 0 0 107.67099506748582 -128.21710277573038 0 -128.21710277573038 -0.063876056341541698 0 0 0 0 12.421632660023533 -99.893149965777411 0 -99.893149965777411 -28.508439983012977 0 0 0 0 109.32654659944728 -134.43824771938125 0 -134.43824771938125 0.01164357897505397 0 0 0 0 108.16952806740301 -129.68818506549724 0 -129.68818506549724 -8.4405533766384906 0 0 0 0 110.68840881018969 -148.44414366025012 0 -148.44414366025012 -19.373948367077901 0 0 0 0 110.63913220466509 -151.86681551484617 0 -151.86681551484617 19.150444669699937 0 0 0 0 181.31328959056646 -211.54340742240674 0 -211.54340742240674 24.762215661201481 0 0 0 0 59.48436628747595 -189.01204554614628 0 -189.01204554614628 59.612709532881127 0 0 0 0 228.75362932380722 -307.77056658374204 0 -307.77056658374204 137.45122956441628 0 0 0 0 138.57978377016479 -223.6593009870885 0 -223.6593009870885 3.9384491348318988 0 0 0 0 156.29893118471136 -104.80914573022892 0 -104.80914573022892 -95.671211098742788 0 0 0 0 217.40739661396219 -110.21844506348498 0 -110.21844506348498 123.12018604669356 0 0 0 0 77.653353711830277 -114.07673017898742 0 -114.07673017898742 96.508621902332379 0 0 0 0 121.1637581751138 -201.387629619363 0 -201.387629619363 107.39799719450821 0 0 0 0 264.67916060410323 -257.389184318861 0 -257.389184318861 129.18191533550998 0 0 0 0 175.65374486417386 -268.13285310052743 0 -268.13285310052743 156.04107415482576 0 0 0 0 442.796083878437 -447.7211729933033 0 -447.7211729933033 269.31226298764523 0 0 0 0 4.841605953848557 -173.15825679119007 0 -173.15825679119007 31.651035812858026 0 0 0 0 193.67453092229039 -196.16632600927369 0 -196.16632600927369 -23.94210537672916 0 0 0 0 251.28391611512961 -324.80401686722689 0 -324.80401686722689 96.640930911758915 0 0 0 0 134.46758962941749 -253.5963689408909 0 -253.5963689408909 281.17001893498673 0 0 0 0 208.63637213814764 -116.69782380710967 0 -116.69782380710967 -145.78584276921538 0 0 0 0 1.0928987044858722 -2.171120595900959 0 -2.171120595900959 2.3305675941933259 0 0 0 0 -79.647100559352111 -152.83216793706742 0 -152.83216793706742 259.48147349108694 0 0 0 0 -43.361140605314347 -28.475218750460954 0 -28.475218750460954 -1.0075145273367525 0 0 0 0 20.725034734254166 -216.18681352385215 0 -216.18681352385215 -181.40899365000223 0 0 0 0 3.2627849215095779 -4.4691859283367563 0 -4.4691859283367563 4.073917583252566 0 0 0 0 -26.40694410411561 70.294502458655188 0 70.294502458655188 -53.591568789568555 0 0 0 0 -3.7736086684052736 12.803420891823407 0 12.803420891823407 24.515230835604598 0 0 0 0 2.8273286251042329 -0.87623285766925108 0 -0.87623285766925108 -0.12564497651788287 0 0 0 0 135.23941667357849 -176.73080270642822 0 -176.73080270642822 185.58546089599258 0 0 0 0 7.6913798265504738 -158.71544170229026 0 -158.71544170229026 652.34339050052222 0 0 0 0 70.681574378055302 13.244741885311669 0 13.244741885311669 -47.842062087460363 0 0 0 0 187.03482827606558 -138.21100139275131 0 -138.21100139275131 6.0978869336177013 0 0 0 0 -189.04891070063968 -57.969513387160987 0 -57.969513387160987 175.5773909381287 0 0 0 0 -213.08143555499919 41.825976507159794 0 41.825976507159794 -72.752185478704632 0 0 0 0 1.0860901023096048 -4.5075598318674963 0 -4.5075598318674963 3.4073440024098431 0 0 0 0 747.55837778237765 -335.16090421300032 0 -335.16090421300032 156.07066398324969 0 0 0 0 -651.82494277698606 181.32600702687705 0 181.32600702687705 -1.8481123727833619 0 0 0 0 750.53788525914206 -315.96223174934494 0 -315.96223174934494 227.0558193130928 0 0 0 0 646.76813628831314 -360.38829416772478 0 -360.38829416772478 208.11796201583638 0 0 0 0 -390.63201155178103 -53.137724950334814 0 -53.137724950334814 13.397942529954889 0 0 0 0 -0.58763756132591638 -1.4396317625673305 0 -1.4396317625673305 1.2018479751702387 0 0 0 0 1169.6545323799 -472.82838173122946 0 -472.82838173122946 -2.1927104610731476 0 0 0 0 -673.59658256858984 179.0482539387649 0 179.0482539387649 -10.039651582614169 0 0 0 0 -455.37032491586433 -99.847291096895788 0 -99.847291096895788 92.55093031278011 0 0 0 0 9.3226389859099754 -250.16735021326895 0 -250.16735021326895 81.916227866153349 0 0 0 0 288.51737308339762 -538.67860608153569 0 -538.67860608153569 319.28299833950587 0 0 0 0 33.123543326185029 -15.090498387722619 0 -15.090498387722619 -31.915908327675425 0 0 0 0 2.8680112133214903 -4.839034565942363 0 -4.839034565942363 -2.6794062729332211 0 0 0 0 36.822563939290248 -25.26504686285989 0 -25.26504686285989 -6.872205690247938 0 0 0 0 34.501541557553537 0.78795046718187223 0 0.78795046718187223 -16.347786512611492 0 0 0 0 23.127892746459565 -8.2899147279622412 0 -8.2899147279622412 -16.903893192946271 0 0 0 0 30.931971608747517 -5.0623257558236219 0 -5.0623257558236219 -25.738183717265201 0 0 0 0 24.112952579010074 -5.1743922189585021 0 -5.1743922189585021 -5.7836694480318229 0 0 0 0 792.16826521971961 -104.65105882522766 0 -104.65105882522766 411.98662813122064 0 0 0 0 18.042761241234253 -1.7288918669242008 0 -1.7288918669242008 -2.7905631464303724 0 0 0 0 37.861043930515734 -20.748628866098443 0 -20.748628866098443 -19.357499080637353 0 0 0 0 -109.79249736037491 -322.52118819224415 0 -322.52118819224415 666.53933493196018 0 0 0 0 9.4949148276892785 -1.3825481676305884 0 -1.3825481676305884 -0.33580538085335121 0 0 0 0 11.217527596814762 -20.987082255556743 0 -20.987082255556743 -76.601384654335561 0 0 0 0 -198.14714136812836 -87.903170225763461 0 -87.903170225763461 462.87700477793987 0 0 0 0 26.853705329458535 72.083578758232761 0 72.083578758232761 -19.92642946162232 0 0 0 0 1.160572503987332 -2.5485293470028125 0 -2.5485293470028125 2.9638766288605183 0 0 0 0 219.59426829365475 -100.21372343969415 0 -100.21372343969415 -159.70731022889595 0 0 0 0 416.76685196738595 -189.72831603582108 0 -189.72831603582108 -132.78012357527768 0 0 0 0 -111.60798822652487 -173.22839785850738 0 -173.22839785850738 458.0192268744795 0 0 0 0 63.600331196533261 1.9192759700199531 0 1.9192759700199531 -104.26198443643807 0 0 0 0 193.57638795679986 -68.843348140773742 0 -68.843348140773742 -74.242335860377352 0 0 0 0 -59.233822499445978 -24.980765613123367 0 -24.980765613123367 -3.4991247709622257 0 0 0 0 -65.785218656541019 -157.24121097103489 0 -157.24121097103489 -86.231455496261333 0 0 0 0 50.183859993132046 -87.464946923093521 0 -87.464946923093521 19.995219145625015 0 0 0 0 53.944628430656394 -31.817931247016531 0 -31.817931247016531 28.075821054013431 0 0 0 0 186.22326748071862 -101.78229760805016 0 -101.78229760805016 37.406667242263211 0 0 0 0 253.01420155928486 -214.59969056707132 0 -214.59969056707132 -7.9455629995645722 0 0 0 0 -27.979186404482505 -33.859249655346503 0 -33.859249655346503 36.696963544440223 0 0 0 0 284.67722872568976 -137.32343962592495 0 -137.32343962592495 11.390905979318632 0 0 0 0 -1.3141132758639267 -1.731805625523549 0 -1.731805625523549 -2.7375920992226952 0 0 0 0 303.01769534797097 -115.94764235222829 0 -115.94764235222829 12.681017465181867 0 0 0 0 150.79948966423626 -73.68178726305996 0 -73.68178726305996 53.244688804123143 0 0 0 0 129.1900222943159 -95.993079204929927 0 -95.993079204929927 48.715599259521696 0 0 0 0 143.50736341952529 -73.941423775300791 0 -73.941423775300791 42.984470208222774 0 0 0 0 152.8312972918205 -143.65668704550967 0 -143.65668704550967 12.194769254572748 0 0 0 0 87.740304579861686 -109.15559189329997 0 -109.15559189329997 21.523408849348925 0 0 0 0 -1.2691178197969748 -114.83545904093808 0 -114.83545904093808 111.38938818202951 0 0 0 0 55.415222762724028 -145.45926972269785 0 -145.45926972269785 79.813453977094468 0 0 0 0 95.41897632757491 -127.90309454473754 0 -127.90309454473754 56.713037820443787 0 0 0 0 122.65462497770955 -113.22551625600136 0 -113.22551625600136 21.656288484340621 0 0 0 0 111.29373734540059 -129.56313638165011 0 -129.56313638165011 7.8827255960095499 0 0 0 0 112.33170025186564 -128.42125470157407 0 -128.42125470157407 0.017877837370178895 0 0 0 0 129.90260963557216 -113.2126104832787 0 -113.2126104832787 -0.0090546700521372259 0 0 0 0 118.4751718815024 -123.50856818770899 0 -123.50856818770899 13.038399090874009 0 0 0 0 96.74918080537816 -104.98610804568489 0 -104.98610804568489 0.049733187854144489 0 0 0 0 73.272711263382803 -129.03789171041717 0 -129.03789171041717 15.359201945861059 0 0 0 0 65.110763849747855 -81.351719787537149 0 -81.351719787537149 20.961566669582453 0 0 0 0 156.19134771755469 -38.035047819097599 0 -38.035047819097599 -1.3094781177387631 0 0 0 0 140.23956924192066 -68.234776209148549 0 -68.234776209148549 22.171571402596328 0 0 0 0 254.22955252500105 -58.36776256468147 0 -58.36776256468147 5.9863143422990106 0 0 0 0 223.92441827665061 -61.972744990358478 0 -61.972744990358478 0.015790335339261219 0 0 0 0 165.80721899022319 -87.895110696834308 0 -87.895110696834308 12.772174578109116 0 0 0 0 65.240875697478259 -46.489803649441455 0 -46.489803649441455 -35.186460197070119 0 0 0 0 -16.147965730632677 -3.5977559579573608 0 -3.5977559579573608 0.86942000145427301 0 0 0 0 -11.272970666660369 0.8226607388493985 0 0.8226607388493985 0.47667804387731394 0 0 0 0 114.0552189550981 -103.59872471159906 0 -103.59872471159906 74.681345318618696 0 0 0 0 -0.82824105715694607 -2.7897581599359569 0 -2.7897581599359569 0.14677542552275469 0 0 0 0 -76.313096982693423 22.33682162651894 0 22.33682162651894 68.800346542793704 0 0 0 0 -5.8629202094754875 -9.5258635180265738 0 -9.5258635180265738 -5.5752901921714226 0 0 0 0 215.17007229992987 -86.322469575992727 0 -86.322469575992727 -13.825425184655614 0 0 0 0 -5.6623285537047598 -11.687771638944225 0 -11.687771638944225 -10.190156984211995 0 0 0 0 62.702700325748083 -57.257722273359832 0 -57.257722273359832 -24.34152180653291 0 0 0 0 -14.418020120065194 -28.911936999707905 0 -28.911936999707905 -6.0474255670524144 0 0 0 0 14.264336145824927 -28.178872373518971 0 -28.178872373518971 -9.0482673745373177 0 0 0 0 -100.64965039716083 -68.872675594324392 0 -68.872675594324392 50.895668040966029 0 0 0 0 0.35537074040682171 -0.24891789602608227 0 -0.24891789602608227 -1.4233363933906276 0 0 0 0 -138.22349351876633 34.300118616572945 0 34.300118616572945 16.714636259697727 0 0 0 0 150.18915795848645 -123.17619484414899 0 -123.17619484414899 -45.684955957549391 0 0 0 0 -109.66321168233117 -18.694326168351836 0 -18.694326168351836 408.99735504138152 0 0 0 0 40.125585095705901 -4.5097866899668588 0 -4.5097866899668588 189.84910084887633 0 0 0 0 -4.1390020024265937 -1.6828126530669039 0 -1.6828126530669039 0.56823658716090719 0 0 0 0 19.652442047475688 15.103026431889703 0 15.103026431889703 132.34001564618666 0 0 0 0 16.510314921288227 11.170504461690143 0 11.170504461690143 215.41219543110219 0 0 0 0 51.084147368634149 38.475874791842216 0 38.475874791842216 219.99044699498518 0 0 0 0 -84.362015941107529 -156.25099288124329 0 -156.25099288124329 -318.81751042046017 0 0 0 0 -171.21313195054245 -344.53813693534175 0 -344.53813693534175 -407.47013394917303 0 0 0 0 -258.0281407956154 -177.73910505211825 0 -177.73910505211825 -0.19618489203639911 0 0 0 0 -313.96653939160569 -295.62368884955504 0 -295.62368884955504 -84.295907726020232 0 0 0 0 -34.184917802802374 -52.15045357344934 0 -52.15045357344934 -184.71163535528467 0 0 0 0 -46.256831825279278 -11.861646937032674 0 -11.861646937032674 -2.5034971048007719 0 0 0 0 29.647270510911767 -24.446124353980849 0 -24.446124353980849 139.6903024820931 0 0 0 0 70.164348412316031 19.69387358556196 0 19.69387358556196 185.05920085607795 0 0 0 0 -85.419882550359034 -114.56411756415764 0 -114.56411756415764 65.598389938360924 0 0 0 0 -77.673969252897223 -70.176777908392978 0 -70.176777908392978 189.80313258231399 0 0 0 0 -53.160658949880599 -16.818598041911173 0 -16.818598041911173 125.63025555772401 0 0 0 0 -10.520177198959168 -2.1603477779041214 0 -2.1603477779041214 1.00929227589927 0 0 0 0 -14.368642317287595 -2.8108627743058605 0 -2.8108627743058605 -0.095912849443266168 0 0 0 0 -46.176064090606815 -31.670930080807011 0 -31.670930080807011 146.5934089576258 0 0 0 0 -14.370575212116819 -2.7262751219095662 0 -2.7262751219095662 0.035322035357239656 0 0 0 0 -15.908347194278544 -2.0432071911868661 0 -2.0432071911868661 1.1961728449766404 0 0 0 0 -46.983199937752943 -49.832127321322332 0 -49.832127321322332 34.519571457606617 0 0 0 0 -44.402766249379056 -60.352963230230671 0 -60.352963230230671 36.156247087718384 0 0 0 0 73.729680571938502 17.836200836090256 0 17.836200836090256 -3.7681719019383308 0 0 0 0 0.41287925297562111 -0.64890223362573352 0 -0.64890223362573352 0.83319964959240167 0 0 0 0 15.893013537619481 -11.909158982831286 0 -11.909158982831286 -15.607977549942007 0 0 0 0 16.840380541925697 -9.9687672376567207 0 -9.9687672376567207 -17.356717456812476 0 0 0 0 1.7575988549480073 -1.8715306656849293 0 -1.8715306656849293 1.7006492709694925 0 0 0 0 16.340707283907079 -4.9482242555743596 0 -4.9482242555743596 -10.194230808709108 0 0 0 0 -43.624362932217764 -44.480065347092932 0 -44.480065347092932 -54.498124169331277 0 0 0 0 -58.055776127763238 -52.64352522531226 0 -52.64352522531226 -58.531543767552648 0 0 0 0 -1.2370308024688086 -1.0825040509014059 0 -1.0825040509014059 0.50839708620359403 0 0 0 0 -11.218235668480702 -113.04145248623036 0 -113.04145248623036 -237.32383006878081 0 0 0 0 -7.8705726859843708 -14.869769412798632 0 -14.869769412798632 233.56960060755591 0 0 0 0 -58.236120600213781 -87.946648944899152 0 -87.946648944899152 -110.21261869109003 0 0 0 0 -45.56341731422981 -29.430501733175333 0 -29.430501733175333 -69.616139585857695 0 0 0 0 2.0131472579832987 -6.9176112666687999 0 -6.9176112666687999 3.355922756436243 0 0 0 0 -5.0840838337353489 -33.244443476184642 0 -33.244443476184642 -4.6642160726260045 0 0 0 0 -11.776981091559264 -14.014653299554993 0 -14.014653299554993 -1.1783553691348061 0 0 0 0 -2.938157601380226 -21.683503849286353 0 -21.683503849286353 5.4604011729825288 0 0 0 0 -16.042553990286478 -55.785828766351187 0 -55.785828766351187 -46.52372045890661 0 0 0 0 3.6545894510755872 -2.9289342158785985 0 -2.9289342158785985 2.9238979597438828 0 0 0 0 -4.3352584942531394 -8.8423002300442022 0 -8.8423002300442022 -70.605875449781024 0 0 0 0 -2.7677077413163715 -18.522030127740436 0 -18.522030127740436 -16.113675743355998 0 0 0 0 -1.6735571192730276 -9.1192718528054684 0 -9.1192718528054684 -14.684275124986016 0 0 0 0 1.2992352987112099 -14.491349233634537 0 -14.491349233634537 -9.4790334994831937 0 0 0 0 -5.0440364333771868 -11.729374580313561 0 -11.729374580313561 -3.0611863034573616 0 0 0 0 2.4677706894158291 -16.830791363285243 0 -16.830791363285243 -4.8334558613714762 0 0 0 0 7.5380517798002984 -14.008816967863822 0 -14.008816967863822 -14.003737518307389 0 0 0 0 11.77213557478899 -13.951458758725494 0 -13.951458758725494 -14.124876087349548 0 0 0 0 0.83744202977322857 -8.1302480334197753 0 -8.1302480334197753 -10.496017209532056 0 0 0 0 11.921835471853683 -16.957179576338604 0 -16.957179576338604 -17.601341093159135 0 0 0 0 7.4442938861639583 -16.733498317974068 0 -16.733498317974068 7.3750661611897428 0 0 0 0 18.57212221313921 -45.21773066082369 0 -45.21773066082369 -57.871569370283396 0 0 0 0 -6.2175047533855832 -45.514073141441258 0 -45.514073141441258 -23.268328606270643 0 0 0 0 -11.039729575011734 -30.378082102705321 0 -30.378082102705321 -12.24083060331759 0 0 0 0 -9.5608333196541935 -35.479180104546685 0 -35.479180104546685 -6.6140733597494545 0 0 0 0 0.79029434244512231 -16.402430958984041 0 -16.402430958984041 -4.2337060210811615 0 0 0 0 5.5565065206906539 -16.949673228400009 0 -16.949673228400009 4.7526188115046821 0 0 0 0 3.5090444646812102 -19.92137386379909 0 -19.92137386379909 0.17613395345324534 0 0 0 0 0.19596251530872166 -2.1258004381309235 0 -2.1258004381309235 7.0549841888313409 0 0 0 0 9.9707018931185303 -35.157456974346132 0 -35.157456974346132 -22.957339631095238 0 0 0 0 -3.0782042964201537 -39.899516345616576 0 -39.899516345616576 -26.163824061146443 0 0 0 0 -3.3417242708800359 -36.247551603775833 0 -36.247551603775833 -12.110028483184578 0 0 0 0 6.1950147205157009 -28.551126110756286 0 -28.551126110756286 12.657012314943131 0 0 0 0 9.2778277743582294 -39.347712377422795 0 -39.347712377422795 -9.7463345634096186 0 0 0 0 6.9390234129148176 -13.770607131693474 0 -13.770607131693474 3.4493233254532498 0 0 0 0 7.0947163069138242 -13.610188747553643 0 -13.610188747553643 6.7824977800316333 0 0 0 0 -0.36156259625931852 -11.125092950915132 0 -11.125092950915132 6.6948361641661904 0 0 0 0 17.205514794295595 -22.725817408983858 0 -22.725817408983858 -5.4245210045046406 0 0 0 0 1.3595395904403276 -13.872588120336438 0 -13.872588120336438 3.5159521511237841 0 0 0 0 7.0150510480452795 -28.741832500847522 0 -28.741832500847522 4.880074213525404 0 0 0 0 -2.1231529513347738 -1.9723244250812115 0 -1.9723244250812115 -1.7214190985624498 0 0 0 0 -13.839847016119165 -10.188732501534105 0 -10.188732501534105 -2.2219152880497859 0 0 0 0 47.937626836268009 -58.947434846704709 0 -58.947434846704709 49.056622970980243 0 0 0 0 -1.3901185257573849 -6.8896102070030452 0 -6.8896102070030452 -7.8856310198845279 0 0 0 0 27.891840102051219 -61.241262555915455 0 -61.241262555915455 71.190451485963422 0 0 0 0 -4.228555149589738 -37.194582531723427 0 -37.194582531723427 -57.778515286554466 0 0 0 0 47.144871972986266 -94.582771206896723 0 -94.582771206896723 -82.185484412353617 0 0 0 0 -141.43170881228525 88.429344875359675 0 88.429344875359675 18.794633709527261 0 0 0 0 140.42839205093094 -53.50585232766025 0 -53.50585232766025 -198.61054589910782 0 0 0 0 47.548961401417387 -70.239722512895241 0 -70.239722512895241 17.484518814006151 0 0 0 0 -4.1717818141073622 -24.285103295529552 0 -24.285103295529552 36.788638740701572 0 0 0 0 11.990785237532918 -77.256291993831837 0 -77.256291993831837 55.096791003226826 0 0 0 0 38.435017972873084 -72.414062611998816 0 -72.414062611998816 31.327071613188309 0 0 0 0 -1.8177064913400329 -24.82546434208416 0 -24.82546434208416 -9.0012923919130117 0 0 0 0 -49.285581790456717 -59.298797232295328 0 -59.298797232295328 38.442922859001555 0 0 0 0 26.314451188347448 -118.3520795140721 0 -118.3520795140721 38.898124244593419 0 0 0 0 76.106511963418029 -106.72415493415247 0 -106.72415493415247 17.912125192349777 0 0 0 0 -6.4983836242220239 -15.082324085229153 0 -15.082324085229153 -13.166582516304828 0 0 0 0 9.8749732091409896 -23.530446753250544 0 -23.530446753250544 -13.77908070612466 0 0 0 0 23.559032827929514 -20.749150178457967 0 -20.749150178457967 -15.823996873157739 0 0 0 0 8.1368458015622309 -18.784791518381098 0 -18.784791518381098 -15.902597299653735 0 0 0 0 12.150540388785885 -25.36389112348661 0 -25.36389112348661 -16.979204768475029 0 0 0 0 16.579960393211877 -34.725670829902811 0 -34.725670829902811 -77.75253117596003 0 0 0 0 8.2155064177169805 -19.547819464926967 0 -19.547819464926967 -0.42326031991815327 0 0 0 0 2.2314817325132026 -32.757846066902857 0 -32.757846066902857 -58.565678448670951 0 0 0 0 6.9449194995540893 -19.042382120131151 0 -19.042382120131151 -32.362329977622721 0 0 0 0 18.277298195803269 -17.984329661783704 0 -17.984329661783704 -66.397056195375626 0 0 0 0 7.5108771259583591 -25.002903219334257 0 -25.002903219334257 -52.305550490636961 0 0 0 0 0.65020071269373148 -38.092195145336518 0 -38.092195145336518 -29.638639717002661 0 0 0 0 53.665815711394316 -58.091206625984341 0 -58.091206625984341 -24.89942946424344 0 0 0 0 20.845901230317395 -17.505788839012894 0 -17.505788839012894 -15.510649063311575 0 0 0 0 16.304888836129976 -26.006580810910236 0 -26.006580810910236 -30.877702812649659 0 0 0 0 3.4365355494282994 -11.286797774522711 0 -11.286797774522711 -10.100753159957094 0 0 0 0 -0.51751793756284314 -19.484447417713454 0 -19.484447417713454 -23.706744913481089 0 0 0 0 -6.6966523778357594 -13.919826189426589 0 -13.919826189426589 -20.706271220673614 0 0 0 0 7.003871212510262 -13.577305318432082 0 -13.577305318432082 -41.686814843269531 0 0 0 0 1.2127888268689366 -20.166221193617943 0 -20.166221193617943 -43.534878034920069 0 0 0 0 -10.5558197681612 -29.135953283011986 0 -29.135953283011986 -48.726111350115389 0 0 0 0 -2.1523034942547383 -21.540300986933289 0 -21.540300986933289 -42.335255928375773 0 0 0 0 24.051319012977824 -5.7864237494261346 0 -5.7864237494261346 -7.842823651938275 0 0 0 0 36.32077937586871 -10.891322379313351 0 -10.891322379313351 -26.526503070577746 0 0 0 0 -36.381052602509499 -31.771955210009764 0 -31.771955210009764 17.752056890254607 0 0 0 0 3.9214087526061494 -5.3671178341884449 0 -5.3671178341884449 0.47202858037596229 0 0 0 0 -11.002837330777083 33.287776019365992 0 33.287776019365992 -58.641590862112935 0 0 0 0 5.4584599663024989 -15.93503496330932 0 -15.93503496330932 -22.924592018068161 0 0 0 0 14.615330209549693 -38.674653444142677 0 -38.674653444142677 -26.541386198674445 0 0 0 0 -1.5109376835861363 -13.075304301416093 0 -13.075304301416093 -14.671484787377977 0 0 0 0 49.92245946516141 -15.844722984846157 0 -15.844722984846157 -17.677447213840424 0 0 0 0 12.881437008881079 -15.286150462037767 0 -15.286150462037767 -13.379296302713556 0 0 0 0 36.147837497675297 -0.31963436051046301 0 -0.31963436051046301 -10.060974071276178 0 0 0 0 -1.9514713262178702 -20.156804866614038 0 -20.156804866614038 -10.738284918479621 0 0 0 0 23.017034705677816 -46.503978196961725 0 -46.503978196961725 8.4986075868764601 0 0 0 0 -5.7317425628957812 -12.417676849370286 0 -12.417676849370286 -20.686627928745054 0 0 0 0 -3.3432710778994941 -11.437529475192031 0 -11.437529475192031 -19.268499954922447 0 0 0 0 29.865232615843802 -41.680725056368829 0 -41.680725056368829 -26.292189907195279 0 0 0 0 -88.093149656278911 -50.449356477878609 0 -50.449356477878609 38.248198195251462 0 0 0 0 64.544697299700999 -7.7293022429366829 0 -7.7293022429366829 -12.527610211109277 0 0 0 0 88.624892185094723 45.205039780190418 0 45.205039780190418 -141.55752270489029 0 0 0 0 -140.29061843127784 38.447915794720757 0 38.447915794720757 12.726733285555383 0 0 0 0 -8.9214234148062133 33.347028356069131 0 33.347028356069131 -23.574281240587879 0 0 0 0 -152.57320454272303 -155.62064649628155 0 -155.62064649628155 -79.551001611005631 0 0 0 0 -102.92982443611436 -47.865085151534004 0 -47.865085151534004 -9.3747638051127069 0 0 0 0 -47.493608696656452 -34.103571087960518 0 -34.103571087960518 -33.45720504799101 0 0 0 0 -61.681262389973199 -90.435681804134219 0 -90.435681804134219 -196.09816745566059 0 0 0 0 -162.97842444962953 -117.25896373708383 0 -117.25896373708383 -84.858813013735926 0 0 0 0 2.660715176539318 -1.3255577841025854 0 -1.3255577841025854 -4.3393239673538346 0 0 0 0 -232.47149836152676 -99.326199117756914 0 -99.326199117756914 -0.96952908790990477 0 0 0 0 -112.85812395808625 7.2033994850353338 0 7.2033994850353338 -40.416331431799335 0 0 0 0 -249.14094128813667 -121.67597513414512 0 -121.67597513414512 -23.931956114931381 0 0 0 0 -206.61405734874916 -200.39373385590443 0 -200.39373385590443 -220.60656817432027 0 0 0 0 -247.20254998702512 -118.70921947630268 0 -118.70921947630268 -18.283781908387027 0 0 0 0 0.92251945346573905 -1.7917171281747173 0 -1.7917171281747173 1.8947231638569519 0 0 0 0 44.084009028531909 -15.240924052812261 0 -15.240924052812261 -13.020616125999368 0 0 0 0 49.123754181253389 -9.5102552066309727 0 -9.5102552066309727 -15.038124637860165 0 0 0 0 112.19282135684534 -25.311441045871106 0 -25.311441045871106 -53.49426697754825 0 0 0 0 14.556987133954614 -16.397432819110868 0 -16.397432819110868 -16.428407920833045 0 0 0 0 2.5734386439751233 -12.859415866535528 0 -12.859415866535528 -21.788431678534835 0 0 0 0 -0.12315862491329277 -0.59742437633701684 0 -0.59742437633701684 2.2872827168858834 0 0 0 0 -10.200768494148178 -57.315997115869322 0 -57.315997115869322 71.492531828967913 0 0 0 0 297.23984003428814 5.2603137022415467 0 5.2603137022415467 -36.664797320496291 0 0 0 0 59.868799250190932 -79.602763094502734 0 -79.602763094502734 -98.829843797066133 0 0 0 0 12.953131293184015 -118.59583892057708 0 -118.59583892057708 77.909357621203526 0 0 0 0 113.06619560670651 -162.34536205401491 0 -162.34536205401491 -23.781274095767003 0 0 0 0 155.37330795487833 49.987948031030101 0 49.987948031030101 -21.938437523578614 0 0 0 0 -41.074194664402739 34.634403271514202 0 34.634403271514202 96.045254566852236 0 0 0 0 125.22027011266164 -79.711055523846881 0 -79.711055523846881 -19.269549252530851 0 0 0 0 33.848459998550425 -36.312666181293025 0 -36.312666181293025 -16.099345597605861 0 0 0 0 21.400112109578913 -3.1448675838400959 0 -3.1448675838400959 -10.115375221027534 0 0 0 0 19.112254235891669 1.6835979713550842 0 1.6835979713550842 -10.308695270978205 0 0 0 0 54.318185543526852 -33.722043676269095 0 -33.722043676269095 -15.029838327500329 0 0 0 0 58.907086205482756 -27.828310598169082 0 -27.828310598169082 -13.437570588081144 0 0 0 0 -81.129185940580101 -67.756810727407355 0 -67.756810727407355 -16.417055027544848 0 0 0 0 112.33152431917006 -33.063612152704081 0 -33.063612152704081 -32.548761704536446 0 0 0 0 -0.03312637029099319 0.098521769666358949 0 0.098521769666358949 0.18997492414261785 0 0 0 0 -35.849936358816194 -29.378499435790218 0 -29.378499435790218 -12.584701488831342 0 0 0 0 -14.819588843185556 -49.681288890060387 0 -49.681288890060387 -18.977508199404838 0 0 0 0 -0.9534796867019395 -37.062625100048535 0 -37.062625100048535 -10.492107697609754 0 0 0 0 -6.0006730688292009 -30.012832581527618 0 -30.012832581527618 -16.597487629302123 0 0 0 0 -0.0071664252866643352 -0.11682669344213181 0 -0.11682669344213181 0.32935143326574234 0 0 0 0 5.2941001335982492 -39.777844588887092 0 -39.777844588887092 -7.307460933123366 0 0 0 0 3.1906271600837499 -46.077289176519116 0 -46.077289176519116 -14.116698336163608 0 0 0 0 3.8294135773030575 -46.791096480683336 0 -46.791096480683336 -17.251268749373594 0 0 0 0 -3.4242757676483961 -41.450583147819998 0 -41.450583147819998 -18.104221620920725 0 0 0 0 0.9551036394050243 -46.55892506352393 0 -46.55892506352393 -12.419757696236047 0 0 0 0 -2.0233053555857623 -49.327852710752268 0 -49.327852710752268 -14.974250923084583 0 0 0 0 1.1073859724351678 -46.557785042984506 0 -46.557785042984506 -13.491850372396584 0 0 0 0 2.6024272526867662 -46.759345379301521 0 -46.759345379301521 -20.877308433577127 0 0 0 0 3.0673318727695005 -44.253224876178137 0 -44.253224876178137 -12.214760037859378 0 0 0 0 4.0113763842273329 -44.560655724500975 0 -44.560655724500975 -13.281986608360967 0 0 0 0 1.9387731874021483 -46.153925872275067 0 -46.153925872275067 -4.1677730516821612 0 0 0 0 7.3146212145247773 -29.70774791007716 0 -29.70774791007716 0.057109393244900275 0 0 0 0 4.7846066265883564 -28.495734325049852 0 -28.495734325049852 -19.297880115923363 0 0 0 0 4.3774877062960513 -37.201072553081758 0 -37.201072553081758 -17.762052964237228 0 0 0 0 4.0241111046971128 -37.074596905766157 0 -37.074596905766157 -16.644368605222553 0 0 0 0 13.959560692888772 -39.920723875897238 0 -39.920723875897238 -25.722131004429684 0 0 0 0 7.1558425930579688 -38.58751832598864 0 -38.58751832598864 -25.977620627292708 0 0 0 0 -15.632822502411727 -57.793777219796539 0 -57.793777219796539 24.855965433955134 0 0 0 0 13.851776118273847 -26.164219152073201 0 -26.164219152073201 -2.6561727934058581 0 0 0 0 40.783575185118025 -61.218367136520101 0 -61.218367136520101 -12.285550626780605 0 0 0 0 96.248553121898112 -13.947010157400655 0 -13.947010157400655 -18.757865599248362 0 0 0 0 36.905099319028523 -31.718178159408126 0 -31.718178159408126 -21.204450890349108 0 0 0 0 -80.819988804692002 -37.327830051572164 0 -37.327830051572164 7.4171204977101297 0 0 0 0 -0.059793327372120952 0.18901618934925679 0 0.18901618934925679 0.24974162091204732 0 0 0 0 10.601268739967054 -23.609224230742257 0 -23.609224230742257 -10.668846785869391 0 0 0 0 12.135944294619549 -22.750293905930448 0 -22.750293905930448 -10.264118124625384 0 0 0 0 8.5176648402781545 -3.978749359494671 0 -3.978749359494671 6.3350177798495935 0 0 0 0 15.526463174668606 -32.852104979431715 0 -32.852104979431715 -23.407398735973402 0 0 0 0 10.249877050133364 -52.295550059439847 0 -52.295550059439847 5.0291748919262318 0 0 0 0 -15.319428520507245 -8.5298946312777844 0 -8.5298946312777844 -19.658501638550661 0 0 0 0 -0.29862361328923726 -32.993490413260588 0 -32.993490413260588 4.2444711580949388 0 0 0 0 1.6818818484571239 -22.782404915114967 0 -22.782404915114967 15.285587071162809 0 0 0 0 54.927163976948464 -120.74587400386099 0 -120.74587400386099 162.48047433313332 0 0 0 0 10.125583408737839 -22.203203190329077 0 -22.203203190329077 6.4217159311748446 0 0 0 0 6.1372568249108532 -24.103337855057298 0 -24.103337855057298 6.068706864376721 0 0 0 0 1.8167924252848024 -22.720523348849383 0 -22.720523348849383 195.35856867710208 0 0 0 0 14.138210592079417 -17.571321843603982 0 -17.571321843603982 23.031105720499909 0 0 0 0 9.0495869966077258 -16.440366998666036 0 -16.440366998666036 10.545867336948533 0 0 0 0 -31.502798396262847 1.9702618644296308 0 1.9702618644296308 79.366171228644816 0 0 0 0 26.791540023743465 -44.561088813220699 0 -44.561088813220699 10.846232621943955 0 0 0 0 -99.895201994018862 -196.02086878981208 0 -196.02086878981208 433.19113907251449 0 0 0 0 203.37553752157146 239.51097158553421 0 239.51097158553421 163.27046317199711 0 0 0 0 16.490227123744262 -66.630656827794155 0 -66.630656827794155 -6.3657680198957678 0 0 0 0 5.5431194531229266 -58.402249299360847 0 -58.402249299360847 49.433757269041962 0 0 0 0 16.048366414942393 -40.537301538901374 0 -40.537301538901374 -29.013749931575148 0 0 0 0 15.607267903976663 -60.512142045608925 0 -60.512142045608925 -41.448621372270281 0 0 0 0 10.273476655738705 -31.325933154326776 0 -31.325933154326776 -43.393630526130437 0 0 0 0 23.521672802415196 -46.81857153668534 0 -46.81857153668534 -70.568153853033436 0 0 0 0 21.963330965121713 -5.0003740110769286 0 -5.0003740110769286 -99.553665539753183 0 0 0 0 2.5166696248589169 -1.2332645587494255 0 -1.2332645587494255 -0.71021606029820727 0 0 0 0 7.510101751451657 -17.308754683399457 0 -17.308754683399457 -49.340214823350834 0 0 0 0 1.6570435613066365 -33.643009507628449 0 -33.643009507628449 -12.08291809905495 0 0 0 0 5.8298169866749987 -23.082052762934332 0 -23.082052762934332 -2.1154072611515793 0 0 0 0 11.476521367030728 -23.659287758087885 0 -23.659287758087885 6.4142176895475131 0 0 0 0 -16.269540607440376 76.070265029276015 0 76.070265029276015 383.61818646773827 0 0 0 0 1.2059331389500585 -25.196182530989972 0 -25.196182530989972 10.614473061013996 0 0 0 0 3.7211011329819357 -18.639078228994673 0 -18.639078228994673 -8.1473395445684744 0 0 0 0 -6.4994321275135007 97.375379307201911 0 97.375379307201911 -271.66912494269445 0 0 0 0 23.258136659686443 88.948110438219828 0 88.948110438219828 -344.31492322479062 0 0 0 0 18.268632821260439 100.70437814093111 0 100.70437814093111 -371.72749391605248 0 0 0 0 -4.2686832420977225 25.364881265271833 0 25.364881265271833 -241.80539484557812 0 0 0 0 -18.956559226212221 -36.701026488173738 0 -36.701026488173738 -378.07144239550689 0 0 0 0 -0.35910642660928715 -11.854059341063476 0 -11.854059341063476 -170.11630141701426 0 0 0 0 -91.221953371724339 -13.124179201098741 0 -13.124179201098741 23.22983646830653 0 0 0 0 -3.5527462238393528 -3.3922535195479924 0 -3.3922535195479924 1.1827175618244752 0 0 0 0 95.756329712684135 27.921446248661596 0 27.921446248661596 -270.06347908081807 0 0 0 0 -57.875693409298037 0.838663703561906 0 0.838663703561906 20.25915495893787 0 0 0 0 -68.869160351295477 -175.09506767685525 0 -175.09506767685525 -509.68354077174808 0 0 0 0 -128.03678146044376 123.07500958549463 0 123.07500958549463 -141.49187012973471 0 0 0 0 8.1894508866363207 -18.050666842921061 0 -18.050666842921061 -4.7024601009810425 0 0 0 0 -0.77030580221902589 -0.3429440331187692 0 -0.3429440331187692 -3.5275961016734527 0 0 0 0 0.39957776875871787 -89.0337785519514 0 -89.0337785519514 -185.48438420390721 0 0 0 0 -279.3022197719356 41.685115193229649 0 41.685115193229649 -230.7091201833864 0 0 0 0 144.43439922311154 83.78302319737486 0 83.78302319737486 -529.05199563844758 0 0 0 0 110.71301273822496 111.2615124874992 0 111.2615124874992 -331.06934743639067 0 0 0 0 238.64550344373822 109.10809968228114 0 109.10809968228114 -408.45538156954353 0 0 0 0 155.37659158204127 20.910180080916689 0 20.910180080916689 -388.16627586170944 0 0 0 0 -54.578244206511499 189.65025106052781 0 189.65025106052781 -551.13377422974554 0 0 0 0 -447.59685746009723 -556.39138983947305 0 -556.39138983947305 -185.34640440304065 0 0 0 0 64.575351934101718 -366.03591177429189 0 -366.03591177429189 -640.78112325655457 0 0 0 0 -1.2579326142453546 1.5977143144118138 0 1.5977143144118138 -2.8851750254653652 0 0 0 0 -1.0009250416726445 -291.28886088750642 0 -291.28886088750642 8.8087618933714111 0 0 0 0 399.71300904135751 -158.27801575073681 0 -158.27801575073681 -233.8450984475694 0 0 0 0 -31.626308262602379 -237.65925864516976 0 -237.65925864516976 -192.62029035773594 0 0 0 0 -102.21183141352481 504.85089033183976 0 504.85089033183976 67.72661108950706 0 0 0 0 -444.65113583419003 -42.948040633852301 0 -42.948040633852301 -38.886541345273145 0 0 0 0 91.483103135698229 -535.59864066435694 0 -535.59864066435694 2.2276002516650806 0 0 0 0 -242.95989524332242 -88.003441024864514 0 -88.003441024864514 63.278951715881703 0 0 0 0 -2.0693945485105587 -144.91193330642454 0 -144.91193330642454 -51.99636174414627 0 0 0 0 89.25337434213408 -53.468223794371625 0 -53.468223794371625 -132.52249292081251 0 0 0 0 24.569224773807491 -105.006598371172 0 -105.006598371172 -323.25644532538354 0 0 0 0 -108.41366306399141 99.034067859276547 0 99.034067859276547 -247.48584068843593 0 0 0 0 89.644370642881086 89.552491646496492 0 89.552491646496492 -134.54926034208074 0 0 0 0 16.0108809441831 -22.305178705923026 0 -22.305178705923026 -141.05720042457688 0 0 0 0 -0.44000693597173779 27.151694033796957 0 27.151694033796957 220.72934797714697 0 0 0 0 -48.566847164036062 -208.45483609155053 0 -208.45483609155053 22.214131861981514 0 0 0 0 335.34522929239847 171.44171773456401 0 171.44171773456401 -200.27528230661665 0 0 0 0 1.552311907144122 -1.7269286482711799 0 -1.7269286482711799 1.2799417567222378 0 0 0 0 227.81667936069491 368.93169762046091 0 368.93169762046091 95.437044778918789 0 0 0 0 2.4947521576550855 -0.97073817148471164 0 -0.97073817148471164 0.04879046604546744 0 0 0 0 451.09775947296703 127.30226982232853 0 127.30226982232853 -245.756429109897 0 0 0 0 56.316967936165838 170.26252827891585 0 170.26252827891585 -74.523291736621104 0 0 0 0 -75.311636813144105 -93.369875204395612 0 -93.369875204395612 -136.66429908455757 0 0 0 0 7.258161290229376 -4.3124982132967951 0 -4.3124982132967951 4.3121467219566085 0 0 0 0 -38.516000551321667 -80.645965292536857 0 -80.645965292536857 -107.34326883663016 0 0 0 0 -67.359958429317885 -76.551559475006798 0 -76.551559475006798 -116.64780888762471 0 0 0 0 -40.102568861717373 -60.596654915076215 0 -60.596654915076215 -108.51202252532676 0 0 0 0 -9.717811735403302 -45.752429308551655 0 -45.752429308551655 -97.743157669348875 0 0 0 0 1.7282270264313411 -29.69768281733559 0 -29.69768281733559 -82.574961387897929 0 0 0 0 -20.772697224409058 -45.30989707664412 0 -45.30989707664412 -88.496444745658664 0 0 0 0 -24.10410871926797 -60.848897950105311 0 -60.848897950105311 -122.5866450486792 0 0 0 0 -49.960522409286568 -72.441496692061264 0 -72.441496692061264 -74.197238516911966 0 0 0 0 -15.879984706871255 -55.39721754972561 0 -55.39721754972561 -97.259715749325551 0 0 0 0 -21.555877457265524 -49.52363731215155 0 -49.52363731215155 -67.683469028943364 0 0 0 0 -58.510530974477206 -143.59275826445082 0 -143.59275826445082 -53.831155921317077 0 0 0 0 -30.038485756668706 -46.813070437514398 0 -46.813070437514398 -66.98895384871139 0 0 0 0 6.6663981065730695 -10.892708737917928 0 -10.892708737917928 -132.08424758636829 0 0 0 0 7.5842160248856541 -3.1403105673594922 0 -3.1403105673594922 1.0191097888360545 0 0 0 0 -45.798762669020107 42.290809426162014 0 42.290809426162014 -131.62134999399859 0 0 0 0 124.42166031728486 86.145519407559391 0 86.145519407559391 -40.625054481326515 0 0 0 0 113.33380428034489 -114.6790092384872 0 -114.6790092384872 -18.017998998915573 0 0 0 0 40.457204712893997 -44.038411259132772 0 -44.038411259132772 -218.40002906854352 0 0 0 0 -75.862978348205615 -28.524070013287201 0 -28.524070013287201 -30.767802454964112 0 0 0 0 -1.8001191010767339 -2.494642905338516 0 -2.494642905338516 2.3552035638703601 0 0 0 0 -60.753754266084798 -39.504917204321828 0 -39.504917204321828 -58.707803885961766 0 0 0 0 -17.77494570518752 -79.57807253413921 0 -79.57807253413921 -87.576404766841733 0 0 0 0 134.63621122910263 -24.612547206952513 0 -24.612547206952513 -362.20833035364194 0 0 0 0 8.6272842585229874 -11.097211352553131 0 -11.097211352553131 -3.1103292646560092 0 0 0 0 -0.56087609856452225 1.8313138553427422 0 1.8313138553427422 -0.069649775800770808 0 0 0 0 -4.5456410320284704 -98.058660153208621 0 -98.058660153208621 93.874290386233042 0 0 0 0 15.210068061478182 -32.889595351363823 0 -32.889595351363823 21.722405908229121 0 0 0 0 13.479245618315616 -40.503059011684854 0 -40.503059011684854 27.160318511825608 0 0 0 0 16.461938893576253 -22.990937647702253 0 -22.990937647702253 23.991507689933613 0 0 0 0 13.534542870760561 -135.06445764180535 0 -135.06445764180535 -23.425308753307036 0 0 0 0 -0.29128002847301104 -36.449771393343326 0 -36.449771393343326 -8.5726594825091524 0 0 0 0 6.5451670687771291 -4.9359025158685554 0 -4.9359025158685554 -0.95367253456780077 0 0 0 0 52.298026263907559 -19.521192362311012 0 -19.521192362311012 -29.379358815371234 0 0 0 0 76.297778067989213 -75.860314804485824 0 -75.860314804485824 27.029506739976568 0 0 0 0 347.85580534913259 -58.285317419241892 0 -58.285317419241892 -74.079903744128387 0 0 0 0 112.0459727248117 -31.711974100687257 0 -31.711974100687257 13.994614378931146 0 0 0 0 23.147537150669834 -29.039781390281902 0 -29.039781390281902 6.5329932414483753 0 0 0 0 0.1114235097005345 -4.5153564544449694 0 -4.5153564544449694 13.244152509933263 0 0 0 0 -26.496934550370383 -64.89557384971522 0 -64.89557384971522 -27.442552466593042 0 0 0 0 97.43909005374644 -157.3677598692193 0 -157.3677598692193 38.815101660497021 0 0 0 0 -100.6592465987278 -114.75184511231782 0 -114.75184511231782 61.121872107549279 0 0 0 0 4.3214868374091804 0.51756435119195743 0 0.51756435119195743 -14.426846391477838 0 0 0 0 -85.78613417692236 -218.14316735282773 0 -218.14316735282773 -174.27714184142678 0 0 0 0 -96.621240214978457 -97.148253057497641 0 -97.148253057497641 -112.14010171324571 0 0 0 0 -3.994684814286245 -9.2577923780318123 0 -9.2577923780318123 -15.350634229017842 0 0 0 0 -3.4874765905551612 -223.24317732311647 0 -223.24317732311647 -339.27257543514133 0 0 0 0 -37.562514233974071 -9.856625394171715 0 -9.856625394171715 -120.17734118500994 0 0 0 0 20.169155489591503 -73.612837023476459 0 -73.612837023476459 -345.25948882209377 0 0 0 0 -21.472848275982869 -51.30882261611805 0 -51.30882261611805 -61.187212836762228 0 0 0 0 -22.02660099523834 -48.16645459639544 0 -48.16645459639544 -15.227848100972992 0 0 0 0 64.565368125326131 -29.841566049717585 0 -29.841566049717585 -99.86622122786298 0 0 0 0 -12.756590774402028 -58.637095195111108 0 -58.637095195111108 -21.119044981329765 0 0 0 0 -33.500548279593204 -79.554265630882583 0 -79.554265630882583 14.926228852889835 0 0 0 0 -4.2111843091952323 -115.26675985646352 0 -115.26675985646352 -49.187859638608643 0 0 0 0 -28.647954689055041 -135.5215895522997 0 -135.5215895522997 4.6135146250708203 0 0 0 0 -24.47387837023004 -59.442115973833765 0 -59.442115973833765 -22.550027991993367 0 0 0 0 35.297988074537898 -210.08231375952391 0 -210.08231375952391 -161.15442151153547 0 0 0 0 31.89890115691378 -192.48196307688977 0 -192.48196307688977 -248.90075605369657 0 0 0 0 43.285605436654805 -101.48198280515953 0 -101.48198280515953 -145.02949221746439 0 0 0 0 75.5751715345923 -257.75209218707005 0 -257.75209218707005 -206.02365585605003 0 0 0 0 -8.0464565354486695 -227.9631052012237 0 -227.9631052012237 -69.067042651116935 0 0 0 0 58.731415357673541 -161.91719676311732 0 -161.91719676311732 -82.085679194507975 0 0 0 0 51.574590140643977 -307.5241303219251 0 -307.5241303219251 -177.56523563307564 0 0 0 0 144.84057997361379 -89.747327961053088 0 -89.747327961053088 -23.41492488195945 0 0 0 0 10.699396934956894 -172.02231153704997 0 -172.02231153704997 198.81857805794061 0 0 0 0 137.20749005502466 -148.6943330610145 0 -148.6943330610145 247.85996604082175 0 0 0 0 38.39141107362957 -258.71754707033142 0 -258.71754707033142 146.11100369541055 0 0 0 0 65.947153947528022 -200.30601206140648 0 -200.30601206140648 -61.109203560779861 0 0 0 0 51.559648349528288 -277.04887324797346 0 -277.04887324797346 34.867864519836075 0 0 0 0 107.43580361006752 -339.64768259113225 0 -339.64768259113225 133.24900887638432 0 0 0 0 286.33777797996299 -192.30860821616261 0 -192.30860821616261 -135.24788242308978 0 0 0 0 78.49799379463002 -178.45278183045502 0 -178.45278183045502 -118.48852204313698 0 0 0 0 109.91048676180526 -116.46355759251264 0 -116.46355759251264 -299.71477592309202 0 0 0 0 124.22294653346762 -75.466764781678194 0 -75.466764781678194 -205.85574881839057 0 0 0 0 77.012704893542832 -147.92695532281414 0 -147.92695532281414 -267.79124076657718 0 0 0 0 44.407995271718391 -129.1926727222417 0 -129.1926727222417 -70.312561423623265 0 0 0 0 81.052821569886873 3.3957303417510047 0 3.3957303417510047 -6.5618419212114532 0 0 0 0 1.3006504036702857 -0.25706024232753855 0 -0.25706024232753855 -5.8663133896312658 0 0 0 0 63.75555562120735 118.28559475963516 0 118.28559475963516 -414.96561847604789 0 0 0 0 27.473150222430831 154.63160215984726 0 154.63160215984726 -227.32495890675273 0 0 0 0 -37.126925153062984 -155.08606937077184 0 -155.08606937077184 -118.66263582551528 0 0 0 0 91.849634189738936 -145.68718952580866 0 -145.68718952580866 -551.1408760925151 0 0 0 0 27.971616812175853 -28.423314898252102 0 -28.423314898252102 -3.1310866349294884 0 0 0 0 143.3065829276311 -100.49173947477539 0 -100.49173947477539 -71.244790414399176 0 0 0 0 15.302568956845789 90.486882134049665 0 90.486882134049665 -138.24422912198906 0 0 0 0 24.465557774105037 1.9070764793705166 0 1.9070764793705166 -345.81576125309402 0 0 0 0 3.2320139241537618 13.978771779346516 0 13.978771779346516 -264.39835915671119 0 0 0 0 2.2379111246553904 -23.283225260973545 0 -23.283225260973545 -0.38592374322788903 0 0 0 0 4.9215865733749524 -22.741598255262943 0 -22.741598255262943 5.6854450875889597 0 0 0 0 -2.9008712999529962 -18.595633227068902 0 -18.595633227068902 4.0031070672957867 0 0 0 0 -1.8635311131474737 -23.561672119576542 0 -23.561672119576542 6.6841189186488918 0 0 0 0 -0.5756754946884115 -21.16581832953765 0 -21.16581832953765 -8.2854777028526954 0 0 0 0 73.718814614463554 71.055388585591572 0 71.055388585591572 -415.36272996535172 0 0 0 0 -3.7846030527996604 -24.093665929327805 0 -24.093665929327805 -9.4329783823302371 0 0 0 0 -18.131734617039911 -43.054969222297586 0 -43.054969222297586 -13.843314150202787 0 0 0 0 -15.63251200384002 -33.687831213621394 0 -33.687831213621394 -35.850094353165332 0 0 0 0 -16.385652754940566 -43.940961589247308 0 -43.940961589247308 -21.637867465076852 0 0 0 0 48.266058857923781 4.7388648539345013 0 4.7388648539345013 -45.907657256486345 0 0 0 0 -2.4944578646027367 -52.063817577938607 0 -52.063817577938607 -12.936773687746609 0 0 0 0 20.032530494549974 -53.623503886672552 0 -53.623503886672552 -20.096846240528976 0 0 0 0 11.679165326222574 -41.347155570430914 0 -41.347155570430914 -13.078641903131938 0 0 0 0 -163.55187295131327 -151.123440575735 0 -151.123440575735 -54.546346488783456 0 0 0 0 -90.871441867147951 160.00927083461556 0 160.00927083461556 -428.66900330021417 0 0 0 0 79.965854923686493 -15.855129744613805 0 -15.855129744613805 -524.36572377240554 0 0 0 0 16.005494431428815 -159.01959761681974 0 -159.01959761681974 -403.47145620592164 0 0 0 0 -5.8500251243855743 -22.236985910877316 0 -22.236985910877316 4.7737662713969584 0 0 0 0 -13.68912448194169 -44.537239173430862 0 -44.537239173430862 -37.31173196589225 0 0 0 0 -9.2681600174910272 -39.46311825704106 0 -39.46311825704106 -48.349635409252699 0 0 0 0 -15.825634708453435 -40.967116869524034 0 -40.967116869524034 -33.553136302776693 0 0 0 0 -22.680855244139821 -50.514860981700622 0 -50.514860981700622 -30.372810806682537 0 0 0 0 -13.650390758793861 -45.98596751823942 0 -45.98596751823942 -58.427982719207648 0 0 0 0 -16.405076219985617 -45.020731707246682 0 -45.020731707246682 -17.743078044124925 0 0 0 0 -21.916649070804851 -45.106573169290641 0 -45.106573169290641 -21.621393809204164 0 0 0 0 -20.232676451164025 -48.985426296419064 0 -48.985426296419064 -25.0987528146361 0 0 0 0 -16.896500413974536 -43.971129354726145 0 -43.971129354726145 -17.644635185308289 0 0 0 0 -19.826469888013889 -50.536240199604435 0 -50.536240199604435 -15.655321832594382 0 0 0 0 -19.714322021822227 -48.966494399892326 0 -48.966494399892326 -20.891034806575135 0 0 0 0 13.31497018256794 -13.966763077344027 0 -13.966763077344027 19.221390035124557 0 0 0 0 -35.845998089236673 -48.922556436496961 0 -48.922556436496961 -9.1039876627910417 0 0 0 0 2.5495194445604739 -50.841990414701741 0 -50.841990414701741 -24.193472541184747 0 0 0 0 10.141318868254984 -43.625131093253913 0 -43.625131093253913 -21.514450519302045 0 0 0 0 3.3060929735656828 -46.86337712671957 0 -46.86337712671957 -22.19234919327937 0 0 0 0 -10.670280731186722 -48.33444961065652 0 -48.33444961065652 -17.665457914230501 0 0 0 0 -9.9834078455551207 -47.832742045564373 0 -47.832742045564373 -24.313198511525115 0 0 0 0 -4.9051592404848634 -50.860452807082766 0 -50.860452807082766 -20.456960292756776 0 0 0 0 -13.292792808231752 -43.502646832977007 0 -43.502646832977007 -8.0974954553639691 0 0 0 0 -2.4468041729851393 -46.650923996745405 0 -46.650923996745405 -14.154103165845299 0 0 0 0 2.3208011732685918 -45.709206953531975 0 -45.709206953531975 -13.968325028799882 0 0 0 0 -7.3342844158778462 -45.667764240130055 0 -45.667764240130055 -8.1649124537580064 0 0 0 0 -6.29462210104316 -42.292753684970648 0 -42.292753684970648 -7.8951134629569424 0 0 0 0 0.5162714989419328 -38.548969879513606 0 -38.548969879513606 -1.7286896303921822 0 0 0 0 -38.543848106159203 -45.487578842757102 0 -45.487578842757102 -9.723132594685012 0 0 0 0 -24.20633725413154 -30.998863370381059 0 -30.998863370381059 2.5886629537635599 0 0 0 0 -13.974713958254142 -68.786952044170903 0 -68.786952044170903 4.1073185624118196 0 0 0 0 14.469259586770185 -16.694018057129796 0 -16.694018057129796 18.424975514377095 0 0 0 0 -2.5409286860558495 -36.005806480516185 0 -36.005806480516185 3.7090057297718886 0 0 0 0 -57.282849844979864 -43.261529326509844 0 -43.261529326509844 16.944861542021499 0 0 0 0 -84.783032764531526 -54.49194006826292 0 -54.49194006826292 15.502154752422939 0 0 0 0 -82.849989673515665 -82.94241581219103 0 -82.94241581219103 16.464777838482405 0 0 0 0 -63.722246200861264 -63.53335292841075 0 -63.53335292841075 -4.812274892363348 0 0 0 0 -62.3009365582584 -66.790578632551842 0 -66.790578632551842 -9.6809280730012688 0 0 0 0 -42.656914750033138 -55.100718997106924 0 -55.100718997106924 -10.899053948756773 0 0 0 0 -31.373922847044014 -65.722512914679101 0 -65.722512914679101 -6.4557835484538373 0 0 0 0 -21.087631700793281 -68.872189803547371 0 -68.872189803547371 -7.2086506336745515 0 0 0 0 9.5826114018157043 -22.588742393209806 0 -22.588742393209806 2.8726998452867036 0 0 0 0 -22.886102740480055 -84.35524614557653 0 -84.35524614557653 -48.182517180146533 0 0 0 0 -18.710771436748473 -91.812188295258238 0 -91.812188295258238 -35.779757922849967 0 0 0 0 -14.360153715831984 -79.970281428375529 0 -79.970281428375529 -3.9521642189683917 0 0 0 0 -72.338987928549614 -87.245688247738144 0 -87.245688247738144 2.1980935919418698 0 0 0 0 -50.499960128525345 -88.314184661123363 0 -88.314184661123363 -5.6933659274291131 0 0 0 0 72.831516229465706 -137.0297308543195 0 -137.0297308543195 -52.074656743599917 0 0 0 0 -49.542209048689983 -169.72480767813977 0 -169.72480767813977 56.004541168163996 0 0 0 0 252.26632896480623 -88.628104704894213 0 -88.628104704894213 -769.68445996641094 0 0 0 0 -160.74580105015775 -115.67394120264362 0 -115.67394120264362 47.732933267152475 0 0 0 0 -61.454457031215043 -81.017635783521655 0 -81.017635783521655 5.7321794962481363 0 0 0 0 -118.46334789783396 -25.070855938116438 0 -25.070855938116438 -47.642309907401795 0 0 0 0 -41.737876986750052 -125.79271542879542 0 -125.79271542879542 -101.17962194309803 0 0 0 0 -75.65530037402641 -104.14779819149408 0 -104.14779819149408 50.939039040997159 0 0 0 0 -78.793877566644369 -203.33688345865448 0 -203.33688345865448 83.195551894255914 0 0 0 0 -88.001112980222388 -62.120414268247259 0 -62.120414268247259 542.76003790488176 0 0 0 0 -1.0716215184517424 -2.0275050300761563 0 -2.0275050300761563 -0.054207940011631983 0 0 0 0 -120.00801602870342 -380.71415133526534 0 -380.71415133526534 279.91419740740821 0 0 0 0 5.1614461153112643 -294.53716351603134 0 -294.53716351603134 199.77661987330066 0 0 0 0 -345.81409814496146 42.133231474355853 0 42.133231474355853 9.1704564650572138 0 0 0 0 45.502093897303894 -139.29729512339691 0 -139.29729512339691 -449.3999601554242 0 0 0 0 -2.1891808905438666 -96.500758324176786 0 -96.500758324176786 -248.73449283470109 0 0 0 0 -22.424120028510515 -37.427755438904569 0 -37.427755438904569 -136.61469559268153 0 0 0 0 -18.997753297797317 -66.847000166271755 0 -66.847000166271755 -113.8908736520134 0 0 0 0 -25.524584654808677 -9.9708212403536436 0 -9.9708212403536436 -51.234164008557855 0 0 0 0 97.921117747936478 68.107458115660847 0 68.107458115660847 6.1955348338087788 0 0 0 0 -110.94372563491197 -49.195418728522782 0 -49.195418728522782 254.86096075705063 0 0 0 0 -109.1885999139547 -75.55968943072844 0 -75.55968943072844 33.880755032441812 0 0 0 0 -94.105716716170718 -62.73061705107466 0 -62.73061705107466 44.595646648544061 0 0 0 0 -96.787379864574177 -71.876440428372007 0 -71.876440428372007 32.442307130513655 0 0 0 0 -94.178810780736967 -61.185686679131322 0 -61.185686679131322 11.989921322208829 0 0 0 0 -87.619256922501336 -52.592937970706771 0 -52.592937970706771 16.63932316206774 0 0 0 0 -111.43271848466065 -74.310362208172592 0 -74.310362208172592 16.86223955459505 0 0 0 0 -96.422199153423207 -72.652574784395256 0 -72.652574784395256 -12.942531114902522 0 0 0 0 -165.11101172918825 -135.55687814874909 0 -135.55687814874909 -39.227127814032428 0 0 0 0 -47.292764764042658 -83.387108588372939 0 -83.387108588372939 -102.90056446471135 0 0 0 0 -104.46107553581805 -96.91961311032901 0 -96.91961311032901 -37.94172158872243 0 0 0 0 -46.814822003609152 -84.976131604104012 0 -84.976131604104012 -116.87209281553442 0 0 0 0 -84.282877930316317 -167.17663745861864 0 -167.17663745861864 -163.95346793867066 0 0 0 0 -14.362662243567684 -160.99676922735671 0 -160.99676922735671 -206.94302786661137 0 0 0 0 -81.621017028710412 -146.52491817496048 0 -146.52491817496048 -104.331517646664 0 0 0 0 -107.19399823915592 -186.34335761352486 0 -186.34335761352486 -155.07100313522824 0 0 0 0 -151.43628054697001 -234.26939608216708 0 -234.26939608216708 -152.81478089273878 0 0 0 0 -35.5730355811138 -217.83612398695914 0 -217.83612398695914 -353.5551355483185 0 0 0 0 -35.155341754121764 -161.9767130534492 0 -161.9767130534492 -218.66003984545387 0 0 0 0 -23.728040658931604 -170.92784504907468 0 -170.92784504907468 -212.22175457985577 0 0 0 0 9.3506893300728038 -10.750335733471161 0 -10.750335733471161 5.4707611296930025 0 0 0 0 -31.398957415120094 -80.29440875961518 0 -80.29440875961518 -92.969709608939411 0 0 0 0 -170.60130849274719 -197.83571683700575 0 -197.83571683700575 -115.96534073449402 0 0 0 0 17.93186674109711 4.6348235495051995 0 4.6348235495051995 -57.466105282772332 0 0 0 0 8.6086972201883327 -9.3345356646022992 0 -9.3345356646022992 -3.6983163361001061 0 0 0 0 10.2583243567937 -11.879815409991707 0 -11.879815409991707 -3.4186600126257076 0 0 0 0 -5.1536729926083353 91.325109356715984 0 91.325109356715984 89.067156234406866 0 0 0 0 9.6266509463068459 -7.6540743122170483 0 -7.6540743122170483 -9.4497024888218562 0 0 0 0 2.7798877731382774 -2.867194755551381 0 -2.867194755551381 1.3281371901115477 0 0 0 0 -121.17102109518328 -215.19866133007872 0 -215.19866133007872 -240.73344357247697 0 0 0 0 -82.101968819610192 -213.72015769587233 0 -213.72015769587233 -243.61271592008416 0 0 0 0 -175.67807949304552 -304.69308371824991 0 -304.69308371824991 -321.26772984027775 0 0 0 0 -291.30926527792144 -210.96006206479251 0 -210.96006206479251 -179.96217473127763 0 0 0 0 -93.598916567301785 -154.32702758324376 0 -154.32702758324376 -223.11861967400546 0 0 0 0 -5.3723145667058816 -136.36700773075336 0 -136.36700773075336 -240.53298840217758 0 0 0 0 -0.15383805737200618 -3.7889099231803414 0 -3.7889099231803414 5.1548854186715971 0 0 0 0 84.69642250736797 -57.426849654733815 0 -57.426849654733815 -60.733141466793313 0 0 0 0 -16.361646061949784 -11.147108098314256 0 -11.147108098314256 1.2694025242296618 0 0 0 0 -49.240851129936345 -43.308390865342517 0 -43.308390865342517 13.942782734035063 0 0 0 0 -24.763464392235619 -19.092443307665235 0 -19.092443307665235 6.684216205834673 0 0 0 0 -15.545450168567186 6.7594511104616686 0 6.7594511104616686 35.231815711324089 0 0 0 0 -4.6267759123500554 -2.8753176833704401 0 -2.8753176833704401 -0.17982711539536922 0 0 0 0 -39.537686441137339 -18.489413608927862 0 -18.489413608927862 38.774052585326899 0 0 0 0 10.385395301965218 -29.974988553605726 0 -29.974988553605726 -2.043068981220074 0 0 0 0 15.830910110872622 -18.108623572461603 0 -18.108623572461603 18.917324346793635 0 0 0 0 -7.9272998994147201 -1.0942890374681156 0 -1.0942890374681156 4.4995599160398569 0 0 0 0 -12.405576971446862 -47.900021745088452 0 -47.900021745088452 38.281258145907486 0 0 0 0 -42.553297345522878 -7.7218810460508394 0 -7.7218810460508394 18.682133322508889 0 0 0 0 9.2825778065234772 -12.553344582789578 0 -12.553344582789578 -77.59391063246585 0 0 0 0 -25.22255446923009 -8.6609344880016579 0 -8.6609344880016579 -15.75858134192822 0 0 0 0 -20.483560131262493 -43.082372913118888 0 -43.082372913118888 130.82001647623838 0 0 0 0 0.81986520367205173 0.56154317875696336 0 0.56154317875696336 -0.41847033066038009 0 0 0 0 -102.5919229925712 -57.705560572030663 0 -57.705560572030663 46.612831439033926 0 0 0 0 -50.819034293408549 -13.481703827676029 0 -13.481703827676029 46.01685080012976 0 0 0 0 -61.652746800733439 -71.521006521110394 0 -71.521006521110394 2.3568870769777277 0 0 0 0 -273.56160328585975 -150.38254692665214 0 -150.38254692665214 -19.129733975696581 0 0 0 0 -117.89810099493207 -63.743306337744798 0 -63.743306337744798 15.345660040657094 0 0 0 0 -308.99431642687841 -138.74750373467259 0 -138.74750373467259 49.575128214477445 0 0 0 0 -244.70486419754161 -397.94813833338776 0 -397.94813833338776 -422.33436414109019 0 0 0 0 -3.4964539133824388 -2.5129818824399734 0 -2.5129818824399734 -2.1245852176629967 0 0 0 0 3.7421052672398218 -46.293413121227786 0 -46.293413121227786 -394.40175191916933 0 0 0 0 -106.65414109387893 5.4219616531117936 0 5.4219616531117936 56.429328665199137 0 0 0 0 28.744221471491983 -0.091943352192174643 0 -0.091943352192174643 -17.997790632343822 0 0 0 0 32.906040242554809 -68.42176240849949 0 -68.42176240849949 13.663173650584895 0 0 0 0 -8.9471431252023734 -7.390967710808745 0 -7.390967710808745 -3.6047541745233502 0 0 0 0 40.659493034891057 -55.23533027834128 0 -55.23533027834128 34.563809222105192 0 0 0 0 -10.456766563507699 -7.3625865050962602 0 -7.3625865050962602 -49.621312997118366 0 0 0 0 12.775681772940516 5.0252790956074023 0 5.0252790956074023 -151.01035696878535 0 0 0 0 -13.89877561915273 1.8590323175376398 0 1.8590323175376398 -9.6881999918114161 0 0 0 0 -14.378950198306484 -31.197205686912639 0 -31.197205686912639 -31.47086384602153 0 0 0 0 -74.361862473841029 -94.383143055405526 0 -94.383143055405526 8.7911268098760047 0 0 0 0 -3.5725869731256594 -1.8705792935254522 0 -1.8705792935254522 0.78816386235242675 0 0 0 0 -106.11885058623375 -21.956724820185627 0 -21.956724820185627 51.030515582680891 0 0 0 0 0.32249954586222884 -90.062735011802943 0 -90.062735011802943 -183.92772447803145 0 0 0 0 -12.553694160194937 -30.508421318776527 0 -30.508421318776527 -82.56630118785688 0 0 0 0 -9.4106308673116246 -61.160406375746788 0 -61.160406375746788 -128.53562790719297 0 0 0 0 14.462149674913235 -47.359087375109084 0 -47.359087375109084 -142.44263554716235 0 0 0 0 10.364395227441491 -62.352958076562572 0 -62.352958076562572 -147.09916708493984 0 0 0 0 117.70102398393101 -59.492661217416753 0 -59.492661217416753 -199.2765245847695 0 0 0 0 33.791202854207768 -325.88524094502645 0 -325.88524094502645 -637.64989057200728 0 0 0 0 -201.82646507438767 -499.57072315859477 0 -499.57072315859477 -682.12898028792551 0 0 0 0 -584.62124024599325 -413.20884295763972 0 -413.20884295763972 -314.84810865031568 0 0 0 0 -46.105588817070384 28.477862417839788 0 28.477862417839788 -16.520774508993782 0 0 0 0 -471.97701911757576 -451.25229371676687 0 -451.25229371676687 -565.33480673703889 0 0 0 0 -2.5651385112548084 -1.3818219896462693 0 -1.3818219896462693 0.13342473247049824 0 0 0 0 -99.272232457045902 -66.05601487585227 0 -66.05601487585227 15.261540595576662 0 0 0 0 -2.7794886815707613 -1.7509812546193189 0 -1.7509812546193189 0.33325139486247934 0 0 0 0 -153.79451827472803 -11.405677924194606 0 -11.405677924194606 -213.52780869440903 0 0 0 0 -375.05818423394157 -401.88368086799892 0 -401.88368086799892 -229.13995323574454 0 0 0 0 -274.97244306010543 -4.0123665101273218 0 -4.0123665101273218 -535.35109103028299 0 0 0 0 -459.79056728235082 -301.86058178660096 0 -301.86058178660096 -269.01193672657246 0 0 0 0 -245.10453287646214 -90.775385280260025 0 -90.775385280260025 -162.22536851539917 0 0 0 0 -252.54158163625834 -223.53570449072868 0 -223.53570449072868 -379.68685521704901 0 0 0 0 4.0266703215747839 -9.7892181765346322 0 -9.7892181765346322 1.5060684564014082 0 0 0 0 -4.8308841769322086 -1.1464538080986841 0 -1.1464538080986841 1.8640359525751755 0 0 0 0 -1.4207141814637936 -1.9527984645488488 0 -1.9527984645488488 1.6323958721876579 0 0 0 0 -32.781034493356856 16.811771732900525 0 16.811771732900525 -23.848669031338886 0 0 0 0 -247.20748118407209 -58.867354183508724 0 -58.867354183508724 -25.974885677627753 0 0 0 0 -2.1836357055617555 -16.912493709969567 0 -16.912493709969567 27.027258318659733 0 0 0 0 6.8677805460974923 -6.9677302569161839 0 -6.9677302569161839 12.62990553418058 0 0 0 0 22.721248930709407 -62.582887746768392 0 -62.582887746768392 0.067222442299680552 0 0 0 0 6.3465880422518239 -40.389163053479933 0 -40.389163053479933 64.443193203605915 0 0 0 0 14.164724611975544 -105.18623695413407 0 -105.18623695413407 84.992647956561996 0 0 0 0 13.526059517966132 -111.18638438845392 0 -111.18638438845392 176.27404002503317 0 0 0 0 -1.0158652661679071 -1.0189611965839731 0 -1.0189611965839731 0.55384348029340913 0 0 0 0 -1.8137468408349378 -23.565536779629838 0 -23.565536779629838 77.495212592773896 0 0 0 0 19.320444889617647 -122.11313893140323 0 -122.11313893140323 -37.994103129633004 0 0 0 0 25.008879977580364 -19.301883609870856 0 -19.301883609870856 71.682071238529716 0 0 0 0 1.9228245137720634 -3.7212778999017644 0 -3.7212778999017644 2.6328292434407814 0 0 0 0 25.913471910878798 -6.2550494254410296 0 -6.2550494254410296 155.7659855014208 0 0 0 0 -39.525406832246517 36.390186135904514 0 36.390186135904514 -271.515717761009 0 0 0 0 0.065646536575243886 -1.9008900353875191 0 -1.9008900353875191 1.4654142748209864 0 0 0 0 -74.95035265712886 12.24879351308482 0 12.24879351308482 420.39167601903318 0 0 0 0 -276.93679953651736 -444.24990678660106 0 -444.24990678660106 -314.00235825778907 0 0 0 0 -270.86724860485992 -592.56604999805859 0 -592.56604999805859 31.099638084881008 0 0 0 0 -234.98867410227103 -362.01225251644064 0 -362.01225251644064 -277.43491108683338 0 0 0 0 -312.38774961397939 -432.33577080469331 0 -432.33577080469331 -155.83965458278544 0 0 0 0 -260.40094255936128 -451.89292523797485 0 -451.89292523797485 -256.3417714201787 0 0 0 0 -287.16303436250018 -429.02714329610171 0 -429.02714329610171 -259.0143848376174 0 0 0 0 6.4619660639982612 -173.90668352864122 0 -173.90668352864122 0.16318165582561051 0 0 0 0 -239.58827438300796 -308.96560353727909 0 -308.96560353727909 236.7590221719729 0 0 0 0 -639.68185054862261 -290.90686282418756 0 -290.90686282418756 193.04067293633125 0 0 0 0 -277.29663475650545 -197.49985400569904 0 -197.49985400569904 -74.242507281524013 0 0 0 0 -291.87720911224096 -311.77965161151224 0 -311.77965161151224 -152.100813863246 0 0 0 0 -425.03697077782999 -434.47619081607991 0 -434.47619081607991 -129.53183876864205 0 0 0 0 -227.43907793881226 -222.08334116791957 0 -222.08334116791957 275.79060925942031 0 0 0 0 -296.48502177574119 -392.25778073263064 0 -392.25778073263064 -287.61807774115005 0 0 0 0 -252.00126130605349 -422.38552278532734 0 -422.38552278532734 -276.73385849525948 0 0 0 0 -341.18091178433679 -406.21053758635026 0 -406.21053758635026 -14.773567342999741 0 0 0 0 -125.0821463706734 -120.02475271598087 0 -120.02475271598087 87.135143877472728 0 0 0 0 -16.080450467627088 3.683560114899592 0 3.683560114899592 -19.807319499692312 0 0 0 0 -32.831616743525956 -4.3810202192835277 0 -4.3810202192835277 -8.8953373523581831 0 0 0 0 -3.4723860516096465 -25.260070728851133 0 -25.260070728851133 1.443861110114085 0 0 0 0 -9.603161668204848 -30.289019111733069 0 -30.289019111733069 3.5028315757881501 0 0 0 0 -4.5802469261070655 -9.2253462469052465 0 -9.2253462469052465 -16.180408534353774 0 0 0 0 22.326583480662521 -34.881913393939612 0 -34.881913393939612 -1.4837207234741072 0 0 0 0 87.417097075111087 -15.591014567755337 0 -15.591014567755337 -28.241837313755241 0 0 0 0 -0.10347227191987507 0.94521059694969267 0 0.94521059694969267 0.43254952116680556 0 0 0 0 56.524223584630818 2.2135972310461511 0 2.2135972310461511 -18.991582258386188 0 0 0 0 60.011942874566557 -15.567337811082325 0 -15.567337811082325 -35.534125623584259 0 0 0 0 1.0261563471006054 -2.7393605776188963 0 -2.7393605776188963 0.38380516194055758 0 0 0 0 24.779230661050065 -57.029752368799791 0 -57.029752368799791 21.52495662101137 0 0 0 0 14.171695409124368 -13.998083718881389 0 -13.998083718881389 59.320835115591763 0 0 0 0 37.191894838062581 -29.53639314823522 0 -29.53639314823522 -32.020982924601412 0 0 0 0 27.993424339860212 -14.902029138320358 0 -14.902029138320358 -21.483242498705295 0 0 0 0 -9.1054123360227095 26.895844934042543 0 26.895844934042543 47.123089331877054 0 0 0 0 -0.053084211616436505 -1.1910197760660566 0 -1.1910197760660566 0.24234454675574213 0 0 0 0 34.774143711973011 -19.901599939690641 0 -19.901599939690641 -48.706290340967826 0 0 0 0 -25.142867049202323 -43.567615073159686 0 -43.567615073159686 -148.629014614271 0 0 0 0 0.30280906282740716 -1.9798607782253725 0 -1.9798607782253725 2.8174461640034849 0 0 0 0 -5.7775206899839873 -21.599206378192775 0 -21.599206378192775 27.133834158521495 0 0 0 0 3.489789132662672 -7.0403608181994457 0 -7.0403608181994457 6.1445838964534971 0 0 0 0 23.616595740084449 -74.15158410012009 0 -74.15158410012009 -304.15878962971328 0 0 0 0 -73.541914710505807 -200.74317425306799 0 -200.74317425306799 -363.79572844307404 0 0 0 0 -46.814796328439115 -76.050445956214389 0 -76.050445956214389 -278.45069225095358 0 0 0 0 -0.07537622403553712 -2.1958081348024763 0 -2.1958081348024763 1.958421558195198 0 0 0 0 -47.093412954694941 -154.41778046642867 0 -154.41778046642867 -145.37774350073232 0 0 0 0 35.718590439575564 -150.09258833406784 0 -150.09258833406784 -164.2328651391872 0 0 0 0 11.717254149116343 -79.786433568922803 0 -79.786433568922803 -366.25055614337839 0 0 0 0 9.0160381945934205 -12.380017776806199 0 -12.380017776806199 7.5251736909303872 0 0 0 0 3.5066986167050871 -5.3297008126388903 0 -5.3297008126388903 3.4822155390130973 0 0 0 0 4.878311004013085 -11.815163973515155 0 -11.815163973515155 -2.4927831148670521 0 0 0 0 156.82735471334308 75.518508109074901 0 75.518508109074901 89.714169358252548 0 0 0 0 -1.954278790363702 -4.2600765282066408 0 -4.2600765282066408 6.8076772780220551 0 0 0 0 -6.9245317158959239 -7.1988315913002481 0 -7.1988315913002481 8.1611321868962108 0 0 0 0 -5.0395155123624136 -8.8990817498852266 0 -8.8990817498852266 9.1555836154475401 0 0 0 0 -31.040653885167558 -7.0106480531394482 0 -7.0106480531394482 4.8262219316566188 0 0 0 0 7.2487724699749378 -21.843696387135424 0 -21.843696387135424 1.7120411517098546 0 0 0 0 -26.083281420233106 -27.703807232632244 0 -27.703807232632244 16.868970578580047 0 0 0 0 -2.0947696664152318 -32.319182964114589 0 -32.319182964114589 1.1791479484672891 0 0 0 0 -1.4663647019328465 -1.5854603342025371 0 -1.5854603342025371 2.0207028580901962 0 0 0 0 -4.7388941038188932 1.501756466952429 0 1.501756466952429 1.2389677729515824 0 0 0 0 -3.0432444616672001 -8.9034115002505132 0 -8.9034115002505132 -2.3409150296720327 0 0 0 0 1.2658307840762291 -0.4958326741717709 0 -0.4958326741717709 -1.2586773052863123 0 0 0 0 -20.818318167696816 -23.334595479831478 0 -23.334595479831478 9.0714115112496074 0 0 0 0 7.7192513013615098 -13.193776564699874 0 -13.193776564699874 18.867592709735618 0 0 0 0 13.400535163837048 -29.060458983985882 0 -29.060458983985882 30.383808279173536 0 0 0 0 11.64796788591957 -22.763848870101356 0 -22.763848870101356 10.398036583997964 0 0 0 0 32.794929690091521 -28.482519417339063 0 -28.482519417339063 0.033234747486858396 0 0 0 0 0.73125147924899281 0.80497642932848201 0 0.80497642932848201 -1.2449731283101073 0 0 0 0 -127.4935089449682 1.3453387077170191 0 1.3453387077170191 24.783769515088352 0 0 0 0 -33.877471954590874 -72.648977146222023 0 -72.648977146222023 -0.060003636884002065 0 0 0 0 33.513077366560537 -10.560342331904394 0 -10.560342331904394 12.651645377060049 0 0 0 0 -5.5457054658540983 -60.19520249659945 0 -60.19520249659945 5.3737778189024539 0 0 0 0 -14.595244746338722 -14.010445314943354 0 -14.010445314943354 -3.3754383295381558 0 0 0 0 60.052905010255927 -20.160961543613666 0 -20.160961543613666 -9.8167783163298736 0 0 0 0 57.48939143152711 -15.841167560922258 0 -15.841167560922258 42.857201849881676 0 0 0 0 177.05194863002953 -24.563914754626467 0 -24.563914754626467 -39.592745656322222 0 0 0 0 89.923605544656311 -66.054093470680527 0 -66.054093470680527 0.068488395059926863 0 0 0 0 -0.020638197846305051 0.87643923288216286 0 0.87643923288216286 0.16206911550588643 0 0 0 0 -63.021987210275256 -50.066653146430326 0 -50.066653146430326 0.0063374068486155011 0 0 0 0 -143.22851582608507 -22.182545938907197 0 -22.182545938907197 26.495379668434907 0 0 0 0 3.2295880478231993 -52.475164000930818 0 -52.475164000930818 -0.12642966270504985 0 0 0 0 -25.670101031819286 -16.409093109499736 0 -16.409093109499736 -5.0259662505122833 0 0 0 0 -7.5900542024564004 -5.0002787934825648 0 -5.0002787934825648 -2.369834301376784 0 0 0 0 57.022833297754914 -32.631674368729364 0 -32.631674368729364 -23.367997593821201 0 0 0 0 -19.472404810250737 -65.265242067267536 0 -65.265242067267536 24.472646152958987 0 0 0 0 -36.656576066059642 -17.101798575422436 0 -17.101798575422436 -18.246684498742979 0 0 0 0 -64.72148724465751 -30.041032223418483 0 -30.041032223418483 9.1111906914738938 0 0 0 0 7.9191596213750017 -13.454514376433508 0 -13.454514376433508 -8.6664364136704535 0 0 0 0 14.154725375771704 -35.799389590239116 0 -35.799389590239116 -16.144517985638231 0 0 0 0 9.4878469078037995 -9.2343160198679541 0 -9.2343160198679541 -15.471098858077212 0 0 0 0 -6.6282999318318616 -27.851532468674122 0 -27.851532468674122 8.0550768781649822 0 0 0 0 1.280649561667893 -9.1235260585324056 0 -9.1235260585324056 -13.601406056466487 0 0 0 0 -73.213260261392861 -97.018264323276526 0 -97.018264323276526 -35.455145146053837 0 0 0 0 -122.7743222107656 -31.719159712029068 0 -31.719159712029068 32.712716814829037 0 0 0 0 -141.09719864379076 -68.99768827978005 0 -68.99768827978005 -15.5535886536818 0 0 0 0 23.909585401673944 -35.340905835180791 0 -35.340905835180791 -11.920055139679079 0 0 0 0 42.243177559568721 -13.861112582373607 0 -13.861112582373607 -6.5629901039756078 0 0 0 0 -50.19641956658586 -34.987493341671545 0 -34.987493341671545 -16.369660634628204 0 0 0 0 -95.140673986257752 -48.917462830937438 0 -48.917462830937438 -19.15962596097188 0 0 0 0 -81.01025813005981 -31.218957022883842 0 -31.218957022883842 -33.456497521877736 0 0 0 0 -46.666898213246299 11.85912125066676 0 11.85912125066676 22.14374233221595 0 0 0 0 -92.626671456666372 -45.343878394191051 0 -45.343878394191051 -34.972438950819196 0 0 0 0 -10.96368554373695 4.7461021064326658 0 4.7461021064326658 6.3117483934615706 0 0 0 0 -41.068634911944173 -35.992044451545553 0 -35.992044451545553 -8.200363474261394 0 0 0 0 -2.263803229889163 -56.885486534218217 0 -56.885486534218217 -1.82495276625923 0 0 0 0 -12.851231715303584 83.697505183401518 0 83.697505183401518 -0.36399199478315858 0 0 0 0 -7.7723847565554749 -3.0376677580971432 0 -3.0376677580971432 0.34647796603231029 0 0 0 0 -19.011855197328259 29.833358280437096 0 29.833358280437096 62.1327655961868 0 0 0 0 -12.878626566649828 89.391241150818317 0 89.391241150818317 107.95078877283231 0 0 0 0 -5.1393227870794362 126.05799900730744 0 126.05799900730744 1.4474857199056714 0 0 0 0 -71.793977839113722 57.53024694022497 0 57.53024694022497 219.63658709123047 0 0 0 0 -53.796023557260924 9.1153952240601939 0 9.1153952240601939 28.165219543117018 0 0 0 0 -54.82541915289039 77.138312459006556 0 77.138312459006556 119.02087113379457 0 0 0 0 -53.577155069211585 20.639552084245224 0 20.639552084245224 82.135374894332926 0 0 0 0 -50.602848896800424 75.773038311395794 0 75.773038311395794 14.152561985822103 0 0 0 0 -687.8378353673761 306.54072850782177 0 306.54072850782177 357.47632942077689 0 0 0 0 -74.76687222253895 118.68906758276717 0 118.68906758276717 182.20130391842031 0 0 0 0 -192.3811903742353 272.28360933175645 0 272.28360933175645 -4.8077476570433646 0 0 0 0 17.753602870216127 60.622980207001092 0 60.622980207001092 131.66723513882971 0 0 0 0 -348.75566534641257 -50.837911821219677 0 -50.837911821219677 715.84440504009763 0 0 0 0 -47.652471365710596 -18.132294043434698 0 -18.132294043434698 -6.0360247405473189 0 0 0 0 -64.362193097806994 -384.12109003010471 0 -384.12109003010471 427.47613047972845 0 0 0 0 -72.580569483900035 -122.20832466680076 0 -122.20832466680076 149.60660296567949 0 0 0 0 -551.28153859800295 -216.98020423304479 0 -216.98020423304479 141.06173450512506 0 0 0 0 -411.47014768912231 99.639492271528525 0 99.639492271528525 -248.15952889732944 0 0 0 0 -61.262968006156825 -21.056911073625336 0 -21.056911073625336 -3.245253868294327 0 0 0 0 193.27687597511976 -204.89282359330537 0 -204.89282359330537 95.769174909004505 0 0 0 0 50.010443597133417 -329.42355151187985 0 -329.42355151187985 113.77895924653421 0 0 0 0 -10.586653239290172 -135.16072260325018 0 -135.16072260325018 187.35955854174244 0 0 0 0 246.78687302732578 -325.23089652981434 0 -325.23089652981434 52.259369017338031 0 0 0 0 350.80442187546578 -167.76367327364642 0 -167.76367327364642 55.232193210355035 0 0 0 0 -30.189183685441094 -206.7161800813883 0 -206.7161800813883 193.20902314115301 0 0 0 0 -9.337671689625509 -7.1269759082651802 0 -7.1269759082651802 0.98278393318273061 0 0 0 0 -104.09162946123979 -36.85626017157665 0 -36.85626017157665 115.99278267982299 0 0 0 0 258.04619856882346 -253.42382147052922 0 -253.42382147052922 -36.171507317812939 0 0 0 0 299.68162186686095 -13.030849559113904 0 -13.030849559113904 -277.32193129568623 0 0 0 0 35.063603647111449 13.129832631413592 0 13.129832631413592 -122.98454650583153 0 0 0 0 38.83011793438709 -77.832667693372059 0 -77.832667693372059 -110.29242575354874 0 0 0 0 59.26751285575665 -112.1052090422927 0 -112.1052090422927 -114.85896229235368 0 0 0 0 -44.384483801033639 -280.94712004913345 0 -280.94712004913345 -431.39039800169849 0 0 0 0 -2.6405330990725986 -2.9988395872547962 0 -2.9988395872547962 -4.1032119935625104 0 0 0 0 -56.19947678995959 209.79687203354115 0 209.79687203354115 -450.68341787382747 0 0 0 0 -493.51571988609066 -327.97003787107406 0 -327.97003787107406 -127.56874888401944 0 0 0 0 -548.29565430532239 -118.56042857013563 0 -118.56042857013563 -14.04289308659645 0 0 0 0 -174.51460569315532 -26.135288536395819 0 -26.135288536395819 27.813468479675066 0 0 0 0 -342.57522164824331 -141.63783789275112 0 -141.63783789275112 -7.0031147219669947 0 0 0 0 17.195679245538486 -127.19504385023401 0 -127.19504385023401 5.0103826988633955 0 0 0 0 -8.2898612226650101 -8.576740786207786 0 -8.576740786207786 -10.407181918944431 0 0 0 0 -65.362560397996276 77.597320787663193 0 77.597320787663193 36.98715616732261 0 0 0 0 -71.112337365106214 -41.419332370465781 0 -41.419332370465781 -20.068424096119998 0 0 0 0 -55.712053865277994 -6.7513360219236347 0 -6.7513360219236347 57.863865984858421 0 0 0 0 -133.99946385722433 -32.139753692281374 0 -32.139753692281374 -12.394689504644703 0 0 0 0 37.643421505199512 14.976956292532122 0 14.976956292532122 -124.69933782189582 0 0 0 0 63.079023588288692 -36.774121974496666 0 -36.774121974496666 -40.776907405223028 0 0 0 0 98.438778493960854 -36.26820697666335 0 -36.26820697666335 -64.087069493616582 0 0 0 0 5.9038814402243531 -14.74465165293654 0 -14.74465165293654 -21.842572453165602 0 0 0 0 94.940048179443693 -105.22002702609825 0 -105.22002702609825 -52.731419282848947 0 0 0 0 -127.44796753622359 -50.272646651292234 0 -50.272646651292234 -103.435883393533 0 0 0 0 26.453838029106976 -34.113496526595014 0 -34.113496526595014 -15.936258893698536 0 0 0 0 58.216166233134572 -21.271845579229193 0 -21.271845579229193 -45.174953664443819 0 0 0 0 24.604753502680978 -42.400456777955696 0 -42.400456777955696 -152.499826709849 0 0 0 0 -105.22595018221182 -55.572677347285207 0 -55.572677347285207 -141.67788799037953 0 0 0 0 8.2120388588118658 -34.485471886015148 0 -34.485471886015148 -164.06207509318301 0 0 0 0 59.436593134213581 -133.08718125685027 0 -133.08718125685027 -122.35139517780044 0 0 0 0 18.560049650244764 -138.64127929932874 0 -138.64127929932874 -89.489600628598964 0 0 0 0 -91.868553725493257 22.995885082685163 0 22.995885082685163 -171.52408881721203 0 0 0 0 181.85422674270376 -278.0521506025143 0 -278.0521506025143 319.6744726246252 0 0 0 0 -19.75353452939089 -155.74638682600562 0 -155.74638682600562 118.62179693989674 0 0 0 0 2.0270641503210527 -1.7361314667630268 0 -1.7361314667630268 1.2412216162296517 0 0 0 0 31.674310423559753 -32.606337426352539 0 -32.606337426352539 -10.416809677142794 0 0 0 0 366.93223516937724 -87.241326270908758 0 -87.241326270908758 -318.22069954598919 0 0 0 0 41.100230431031378 -186.21064852596828 0 -186.21064852596828 -95.082025422314473 0 0 0 0 118.80017590792158 -296.26276271443567 0 -296.26276271443567 45.853159887941729 0 0 0 0 -57.001243024817086 -81.062460143424687 0 -81.062460143424687 -30.880026437693232 0 0 0 0 16.516641532238282 -186.51125176269124 0 -186.51125176269124 5.324059770677195 0 0 0 0 7.4845549268538889 -161.70822280568609 0 -161.70822280568609 -43.2711528744112 0 0 0 0 16.304471849813126 -167.1199574449638 0 -167.1199574449638 -42.881076038560423 0 0 0 0 0.39733182641066378 -66.638822263776092 0 -66.638822263776092 -32.473362029793861 0 0 0 0 31.088377032279823 -161.3515494411804 0 -161.3515494411804 -48.596211664451403 0 0 0 0 32.294765013393771 -165.52122763850275 0 -165.52122763850275 29.497809980835882 0 0 0 0 -10.03991553747619 -148.67850518977502 0 -148.67850518977502 23.079666325800645 0 0 0 0 29.175990003441257 -211.32796243666962 0 -211.32796243666962 -63.255162699697394 0 0 0 0 1.1096058990369713 -2.0900523518082679 0 -2.0900523518082679 0.91656602734706283 0 0 0 0 -234.18949028675706 0.028218618463142775 0 0.028218618463142775 557.87765778784888 0 0 0 0 -12.432867997416906 -130.80786024659028 0 -130.80786024659028 64.820212078811892 0 0 0 0 133.48935984855416 -70.878753744560527 0 -70.878753744560527 27.5315953487152 0 0 0 0 -116.22261944361253 -330.47810668203056 0 -330.47810668203056 -144.3617358318952 0 0 0 0 63.773690332673141 -68.911798414344958 0 -68.911798414344958 -366.03300755486453 0 0 0 0 61.446268424622758 -87.236086955108476 0 -87.236086955108476 -137.67065098207331 0 0 0 0 28.790899816965975 -132.59267154701956 0 -132.59267154701956 -159.57776300693513 0 0 0 0 7.3162526176817835 -3.8912540605777792 0 -3.8912540605777792 2.1692864951417761 0 0 0 0 51.959841853287799 -2.8066486427123891 0 -2.8066486427123891 -22.441474022889452 0 0 0 0 32.520757706173754 -56.198877815182641 0 -56.198877815182641 -165.33846356940921 0 0 0 0 -22.45314671039705 48.438531865014738 0 48.438531865014738 -86.587670660097501 0 0 0 0 3.0405050510501104 -0.49729579501945409 0 -0.49729579501945409 -5.4500764217724793 0 0 0 0 11.960465796740209 -23.5845711196107 0 -23.5845711196107 -13.077642153933994 0 0 0 0 11.829650769692392 -7.3359708110491653 0 -7.3359708110491653 0.37772168170540965 0 0 0 0 10.489301646892272 -25.070191472514125 0 -25.070191472514125 -22.231732678876142 0 0 0 0 2.2945885595545406 -12.4587667434389 0 -12.4587667434389 -16.297073033856577 0 0 0 0 12.124076034395351 -12.216015512630136 0 -12.216015512630136 -9.1212754898224944 0 0 0 0 -4.1194312658517447 -12.547969285686122 0 -12.547969285686122 -11.534814176608052 0 0 0 0 18.751077097108464 -9.9556336745499721 0 -9.9556336745499721 -14.415372342577029 0 0 0 0 60.480588492271636 -29.775393252959475 0 -29.775393252959475 -38.437126454515237 0 0 0 0 27.464273894711368 -21.146466736721777 0 -21.146466736721777 -0.22535515897834557 0 0 0 0 -130.80066317196179 -177.93213016949449 0 -177.93213016949449 30.243607705999239 0 0 0 0 32.012335118807499 -32.910061726202088 0 -32.910061726202088 -9.8235757767029952 0 0 0 0 4.3387935240889419 128.09873691646771 0 128.09873691646771 54.854052961702109 0 0 0 0 64.45387748173016 -9.1650511477018881 0 -9.1650511477018881 -59.099439363260899 0 0 0 0 -216.9304314428482 -523.94070695660594 0 -523.94070695660594 -424.79522241209634 0 0 0 0 0.20151542277778844 -0.9985096935581339 0 -0.9985096935581339 0.39701389892454131 0 0 0 0 -184.84141502358398 -435.60252527912598 0 -435.60252527912598 -683.56925997158396 0 0 0 0 66.438140361438855 -120.85173720510284 0 -120.85173720510284 155.42358805753247 0 0 0 0 115.35498010664014 -121.8608447764891 0 -121.8608447764891 141.01753228012967 0 0 0 0 -296.35230333661457 -351.30456343104743 0 -351.30456343104743 -271.22888629049703 0 0 0 0 -0.98547843807679669 -2.9024961937509204 0 -2.9024961937509204 3.1025039395067182 0 0 0 0 -365.44388247700408 -410.28433189322095 0 -410.28433189322095 -222.69500656707532 0 0 0 0 -196.29025045620801 -420.38481623752523 0 -420.38481623752523 -301.02943471110484 0 0 0 0 -578.74649884340761 -451.79709215816547 0 -451.79709215816547 -191.63928436738024 0 0 0 0 -0.6199695726012493 -3.8362448207921247 0 -3.8362448207921247 2.3092786110381098 0 0 0 0 -558.86067354565603 -320.79271340476771 0 -320.79271340476771 -223.96022497372905 0 0 0 0 -0.95552221536854631 -868.08749588140654 0 -868.08749588140654 -484.38616483037913 0 0 0 0 -791.31817083016358 -1342.5394105816704 0 -1342.5394105816704 0.34261266012617853 0 0 0 0 -1973.5632288007127 58.298025574999883 0 58.298025574999883 98.461745774744486 0 0 0 0 -1624.2722187447362 -853.2724294946056 0 -853.2724294946056 27.390266461057763 0 0 0 0 -470.29571866924198 -189.49750360243706 0 -189.49750360243706 115.44404831271822 0 0 0 0 -341.72504750680127 -749.77197528483339 0 -749.77197528483339 -42.233699989839806 0 0 0 0 -3.3267547016264203 -12.262248084164725 0 -12.262248084164725 -13.970249699051493 0 0 0 0 -0.7479498887405498 -30.983742446744145 0 -30.983742446744145 -5.5086654540014592 0 0 0 0 17.085344709643323 -26.402559920265048 0 -26.402559920265048 -0.0072616231045685709 0 0 0 0 -2.9677335672024299 -3.1557401589519785 0 -3.1557401589519785 -5.7473511660481904 0 0 0 0 -7.9972559885486589 -16.262186148250748 0 -16.262186148250748 -12.333782147419697 0 0 0 0 -9.2191552007498103 -9.8439157587636146 0 -9.8439157587636146 -5.1256290749006439 0 0 0 0 -4.4654397071535641 -21.868052634372361 0 -21.868052634372361 -26.782297292847943 0 0 0 0 -3.3982248975688805 -10.531426301462858 0 -10.531426301462858 4.7798547393370825 0 0 0 0 -110.03397207069065 -10.224341946810455 0 -10.224341946810455 3.0896484760778549 0 0 0 0 -397.54958481615176 -217.44194552431873 0 -217.44194552431873 -91.11048656465573 0 0 0 0 8.1546477928932291 -6.2830441109763342 0 -6.2830441109763342 -34.064502855020692 0 0 0 0 5.3839470882447813 -12.680561581777638 0 -12.680561581777638 -0.089639195779284364 0 0 0 0 -51.099770181470376 -15.433092692914215 0 -15.433092692914215 26.011296566455712 0 0 0 0 46.602122880802199 -87.093626187987866 0 -87.093626187987866 159.18023963247106 0 0 0 0 -37.99212219092442 -59.222170718112466 0 -59.222170718112466 38.31504269132347 0 0 0 0 11.716756717918543 -15.384433212130261 0 -15.384433212130261 -4.6683236613316694 0 0 0 0 -3.3068761782082561 -6.3932307691515433 0 -6.3932307691515433 6.9723449403508226 0 0 0 0 23.279711636861975 -55.114572621388106 0 -55.114572621388106 2.3635000158683397 0 0 0 0 -19.459428593963821 -44.430771014020138 0 -44.430771014020138 -52.516225504441536 0 0 0 0 -274.3632835009048 -10.372527557632566 0 -10.372527557632566 45.113947434136207 0 0 0 0 -3.9836896023839543 -10.783645961045217 0 -10.783645961045217 -8.3042361543058973 0 0 0 0 -269.90512470968679 -123.25937789513409 0 -123.25937789513409 -22.360770649458573 0 0 0 0 -404.88107995035534 -192.29878727390678 0 -192.29878727390678 0.78808172052777081 0 0 0 0 -404.11887231764194 -190.46261655944363 0 -190.46261655944363 -20.189195496561297 0 0 0 0 -322.300982460054 -244.71734932121672 0 -244.71734932121672 -115.16910453160381 0 0 0 0 -188.47556925763638 -441.96766059975926 0 -441.96766059975926 17.363425623450894 0 0 0 0 -114.5311780647171 -138.20573073290871 0 -138.20573073290871 -81.335141259980446 0 0 0 0 -24.276672377021896 -17.040438328927848 0 -17.040438328927848 -0.0028869591951661278 0 0 0 0 -16.380725547931434 -22.747435161340036 0 -22.747435161340036 -21.909678520125453 0 0 0 0 -21.800892065049993 -19.203138529912394 0 -19.203138529912394 -8.1745457999095379 0 0 0 0 -12.972313581629948 -2.8393737628995268 0 -2.8393737628995268 5.9543412874880914 0 0 0 0 -28.323768298698269 -8.7375480141363369 0 -8.7375480141363369 -8.0162932081057079 0 0 0 0 109.31732982220274 -160.1437415592809 0 -160.1437415592809 -101.7639577598502 0 0 0 0 24.875104488993202 -763.55086056411983 0 -763.55086056411983 -383.55536691597081 0 0 0 0 -1022.7949031849348 -1195.5909824891278 0 -1195.5909824891278 -560.42670817523685 0 0 0 0 -922.74158656784857 -598.84980407090188 0 -598.84980407090188 21.473380091054423 0 0 0 0 -945.80703350012482 -605.40160211332113 0 -605.40160211332113 125.19961544433318 0 0 0 0 -1580.371373640839 -154.04443670433102 0 -154.04443670433102 476.03491604896044 0 0 0 0 -1890.8148676782075 -324.99352347062086 0 -324.99352347062086 411.22120088394149 0 0 0 0 -1966.470639508887 -810.11197879693646 0 -810.11197879693646 162.62735186901409 0 0 0 0 -19.739234852709345 0.22876332785757825 0 0.22876332785757825 2.7712098485474002 0 0 0 0 -25.330246483674273 -10.621016972037978 0 -10.621016972037978 -10.745230944601644 0 0 0 0 -2782.987163910846 868.84873294315184 0 868.84873294315184 -1672.6550456873229 0 0 0 0 -22.513769178280199 -4.0810281242156634 0 -4.0810281242156634 -0.013614275023617426 0 0 0 0 -931.69810431698284 -1825.5073530062932 0 -1825.5073530062932 -1287.7111932524786 0 0 0 0 -12.737233357615949 -1.6191117730487861 0 -1.6191117730487861 1.4408757952472371 0 0 0 0 -1157.1846016675554 94.51345549908001 0 94.51345549908001 421.91222580692192 0 0 0 0 901.22993542364566 -1656.65477355029 0 -1656.65477355029 -1702.522213647695 0 0 0 0 -19.907663322875663 -8.2827467052103145 0 -8.2827467052103145 -3.2465747519089447 0 0 0 0 -728.49603683422174 -41.033759603540602 0 -41.033759603540602 180.5714212618077 0 0 0 0 -142.81725627099695 372.62118393786159 0 372.62118393786159 235.22570217507018 0 0 0 0 -781.69973916281015 -285.51136015098018 0 -285.51136015098018 88.291164171296259 0 0 0 0 -684.69023681742692 -115.37214689565371 0 -115.37214689565371 286.86439580652404 0 0 0 0 -504.15589294840902 -240.07375591808159 0 -240.07375591808159 95.596725735070322 0 0 0 0 -589.86081254667988 -119.49841340789681 0 -119.49841340789681 -72.967955369480478 0 0 0 0 -521.78196312426007 16.324365328902786 0 16.324365328902786 166.81008135657521 0 0 0 0 -351.55958603598992 -216.96232810955917 0 -216.96232810955917 -386.57887128021957 0 0 0 0 -445.65194057550252 -243.40198505935405 0 -243.40198505935405 -107.36180562561458 0 0 0 0 -362.2208654223723 -253.42215574437432 0 -253.42215574437432 -147.68029403634864 0 0 0 0 -394.86561077804799 -256.68617024250852 0 -256.68617024250852 -147.46370799115357 0 0 0 0 -294.13001736236038 -157.59083115515023 0 -157.59083115515023 -96.114221996814194 0 0 0 0 -363.74894139834214 -212.20735779606002 0 -212.20735779606002 -52.406986701513233 0 0 0 0 -306.06282452347295 -141.51267960298992 0 -141.51267960298992 1.0247935774968937 0 0 0 0 -267.35239321674453 -130.36204026945052 0 -130.36204026945052 -83.800869365571998 0 0 0 0 -122.6197178450966 -127.58342410116165 0 -127.58342410116165 -7.4464518650711398 0 0 0 0 -298.09809415279051 -261.03972014488477 0 -261.03972014488477 7.4648337010730756 0 0 0 0 -229.28665552861639 -225.851603068033 0 -225.851603068033 5.1071734999877663 0 0 0 0 -338.33902308874531 -167.91141821384372 0 -167.91141821384372 -131.9168994931656 0 0 0 0 -305.87709411592368 -266.14235617005852 0 -266.14235617005852 -161.38630341932003 0 0 0 0 -414.12857340339542 -285.0901280899343 0 -285.0901280899343 -112.00848442722781 0 0 0 0 -433.16923720966224 -255.44873997817922 0 -255.44873997817922 -154.13561800075331 0 0 0 0 -460.44594414550011 -284.55513168652124 0 -284.55513168652124 97.036524069073494 0 0 0 0 -624.94459456206096 -86.202328249150014 0 -86.202328249150014 -194.57651701436771 0 0 0 0 -372.95083816680926 -349.75080573049854 0 -349.75080573049854 10.9863972223975 0 0 0 0 -748.18579515430974 -525.97023288715309 0 -525.97023288715309 180.19181091928476 0 0 0 0 -2.642518230016158 -3.3768785951056657 0 -3.3768785951056657 -2.2095111152717521 0 0 0 0 -604.57029881034396 -485.78455094329911 0 -485.78455094329911 -319.43338196038439 0 0 0 0 -541.64962099480545 -73.232409676067618 0 -73.232409676067618 9.941818411971326 0 0 0 0 -1242.0762518846714 -169.20787597355957 0 -169.20787597355957 19.412286338330887 0 0 0 0 -408.60204185481871 -315.23634058273183 0 -315.23634058273183 -202.80195797728811 0 0 0 0 -557.28797371782275 -362.31148494632362 0 -362.31148494632362 -135.97199658930185 0 0 0 0 -678.1039709099241 -251.1187119843089 0 -251.1187119843089 10.783492277165351 0 0 0 0 -446.00744980980738 -268.20871095147822 0 -268.20871095147822 -60.231612001181929 0 0 0 0 -515.19435060491378 -254.18324568729076 0 -254.18324568729076 -23.498990114610933 0 0 0 0 -324.59475800791552 -73.007165463584897 0 -73.007165463584897 -39.883432422040642 0 0 0 0 -476.30444940052985 -141.76873998112205 0 -141.76873998112205 4.3923665928014088 0 0 0 0 -442.16359788798582 -195.39576352461881 0 -195.39576352461881 -11.288042490094085 0 0 0 0 -4.2494659073479468 -6.6924255715344216 0 -6.6924255715344216 -7.2496653560492064 0 0 0 0 96.134863129827863 -49.850890788024117 0 -49.850890788024117 -31.190133355554281 0 0 0 0 -315.38043126004777 -89.9485347846894 0 -89.9485347846894 -13.635866742890357 0 0 0 0 362.4437737127846 -299.10940365106035 0 -299.10940365106035 168.6061076128608 0 0 0 0 -3.3769546121905591 -4.5542013165657877 0 -4.5542013165657877 4.9826521569823399 0 0 0 0 416.10423077274027 -374.52130003698676 0 -374.52130003698676 218.83820317986829 0 0 0 0 419.07855149117677 -336.38747573313958 0 -336.38747573313958 267.75379170880115 0 0 0 0 -166.22655828524148 -41.235876948796431 0 -41.235876948796431 107.01376891644031 0 0 0 0 1047.8705984422522 -682.87638025718297 0 -682.87638025718297 84.766837593502714 0 0 0 0 232.44164169331634 -73.482271876142477 0 -73.482271876142477 -119.2118769194858 0 0 0 0 -715.96507153523999 -387.05271262245151 0 -387.05271262245151 -144.02256548051082 0 0 0 0 -1.1488628463874804 -2.4378284198364213 0 -2.4378284198364213 1.9855430861215666 0 0 0 0 489.94778583128937 -782.06321771097646 0 -782.06321771097646 192.46191538387211 0 0 0 0 -205.59393271500448 -622.52588109797944 0 -622.52588109797944 165.17293605041414 0 0 0 0 578.13028311132803 -440.93564008662725 0 -440.93564008662725 148.97043473799931 0 0 0 0 545.76878538402525 -477.30579898764699 0 -477.30579898764699 112.62856702411227 0 0 0 0 472.37192326765944 -496.86411926143046 0 -496.86411926143046 244.50792197480041 0 0 0 0 824.94036959199366 -338.85382383310935 0 -338.85382383310935 216.19245424464316 0 0 0 0 296.1259500165761 -525.99157990236199 0 -525.99157990236199 319.45617761804169 0 0 0 0 469.47329910928329 -482.85342835638767 0 -482.85342835638767 246.32649641455646 0 0 0 0 288.20648124539002 -513.53144866145158 0 -513.53144866145158 317.27927970730889 0 0 0 0 341.20810757714207 -567.58502421590856 0 -567.58502421590856 190.38312167477488 0 0 0 0 543.29287512972223 -525.68807749229745 0 -525.68807749229745 68.57215935008935 0 0 0 0 352.73046984384473 -611.91898165830071 0 -611.91898165830071 259.48390053027833 0 0 0 0 0.38951663691113936 -897.23994927523381 0 -897.23994927523381 56.220434285511146 0 0 0 0 154.71606390582019 -649.62067063035647 0 -649.62067063035647 266.72019720901653 0 0 0 0 0.046722386010515038 -606.32048854465211 0 -606.32048854465211 386.60296514201036 0 0 0 0 123.65667651364492 -533.81974305733638 0 -533.81974305733638 357.34280702195974 0 0 0 0 123.88401906339277 -527.52230461626277 0 -527.52230461626277 428.66093574230399 0 0 0 0 165.7802556304523 -374.31738005203442 0 -374.31738005203442 275.97314471053323 0 0 0 0 158.84200968884625 -461.29260736576816 0 -461.29260736576816 468.73897613783629 0 0 0 0 428.13415306641991 -451.19034670794986 0 -451.19034670794986 292.06212600397703 0 0 0 0 -27.222874145649257 -231.46394632723604 0 -231.46394632723604 360.51665498593502 0 0 0 0 85.609451889693446 -84.823602782133094 0 -84.823602782133094 139.18949291621539 0 0 0 0 -29.782470364138135 -307.39360326384849 0 -307.39360326384849 956.36274487705668 0 0 0 0 0.091707769658809127 -489.67006436114997 0 -489.67006436114997 470.88149121542665 0 0 0 0 0.011743162234779447 -7.2659682678840909 0 -7.2659682678840909 4.6503060917384573 0 0 0 0 -27.135939184165181 3.005896950735405 0 3.005896950735405 17.453384894627561 0 0 0 0 0.21967568855208697 -4.1656235898232339 0 -4.1656235898232339 -3.7460158477275769 0 0 0 0 3.437182110864228 -15.63602379208271 0 -15.63602379208271 27.428208949517284 0 0 0 0 -0.24624300049503622 -7.4280293517248026 0 -7.4280293517248026 6.2357081493811393 0 0 0 0 -1.0247902249575418 -8.0797675162739324 0 -8.0797675162739324 4.1166528332068992 0 0 0 0 -0.00037976903331582434 -8.2190083159603091 0 -8.2190083159603091 3.7311972288207471 0 0 0 0 -0.96109640953352482 -3.2684098874255874 0 -3.2684098874255874 -0.68272845097111201 0 0 0 0 0.3697919329235364 -3.1026960884290702 0 -3.1026960884290702 2.3830641488658841 0 0 0 0 -56.927156168753527 -172.82510039830294 0 -172.82510039830294 -438.32933726534975 0 0 0 0 1009.2242806034396 -354.44838650828524 0 -354.44838650828524 32.453239908812975 0 0 0 0 711.53872745847912 -535.6272661901221 0 -535.6272661901221 55.125888187860255 0 0 0 0 440.24241989127768 -386.92413125189705 0 -386.92413125189705 180.48611161605413 0 0 0 0 623.74842953793996 -324.28074599669344 0 -324.28074599669344 192.87615103174176 0 0 0 0 440.76606965225074 -395.12624243914797 0 -395.12624243914797 195.83064325512987 0 0 0 0 267.23176430315652 -388.16535825818573 0 -388.16535825818573 203.42741513280635 0 0 0 0 451.52573837575619 -467.44430389260924 0 -467.44430389260924 161.20407250588323 0 0 0 0 508.45986407816235 -367.32095796087742 0 -367.32095796087742 183.41646347602546 0 0 0 0 276.49794538237984 -523.68575058290571 0 -523.68575058290571 147.57221036113333 0 0 0 0 -172.14510870949016 -556.4682311527722 0 -556.4682311527722 257.67080633562364 0 0 0 0 264.47966767763501 -500.81128206793301 0 -500.81128206793301 181.89366744212748 0 0 0 0 -178.47121409639294 -422.54935180335087 0 -422.54935180335087 322.25180357943464 0 0 0 0 16.62769189971732 -550.09848411213898 0 -550.09848411213898 234.40941013087649 0 0 0 0 -56.906845597652136 -511.1769476994632 0 -511.1769476994632 299.40130493017568 0 0 0 0 58.302176656288793 -313.00161619167011 0 -313.00161619167011 341.67255728441523 0 0 0 0 -103.49473655386828 -479.29321041035837 0 -479.29321041035837 339.68960757958587 0 0 0 0 -1.6015210701913105 -1.6440668159052265 0 -1.6440668159052265 -1.15393298657564 0 0 0 0 5.7422075847935048 -115.31496877128393 0 -115.31496877128393 -225.76435172145648 0 0 0 0 -63.852787587940838 -552.98124147887438 0 -552.98124147887438 120.217131789017 0 0 0 0 -103.49675935661799 -389.89793969147468 0 -389.89793969147468 -47.653735349333147 0 0 0 0 -192.66514005323916 -429.71849403225588 0 -429.71849403225588 189.85315246645041 0 0 0 0 -146.48243919492234 -396.86524058192481 0 -396.86524058192481 204.61483197022608 0 0 0 0 -168.96236036545451 -385.97959239713418 0 -385.97959239713418 266.06337301732856 0 0 0 0 -188.718110777736 -457.91229219295201 0 -457.91229219295201 270.45235726721148 0 0 0 0 -177.38685983879986 -432.13850587866727 0 -432.13850587866727 271.46670896116484 0 0 0 0 -271.23034810289391 -450.43956218236599 0 -450.43956218236599 314.99346763223366 0 0 0 0 -183.81561330865225 -441.04496428640459 0 -441.04496428640459 258.36817218234137 0 0 0 0 -404.04555262404028 -414.37757181725283 0 -414.37757181725283 303.41689338161814 0 0 0 0 -478.73408465947432 -284.09390748643818 0 -284.09390748643818 175.8180376141172 0 0 0 0 -307.50614598995162 -317.49398397130244 0 -317.49398397130244 104.12873805591153 0 0 0 0 -363.50425727358743 -244.98676993888603 0 -244.98676993888603 141.44585563351575 0 0 0 0 -291.83953674857185 -392.02443138143644 0 -392.02443138143644 269.28139980304695 0 0 0 0 -204.37246314236108 -334.36107838943644 0 -334.36107838943644 219.62532836834725 0 0 0 0 -278.13147735603707 -337.27667029937584 0 -337.27667029937584 223.91849921466564 0 0 0 0 -285.6756606753188 -216.59290537825655 0 -216.59290537825655 60.959459273955872 0 0 0 0 -134.38418944163277 -237.03854182789473 0 -237.03854182789473 58.17437959532981 0 0 0 0 18.538113493159472 -168.24221603969454 0 -168.24221603969454 -46.357383667636896 0 0 0 0 32.983732837434218 -391.92059797209549 0 -391.92059797209549 158.5866188713544 0 0 0 0 -130.24303954312927 -251.45894882433822 0 -251.45894882433822 96.381225227822142 0 0 0 0 -104.94411747555387 -272.57685718554148 0 -272.57685718554148 330.70201126158645 0 0 0 0 186.09076509132137 -272.98477204185474 0 -272.98477204185474 229.18093028194016 0 0 0 0 -174.00278661070479 -345.46112006405383 0 -345.46112006405383 290.14249130621829 0 0 0 0 -138.00936800561249 -377.75161976643085 0 -377.75161976643085 244.768311150503 0 0 0 0 -18.818360551918886 -326.54666714318228 0 -326.54666714318228 194.5257778526975 0 0 0 0 2.361551523579692 -274.52175861484784 0 -274.52175861484784 244.57086055143736 0 0 0 0 0.09724105669738492 -251.34591263139555 0 -251.34591263139555 137.01261763958973 0 0 0 0 -90.008875954117684 -322.27160635526343 0 -322.27160635526343 210.71362158224474 0 0 0 0 -43.295778686431731 -303.28561007169446 0 -303.28561007169446 75.503786256322201 0 0 0 0 20.648257349658707 -310.9635849025417 0 -310.9635849025417 205.74742523378518 0 0 0 0 -2.873940219117685 -214.6236750815408 0 -214.6236750815408 170.8054875877242 0 0 0 0 -78.544088641094277 -184.7860282504007 0 -184.7860282504007 9.9248231757374015 0 0 0 0 4.2404759094761175 -209.53026842029089 0 -209.53026842029089 -6.2151303497266781 0 0 0 0 -101.40637279308066 -228.67751873569341 0 -228.67751873569341 99.220120088584736 0 0 0 0 -95.327614393085241 -231.46392155170724 0 -231.46392155170724 -48.671965986910436 0 0 0 0 -72.739731551977457 -184.89658736130059 0 -184.89658736130059 -149.85123548284901 0 0 0 0 -167.472870898775 -212.04873200008751 0 -212.04873200008751 -30.320449937908052 0 0 0 0 -166.2488332383582 -191.55562598819142 0 -191.55562598819142 -106.26302063953426 0 0 0 0 -194.54497662020367 -247.67318215432238 0 -247.67318215432238 39.044313302154478 0 0 0 0 -108.3864892205529 -303.85923641729096 0 -303.85923641729096 7.0977958836338075 0 0 0 0 -92.782171869090234 -346.08207105513247 0 -346.08207105513247 103.61212821459776 0 0 0 0 -126.71451415188858 -294.51847725721382 0 -294.51847725721382 132.48360434156166 0 0 0 0 -205.29501732361314 -256.78240385875415 0 -256.78240385875415 11.354156410285213 0 0 0 0 -261.60787744101981 -295.73879300758563 0 -295.73879300758563 2.2835778222088265 0 0 0 0 -250.32061351464654 -297.10981443805485 0 -297.10981443805485 -130.18402553375927 0 0 0 0 -328.91931658736576 -219.34440417841506 0 -219.34440417841506 -50.457246339530684 0 0 0 0 -193.84595963028551 -226.46788454602211 0 -226.46788454602211 -51.111752157761089 0 0 0 0 -191.0588087497581 -242.94696134313836 0 -242.94696134313836 -45.743077955885383 0 0 0 0 -270.88590896303504 -250.80195207508041 0 -250.80195207508041 -37.085959893875042 0 0 0 0 -223.37779625506209 -244.69049711800494 0 -244.69049711800494 -155.42257607460851 0 0 0 0 -382.68431552880065 -266.37049734708307 0 -266.37049734708307 -110.8549724061013 0 0 0 0 -224.29080270143186 -242.40555630398808 0 -242.40555630398808 -124.06216758260416 0 0 0 0 -361.03244939997967 -247.58291146121337 0 -247.58291146121337 -71.059237480974843 0 0 0 0 -261.31760769710672 -248.40745606045766 0 -248.40745606045766 -85.613688865552831 0 0 0 0 -350.35095789533239 -150.74057955646617 0 -150.74057955646617 -122.56916058588831 0 0 0 0 -290.33732508563844 -204.23633672236792 0 -204.23633672236792 -108.42193413196765 0 0 0 0 -901.83358415011367 -529.6926377038609 0 -529.6926377038609 -86.638370087570365 0 0 0 0 -524.23617948561878 -158.31180798686546 0 -158.31180798686546 -63.958727132911008 0 0 0 0 576.47397937158166 -320.931721781335 0 -320.931721781335 -45.526601697512888 0 0 0 0 -0.15093502624925126 -3.1951826170511737 0 -3.1951826170511737 0.6295679664390974 0 0 0 0 0.45593526788070449 -65.446777634953833 0 -65.446777634953833 107.53901090449654 0 0 0 0 57.704370777606528 -61.520079454293409 0 -61.520079454293409 54.320217829968897 0 0 0 0 -0.042573492061290352 -6.1957714977774998 0 -6.1957714977774998 1.8193027561196402 0 0 0 0 -368.98916442679183 -185.0452968655718 0 -185.0452968655718 -28.300000662085949 0 0 0 0 -248.1830725597265 -94.603531668270989 0 -94.603531668270989 32.639123312612355 0 0 0 0 -11.172678084985819 -46.541077958677306 0 -46.541077958677306 -117.49726984993686 0 0 0 0 -0.053474889434265024 -6.8233107979768883 0 -6.8233107979768883 2.6461259976604197 0 0 0 0 0.31808936904437424 -6.4938412351428099 0 -6.4938412351428099 3.5751740466864703 0 0 0 0 -0.44848743372131139 -6.5331030595734774 0 -6.5331030595734774 3.7208461956779502 0 0 0 0 -33.752951061745989 -46.264848062870442 0 -46.264848062870442 -51.752620372712045 0 0 0 0 -26.603257090348052 -26.349985875565835 0 -26.349985875565835 -20.682345615663507 0 0 0 0 -5.015747404020658 -49.218727960714205 0 -49.218727960714205 -5.0051460401082295 0 0 0 0 3.9987696186544781 -62.403429008398234 0 -62.403429008398234 -4.7367427583390054 0 0 0 0 -14.0105922066723 -44.50906824212052 0 -44.50906824212052 1.7539006150036585 0 0 0 0 -17.823662953349412 -57.166337199923873 0 -57.166337199923873 -12.219917248072306 0 0 0 0 -16.991697141020268 -53.258686545683304 0 -53.258686545683304 -19.457804218915044 0 0 0 0 -38.187736564599618 -49.984652976370853 0 -49.984652976370853 -9.0725724164331041 0 0 0 0 -63.266459111364384 -52.435042656637961 0 -52.435042656637961 -36.151429017016653 0 0 0 0 4.972349286203027 -12.298480403778598 0 -12.298480403778598 -4.8332020405961202 0 0 0 0 -41.818215844087717 -35.129760803518593 0 -35.129760803518593 -23.529313501450815 0 0 0 0 -34.232132862456389 -64.025836255930585 0 -64.025836255930585 -21.791568966682995 0 0 0 0 1.6816484606752056 -56.106774604839302 0 -56.106774604839302 -91.233530220035391 0 0 0 0 26.632737775943497 -55.916597419142818 0 -55.916597419142818 -115.70757270757167 0 0 0 0 -23.22546015165608 -59.02481037004145 0 -59.02481037004145 -67.756278776494582 0 0 0 0 -0.056069731442954795 -36.411646603272821 0 -36.411646603272821 -55.20450547792791 0 0 0 0 -64.486571193920099 -48.037612910185999 0 -48.037612910185999 -24.072189468915894 0 0 0 0 427.10758577527304 -239.67652798056042 0 -239.67652798056042 -626.40661401829857 0 0 0 0 74.15170771403632 48.909085022519207 0 48.909085022519207 -204.40902152154013 0 0 0 0 -10.042963489397408 -7.8318432641924076 0 -7.8318432641924076 0.81718127239616933 0 0 0 0 -363.9981150176136 -257.01588576375434 0 -257.01588576375434 164.21391104412032 0 0 0 0 2.6402451826264013 -8.3935397725205547 0 -8.3935397725205547 -7.2977039815196747 0 0 0 0 15.599646516966459 -111.81572960051562 0 -111.81572960051562 219.69828088876375 0 0 0 0 248.81907898642021 -171.68928282649722 0 -171.68928282649722 -196.96125486430537 0 0 0 0 296.34169207333252 220.23840410353296 0 220.23840410353296 -21.568311331204313 0 0 0 0 -4.5281774206892749 -6.5424051508765189 0 -6.5424051508765189 0.14290508519629963 0 0 0 0 -319.55167125053777 -88.370579590715352 0 -88.370579590715352 419.13050773246505 0 0 0 0 1.9276215530782679 -4.2087818273332687 0 -4.2087818273332687 1.5738487105471144 0 0 0 0 161.64224534706227 -55.144131914974423 0 -55.144131914974423 161.07518552297552 0 0 0 0 -9.7728397045977573 -7.176218962823711 0 -7.176218962823711 1.1727338530328577 0 0 0 0 -142.10346552809642 79.088587010210176 0 79.088587010210176 370.09904034637293 0 0 0 0 -17.032594977241388 -109.37348714136533 0 -109.37348714136533 77.499827964536962 0 0 0 0 43.085528127347061 -49.755305388185661 0 -49.755305388185661 -260.96455674925528 0 0 0 0 -37.019523337645907 -27.384830165223597 0 -27.384830165223597 -0.62981930146065146 0 0 0 0 -180.78473016813223 -19.34992895139294 0 -19.34992895139294 -22.494323071897043 0 0 0 0 -32.557642666906759 -87.224807591721401 0 -87.224807591721401 -98.11445497872046 0 0 0 0 17.581906006365898 -60.374677754291042 0 -60.374677754291042 -219.09920882407459 0 0 0 0 -25.656408361166541 -117.51164278200304 0 -117.51164278200304 -251.99030690175641 0 0 0 0 0.55707283392834483 -2.8544059714559467 0 -2.8544059714559467 1.0541790347106321 0 0 0 0 11.840594768371375 4.6821029276507034 0 4.6821029276507034 403.51756029292301 0 0 0 0 -16.514045652349424 -17.295514468246367 0 -17.295514468246367 -5.5641769450718712 0 0 0 0 -167.03848309692694 -190.34690560258605 0 -190.34690560258605 -39.372347141674254 0 0 0 0 -85.738819448335562 -73.227517035207711 0 -73.227517035207711 -259.33314379023795 0 0 0 0 -42.917340240324847 -186.46154592548555 0 -186.46154592548555 362.06633940231768 0 0 0 0 -106.48059846650358 -61.197339741614087 0 -61.197339741614087 -99.493847738318436 0 0 0 0 71.796892348545953 -81.660294997755045 0 -81.660294997755045 242.43918383924756 0 0 0 0 41.074281043856018 -29.1271090482728 0 -29.1271090482728 -42.610100379847012 0 0 0 0 112.76726802373014 -32.666322625475004 0 -32.666322625475004 -612.92243051926198 0 0 0 0 34.039536293851555 2.6970298364950835 0 2.6970298364950835 -21.337301955606307 0 0 0 0 23.41897836175545 -8.4348983717713963 0 -8.4348983717713963 -15.58790313068528 0 0 0 0 68.614608911986579 -21.471936181467754 0 -21.471936181467754 -28.617577230606003 0 0 0 0 33.126305713114562 -9.0188134960444586 0 -9.0188134960444586 -61.310726867042831 0 0 0 0 42.627058944213786 -19.237913420187397 0 -19.237913420187397 -88.493227999453666 0 0 0 0 73.023062568823661 -42.738449059865161 0 -42.738449059865161 -99.69027828045364 0 0 0 0 -3.1104379855969455 -30.136363956105924 0 -30.136363956105924 -26.588484497183003 0 0 0 0 5.4698916109846323 -20.847471570679772 0 -20.847471570679772 -21.650499927636702 0 0 0 0 8.5586596412658906 -16.475010592598636 0 -16.475010592598636 -30.587969518653907 0 0 0 0 -11.459002873945451 -14.260007867194531 0 -14.260007867194531 -108.52343083461164 0 0 0 0 -12.034112722657255 -78.757194754257284 0 -78.757194754257284 -118.04663585795788 0 0 0 0 -94.015571315321722 -84.811769277072017 0 -84.811769277072017 39.012388633243972 0 0 0 0 -12.9437034992498 -17.426987825757202 0 -17.426987825757202 16.700652480388214 0 0 0 0 2.8517271854216233 -51.79880062329903 0 -51.79880062329903 -128.8419516907361 0 0 0 0 6.321939195287996 -56.045557079123682 0 -56.045557079123682 -201.97846224742534 0 0 0 0 -22.318079584620136 -59.811291925980186 0 -59.811291925980186 -72.33042744154227 0 0 0 0 -1.6551218154927483 -76.778675862718956 0 -76.778675862718956 -120.71081081517104 0 0 0 0 -11.940785300350399 -79.487147722029476 0 -79.487147722029476 -120.83132693549851 0 0 0 0 -139.88479893608019 -102.85769105630243 0 -102.85769105630243 -40.360340099890891 0 0 0 0 -143.75740410278377 -48.423838406401273 0 -48.423838406401273 -38.62300475135271 0 0 0 0 -76.966029458686535 -71.83233850344368 0 -71.83233850344368 -107.17834782395948 0 0 0 0 -120.99708610778907 -41.502230997448351 0 -41.502230997448351 -67.016837444105477 0 0 0 0 -149.69536735823203 -97.642205113399541 0 -97.642205113399541 -80.958853193169489 0 0 0 0 -75.445229872202617 -112.02613496828781 0 -112.02613496828781 -202.46012986460119 0 0 0 0 -44.142137112183264 -87.32077475488768 0 -87.32077475488768 -183.73637853170112 0 0 0 0 -57.442856119392673 -44.165752586355666 0 -44.165752586355666 -178.02457556762965 0 0 0 0 -72.168953455868177 -5.6103303279960528 0 -5.6103303279960528 -47.603752035858633 0 0 0 0 -127.36402354923484 -48.796311942001921 0 -48.796311942001921 -70.337389647756936 0 0 0 0 -22.168697447428713 -70.139266258272983 0 -70.139266258272983 -63.785212372997194 0 0 0 0 -13.382411660066282 -62.44572615992729 0 -62.44572615992729 -95.011050701199565 0 0 0 0 -75.227342587575549 -38.090924555479432 0 -38.090924555479432 -95.789525359275785 0 0 0 0 -16.82725565500732 -79.402566999575356 0 -79.402566999575356 -147.93136316226446 0 0 0 0 0.42814184047304593 0.43874081903996398 0 0.43874081903996398 -0.57522437845656782 0 0 0 0 36.393866249563871 40.873975889153371 0 40.873975889153371 -172.92444191175127 0 0 0 0 7.0437619244112284 -40.789616329657292 0 -40.789616329657292 -75.114219869927183 0 0 0 0 18.103769833614933 -11.382914265966974 0 -11.382914265966974 -42.310049573392462 0 0 0 0 -1.1305763884804634 -14.227877660518033 0 -14.227877660518033 -15.056892245126193 0 0 0 0 -0.61177543946402579 0.52591449961797565 0 0.52591449961797565 -1.6370980144608294 0 0 0 0 -24.927186698820151 -20.937360262505536 0 -20.937360262505536 44.450689961420721 0 0 0 0 -42.469978201032063 -59.072722443502244 0 -59.072722443502244 -33.073932582959969 0 0 0 0 136.77510583052208 -221.44277800038799 0 -221.44277800038799 -44.638264361593428 0 0 0 0 157.4863237198806 -349.63939021272563 0 -349.63939021272563 296.32201701068334 0 0 0 0 74.730649509947398 -226.38089124645194 0 -226.38089124645194 432.29277810116582 0 0 0 0 3.1911986757265254 -2.7507223019960847 0 -2.7507223019960847 -4.355922643811077 0 0 0 0 187.43949517268629 -289.67463561936165 0 -289.67463561936165 237.26921093411147 0 0 0 0 73.259816247358685 -58.617582956554543 0 -58.617582956554543 209.77765871273004 0 0 0 0 125.00996704326826 -242.54659612174873 0 -242.54659612174873 291.30620743687177 0 0 0 0 93.391165847715456 -193.04314483269263 0 -193.04314483269263 214.78156275686342 0 0 0 0 159.70076866578893 -246.41377220264258 0 -246.41377220264258 237.18046492020949 0 0 0 0 194.46702458892105 -262.28671404387569 0 -262.28671404387569 189.70603859543189 0 0 0 0 170.04369025480992 -260.51907345982181 0 -260.51907345982181 190.63229168699036 0 0 0 0 204.12808822485385 -222.19244052188151 0 -222.19244052188151 169.4530348489061 0 0 0 0 242.08218399470934 -276.05811129442372 0 -276.05811129442372 171.72419460777746 0 0 0 0 244.4840106593183 -268.41476294818858 0 -268.41476294818858 152.37467958764319 0 0 0 0 209.85709261213924 -315.49884928421397 0 -315.49884928421397 172.25983909362549 0 0 0 0 188.33492024156658 -290.00150977649764 0 -290.00150977649764 214.42162452444973 0 0 0 0 151.01323074618267 -333.82598143793439 0 -333.82598143793439 186.13485101828701 0 0 0 0 176.73619601378596 -305.43548459526392 0 -305.43548459526392 211.99402215020746 0 0 0 0 -4.4511655765881386 -30.320998887563334 0 -30.320998887563334 -2.1637712701389535 0 0 0 0 23.00531033865991 -47.464499864003301 0 -47.464499864003301 -11.866636937016665 0 0 0 0 -19.014826190495114 -112.53880200195294 0 -112.53880200195294 14.307198115588108 0 0 0 0 -27.441350851237118 -35.168161751210938 0 -35.168161751210938 -7.189309699506282 0 0 0 0 -65.372907726821722 -57.652387013302359 0 -57.652387013302359 30.206869331298549 0 0 0 0 -40.779917658694401 -46.411327788595948 0 -46.411327788595948 6.6017717156817177 0 0 0 0 -32.491934251702332 -34.091083725728822 0 -34.091083725728822 -23.843880902750243 0 0 0 0 -56.657553147902945 -28.114189572435862 0 -28.114189572435862 -1.4704389636972337 0 0 0 0 -3.2677876027009916 -28.523478065006202 0 -28.523478065006202 -10.535818955436298 0 0 0 0 -2.2729233745900501 -27.255666695858139 0 -27.255666695858139 -24.500800076245856 0 0 0 0 -0.92015445524884854 -45.859018977527739 0 -45.859018977527739 -74.165578639149317 0 0 0 0 -18.382851333649427 -29.806516416313514 0 -29.806516416313514 8.5532888795503936 0 0 0 0 -55.808508804359008 22.20437745853269 0 22.20437745853269 -109.24070862311783 0 0 0 0 -72.685463253437774 159.69329223015666 0 159.69329223015666 -102.6644844453549 0 0 0 0 4.460733951718737 -24.881220487985892 0 -24.881220487985892 -6.0785370164546606 0 0 0 0 172.92041146534029 -190.10528286503904 0 -190.10528286503904 158.74938611059042 0 0 0 0 -108.83125878416467 54.512190506837214 0 54.512190506837214 -67.07760698369384 0 0 0 0 147.23576361264713 -145.55081286525274 0 -145.55081286525274 82.152891180739971 0 0 0 0 -93.229914882245794 -76.879618612303602 0 -76.879618612303602 67.569156328703684 0 0 0 0 -125.66871518193511 24.142367236527207 0 24.142367236527207 -43.941360210357743 0 0 0 0 -48.705243255077221 -33.305473145778706 0 -33.305473145778706 -25.762692459422396 0 0 0 0 195.39415479684976 -155.2802098910953 0 -155.2802098910953 150.08767038847873 0 0 0 0 -276.02856568883726 -49.08238058704228 0 -49.08238058704228 132.2986048545099 0 0 0 0 -257.03970301929803 14.189470707045984 0 14.189470707045984 97.705220801581163 0 0 0 0 174.35506885593531 -174.49985907291807 0 -174.49985907291807 164.17347522104683 0 0 0 0 -213.99660978756219 -241.66248920782073 0 -241.66248920782073 246.7308340886957 0 0 0 0 -8.5899052390753567 -9.4103677430884929 0 -9.4103677430884929 16.232046932259948 0 0 0 0 192.11093967787747 -214.6466453835892 0 -214.6466453835892 172.66008368677285 0 0 0 0 139.71161798932008 -192.67219994787411 0 -192.67219994787411 175.31018477084581 0 0 0 0 192.49535262602149 -218.77955649783689 0 -218.77955649783689 186.96053292108991 0 0 0 0 201.04970099800266 -213.61670634861366 0 -213.61670634861366 151.84528446341574 0 0 0 0 257.89928608295668 -144.94551881671396 0 -144.94551881671396 97.154300670932571 0 0 0 0 290.45045859375386 -223.44418088671955 0 -223.44418088671955 138.87699353013159 0 0 0 0 -133.04789610636726 -75.968279292551415 0 -75.968279292551415 79.868112349926378 0 0 0 0 100.31119016703815 -40.485140353649513 0 -40.485140353649513 -87.645767549633092 0 0 0 0 188.15776601122343 -261.12045540126655 0 -261.12045540126655 -135.60396468072213 0 0 0 0 -491.65218448907581 0.60329770556973017 0 0.60329770556973017 260.63647291663074 0 0 0 0 -27.062866367125856 -29.831735875517044 0 -29.831735875517044 -8.5631243251497438 0 0 0 0 6.1314884615395613 -3.0646917217485878 0 -3.0646917217485878 1.8384557200000771 0 0 0 0 330.55461280169038 -315.32344988339628 0 -315.32344988339628 152.92085755274456 0 0 0 0 405.5603782620019 -152.7312018947523 0 -152.7312018947523 78.363934858829452 0 0 0 0 564.74116084325942 -204.81893112930265 0 -204.81893112930265 85.061604273512785 0 0 0 0 481.44496051587339 -333.11322128907796 0 -333.11322128907796 154.26041262540093 0 0 0 0 669.26856944934661 -376.37207947144043 0 -376.37207947144043 135.15138528046737 0 0 0 0 513.14296284251759 -379.61578938250568 0 -379.61578938250568 209.19690519088545 0 0 0 0 511.28823427775205 -352.09885965284047 0 -352.09885965284047 311.42854334049844 0 0 0 0 -4.2164586203948957 -5.0922927919072691 0 -5.0922927919072691 14.388254819566399 0 0 0 0 149.48242226568982 -287.73523572808153 0 -287.73523572808153 168.75820409698827 0 0 0 0 174.66091968107503 -338.22701561693248 0 -338.22701561693248 211.48073215503064 0 0 0 0 271.69463991869998 -328.08862963465799 0 -328.08862963465799 174.74865488759315 0 0 0 0 281.32012814552581 -282.3344699411864 0 -282.3344699411864 145.08282531255099 0 0 0 0 294.19773458626969 -340.84406371768591 0 -340.84406371768591 187.84329844052991 0 0 0 0 294.01633694690827 -340.06868631276848 0 -340.06868631276848 233.88739739579614 0 0 0 0 107.44127192487213 -293.22676596665224 0 -293.22676596665224 273.49793125885844 0 0 0 0 110.29464370395726 -249.21938178108212 0 -249.21938178108212 124.53805317409024 0 0 0 0 73.714673686059541 -182.2285097660897 0 -182.2285097660897 285.47384546692592 0 0 0 0 240.69235147020663 -288.60870885320765 0 -288.60870885320765 190.85836949349323 0 0 0 0 222.13048073595382 -326.56167381748219 0 -326.56167381748219 381.70263917578995 0 0 0 0 215.98209032541854 -114.46485802221559 0 -114.46485802221559 25.256242558880331 0 0 0 0 102.72195281818131 -153.73579343741039 0 -153.73579343741039 9.148237670027811 0 0 0 0 41.701833398830786 -137.44764661890258 0 -137.44764661890258 21.122919429953072 0 0 0 0 -1.1206838472335505 -1.6664892794905768 0 -1.6664892794905768 6.0673720144158807 0 0 0 0 -1049.3542649408992 83.412675134072742 0 83.412675134072742 571.63967320349184 0 0 0 0 1278.3464181581749 -816.12574827193794 0 -816.12574827193794 241.48300915851723 0 0 0 0 553.98218700646976 -508.11223708404941 0 -508.11223708404941 351.51635485545467 0 0 0 0 848.3407881805033 -252.00034829726155 0 -252.00034829726155 260.82821519527715 0 0 0 0 22.605783886792779 -207.70626991614881 0 -207.70626991614881 489.8501119834018 0 0 0 0 522.25435169614502 -741.4983231661945 0 -741.4983231661945 673.61077298294913 0 0 0 0 214.04642047881498 -306.05493318613662 0 -306.05493318613662 523.58323975047279 0 0 0 0 163.41144301416352 -538.67333657432027 0 -538.67333657432027 454.31976322480841 0 0 0 0 -5.8159770505590132 171.32793640738328 0 171.32793640738328 0.77880935512257565 0 0 0 0 -787.38418011365866 113.67448820793106 0 113.67448820793106 334.61690099004045 0 0 0 0 1.2160018601345115 1.1269385185672007 0 1.1269385185672007 2.0495451351406757 0 0 0 0 -32.812372931728532 -235.45791246153522 0 -235.45791246153522 97.741381505657046 0 0 0 0 -163.15569149642397 185.50424333600586 0 185.50424333600586 66.992111691186437 0 0 0 0 576.86908898122783 -583.57268707044932 0 -583.57268707044932 123.02658352754952 0 0 0 0 0.21516621678962622 1.0562130039674642 0 1.0562130039674642 9.8328078506258052 0 0 0 0 72.783512833586428 300.54755572636896 0 300.54755572636896 12.825936975998047 0 0 0 0 -7.5530909726712494 0.14861972361967446 0 0.14861972361967446 22.555087867451775 0 0 0 0 -23.609766483714694 -26.228143781281524 0 -26.228143781281524 -17.104294756671372 0 0 0 0 -96.447178236514446 -136.78768669885812 0 -136.78768669885812 142.57293283242689 0 0 0 0 326.43493021303584 -318.54397630113453 0 -318.54397630113453 -182.16153543940845 0 0 0 0 -8.2620046152269424 -61.676417280945316 0 -61.676417280945316 4.4707766608098609 0 0 0 0 -21.894418124542426 -52.131393219611709 0 -52.131393219611709 1.9094372611543804 0 0 0 0 -33.930047139454473 -58.602510388098381 0 -58.602510388098381 -1.5477522170695011 0 0 0 0 -12.084425529652435 -49.516272756043691 0 -49.516272756043691 -4.9223512424396176 0 0 0 0 -110.65067810919209 -67.515320961038924 0 -67.515320961038924 111.55304035632525 0 0 0 0 -114.69836327292433 -106.18651416191142 0 -106.18651416191142 14.055747411843186 0 0 0 0 -8.6167851842588163 -17.00452527892547 0 -17.00452527892547 42.508610097296867 0 0 0 0 -61.360604961966601 -49.655486268753521 0 -49.655486268753521 9.8832550316001289 0 0 0 0 -31.556634990978637 -54.644661438083858 0 -54.644661438083858 -21.006211585945039 0 0 0 0 -94.775739044562215 -40.688275151984271 0 -40.688275151984271 17.57636053103397 0 0 0 0 -30.58229201694121 -26.326349159440269 0 -26.326349159440269 25.655964453704655 0 0 0 0 -127.37500775147419 -194.72540415562435 0 -194.72540415562435 -86.570002292394747 0 0 0 0 -128.97189812211218 -81.266985610115626 0 -81.266985610115626 -9.0241069551211694 0 0 0 0 -206.57318038431185 -340.89774042671343 0 -340.89774042671343 -182.44321796148506 0 0 0 0 -545.19842827048706 -220.0611581566709 0 -220.0611581566709 -14.1744122860282 0 0 0 0 -199.46940541900767 -247.81363912017696 0 -247.81363912017696 -138.73606808549084 0 0 0 0 -0.4198977290189676 -6.0012688605589801 0 -6.0012688605589801 18.031753438109419 0 0 0 0 -10.018487835310225 -22.444763868933478 0 -22.444763868933478 19.474577096517351 0 0 0 0 -9.8148408494297286 -9.5393947092022291 0 -9.5393947092022291 -6.3823170757221703 0 0 0 0 -1572.9404865427459 -299.73059888148146 0 -299.73059888148146 -44.847412665701995 0 0 0 0 3.8640798825902039 -3.3351935420912628 0 -3.3351935420912628 -1.2045430317418493 0 0 0 0 16.819700578686025 -425.42678360283026 0 -425.42678360283026 -408.67902093560042 0 0 0 0 -2221.7494182998344 -1098.9747378257307 0 -1098.9747378257307 -633.13235190614068 0 0 0 0 -525.29323595263122 -223.94436232390944 0 -223.94436232390944 -209.17862138522833 0 0 0 0 56.90004993279581 250.38183614806621 0 250.38183614806621 -583.43746912713868 0 0 0 0 89.278920892385941 -474.81457656902421 0 -474.81457656902421 853.90764376351217 0 0 0 0 58.371973086719208 286.46595251959798 0 286.46595251959798 206.59536424442194 0 0 0 0 -1290.1347864004765 -217.82691279148958 0 -217.82691279148958 62.887908887969388 0 0 0 0 691.58723045363877 -603.92603483337371 0 -603.92603483337371 292.63703624351547 0 0 0 0 0.92600933641741179 3.7866503196327272 0 3.7866503196327272 3.9950031597035434 0 0 0 0 375.11337540973364 -272.50900753909264 0 -272.50900753909264 179.33500134725909 0 0 0 0 -0.85337706617780684 0.478334043053529 0 0.478334043053529 4.6705579628571172 0 0 0 0 74.367469042743323 -788.47877717223309 0 -788.47877717223309 389.79815383545065 0 0 0 0 -1686.5864597213913 -77.979428021978492 0 -77.979428021978492 792.18884036292366 0 0 0 0 794.86072626094756 -258.35158719846822 0 -258.35158719846822 -165.88502019328735 0 0 0 0 -34.942573635424196 -794.90645677858993 0 -794.90645677858993 411.79380963990479 0 0 0 0 118.05330863879499 -324.90457625866111 0 -324.90457625866111 -478.65695208207399 0 0 0 0 -22.126018269715132 -47.8715697577627 0 -47.8715697577627 24.94591063849839 0 0 0 0 -48.477902011703421 -20.187783134650008 0 -20.187783134650008 1.2515481072186425 0 0 0 0 -450.03610965815096 -160.38988637094371 0 -160.38988637094371 -31.20837928018409 0 0 0 0 80.996636130027582 -159.56418221840386 0 -159.56418221840386 176.35828220888652 0 0 0 0 -12.603773090124285 1.3631415535534757 0 1.3631415535534757 17.782538943771087 0 0 0 0 -61.457015834363119 -35.317411518637527 0 -35.317411518637527 3.4381982041850279 0 0 0 0 -20.768385342834133 -33.501758132468609 0 -33.501758132468609 -10.643411774412129 0 0 0 0 -41.133738542434003 -70.829935360206946 0 -70.829935360206946 41.94836586081874 0 0 0 0 -38.43902544665616 -74.148939443562995 0 -74.148939443562995 45.88705033369115 0 0 0 0 -29.771825327781698 -86.012277308408557 0 -86.012277308408557 115.69251195246034 0 0 0 0 -20.789408379809174 -80.26833702305521 0 -80.26833702305521 34.058566091747707 0 0 0 0 -27.90959932316764 -69.48318958233358 0 -69.48318958233358 18.0406972879573 0 0 0 0 -0.31433275403105654 -110.97272607561717 0 -110.97272607561717 26.891419651049546 0 0 0 0 -6.3793895176695514 -89.777334453252934 0 -89.777334453252934 7.158595311557292 0 0 0 0 22.935586928695557 -98.643550008060629 0 -98.643550008060629 3.4506502209096652 0 0 0 0 54.621666732949961 -154.48351619050663 0 -154.48351619050663 107.30360784864888 0 0 0 0 23.390501270634104 -106.80484273421575 0 -106.80484273421575 36.502101653266436 0 0 0 0 21.199363074927533 -127.42262804770326 0 -127.42262804770326 35.189977441457813 0 0 0 0 -27.914838340439019 -52.293895438286199 0 -52.293895438286199 60.758929449479183 0 0 0 0 -24.369937545248831 -73.438442204893363 0 -73.438442204893363 159.42514059100722 0 0 0 0 66.155236822800362 -114.46710705826627 0 -114.46710705826627 92.574810922093093 0 0 0 0 -18.999117139128742 -11.0250383707662 0 -11.0250383707662 -2.7861665250046759 0 0 0 0 26.388403517023107 -106.20370986299258 0 -106.20370986299258 180.17988998808505 0 0 0 0 310.17298446530185 152.25772145267911 0 152.25772145267911 -982.46955668130613 0 0 0 0 1100.8524299776363 -750.53203539273363 0 -750.53203539273363 -17.445454582921229 0 0 0 0 218.22680719797791 -757.83992470876183 0 -757.83992470876183 62.456894080693019 0 0 0 0 -419.26889747395762 76.688716168078827 0 76.688716168078827 -147.04972998349695 0 0 0 0 -190.2519772262749 108.29317345368509 0 108.29317345368509 314.37752144342448 0 0 0 0 468.02963488081878 -580.49381727558284 0 -580.49381727558284 131.44996437415102 0 0 0 0 126.06517535960302 -498.07355528662629 0 -498.07355528662629 -524.29246702458113 0 0 0 0 378.94237509311279 204.99421203251131 0 204.99421203251131 -1672.504660150702 0 0 0 0 14.588256211667613 -279.52517959999568 0 -279.52517959999568 633.95288722452369 0 0 0 0 -3.6384541019116341 -4.2553492409884015 0 -4.2553492409884015 -1.2861873131775043 0 0 0 0 156.45231253205566 -103.74628478666318 0 -103.74628478666318 -183.21137009391896 0 0 0 0 -3.9719866368859584 15.424139182284989 0 15.424139182284989 -144.13828765751532 0 0 0 0 101.20678056550241 -138.08094516078745 0 -138.08094516078745 20.428158488783083 0 0 0 0 228.09909706889448 -85.907227771996986 0 -85.907227771996986 -480.93008113466567 0 0 0 0 182.52192762985942 -405.44704140328395 0 -405.44704140328395 -232.26617567803987 0 0 0 0 247.05639635680473 -173.08631781880263 0 -173.08631781880263 -175.65628672589446 0 0 0 0 1.2481555412665273 -0.27380733728767837 0 -0.27380733728767837 -0.40231883761157405 0 0 0 0 60.558070240011148 -190.40600691868531 0 -190.40600691868531 -84.819153139409536 0 0 0 0 105.00420684712844 -140.55409342511302 0 -140.55409342511302 -244.38288297403415 0 0 0 0 47.782969959429465 -34.783986496851867 0 -34.783986496851867 -387.71288649525468 0 0 0 0 113.34617615553361 -220.64780551799959 0 -220.64780551799959 -29.748923629445926 0 0 0 0 129.37177406630872 -207.64773327868716 0 -207.64773327868716 -64.081890166045923 0 0 0 0 100.5996249148418 -155.85226941439811 0 -155.85226941439811 28.559289871012879 0 0 0 0 27.968043452332495 -38.622190172074625 0 -38.622190172074625 -59.942569551205452 0 0 0 0 36.680411867215298 -33.31650444756815 0 -33.31650444756815 -66.556862759738578 0 0 0 0 99.946809960526593 -115.38803826393908 0 -115.38803826393908 -149.71623007398011 0 0 0 0 32.677563846948033 -27.504921382851535 0 -27.504921382851535 -125.76423677727507 0 0 0 0 -9.6762335864259512 3.7738075479210238 0 3.7738075479210238 -148.86338080158021 0 0 0 0 81.007744192771497 -170.30876064828226 0 -170.30876064828226 206.61142396770265 0 0 0 0 66.23859904424171 -67.671390918701945 0 -67.671390918701945 208.93669198875432 0 0 0 0 185.43077131362224 -439.29060705337361 0 -439.29060705337361 152.09412929506652 0 0 0 0 129.44175154419645 -202.83174981786578 0 -202.83174981786578 177.03787338324059 0 0 0 0 128.00084822961799 -227.64190792598129 0 -227.64190792598129 -30.109866547674756 0 0 0 0 151.71256225884281 -151.43807974569791 0 -151.43807974569791 -11.00003459635991 0 0 0 0 148.24481948086031 -156.93696213953808 0 -156.93696213953808 53.949906246813043 0 0 0 0 190.97371640267374 -156.64297665306549 0 -156.64297665306549 41.351572155879694 0 0 0 0 189.88464087492321 -187.44345607054129 0 -187.44345607054129 97.01371735866087 0 0 0 0 117.94170468529046 -115.98940188815868 0 -115.98940188815868 38.356808703912975 0 0 0 0 182.32570510563528 -179.30451107829413 0 -179.30451107829413 66.956925633858191 0 0 0 0 195.03556819487676 -157.01195642590437 0 -157.01195642590437 1.5812737054293393 0 0 0 0 90.416788364025706 -138.0407260219763 0 -138.0407260219763 147.78926151341511 0 0 0 0 46.246150676350226 30.24891820481389 0 30.24891820481389 -362.29950129761346 0 0 0 0 1.4350547932877475 -0.27670073346351742 0 -0.27670073346351742 -0.23432626187790984 0 0 0 0 6.4423853162297746 23.588760632767844 0 23.588760632767844 -260.04093967493645 0 0 0 0 65.604961717552214 2.9978445416199975 0 2.9978445416199975 -339.94285906816367 0 0 0 0 156.11185723227209 -166.96590714557124 0 -166.96590714557124 -124.71833375551068 0 0 0 0 -12.650577951462765 15.360490435437896 0 15.360490435437896 -87.537671025531381 0 0 0 0 -16.867264440492363 37.536346196113755 0 37.536346196113755 -465.68158916908214 0 0 0 0 3.5833717386709054 -1.4221427487806579 0 -1.4221427487806579 -0.67763073054764256 0 0 0 0 10.254968476983777 12.517966318525396 0 12.517966318525396 -89.516654662114888 0 0 0 0 -10.137851692372351 32.148031940883811 0 32.148031940883811 -40.73489791281645 0 0 0 0 -21.307622097767307 -3.5039475180892623 0 -3.5039475180892623 20.288833735299704 0 0 0 0 33.51157785722171 -103.68076674608892 0 -103.68076674608892 76.398742206976749 0 0 0 0 7.0470391139388084 -46.949191843377776 0 -46.949191843377776 78.859873185589777 0 0 0 0 57.588120249667554 -85.28239927764298 0 -85.28239927764298 11.867184824994183 0 0 0 0 1.3231226782227168 50.518860692554881 0 50.518860692554881 -320.64985553759288 0 0 0 0 -14.054452308788314 40.947670080729949 0 40.947670080729949 -230.70248629145135 0 0 0 0 -21.378406820280361 16.766524525821296 0 16.766524525821296 -334.13476137840553 0 0 0 0 -5.7837170092570886 18.843322374168565 0 18.843322374168565 -191.19238154109189 0 0 0 0 5.3981581422413001 7.8107153589317022 0 7.8107153589317022 -487.08222667645168 0 0 0 0 0.014184473438916712 0.90552835977940305 0 0.90552835977940305 -0.74672446896301459 0 0 0 0 14.72143397545733 9.2094291370885912 0 9.2094291370885912 -240.30855149710624 0 0 0 0 18.719658725362024 -0.96999988093239153 0 -0.96999988093239153 -222.9131688099842 0 0 0 0 -2.8801001524261665 11.86971805932626 0 11.86971805932626 -235.3891591964948 0 0 0 0 45.583489633354475 90.883143786239998 0 90.883143786239998 108.7224993573891 0 0 0 0 11.76616153214718 -13.410364560805338 0 -13.410364560805338 -0.5784153000235227 0 0 0 0 -42.249501012527617 51.417113277198041 0 51.417113277198041 220.83750021264467 0 0 0 0 -40.557087655281066 39.91189564072647 0 39.91189564072647 177.59665446245435 0 0 0 0 13.883835100286888 -16.330359157687326 0 -16.330359157687326 -208.50956786775714 0 0 0 0 7.0271100896206917 19.611692991089512 0 19.611692991089512 -259.10999889667937 0 0 0 0 73.094616532463988 -0.81126127626794187 0 -0.81126127626794187 -301.90779130264309 0 0 0 0 15.242249843749676 -15.113709216627118 0 -15.113709216627118 -0.56673367771009908 0 0 0 0 -53.435981084774539 -123.74340510014781 0 -123.74340510014781 175.72546171482645 0 0 0 0 78.255413089362264 -53.367617490512657 0 -53.367617490512657 32.424606153639616 0 0 0 0 77.330849879072048 34.536567382933299 0 34.536567382933299 -5.1011640351825918 0 0 0 0 -141.74037046598096 35.018452732975675 0 35.018452732975675 393.93909734838098 0 0 0 0 -2.5869584489410045 -131.27928996850278 0 -131.27928996850278 197.50979963090396 0 0 0 0 21.64965642968474 -17.396569946302535 0 -17.396569946302535 -0.79667192239789242 0 0 0 0 73.263176625026972 -48.177310246759589 0 -48.177310246759589 -256.07699778803584 0 0 0 0 22.646211071525613 -95.13692482472743 0 -95.13692482472743 -61.061991422551728 0 0 0 0 29.50007016211211 -16.510546876661714 0 -16.510546876661714 -0.46657514787741827 0 0 0 0 12.939226270980726 -21.310001922521224 0 -21.310001922521224 151.15217764117597 0 0 0 0 28.96731167100188 -74.182274040873153 0 -74.182274040873153 -5.4888738755471422 0 0 0 0 23.892240164041141 -58.615125499825808 0 -58.615125499825808 -37.991860033500416 0 0 0 0 38.976918111155101 -75.373275440786529 0 -75.373275440786529 -158.43279044707197 0 0 0 0 18.932972717593657 -119.805437616993 0 -119.805437616993 -5.1145956463369657 0 0 0 0 30.548071462239022 -107.86729396356168 0 -107.86729396356168 -46.685559910747088 0 0 0 0 35.376187631052744 -90.438132610207504 0 -90.438132610207504 4.0726947066468711 0 0 0 0 30.848164216004079 -121.55751390819751 0 -121.55751390819751 10.199732994351507 0 0 0 0 10.856488036628207 -106.22375760047527 0 -106.22375760047527 -1.1934463745274115 0 0 0 0 -1.3907116951845637 -112.76935002703885 0 -112.76935002703885 26.272196985071787 0 0 0 0 -1.8901145021154662 -119.0274764514561 0 -119.0274764514561 13.224301735550398 0 0 0 0 10.409084760591895 -116.64276229590115 0 -116.64276229590115 3.0139715650802827 0 0 0 0 30.649806621102471 -144.80779875690132 0 -144.80779875690132 -20.315617518454019 0 0 0 0 28.112207687954651 -157.80792469891276 0 -157.80792469891276 36.677118055327426 0 0 0 0 75.656334334576968 -81.927465991389909 0 -81.927465991389909 -45.601959369825636 0 0 0 0 19.397798617617752 -100.48690464744234 0 -100.48690464744234 -63.509256775962058 0 0 0 0 129.4591698246295 -216.17766768812453 0 -216.17766768812453 -1273.5252975192761 0 0 0 0 -0.33119186310796067 -417.63318326515491 0 -417.63318326515491 -858.03896002582314 0 0 0 0 -74.031419431739778 -82.939222337770843 0 -82.939222337770843 -820.23483364896765 0 0 0 0 -2.6949367421693751 -352.80490772476151 0 -352.80490772476151 -707.52241634741222 0 0 0 0 -110.73348607063235 -306.57841983354228 0 -306.57841983354228 -483.474767394222 0 0 0 0 -61.656552481308609 -287.05322949173842 0 -287.05322949173842 -483.44681837282042 0 0 0 0 -60.074341775756693 -220.39947997193349 0 -220.39947997193349 -607.81366304950279 0 0 0 0 0.24529640976106748 -444.77124179460407 0 -444.77124179460407 -469.44429845732793 0 0 0 0 -134.80683977854642 -220.94044938857132 0 -220.94044938857132 7.7787934865591524 0 0 0 0 3.2516269633670163 -478.01184788255432 0 -478.01184788255432 -681.80909754530876 0 0 0 0 -0.68202636872115363 -0.5617419346707635 0 -0.5617419346707635 -0.68344807272646158 0 0 0 0 0.12360540675761847 -674.73006429879456 0 -674.73006429879456 -178.56735101930099 0 0 0 0 -141.52854786987882 -317.97418542624473 0 -317.97418542624473 -136.72703604708022 0 0 0 0 -0.6690566817061665 -0.4922394947404598 0 -0.4922394947404598 -0.32127335648710797 0 0 0 0 -129.31582863105723 -361.14258009547666 0 -361.14258009547666 -562.30510563540884 0 0 0 0 -255.09749462342006 -93.221550200684987 0 -93.221550200684987 126.34149996142514 0 0 0 0 -228.11077721865877 -312.23567330039077 0 -312.23567330039077 -97.331905004523833 0 0 0 0 -237.97125231274049 -255.38428530491717 0 -255.38428530491717 -157.45394066451991 0 0 0 0 -76.462920396501431 -168.2398241583378 0 -168.2398241583378 -299.56279017232191 0 0 0 0 -195.58268370388396 -304.21060612356041 0 -304.21060612356041 -396.75423871629391 0 0 0 0 -105.00145125260497 -160.81857285968863 0 -160.81857285968863 -338.4420909740511 0 0 0 0 -75.571201956314326 -122.67173808617554 0 -122.67173808617554 -531.11504195005546 0 0 0 0 -136.00436868262477 -249.54237991589798 0 -249.54237991589798 -588.03287407108292 0 0 0 0 9.7793083342767204 -56.311535448116956 0 -56.311535448116956 -500.56475902606689 0 0 0 0 16.191582583087438 -95.399098006583699 0 -95.399098006583699 -289.04546884277624 0 0 0 0 -22.538901852945855 -70.379241829474267 0 -70.379241829474267 -254.67363089297396 0 0 0 0 3.3896819321598741 -41.219870936463849 0 -41.219870936463849 -270.62566996104761 0 0 0 0 -14.060991686877969 -86.211044387757283 0 -86.211044387757283 -227.46651908203603 0 0 0 0 -43.576996339943435 -151.96416829731243 0 -151.96416829731243 -439.90616314940235 0 0 0 0 0.89497795923037415 -0.22312393058140145 0 -0.22312393058140145 -0.55573866549888962 0 0 0 0 -110.14633428220986 -182.21274411066406 0 -182.21274411066406 -303.99374555967734 0 0 0 0 -105.74504531040111 -149.44014290954919 0 -149.44014290954919 -146.65774554544259 0 0 0 0 -30.433323750490672 -129.14768955267937 0 -129.14768955267937 -260.56726072407622 0 0 0 0 -55.516502492577274 -88.105112241235474 0 -88.105112241235474 -260.09736928193888 0 0 0 0 -49.507818629725989 -149.23457508837373 0 -149.23457508837373 -110.72501289144566 0 0 0 0 49.545013207531156 -139.23793238016879 0 -139.23793238016879 -115.40896888103453 0 0 0 0 -13.320960214805382 -43.056924331724076 0 -43.056924331724076 -213.57591829600096 0 0 0 0 -44.352658249496017 -112.068368949449 0 -112.068368949449 -189.12766424216534 0 0 0 0 -1.1731236980049289 -111.7362632163713 0 -111.7362632163713 -318.27997141611559 0 0 0 0 2.029221537849395 -0.75314079732422101 0 -0.75314079732422101 -0.52383357943847386 0 0 0 0 1.8454322906400193 -95.631545727908815 0 -95.631545727908815 -319.40556887851108 0 0 0 0 -22.909705413768052 -53.470409898680714 0 -53.470409898680714 -224.82883852422674 0 0 0 0 3.4221767599374289 -24.17693714177949 0 -24.17693714177949 -240.83057961430404 0 0 0 0 -36.397944858377741 -29.219133873612918 0 -29.219133873612918 -152.51164229583446 0 0 0 0 -8.1789341313779005 -44.850155431992789 0 -44.850155431992789 -216.92568267311617 0 0 0 0 -45.124085777439177 -50.056621238347361 0 -50.056621238347361 -145.6322410162029 0 0 0 0 20.712308986709104 -0.394652615132145 0 -0.394652615132145 -151.92056529474712 0 0 0 0 4.8867438412991646 -2.4509874906662681 0 -2.4509874906662681 -0.81211029780342914 0 0 0 0 -26.218905146772158 -37.365512513384147 0 -37.365512513384147 -147.16034571090859 0 0 0 0 38.2729458919639 14.276981699874341 0 14.276981699874341 -404.26940498987824 0 0 0 0 32.820290892515914 -11.99106702850986 0 -11.99106702850986 -303.53782438948656 0 0 0 0 -23.857932915430865 21.698607844738945 0 21.698607844738945 -265.76445065995722 0 0 0 0 24.325355676483014 68.537103679501342 0 68.537103679501342 -346.1308334539608 0 0 0 0 -0.080916968450907234 1.1728896606071544 0 1.1728896606071544 -0.90357278825265297 0 0 0 0 3.1673743712090072 -23.348226539926827 0 -23.348226539926827 -251.81050826851788 0 0 0 0 -9.2505474389472511 -46.7341355590288 0 -46.7341355590288 -312.63854993377026 0 0 0 0 -0.44995872372965096 -0.070184160367716686 0 -0.070184160367716686 -221.37517282164481 0 0 0 0 11.863919369032374 27.386269232683844 0 27.386269232683844 -217.88526221242864 0 0 0 0 -5.3981451498693787 5.2300265423109522 0 5.2300265423109522 -178.10676316086756 0 0 0 0 241.210832126475 -62.736800771656817 0 -62.736800771656817 90.732047762760885 0 0 0 0 9.2454295222017038 -12.611386083618939 0 -12.611386083618939 -0.59336159979941461 0 0 0 0 -128.96342307037776 9.2937749242528298 0 9.2937749242528298 492.32652282113577 0 0 0 0 -26.890459031528735 -54.761022887883428 0 -54.761022887883428 -247.439416893616 0 0 0 0 26.150390142240212 18.603118210870889 0 18.603118210870889 -265.53126376475848 0 0 0 0 -34.017109728476498 29.895315473755545 0 29.895315473755545 -129.41186440780439 0 0 0 0 5.0751393108855893 -12.262435106757597 0 -12.262435106757597 -0.45847420481419188 0 0 0 0 46.275651535113866 -29.068386323872801 0 -29.068386323872801 205.35042749809807 0 0 0 0 8.7704652383990833 -36.361151857337632 0 -36.361151857337632 241.36468947397407 0 0 0 0 -21.694645117786422 -53.219467646609701 0 -53.219467646609701 289.82729089512122 0 0 0 0 7.0473219976993278 -29.283925088610886 0 -29.283925088610886 233.1178019684894 0 0 0 0 32.808069312421139 46.911201001319569 0 46.911201001319569 -330.18722974117736 0 0 0 0 -27.667079257016667 -7.6827054404072896 0 -7.6827054404072896 -122.12621401673641 0 0 0 0 -50.186332572106039 -8.9892944195053133 0 -8.9892944195053133 -150.69196069094914 0 0 0 0 -0.017741156563147342 0.54481097934991851 0 0.54481097934991851 -0.57815449784887196 0 0 0 0 64.846177772815281 -19.252921497857642 0 -19.252921497857642 -403.03223387223443 0 0 0 0 42.96983058652404 47.87909512157421 0 47.87909512157421 -355.68410750998919 0 0 0 0 5.3642179655556106 -3.060343574904941 0 -3.060343574904941 -1.0016273634730934 0 0 0 0 28.347811974283104 -67.540280368973072 0 -67.540280368973072 -334.21377912802745 0 0 0 0 47.969680713787966 3.5744458916560689 0 3.5744458916560689 -394.30830884173338 0 0 0 0 4.2719827504827492 -2.9575912025574738 0 -2.9575912025574738 -1.2834134409162408 0 0 0 0 -27.336365837320045 -115.02455024464234 0 -115.02455024464234 -581.57029588117985 0 0 0 0 43.439926194827422 60.78658448817805 0 60.78658448817805 -276.44697907425143 0 0 0 0 -24.1721979148424 -1.1416152427818815 0 -1.1416152427818815 -253.51470981870989 0 0 0 0 24.535050453680014 32.266386136115216 0 32.266386136115216 -240.47299714129895 0 0 0 0 0.6124269391641235 -11.466956298988237 0 -11.466956298988237 -0.206940128280511 0 0 0 0 55.935143470316689 -32.246411698880365 0 -32.246411698880365 150.9324561662288 0 0 0 0 23.293878342548851 -81.707493742273073 0 -81.707493742273073 223.59941594128759 0 0 0 0 -58.243062076915521 -29.493697011577751 0 -29.493697011577751 368.33931037177172 0 0 0 0 -42.195928802757408 -103.66815471227346 0 -103.66815471227346 421.61869335228374 0 0 0 0 -10.237771125190193 -91.067283935855812 0 -91.067283935855812 169.89358155352784 0 0 0 0 10.110191524494439 -31.009340153195808 0 -31.009340153195808 110.63261255859106 0 0 0 0 -4.3048917282285402 18.601426245410039 0 18.601426245410039 250.65775767268678 0 0 0 0 18.247249032318905 -20.495985667014622 0 -20.495985667014622 -234.46688940519925 0 0 0 0 -1.6475132372835901 -10.29156156306821 0 -10.29156156306821 -0.82957750106711003 0 0 0 0 -34.836161994004215 28.90221247048521 0 28.90221247048521 -76.880519112138131 0 0 0 0 -4.4053985929676855 8.6250125431934066 0 8.6250125431934066 -156.7999204752432 0 0 0 0 -2.231892223108261 -6.4781208724901873 0 -6.4781208724901873 -9.2996532232339746 0 0 0 0 141.81973962053598 -68.167626458549421 0 -68.167626458549421 253.02059351331991 0 0 0 0 110.95142573872727 20.538374386393571 0 20.538374386393571 285.52430348639245 0 0 0 0 47.764692538781674 -107.08575066774756 0 -107.08575066774756 239.73507830617109 0 0 0 0 32.477754652207295 4.8851614190190276 0 4.8851614190190276 300.96202845730659 0 0 0 0 -6.3466133188048843 -55.146213435065874 0 -55.146213435065874 158.87976892852657 0 0 0 0 62.210774415623746 -83.915243272676889 0 -83.915243272676889 164.49174212104845 0 0 0 0 15.176620260230266 -37.383903185858799 0 -37.383903185858799 167.71876949366197 0 0 0 0 25.557953623501817 -70.126342086776276 0 -70.126342086776276 159.2108517739498 0 0 0 0 -71.461248132058245 -131.41498477509595 0 -131.41498477509595 761.86938228648251 0 0 0 0 -1.7475062662976768 -0.82522871798882136 0 -0.82522871798882136 -0.20463307390040342 0 0 0 0 -5.3503442062865361 150.12744892467163 0 150.12744892467163 5.258117898142018 0 0 0 0 13.685386721692339 -119.24440743222203 0 -119.24440743222203 135.31909458561313 0 0 0 0 284.88321150606498 -319.42438334407598 0 -319.42438334407598 45.29451706613429 0 0 0 0 -0.19463986923074117 -143.97506692592378 0 -143.97506692592378 469.1710470287544 0 0 0 0 1.6746057812852086 5.389471238680926 0 5.389471238680926 1.5076386496821215 0 0 0 0 2.3058019448782545 -0.914806454656933 0 -0.914806454656933 -3.1152768422030652 0 0 0 0 54.910775323020061 -10.732197204733893 0 -10.732197204733893 -40.758408315602082 0 0 0 0 114.01529046166252 -67.315356738109585 0 -67.315356738109585 -12.540277733191033 0 0 0 0 20.099379105784465 -56.036524449849821 0 -56.036524449849821 34.243893362092422 0 0 0 0 -138.4734977192893 322.3328065969722 0 322.3328065969722 -657.27757961466887 0 0 0 0 -1.4228553886083404 -1.6451489834812421 0 -1.6451489834812421 -3.7731866802904861 0 0 0 0 0.19655163175048074 -6.3650388671385372 0 -6.3650388671385372 -2.8056202962397947 0 0 0 0 -66.84529465126252 132.4153948570729 0 132.4153948570729 -171.22608575063487 0 0 0 0 43.444032360464917 57.56467049730054 0 57.56467049730054 -435.79517363121522 0 0 0 0 1.6451972130052752 -1.1849028305433755 0 -1.1849028305433755 -1.566305554554587 0 0 0 0 -98.662684141214413 -79.061230941955728 0 -79.061230941955728 -239.44976401888925 0 0 0 0 1.7050910102843773 -717.39069219417433 0 -717.39069219417433 -1021.0015543028167 0 0 0 0 -10.552260160415244 -33.592439495355393 0 -33.592439495355393 35.768724444292275 0 0 0 0 0.0050045501047861762 -36.630743641071149 0 -36.630743641071149 -4.5216058557507495 0 0 0 0 -9.333084002682881 -28.543271196866954 0 -28.543271196866954 -6.6033717942784733 0 0 0 0 -5.7044640962121775 -29.613514525490245 0 -29.613514525490245 -6.3436768852736805 0 0 0 0 -25.313472571484454 -17.499788390561662 0 -17.499788390561662 23.364626326015241 0 0 0 0 -27.997983579682113 -24.864384407063653 0 -24.864384407063653 10.348830752511276 0 0 0 0 -11.860053946889821 -12.574819056135311 0 -12.574819056135311 4.3049365986489647 0 0 0 0 -7.2360581450338941 6.3639086012644839 0 6.3639086012644839 55.985295674327062 0 0 0 0 0.00025471500960272278 -28.746762500629213 0 -28.746762500629213 -12.958501074926971 0 0 0 0 1.56913585593324 0.39441492803654654 0 0.39441492803654654 -1.4211257470594614 0 0 0 0 0.37855955518011797 0.50134019043365541 0 0.50134019043365541 -0.95787843672639461 0 0 0 0 -16.880012534260459 -3.9043514556879018 0 -3.9043514556879018 12.886583657013034 0 0 0 0 5.7442573008775071 -9.6282605723577035 0 -9.6282605723577035 -10.624446196127792 0 0 0 0 0.018954689094592699 -10.60988214106183 0 -10.60988214106183 3.7647919591199752 0 0 0 0 -0.015392428503857983 -10.567304742505957 0 -10.567304742505957 3.7484528322675033 0 0 0 0 9.3210313084709924 -40.640099038482731 0 -40.640099038482731 35.013278768628879 0 0 0 0 27.886506414753967 -53.936251822351551 0 -53.936251822351551 -3.4572519789362559 0 0 0 0 25.404588666533527 -30.864321796900185 0 -30.864321796900185 40.127431713524857 0 0 0 0 19.398914113862702 -57.188235152932066 0 -57.188235152932066 84.132217068618047 0 0 0 0 40.274207554844907 -79.172676090600362 0 -79.172676090600362 75.169679858099698 0 0 0 0 95.944599199734512 -94.072713776120509 0 -94.072713776120509 -39.201556168995012 0 0 0 0 82.683334355824627 0.57600907643609389 0 0.57600907643609389 -91.933141769770373 0 0 0 0 -3.1814959181999711 -3.9066962242174483 0 -3.9066962242174483 -1.8378411445932059 0 0 0 0 -3.5776050265994854 39.870374750127667 0 39.870374750127667 -70.561204313037706 0 0 0 0 20.261429478548962 -31.061457435442662 0 -31.061457435442662 -54.282960447177175 0 0 0 0 -5.0211930867662886 -7.0123290465198806 0 -7.0123290465198806 2.2733576451719273 0 0 0 0 -2.0204360889911186 -26.979125579440733 0 -26.979125579440733 -46.642592162519577 0 0 0 0 -13.180698992444377 -7.7120646324583504 0 -7.7120646324583504 9.7706489063875779 0 0 0 0 -1.3063891961990919 -10.549020304648039 0 -10.549020304648039 2.3266292714866825 0 0 0 0 -12.066347735841191 -10.062254258490611 0 -10.062254258490611 -9.3943557530801627 0 0 0 0 1.853691062289812 -10.910448710345406 0 -10.910448710345406 0.6627288462287062 0 0 0 0 -0.22299234472754392 -6.7013298347136327 0 -6.7013298347136327 1.3166720652046209 0 0 0 0 4.7293136368389241 -5.104457996043493 0 -5.104457996043493 -4.6606132536617224 0 0 0 0 -0.64499153672780096 -1.3440762235759109 0 -1.3440762235759109 -1.3170438330829484 0 0 0 0 -10.518539217167984 -11.601545617972498 0 -11.601545617972498 1.4743993138639233 0 0 0 0 8.8297761553694727 81.964404843241937 0 81.964404843241937 42.89986679466756 0 0 0 0 -38.895198456317303 -18.59320522946291 0 -18.59320522946291 35.432836148608658 0 0 0 0 -2.3678530906036954 -1.2087611224185935 0 -1.2087611224185935 -0.13690994708456472 0 0 0 0 247.55134414519489 -26.63104588004262 0 -26.63104588004262 -29.083256229747349 0 0 0 0 -4.9396311553136911 -10.866576011831057 0 -10.866576011831057 50.153157906563138 0 0 0 0 159.54602907197841 -1.8544009396136971 0 -1.8544009396136971 23.294202533837961 0 0 0 0 -11.43586108071031 -20.87025803236611 0 -20.87025803236611 7.0315840965595271 0 0 0 0 -16.65852071558038 -17.950681101499868 0 -17.950681101499868 43.172662329361629 0 0 0 0 -11.985801913964679 -1.0625680070243106 0 -1.0625680070243106 -7.1362642895364843 0 0 0 0 10.666509730911741 -6.0190323756458284 0 -6.0190323756458284 -0.87544148043040693 0 0 0 0 -1.18590710803619 -33.90363730392437 0 -33.90363730392437 4.0300489772853325 0 0 0 0 1.6235051969694894 -1.9120443199381256 0 -1.9120443199381256 0.26317799035828138 0 0 0 0 -0.85994296473378995 -2.1457017297466834 0 -2.1457017297466834 1.5546018541739786 0 0 0 0 27.146326472910005 -46.479111637732785 0 -46.479111637732785 -119.71331809103867 0 0 0 0 15.140449376020115 -14.094942912346596 0 -14.094942912346596 -40.16261306148408 0 0 0 0 -5.4829881649202434 -43.853119974095534 0 -43.853119974095534 -50.654212026158348 0 0 0 0 -7.5149940946575953 -20.93717471288619 0 -20.93717471288619 -62.592062392450316 0 0 0 0 -7.5717959895264357 -73.862694828681924 0 -73.862694828681924 -51.365088850274333 0 0 0 0 2.1953827229567224 0.85051055689932298 0 0.85051055689932298 -2.3633248367022297 0 0 0 0 -14.392235439372598 -2.0575693577993661 0 -2.0575693577993661 11.018486700442736 0 0 0 0 -28.592892988745007 -55.944332923092588 0 -55.944332923092588 151.495296336884 0 0 0 0 -29.796025672083488 -32.675662353227381 0 -32.675662353227381 134.71951149203778 0 0 0 0 -5.2737070887233131 -34.708750537894957 0 -34.708750537894957 91.774297712747511 0 0 0 0 26.806019468887825 -51.991140826792616 0 -51.991140826792616 92.86120504536666 0 0 0 0 15.385438854165841 -20.333568311063573 0 -20.333568311063573 21.937563627841882 0 0 0 0 -0.5117306585307233 -54.121845190560634 0 -54.121845190560634 0.064976582427334506 0 0 0 0 6.3303106005332666 -21.526003336099166 0 -21.526003336099166 8.7153311587317148 0 0 0 0 8.8593004227233223 -4.533428210375142 0 -4.533428210375142 1.5630235615449042 0 0 0 0 66.049306762579363 -23.913823985352792 0 -23.913823985352792 -6.5087639213403463 0 0 0 0 11.131662146857707 -5.5632110888254829 0 -5.5632110888254829 44.744608643530228 0 0 0 0 46.78427145119349 -35.228239685167864 0 -35.228239685167864 46.894998486182885 0 0 0 0 -4.0795122930067009 12.445910549566179 0 12.445910549566179 142.19905161469615 0 0 0 0 -1.5784497193617995 -1.7867755417577555 0 -1.7867755417577555 -2.096554197236987 0 0 0 0 -211.93991841635852 -7.9923303496414064 0 -7.9923303496414064 30.375284652286609 0 0 0 0 -78.31267786090325 -209.88897870114218 0 -209.88897870114218 -60.192636117393704 0 0 0 0 -13.115892208123114 -54.050067248848791 0 -54.050067248848791 -169.90358353028969 0 0 0 0 -47.130426578980405 251.04353081379668 0 251.04353081379668 -164.46528879232756 0 0 0 0 -181.23679795463977 -123.49490477540712 0 -123.49490477540712 7.8293770610143838 0 0 0 0 0.085262379141809674 -1.0923797628729517 0 -1.0923797628729517 0.71560705533992675 0 0 0 0 -99.815223850797338 -61.098398757677842 0 -61.098398757677842 19.990223342354511 0 0 0 0 -66.738880606406383 1.9979302709739386 0 1.9979302709739386 4.4898801561666914 0 0 0 0 4.3425753008704078 -12.107201337347945 0 -12.107201337347945 -0.92268659789997187 0 0 0 0 9.1266487323573529 -10.034785773135582 0 -10.034785773135582 -35.638002810152102 0 0 0 0 14.654036397576419 1.0250897298149084 0 1.0250897298149084 -23.818552267297491 0 0 0 0 -4.404140747647034 -17.455761304758198 0 -17.455761304758198 0.36955698291376393 0 0 0 0 -94.3475684430814 -33.30065038533985 0 -33.30065038533985 4.8031758509687279 0 0 0 0 -17.052574289260519 -42.082069301639876 0 -42.082069301639876 -43.470194810045541 0 0 0 0 -15.281052379352332 -14.930882470015831 0 -14.930882470015831 -1.8776238966001983 0 0 0 0 -21.715557121526217 10.904582363523332 0 10.904582363523332 -48.692465682655893 0 0 0 0 -4.4814364125783612 -5.8811007079946833 0 -5.8811007079946833 -5.1165744455242326 0 0 0 0 286.09301011263051 124.57231663882283 0 124.57231663882283 -62.396415099118713 0 0 0 0 -1.1404024893338089 -4.0758980594026042 0 -4.0758980594026042 -0.23489668745621373 0 0 0 0 -9.9219897502553067 -27.444741660301588 0 -27.444741660301588 54.95776997064695 0 0 0 0 -9.5362008531737956 -11.699534257949381 0 -11.699534257949381 31.08692533461226 0 0 0 0 21.544432237649744 -34.757479941837119 0 -34.757479941837119 46.076545150572201 0 0 0 0 31.768142235145206 -55.240119867459271 0 -55.240119867459271 -63.890685900905737 0 0 0 0 17.114794067179901 -113.23966270521305 0 -113.23966270521305 -102.6894776494928 0 0 0 0 40.596510536517599 -69.382610441128236 0 -69.382610441128236 -47.049443641726612 0 0 0 0 -119.16903804833419 35.421583446030127 0 35.421583446030127 -20.130192309828999 0 0 0 0 5.4646779221175166 -3.0057088685007614 0 -3.0057088685007614 1.0959366076851591 0 0 0 0 0.44862323035138729 -0.04389094124883286 0 -0.04389094124883286 -0.020639045627524943 0 0 0 0 -24.194031720035127 -108.31298577938196 0 -108.31298577938196 -5.4188106644041909 0 0 0 0 -0.54820601604296826 -28.80620469515452 0 -28.80620469515452 246.97899232371674 0 0 0 0 -40.012723206935334 -77.907654051731697 0 -77.907654051731697 -46.307420291732342 0 0 0 0 -11.107560515323712 -19.738591395340336 0 -19.738591395340336 239.57647204235764 0 0 0 0 -288.60595992708113 105.56522567819047 0 105.56522567819047 -79.324295270776929 0 0 0 0 133.27380030666609 -33.690290147774704 0 -33.690290147774704 -180.50160258247251 0 0 0 0 169.82261696492787 -68.347405476539279 0 -68.347405476539279 -13.514858395334159 0 0 0 0 0.29339529370616901 -0.10166125264143488 0 -0.10166125264143488 -0.13996310323584371 0 0 0 0 -20.595459953080535 -7.8047177775073351 0 -7.8047177775073351 -53.702371231116558 0 0 0 0 126.35205981929539 -105.60036595511474 0 -105.60036595511474 25.793004432578527 0 0 0 0 39.696962789585086 -18.269873214318579 0 -18.269873214318579 -52.691915866816998 0 0 0 0 31.175031411024975 -73.814546039120614 0 -73.814546039120614 -38.59514016130197 0 0 0 0 70.893487200133677 -25.393992029516994 0 -25.393992029516994 -61.352943097057505 0 0 0 0 169.76284918270539 66.728230455342782 0 66.728230455342782 3.0633494557214362 0 0 0 0 1.6955852261299356 -1.1149540481407065 0 -1.1149540481407065 0.6481345706757029 0 0 0 0 103.02170502099034 -42.367886432937212 0 -42.367886432937212 -53.253225149623177 0 0 0 0 309.79294698231388 -154.73489403339045 0 -154.73489403339045 -49.652323653459462 0 0 0 0 49.611052043537711 -58.341526432850969 0 -58.341526432850969 -21.442116802345481 0 0 0 0 72.723589630964852 -70.922379563438881 0 -70.922379563438881 -77.908141705209346 0 0 0 0 72.247713536956326 -16.332658106455824 0 -16.332658106455824 -1.3611968761306343 0 0 0 0 17.196964902669777 -63.727817838728818 0 -63.727817838728818 -45.929022286244617 0 0 0 0 17.643608818235691 -31.442321651141508 0 -31.442321651141508 147.62408516575852 0 0 0 0 158.13100299717189 -140.49989777741212 0 -140.49989777741212 -5.7014023816964254 0 0 0 0 -5.3604322658939054 -54.415198529853114 0 -54.415198529853114 -49.732920683047269 0 0 0 0 -19.496129074168493 59.932613340409205 0 59.932613340409205 60.363418943386023 0 0 0 0 43.34282488777535 -199.77005882682897 0 -199.77005882682897 -239.6397563851142 0 0 0 0 31.73782946711799 -118.44306093241812 0 -118.44306093241812 -156.29956905795734 0 0 0 0 -20.497192001650546 -100.759044092149 0 -100.759044092149 -14.255943272345576 0 0 0 0 -9.2739031405399146 -35.293881936431717 0 -35.293881936431717 -117.15253938460501 0 0 0 0 -3.8541883610965328 -2.5193814499885363 0 -2.5193814499885363 -1.4781108355920765 0 0 0 0 10.317717277357588 -30.191845256636043 0 -30.191845256636043 -164.49904749339629 0 0 0 0 55.446366434280208 19.499044938843326 0 19.499044938843326 -461.42360979758269 0 0 0 0 -1.8519771501543403 -0.3803252667883612 0 -0.3803252667883612 -0.01451009828847738 0 0 0 0 84.66549692631088 -123.73943232236161 0 -123.73943232236161 133.3659375941379 0 0 0 0 68.883411801047259 -142.8813776280752 0 -142.8813776280752 114.59911070114231 0 0 0 0 177.3648103818341 -103.27309694738688 0 -103.27309694738688 37.03398200308493 0 0 0 0 55.947590074596519 -61.482517548314718 0 -61.482517548314718 23.793904852364903 0 0 0 0 0.39208292262509303 -3.1203324817288234 0 -3.1203324817288234 -1.3310273483612143 0 0 0 0 158.01400102915068 -48.461069371292638 0 -48.461069371292638 -89.829551971374713 0 0 0 0 4.530552708216419 -28.156414564426541 0 -28.156414564426541 323.13904469452518 0 0 0 0 64.381218690217793 -230.07810790635335 0 -230.07810790635335 19.327865417591056 0 0 0 0 48.144293577766803 -9.1681725502832023 0 -9.1681725502832023 -25.566859804072465 0 0 0 0 -9.0151414762502782 -10.616609686277158 0 -10.616609686277158 -10.617544241070364 0 0 0 0 -13.784097267361631 -22.837737769207564 0 -22.837737769207564 -76.557940626614254 0 0 0 0 -31.934252973849652 -44.573251937759665 0 -44.573251937759665 107.82700769908837 0 0 0 0 65.692987797399837 -33.842312946806857 0 -33.842312946806857 -11.317671046244186 0 0 0 0 6.3157236001279671 7.1797911411308633 0 7.1797911411308633 99.875548865185664 0 0 0 0 59.918360671879782 -62.227495867275707 0 -62.227495867275707 -26.850963204185291 0 0 0 0 3.8312365320234676 -49.579066102446063 0 -49.579066102446063 -2.2625929375464011 0 0 0 0 -9.8407717571041786 -12.396519167955525 0 -12.396519167955525 -14.281680985306757 0 0 0 0 4.1134370787440275 -57.995602174486066 0 -57.995602174486066 -52.072291605692271 0 0 0 0 -122.91820206108969 -52.339257774699433 0 -52.339257774699433 12.057060993426376 0 0 0 0 -86.393683804250031 6.4597329854682357 0 6.4597329854682357 1.1962222655018877 0 0 0 0 -45.650436990141316 3.3397692813670687 0 3.3397692813670687 -16.392981341139603 0 0 0 0 -116.56003735928971 -34.898485976570328 0 -34.898485976570328 -5.5200430467736936 0 0 0 0 -69.283282162930846 -77.857162294644439 0 -77.857162294644439 -30.46958489274266 0 0 0 0 -55.2041680368784 -48.314375198084406 0 -48.314375198084406 11.44951266421117 0 0 0 0 -2.1485432659928847 0.75209882496403679 0 0.75209882496403679 2.2287654719403451 0 0 0 0 -19.548854599284823 -33.626414990894546 0 -33.626414990894546 -67.329797683158972 0 0 0 0 -112.80282309423546 13.459291502793036 0 13.459291502793036 7.5328424250055832 0 0 0 0 -65.128577533250791 -47.02124524845587 0 -47.02124524845587 12.524449470773796 0 0 0 0 -5.5502789756267674 -0.30361010943552458 0 -0.30361010943552458 11.211116136753377 0 0 0 0 -52.562933971790699 6.5706543186243564 0 6.5706543186243564 5.5702175376175092 0 0 0 0 -20.191475870735303 -12.680818446117655 0 -12.680818446117655 14.07229621966178 0 0 0 0 -31.197500340782426 -25.464520466644448 0 -25.464520466644448 19.340950922122921 0 0 0 0 -17.797801809072553 -52.70040951553176 0 -52.70040951553176 9.6889206278446807 0 0 0 0 -11.517554345203251 -15.976033580526895 0 -15.976033580526895 -16.237704813299239 0 0 0 0 95.856400738513912 -230.80788041961614 0 -230.80788041961614 -61.740990494867219 0 0 0 0 -15.410502133869159 9.7367720857018867 0 9.7367720857018867 -3.6909221484111185 0 0 0 0 -6.3526322796549266 -3.2500208191479629 0 -3.2500208191479629 11.6879158754993 0 0 0 0 -36.020904465538479 -17.091144395558103 0 -17.091144395558103 11.628307581911031 0 0 0 0 -27.472351276010158 -17.272423566972066 0 -17.272423566972066 8.2839641735483838 0 0 0 0 -8.7685492097589304 -36.327276990355131 0 -36.327276990355131 -9.5457856007853934 0 0 0 0 -36.122002580970729 -27.445230383678336 0 -27.445230383678336 6.2805149473206257 0 0 0 0 -20.441739887595759 -19.708447859750407 0 -19.708447859750407 19.685965010528719 0 0 0 0 -12.420874481700594 -24.448648687291325 0 -24.448648687291325 6.2403200555062277 0 0 0 0 -13.25465101629743 -26.46403253168387 0 -26.46403253168387 3.744287478584738 0 0 0 0 -14.772921398797735 -12.236675583436678 0 -12.236675583436678 -4.6345590178864988 0 0 0 0 -23.453393218987912 -11.755892161872453 0 -11.755892161872453 13.811559768550524 0 0 0 0 -22.279098127692123 -15.938597086623076 0 -15.938597086623076 16.246675864884764 0 0 0 0 -25.924869775553816 -14.884059907427172 0 -14.884059907427172 15.943550723841327 0 0 0 0 23.395636425033445 -27.809324235609608 0 -27.809324235609608 7.4637570671982303 0 0 0 0 -14.271496436186112 -8.6602273935335532 0 -8.6602273935335532 -3.8104809573341605 0 0 0 0 -7.9090303582488559 -25.767786115036756 0 -25.767786115036756 9.6056728018403419 0 0 0 0 -1.6472267456164502 -1.7410525406928912 0 -1.7410525406928912 -1.0405196479171561 0 0 0 0 -3.374106520688656 -0.84774826959318261 0 -0.84774826959318261 -18.29071318034994 0 0 0 0 -7.8828121677720446 -26.639551176245824 0 -26.639551176245824 -12.282573204884102 0 0 0 0 -6.3946022717063897 -64.99600263056459 0 -64.99600263056459 -25.024340155909272 0 0 0 0 -23.685182617162354 -38.796330430572539 0 -38.796330430572539 10.348102193721843 0 0 0 0 -34.420887473635958 -30.167419192050147 0 -30.167419192050147 2.362722086419808 0 0 0 0 -27.734347401587002 -20.527844958469132 0 -20.527844958469132 13.158939933367947 0 0 0 0 -27.378207192530681 -23.08801792635677 0 -23.08801792635677 16.501441004070216 0 0 0 0 -6.57290868743803 -20.756318231224469 0 -20.756318231224469 13.690152678214417 0 0 0 0 -18.445027578352892 -18.731742342537501 0 -18.731742342537501 13.899626551334322 0 0 0 0 -21.880063464779596 -10.763008681930216 0 -10.763008681930216 8.6683139052204297 0 0 0 0 -21.836629912417266 -3.7726063184462078 0 -3.7726063184462078 15.711325718591866 0 0 0 0 -43.112819946240052 -16.566500756629921 0 -16.566500756629921 20.502224609248174 0 0 0 0 -50.741619042230013 -14.335434314436441 0 -14.335434314436441 26.642272573561741 0 0 0 0 -3.6179243744882115 -1.8082183836073682 0 -1.8082183836073682 4.1645948358130909 0 0 0 0 1.0210058230847139 -2.0151059430435936 0 -2.0151059430435936 5.703172933596206 0 0 0 0 -11.625792980288679 16.064256793392587 0 16.064256793392587 29.211860641445355 0 0 0 0 -0.020469083647185471 -4.8221657049673468 0 -4.8221657049673468 5.4372670741333877 0 0 0 0 -4.0051814502003253 -7.1216107385453142 0 -7.1216107385453142 4.1477052457314585 0 0 0 0 -4.7770543484512018 -8.4756631521293002 0 -8.4756631521293002 8.0179059333540863 0 0 0 0 -0.019809893014963192 -20.78209965252481 0 -20.78209965252481 -30.175390371769026 0 0 0 0 -4.3803102345045772 -8.2890363137082659 0 -8.2890363137082659 6.3858286357440193 0 0 0 0 -4.315803867422801 -7.292662508209105 0 -7.292662508209105 6.2623586897543646 0 0 0 0 -0.89048505849623183 -5.2144454512429945 0 -5.2144454512429945 9.6470215125482657 0 0 0 0 0.36786118535746937 -25.072654109775385 0 -25.072654109775385 -3.1606148991600094 0 0 0 0 -1.061760605462041 -22.871091024970156 0 -22.871091024970156 -21.902217949005717 0 0 0 0 5.378919430492374 -12.339090798573139 0 -12.339090798573139 -2.6462536923038122 0 0 0 0 2.8484818886427092 -21.318628633244771 0 -21.318628633244771 -40.907791539486425 0 0 0 0 -0.64825885647951509 -33.584165521698196 0 -33.584165521698196 -30.023619458015673 0 0 0 0 0.64037905323343125 -1.2703233715132072 0 -1.2703233715132072 1.505276818288011 0 0 0 0 -16.930968023909372 -22.151747359970614 0 -22.151747359970614 -16.835400395035322 0 0 0 0 59.022398612294637 -89.744064795395275 0 -89.744064795395275 61.698816128593535 0 0 0 0 61.810129626319394 -87.930439004036089 0 -87.930439004036089 -29.100520417643565 0 0 0 0 -32.284220150475448 -57.328314353751921 0 -57.328314353751921 104.20341751878777 0 0 0 0 -24.774655266679474 -59.971666117500718 0 -59.971666117500718 -47.671793965116564 0 0 0 0 46.645815461877646 -2.0816254110889076 0 -2.0816254110889076 -45.086420603223814 0 0 0 0 93.35121925997737 -36.688578899480945 0 -36.688578899480945 -15.883438891684477 0 0 0 0 29.83560109170503 -38.70275829133152 0 -38.70275829133152 13.186793315574505 0 0 0 0 16.473991303995717 -32.650438804249461 0 -32.650438804249461 13.374519237580898 0 0 0 0 -5.3603273947983894 -15.855028483642506 0 -15.855028483642506 -3.7312909806121564 0 0 0 0 31.33412332982698 -43.320686787982595 0 -43.320686787982595 16.284499999728723 0 0 0 0 -25.464113258713041 -31.517789192688724 0 -31.517789192688724 14.111822769455102 0 0 0 0 21.088547233148347 -44.107278551416243 0 -44.107278551416243 -26.420034735563604 0 0 0 0 -8.3556961796216171 -6.9448787810223109 0 -6.9448787810223109 -6.2063526777995826 0 0 0 0 21.986235342865257 -36.023735840781228 0 -36.023735840781228 -53.050567321590279 0 0 0 0 -42.032495740313607 -100.08496950670451 0 -100.08496950670451 -59.711996491390892 0 0 0 0 -87.362184502169839 -134.89483886808239 0 -134.89483886808239 14.824843232676358 0 0 0 0 58.427757015670068 -81.393870670633078 0 -81.393870670633078 -117.50206115555648 0 0 0 0 57.766239583981587 20.369106051753533 0 20.369106051753533 -53.30563396316029 0 0 0 0 70.665125366148914 -17.184529426774361 0 -17.184529426774361 -65.13161173158187 0 0 0 0 71.888045095325651 -73.548032900448106 0 -73.548032900448106 -16.884563198157593 0 0 0 0 30.620110171460055 32.282989569272445 0 32.282989569272445 -148.53869417184251 0 0 0 0 24.782205384024564 -28.234134889579309 0 -28.234134889579309 -64.211204049915978 0 0 0 0 -3.8654098854959216 -4.9887801555574853 0 -4.9887801555574853 -4.3799490190595449 0 0 0 0 47.371089379375917 -122.15055117047177 0 -122.15055117047177 129.83364554909576 0 0 0 0 -25.777683986241755 -37.741589875759018 0 -37.741589875759018 -53.526871919414589 0 0 0 0 59.580245354288309 7.5814936903351509 0 7.5814936903351509 -32.926165365618544 0 0 0 0 71.095490000501741 -151.5855119294647 0 -151.5855119294647 151.7478326900964 0 0 0 0 36.449174330904498 118.26520739538455 0 118.26520739538455 -389.61515523339585 0 0 0 0 -24.6418656136957 -158.6235001490586 0 -158.6235001490586 -190.63388468444555 0 0 0 0 -202.61726121239917 -10.689607875306137 0 -10.689607875306137 140.41629372205352 0 0 0 0 -61.291946456796722 -286.60119827385461 0 -286.60119827385461 17.662088282756486 0 0 0 0 -44.799675685309921 61.350554688574448 0 61.350554688574448 -52.232963808055501 0 0 0 0 -54.03858066763496 -133.72157030874769 0 -133.72157030874769 -181.6377319476851 0 0 0 0 -176.65759857748344 -174.91255141416104 0 -174.91255141416104 -18.747812450007586 0 0 0 0 0.74300591472075439 -0.6217378196299137 0 -0.6217378196299137 -0.36397601044852834 0 0 0 0 118.6776911843308 -39.934219009688263 0 -39.934219009688263 28.190274655766189 0 0 0 0 95.56763517352374 -118.44327008805885 0 -118.44327008805885 178.48675779279711 0 0 0 0 59.352408697221108 -33.152344179677527 0 -33.152344179677527 55.353941468030825 0 0 0 0 -1.0964763328202025 -1.6742137624594839 0 -1.6742137624594839 -1.6933401947119684 0 0 0 0 9.538961822836427 -5.3004893139327578 0 -5.3004893139327578 9.375261131901425 0 0 0 0 1.6758821962284856 -40.692041831547613 0 -40.692041831547613 160.02364859831516 0 0 0 0 -24.297223254696291 -36.415116495066286 0 -36.415116495066286 47.675531210203189 0 0 0 0 4.793792488402687 -10.025402102754924 0 -10.025402102754924 -12.054016952457459 0 0 0 0 -156.24343818926718 -60.596482238784574 0 -60.596482238784574 -43.002162323178709 0 0 0 0 -46.176700171810808 -88.691097314494982 0 -88.691097314494982 -56.15950335414982 0 0 0 0 5.7464069645502605 -8.9037848271386792 0 -8.9037848271386792 22.236068409208201 0 0 0 0 -29.001953301634785 -20.03768380343638 0 -20.03768380343638 19.110212278785184 0 0 0 0 -19.018710461656156 -81.110289927100894 0 -81.110289927100894 -56.783709880921378 0 0 0 0 -112.53665496609938 -137.34732418874546 0 -137.34732418874546 -72.758092360323644 0 0 0 0 -40.545043877362332 -54.188045017448985 0 -54.188045017448985 -89.491392312638709 0 0 0 0 1.6230567650070498 -0.77914494688980085 0 -0.77914494688980085 -1.0226998575581803 0 0 0 0 -31.278649692940235 -70.987852466894537 0 -70.987852466894537 -93.488857808967623 0 0 0 0 6.5654028309691057 6.4847821522114373 0 6.4847821522114373 -14.145518716925835 0 0 0 0 10.228220987904933 -3.1036409617495337 0 -3.1036409617495337 -10.056811281341197 0 0 0 0 46.444290565916162 30.848335834848058 0 30.848335834848058 -2.5419212845770289 0 0 0 0 59.478174033138203 -52.029254301914534 0 -52.029254301914534 39.832126786296612 0 0 0 0 22.395089360248676 -12.544506789993648 0 -12.544506789993648 -32.313335032530631 0 0 0 0 -21.200576277304208 -27.810378378065252 0 -27.810378378065252 -13.868258945258731 0 0 0 0 1.0522287484200206 -18.598090758130638 0 -18.598090758130638 0.20589261874647491 0 0 0 0 2.4942178012042859 -14.957995217832718 0 -14.957995217832718 -6.8969964505731696 0 0 0 0 2.4051489724051862 -6.7842563236965816 0 -6.7842563236965816 -9.9684137691310752 0 0 0 0 0.93120005099351033 -1.2669681821295455 0 -1.2669681821295455 -3.5477429497580353 0 0 0 0 -24.848288342946034 -69.461716279347456 0 -69.461716279347456 -93.700855478560243 0 0 0 0 2.1851972591539379 -7.9457398922804714 0 -7.9457398922804714 -12.593703518406983 0 0 0 0 0.50752605457091704 -11.026119656718947 0 -11.026119656718947 -12.635074287762052 0 0 0 0 1.0203217017451607 -9.3920935257069686 0 -9.3920935257069686 -8.5700901566242464 0 0 0 0 -9.6003924990363885 -15.746516452783453 0 -15.746516452783453 144.65416079294721 0 0 0 0 -5.2340824769202356 -7.2423519880266127 0 -7.2423519880266127 -5.1350604917989591 0 0 0 0 14.334244643621787 63.656133768959535 0 63.656133768959535 302.34036684948455 0 0 0 0 -65.124838182920939 -140.23743650458709 0 -140.23743650458709 154.59736552833931 0 0 0 0 -71.507308858475881 -73.128713865450209 0 -73.128713865450209 355.04955516699874 0 0 0 0 38.524845004612871 -87.213168322038882 0 -87.213168322038882 54.614240994243119 0 0 0 0 31.107385494447954 -75.044756882506022 0 -75.044756882506022 62.791058911872824 0 0 0 0 26.586893562773184 -65.559736330231431 0 -65.559736330231431 67.621995959752894 0 0 0 0 44.342156671686098 -45.094114778079415 0 -45.094114778079415 16.515987482834589 0 0 0 0 106.40986309566506 -83.009951712627526 0 -83.009951712627526 38.823656875378219 0 0 0 0 -0.21704733559773004 -0.73378250270934586 0 -0.73378250270934586 -0.72456814200031161 0 0 0 0 -146.65330368247669 -73.660826278955255 0 -73.660826278955255 -28.319853412718658 0 0 0 0 -12.118673602949457 -7.6665884670987623 0 -7.6665884670987623 -10.733957671491225 0 0 0 0 -6.946336136127286 -7.9679695338197938 0 -7.9679695338197938 -6.1065435442230509 0 0 0 0 -11.729915792355314 -23.958946644118441 0 -23.958946644118441 14.886134298798879 0 0 0 0 25.689282453407941 -73.635409884318733 0 -73.635409884318733 95.078339424455862 0 0 0 0 -6.0366460336791761 -7.7317363138652837 0 -7.7317363138652837 -5.9969529991576076 0 0 0 0 28.160774140771537 -62.133268690597333 0 -62.133268690597333 63.22688929805463 0 0 0 0 34.773805518263543 -63.169510912439819 0 -63.169510912439819 55.74772301876601 0 0 0 0 20.659592722782691 -67.525523657301392 0 -67.525523657301392 66.407551206113112 0 0 0 0 28.525278589830123 -58.385663879654459 0 -58.385663879654459 51.051594565490177 0 0 0 0 -5.9159732286419171 -9.8905395882007845 0 -9.8905395882007845 -7.0336260208465413 0 0 0 0 -0.23012399140194617 -4.2369682040229435 0 -4.2369682040229435 -3.2091250662116195 0 0 0 0 32.004965465210262 -14.714355383996008 0 -14.714355383996008 -8.9167167279110799 0 0 0 0 -9.8167817943394766 -14.056840591104901 0 -14.056840591104901 13.33486946865014 0 0 0 0 41.139817161434621 -26.396119257385863 0 -26.396119257385863 -7.1685679085167067 0 0 0 0 40.194344738272775 -44.39781308535953 0 -44.39781308535953 -5.5753076718556258 0 0 0 0 22.66456399397623 -11.422716212386703 0 -11.422716212386703 -17.884927822232118 0 0 0 0 33.941896421114507 -20.900412074584438 0 -20.900412074584438 10.949400867277291 0 0 0 0 -5.6560593735121074 -5.3307284728089144 0 -5.3307284728089144 -3.5025971109898819 0 0 0 0 -30.921971357740404 -7.1848306228971524 0 -7.1848306228971524 1.5473260843291428 0 0 0 0 74.072428147348546 -26.602992276877785 0 -26.602992276877785 -3.9034614260799572 0 0 0 0 -0.26190463872221414 -0.74760228188794997 0 -0.74760228188794997 -2.7922157355069501 0 0 0 0 38.078028604373685 -27.583210554524157 0 -27.583210554524157 13.659167331139997 0 0 0 0 76.29359863578793 -24.426594615553313 0 -24.426594615553313 3.6061856005617301 0 0 0 0 -0.18501739529999739 -0.60948389655737856 0 -0.60948389655737856 -0.82706879040392423 0 0 0 0 -18.223897255805241 -7.862731098416873 0 -7.862731098416873 -6.8630098780722619 0 0 0 0 -100.85982107052769 -20.469819715724952 0 -20.469819715724952 -3.6497295526651214 0 0 0 0 29.350933726220319 -42.891425611659884 0 -42.891425611659884 21.550339862775218 0 0 0 0 -4.1917696873788373 -42.445675587055575 0 -42.445675587055575 20.598460005671313 0 0 0 0 19.351836194374464 -31.53426115183855 0 -31.53426115183855 19.794897904948243 0 0 0 0 39.365667960371866 -28.842531118674515 0 -28.842531118674515 0.33976917567088094 0 0 0 0 4.296966756322945 -35.350533754344724 0 -35.350533754344724 13.332439510341374 0 0 0 0 17.347874090243529 -23.245377725057878 0 -23.245377725057878 10.123770357116051 0 0 0 0 7.2529119804730726 -32.804643738875484 0 -32.804643738875484 0.145005117888104 0 0 0 0 6.7046143804745952 -27.979319917622206 0 -27.979319917622206 17.916288932800398 0 0 0 0 4.9544238392572879 -27.566719812714382 0 -27.566719812714382 -4.1752411923844193 0 0 0 0 34.315137818799485 -20.562122159544629 0 -20.562122159544629 -8.4409569032013678 0 0 0 0 25.8015966432813 -28.091292702004239 0 -28.091292702004239 -0.48413113808601338 0 0 0 0 14.928262858473481 -20.769473049948566 0 -20.769473049948566 -4.4385572715716819 0 0 0 0 -7.9402675753735821 -40.471872856704522 0 -40.471872856704522 -10.176535701371904 0 0 0 0 -4.6565470918940264 -36.367263842535976 0 -36.367263842535976 -9.5251892988972031 0 0 0 0 4.0175864943303168 -40.725730574338741 0 -40.725730574338741 -12.263635017598062 0 0 0 0 0.23291789053109824 -54.427335236312501 0 -54.427335236312501 -52.535634773346828 0 0 0 0 1.9672949085543223 -45.249024293118964 0 -45.249024293118964 -9.2465114620538316 0 0 0 0 2.9990754305999872 -43.248185964534287 0 -43.248185964534287 -18.236310337861141 0 0 0 0 -21.234994948805252 -67.440291696767417 0 -67.440291696767417 -12.900493616913081 0 0 0 0 -30.475867352918613 -36.942564517707297 0 -36.942564517707297 30.011614633260251 0 0 0 0 9.2816946537288203 -23.692543397916552 0 -23.692543397916552 27.7908640975349 0 0 0 0 5.5566735838583554 -52.290999378182278 0 -52.290999378182278 -97.678132600604386 0 0 0 0 4.1021953182025186 -7.1418274104516044 0 -7.1418274104516044 5.1597569007051121 0 0 0 0 -21.837500076119341 -29.469409792148213 0 -29.469409792148213 -21.464324991167814 0 0 0 0 -29.902184158202999 -73.379085952841024 0 -73.379085952841024 -27.602926394249153 0 0 0 0 15.364484448433359 -48.918128969894497 0 -48.918128969894497 -24.899344892479348 0 0 0 0 -17.483920669397776 -49.593247497722132 0 -49.593247497722132 9.4287737829345133 0 0 0 0 1.1047091590335185 -31.574665360089057 0 -31.574665360089057 1.2709388747307457 0 0 0 0 9.5908937806816539 -40.066427046937861 0 -40.066427046937861 -18.114608400207999 0 0 0 0 9.5288505423850438 -34.722990747631229 0 -34.722990747631229 -19.846515194045423 0 0 0 0 -7.7662823042881541 -36.215248719960755 0 -36.215248719960755 2.3068047932965783 0 0 0 0 -7.5855409923487969 -34.912856745228964 0 -34.912856745228964 7.626389018401369 0 0 0 0 -6.6154444537525983 -24.701227545402709 0 -24.701227545402709 -0.75478402105297349 0 0 0 0 14.504553974210673 -16.244791972407612 0 -16.244791972407612 13.146822767484258 0 0 0 0 5.9742514377666112 -70.451757245214907 0 -70.451757245214907 -44.977500649927606 0 0 0 0 -7.0817113708508259 -49.577305639821589 0 -49.577305639821589 18.553158846840233 0 0 0 0 11.740244832268218 -77.607596277236553 0 -77.607596277236553 -3.1907008121052058 0 0 0 0 -19.173916506602836 -42.7292434690562 0 -42.7292434690562 -33.788680715601913 0 0 0 0 -13.261513361036691 -36.622635965836935 0 -36.622635965836935 3.132876951543949 0 0 0 0 -25.210759987773486 -87.234357731972182 0 -87.234357731972182 5.4751165655789009 0 0 0 0 9.297650840913267 -26.489143030001934 0 -26.489143030001934 15.768732562184647 0 0 0 0 -109.36284888436603 -55.332321475050776 0 -55.332321475050776 90.255764460124738 0 0 0 0 -12.853966639329656 -109.39216771959195 0 -109.39216771959195 117.08671601139213 0 0 0 0 -18.203641642814311 -32.531450988825831 0 -32.531450988825831 -9.5441363153605003 0 0 0 0 -8.1807015449921892 -77.737167683952066 0 -77.737167683952066 2.098525237038757 0 0 0 0 -67.192958810257551 -47.211575426913896 0 -47.211575426913896 47.258892829344859 0 0 0 0 -25.297543585339092 -27.515292170887395 0 -27.515292170887395 -18.121126388113094 0 0 0 0 -14.666050057065604 -47.33025193490414 0 -47.33025193490414 30.245328165485262 0 0 0 0 -5.2570951525762109 -4.6086902300598354 0 -4.6086902300598354 2.4409320445002436 0 0 0 0 74.98485259300287 -80.24786538373894 0 -80.24786538373894 23.194906633084429 0 0 0 0 25.704253380121372 -109.74815303421383 0 -109.74815303421383 63.91452715737978 0 0 0 0 80.083598757093569 -68.665386656770352 0 -68.665386656770352 -69.541014729094968 0 0 0 0 -12.432942978842764 -21.016144582390908 0 -21.016144582390908 -6.7969319649963822 0 0 0 0 23.274085112633202 -142.49833224336589 0 -142.49833224336589 -100.81571584121593 0 0 0 0 33.332114916825049 6.388381065374233 0 6.388381065374233 -111.80452707024176 0 0 0 0 -0.010597118519720894 -0.61744727818541989 0 -0.61744727818541989 -2.0816481412231482 0 0 0 0 21.116727139276918 -38.893435946130921 0 -38.893435946130921 2.7682579598420034 0 0 0 0 4.6497886289434973 -51.798527564411188 0 -51.798527564411188 28.879801804254384 0 0 0 0 25.268063550080115 -46.189338873962697 0 -46.189338873962697 9.3440143872394401 0 0 0 0 -1.1622608049983683 -77.729112517746216 0 -77.729112517746216 42.279463639290498 0 0 0 0 18.137204414182634 -28.708288892447854 0 -28.708288892447854 -0.18463968538981135 0 0 0 0 8.8905481752590276 -20.542196432407763 0 -20.542196432407763 -7.3822420430115017 0 0 0 0 30.984192869442268 -49.509573320688389 0 -49.509573320688389 25.554272892991321 0 0 0 0 25.255211651670834 -62.168948126558007 0 -62.168948126558007 26.816277145328286 0 0 0 0 5.1573118843182613 -14.204325120117073 0 -14.204325120117073 -17.448750940862297 0 0 0 0 1.3424254903085853 -18.628523901889505 0 -18.628523901889505 -10.420358579738522 0 0 0 0 27.017616007797187 -42.386517846262223 0 -42.386517846262223 39.414308626346156 0 0 0 0 28.378387195451069 -64.516966082682302 0 -64.516966082682302 43.956886191518606 0 0 0 0 10.305650605056925 -18.868954117608737 0 -18.868954117608737 5.2046825077031613 0 0 0 0 25.445363441719522 -21.533551344905796 0 -21.533551344905796 -17.620000219043195 0 0 0 0 11.109977026874731 -24.34320665111909 0 -24.34320665111909 -7.8207639341599133 0 0 0 0 11.560549963622179 -21.24533510425681 0 -21.24533510425681 -13.214929576959548 0 0 0 0 13.184726534142101 -24.629210182303723 0 -24.629210182303723 -9.1038126858475152 0 0 0 0 31.663374476935132 -15.053784521939633 0 -15.053784521939633 1.6501455297507164 0 0 0 0 12.855628055668681 -12.999396948721177 0 -12.999396948721177 6.4252482459560909 0 0 0 0 12.16763904432446 -27.292749907861207 0 -27.292749907861207 -3.8955997052216844 0 0 0 0 26.888209003500378 -26.484680406839288 0 -26.484680406839288 -4.8100904034085943 0 0 0 0 8.1080995304364478 -24.4421799075335 0 -24.4421799075335 -14.747315048694873 0 0 0 0 29.145491261017462 -0.30955306337821042 0 -0.30955306337821042 -10.24044007518626 0 0 0 0 19.725755258652498 -21.315259271726973 0 -21.315259271726973 -8.1269419290583755 0 0 0 0 21.029501716669266 -20.346955379121834 0 -20.346955379121834 -4.702595992186076 0 0 0 0 24.250435060952441 -19.032431773262942 0 -19.032431773262942 -0.20058785326546058 0 0 0 0 34.370721532217992 -35.791512252719272 0 -35.791512252719272 -7.9856383195500058 0 0 0 0 -0.8570475554556225 -41.352932640897585 0 -41.352932640897585 -1.1192504313661154 0 0 0 0 13.643434034520936 -14.838498379300066 0 -14.838498379300066 1.0681627518969208 0 0 0 0 3.9790799583897751 -26.140361456358278 0 -26.140361456358278 -6.9354164941414638 0 0 0 0 3.539384678636849 -20.194383683961256 0 -20.194383683961256 -4.2404012573128789 0 0 0 0 17.087361228408554 -30.730997221801772 0 -30.730997221801772 -8.4170035662591545 0 0 0 0 73.627512164230438 -29.783328934636756 0 -29.783328934636756 -2.2152023966846173 0 0 0 0 34.469870934605751 -35.318949291921854 0 -35.318949291921854 9.7518929463421955 0 0 0 0 10.575003277816091 -9.1466691389665442 0 -9.1466691389665442 -1.8308633964721857 0 0 0 0 55.395753234562108 -27.283465714086105 0 -27.283465714086105 12.011857843778671 0 0 0 0 -85.541187943736986 -39.705997939571716 0 -39.705997939571716 32.717049267701441 0 0 0 0 -7.522729154069566 -17.311517544494563 0 -17.311517544494563 27.119458051891115 0 0 0 0 -47.86244317521323 -52.174674520390909 0 -52.174674520390909 15.628204494321835 0 0 0 0 -1.4029515524755425 -40.88193745070771 0 -40.88193745070771 3.0684129348392162 0 0 0 0 -8.8881642028622991 -41.865012860911065 0 -41.865012860911065 16.701220617940635 0 0 0 0 2.802199834070052 -34.036870294296932 0 -34.036870294296932 10.873290181291203 0 0 0 0 26.186743654336169 -41.994350857080008 0 -41.994350857080008 10.932885528764928 0 0 0 0 16.903426075183233 -68.318538431783963 0 -68.318538431783963 -49.125074033574492 0 0 0 0 18.847711339307168 -25.33416069547339 0 -25.33416069547339 18.080886059848616 0 0 0 0 51.482814605005842 -50.163244745378506 0 -50.163244745378506 -46.260813226945174 0 0 0 0 -8.1129655408803956 -47.495755719751287 0 -47.495755719751287 1.7488779723674952 0 0 0 0 21.116196796806058 -19.587203638187443 0 -19.587203638187443 19.921516101995991 0 0 0 0 -22.483819592194322 -71.972259788154133 0 -71.972259788154133 -35.061048706422298 0 0 0 0 -21.429137127722242 -45.6968968631395 0 -45.6968968631395 5.2541101676806647 0 0 0 0 -27.151786255337356 -40.861934152834692 0 -40.861934152834692 1.8807251807083958 0 0 0 0 -22.087407892834563 -77.968057831528085 0 -77.968057831528085 32.009318979180534 0 0 0 0 37.526321816207201 -47.493395787757891 0 -47.493395787757891 16.15501611972104 0 0 0 0 113.19145220677456 -141.75124587415712 0 -141.75124587415712 -76.549469262357889 0 0 0 0 -4.0509491271499591 -30.457845390799125 0 -30.457845390799125 -8.9384708799486035 0 0 0 0 65.907862869822566 -86.921585026288994 0 -86.921585026288994 34.480684598745029 0 0 0 0 -5.4123669309483375 -113.38535468877853 0 -113.38535468877853 122.38837620122285 0 0 0 0 79.131905496346008 -49.797927666915712 0 -49.797927666915712 -146.12222368889798 0 0 0 0 -71.098433341063355 -35.180478018178292 0 -35.180478018178292 7.1724149182791734 0 0 0 0 3.0375558642263059 22.512755025641127 0 22.512755025641127 -85.862212421543518 0 0 0 0 17.949406147527043 -12.919572288383279 0 -12.919572288383279 -0.36098396348461392 0 0 0 0 3.7922214670393402 -1.0230510025148618 0 -1.0230510025148618 -1.7352718923832526 0 0 0 0 3.5429992103595538 -2.8486388371171216 0 -2.8486388371171216 -1.1679981229082372 0 0 0 0 -7.6195009857329481 -27.72344485460858 0 -27.72344485460858 -12.857084118941408 0 0 0 0 41.869013439765695 -16.049302090976198 0 -16.049302090976198 -5.1785288879509608 0 0 0 0 22.466880440004388 -40.178253769319781 0 -40.178253769319781 -35.179217330354732 0 0 0 0 172.60534701984761 -18.770591490644165 0 -18.770591490644165 -27.965588751903852 0 0 0 0 56.408648868091404 78.718358446785714 0 78.718358446785714 -86.82817929644807 0 0 0 0 54.809680226706405 -111.79734138009553 0 -111.79734138009553 45.089092801393235 0 0 0 0 61.283891745704295 -98.08664623817549 0 -98.08664623817549 -62.840525587420416 0 0 0 0 13.169919343281435 -90.23155248063722 0 -90.23155248063722 54.280994293842014 0 0 0 0 1.83913899622803 66.633727451548111 0 66.633727451548111 -163.48294871030043 0 0 0 0 203.5981531886755 -109.80319096142921 0 -109.80319096142921 -200.19521103471925 0 0 0 0 68.696747254475667 -51.44688284538006 0 -51.44688284538006 -59.305717885683407 0 0 0 0 26.10234737281553 -34.512625560928427 0 -34.512625560928427 -43.427030450733582 0 0 0 0 -14.708033693372224 -24.671195543962526 0 -24.671195543962526 -23.746525916596603 0 0 0 0 3.8724820834047478 -51.100885067394074 0 -51.100885067394074 3.7282434206576909 0 0 0 0 62.919598396466199 -88.165637453872023 0 -88.165637453872023 -17.598565638307264 0 0 0 0 3.5544776732342598 -46.501363460993161 0 -46.501363460993161 -8.2791723336122232 0 0 0 0 -13.6924153398013 -56.425816344726627 0 -56.425816344726627 -20.727902018728855 0 0 0 0 13.277965707044027 -23.561979656926731 0 -23.561979656926731 11.645606583488416 0 0 0 0 -7.8848929759069506 -42.29897678409553 0 -42.29897678409553 4.8158219416236534 0 0 0 0 12.91628292405494 -41.830138427329075 0 -41.830138427329075 0.18813166124323288 0 0 0 0 -8.5403767352154318 -44.239781136034253 0 -44.239781136034253 6.2001184018263302 0 0 0 0 -0.83662460098594238 -52.074169819718918 0 -52.074169819718918 -3.4549102172941275 0 0 0 0 8.0018390091513538 -54.727723765437077 0 -54.727723765437077 -3.1570626418071015 0 0 0 0 -6.1408073660541049 -69.313159348117551 0 -69.313159348117551 0.15832889534976857 0 0 0 0 -66.880878447790906 -103.23439767480124 0 -103.23439767480124 -12.980029691794698 0 0 0 0 16.584472339432381 -53.170976573634107 0 -53.170976573634107 -19.09889015130193 0 0 0 0 28.494977288471301 -18.513984814753854 0 -18.513984814753854 4.4770376332940103 0 0 0 0 27.149058847782044 -41.195805098056553 0 -41.195805098056553 -8.6162799625753905 0 0 0 0 17.345569896569373 -45.519433280078601 0 -45.519433280078601 -8.831517511374841 0 0 0 0 -9.2964342522899663 -16.453967457094024 0 -16.453967457094024 -16.776049373749487 0 0 0 0 19.255654455043555 -46.957251110836296 0 -46.957251110836296 276.92376496835641 0 0 0 0 -142.83185969505917 819.72509984374835 0 819.72509984374835 -1246.4387880372851 0 0 0 0 -46.616345807771722 -656.98451347373066 0 -656.98451347373066 -390.4568928514509 0 0 0 0 2.897591826187579 -4.0727755532223 0 -4.0727755532223 0.47502819445029587 0 0 0 0 580.19354329261114 -1184.3315075753217 0 -1184.3315075753217 -153.18335160686729 0 0 0 0 1384.1109344859615 245.75162659939701 0 245.75162659939701 -1292.1052967429569 0 0 0 0 157.09990794161786 274.61018453355064 0 274.61018453355064 462.7836485909254 0 0 0 0 944.48937561738751 -438.82001907190113 0 -438.82001907190113 49.709228310876824 0 0 0 0 161.32156724151355 109.7972345992921 0 109.7972345992921 127.58135058591142 0 0 0 0 1000.2334601150185 209.52448684103646 0 209.52448684103646 95.726445355514443 0 0 0 0 -567.92085187378689 -292.72059612856003 0 -292.72059612856003 162.04075743448493 0 0 0 0 34.642751849295564 37.768454646626935 0 37.768454646626935 34.770457744840769 0 0 0 0 -35.031817012672036 -52.54377708684649 0 -52.54377708684649 -16.218858225248823 0 0 0 0 1.1045746025123364 -0.062254912792687023 0 -0.062254912792687023 -1.1863638039222053 0 0 0 0 -54.513357084859308 -56.812022844133026 0 -56.812022844133026 28.704609905061261 0 0 0 0 -55.054452070222396 -47.084500678038694 0 -47.084500678038694 7.3183779223518286 0 0 0 0 570.40230955027073 -257.43342318235864 0 -257.43342318235864 -10.960387518451512 0 0 0 0 679.34517985382263 -284.75267596539652 0 -284.75267596539652 -8.8026679282111218 0 0 0 0 63.894052817018746 -6.8390413795664244 0 -6.8390413795664244 15.919066501535781 0 0 0 0 28.216990555289158 -81.667702472665042 0 -81.667702472665042 -72.10583647083331 0 0 0 0 -42.122992276524826 41.429147583563918 0 41.429147583563918 8.4435790558036388 0 0 0 0 56.853938380487989 -26.014024313391928 0 -26.014024313391928 -16.166960040082245 0 0 0 0 37.468446813779117 -25.830876763268495 0 -25.830876763268495 17.621227476879717 0 0 0 0 -14.140998730365027 88.331486863904956 0 88.331486863904956 72.440628654086822 0 0 0 0 -181.61114277529805 -28.767136828075081 0 -28.767136828075081 80.119553973620896 0 0 0 0 22.204695741963093 3.6612562088729419 0 3.6612562088729419 22.217556448338655 0 0 0 0 35.482207232879723 -38.089928784669205 0 -38.089928784669205 20.556083902307336 0 0 0 0 -163.50117681949996 -144.55479479747009 0 -144.55479479747009 26.631675890716906 0 0 0 0 -73.664194309683808 -90.17224600378313 0 -90.17224600378313 14.353325873540939 0 0 0 0 -34.209023836155993 -24.977613233168054 0 -24.977613233168054 0.9097048037982054 0 0 0 0 -14.652470278539113 -37.831181253184241 0 -37.831181253184241 9.5811268460565771 0 0 0 0 -30.058193022792693 -34.359868596240517 0 -34.359868596240517 -1.9987860326768896 0 0 0 0 -32.760832934118753 56.045895384853111 0 56.045895384853111 110.59405725041688 0 0 0 0 -6.9846760963704604 -5.6774821171394994 0 -5.6774821171394994 -1.8110116349469365 0 0 0 0 -45.380787767323 -3.3065051033591999 0 -3.3065051033591999 45.827629588341097 0 0 0 0 -28.617653667146229 -19.04888492359116 0 -19.04888492359116 -8.3488806072788613 0 0 0 0 -34.469060838736652 -27.187095604922142 0 -27.187095604922142 51.334793265689768 0 0 0 0 5.8289767763960185 -17.101105160490533 0 -17.101105160490533 12.671378757826005 0 0 0 0 -10.455773602614656 -18.362489999440623 0 -18.362489999440623 18.248755664445973 0 0 0 0 -35.094398248576432 -36.704275472765914 0 -36.704275472765914 6.6601265028207308 0 0 0 0 0.95286184183178424 -21.540862657342384 0 -21.540862657342384 20.12436055657777 0 0 0 0 562.47852202594549 -241.5097463957361 0 -241.5097463957361 17.318231628448302 0 0 0 0 -71.21439744580448 -6.1996566449889201 0 -6.1996566449889201 5.689403331311496 0 0 0 0 -0.77162088409824747 -1.8859777632888068 0 -1.8859777632888068 -0.45277234241403796 0 0 0 0 -32.579128817758829 2.1697712476295692 0 2.1697712476295692 -2.3923821185135239 0 0 0 0 -42.296047955314862 -35.128322257059608 0 -35.128322257059608 -24.044682217025638 0 0 0 0 -19.541184619582054 -20.114068765930824 0 -20.114068765930824 -17.069905504746089 0 0 0 0 -39.204901729757694 -18.1235537013456 0 -18.1235537013456 9.2993054641519848 0 0 0 0 -43.613342555069721 -112.34308389210719 0 -112.34308389210719 4.7628369009302958 0 0 0 0 5.7568385023223527 -7.048637479869285 0 -7.048637479869285 1.9751124422384976 0 0 0 0 -17.903760419832619 -12.486192167243122 0 -12.486192167243122 -8.6879979769508111 0 0 0 0 -8.7824101143387452 -5.3743389808212214 0 -5.3743389808212214 -0.15932376234377443 0 0 0 0 -21.397005664588505 -23.592360123306662 0 -23.592360123306662 10.648901236927486 0 0 0 0 -3.1536989578989285 -4.6003917568969896 0 -4.6003917568969896 -1.1867433312571825 0 0 0 0 417.46713543265469 -232.16556385248987 0 -232.16556385248987 124.30421485589568 0 0 0 0 490.74640267946961 -248.43862279742314 0 -248.43862279742314 76.754055628550304 0 0 0 0 543.99185848964953 -195.99619955509343 0 -195.99619955509343 78.547405527448973 0 0 0 0 354.48449656020784 -254.02790273039773 0 -254.02790273039773 90.998760139679234 0 0 0 0 327.44312172863283 -162.2905902752907 0 -162.2905902752907 88.058201654078175 0 0 0 0 299.99657624475367 -193.68891302007296 0 -193.68891302007296 118.13361212195377 0 0 0 0 443.56133642421992 -218.0427341377349 0 -218.0427341377349 76.678566241499539 0 0 0 0 402.62165565996747 -171.86316384867806 0 -171.86316384867806 63.056741317613614 0 0 0 0 226.19499465144327 -106.2863632799008 0 -106.2863632799008 83.65814400100021 0 0 0 0 319.09512971334698 -155.70853759511908 0 -155.70853759511908 73.031646020195694 0 0 0 0 143.76714200320021 -44.035650287237672 0 -44.035650287237672 57.030431837693413 0 0 0 0 221.56131423414445 -93.672847650031883 0 -93.672847650031883 45.468879387230118 0 0 0 0 224.73828945199421 -110.41883452106072 0 -110.41883452106072 73.124820522229129 0 0 0 0 190.98713170859082 -120.63423313141834 0 -120.63423313141834 104.47244762335868 0 0 0 0 125.38805326213151 -59.055247129203053 0 -59.055247129203053 74.481261653576325 0 0 0 0 273.07462957969437 -109.21335020784045 0 -109.21335020784045 58.694049212159825 0 0 0 0 181.56061724360524 -179.7899834317754 0 -179.7899834317754 157.50679768590089 0 0 0 0 178.20223522658523 -69.527409322078171 0 -69.527409322078171 78.30608232012537 0 0 0 0 107.38375427608116 -65.719044753216622 0 -65.719044753216622 102.90102707624192 0 0 0 0 66.941009261125146 -19.845589666020715 0 -19.845589666020715 38.46570224286188 0 0 0 0 80.524167536710593 5.553542636430393 0 5.553542636430393 54.117072710455886 0 0 0 0 99.206017391181376 -0.98595124215808028 0 -0.98595124215808028 24.160407350586866 0 0 0 0 142.99510699652092 -298.18883145172867 0 -298.18883145172867 231.35796171967377 0 0 0 0 85.531683741090092 -114.59570156243694 0 -114.59570156243694 204.09642485400036 0 0 0 0 541.12701720197947 -511.15131720578665 0 -511.15131720578665 344.19822222364633 0 0 0 0 521.80350873059979 -303.19237540564382 0 -303.19237540564382 43.065213945771575 0 0 0 0 522.95810394631781 -311.73877082960172 0 -311.73877082960172 105.98259691694238 0 0 0 0 574.42732643461568 -340.14175160399373 0 -340.14175160399373 65.770230925848182 0 0 0 0 192.06133859468355 -129.23307834541765 0 -129.23307834541765 130.88928655455129 0 0 0 0 -110.89254206278019 -109.22595600493082 0 -109.22595600493082 58.968990438456828 0 0 0 0 -105.47143342333129 -96.329259713665465 0 -96.329259713665465 54.809737810766819 0 0 0 0 -128.67878506936904 -113.45188005688033 0 -113.45188005688033 59.066761132223121 0 0 0 0 -106.26628369351783 -97.183237948992314 0 -97.183237948992314 61.029754836597931 0 0 0 0 -49.72757344125057 -58.231230866161809 0 -58.231230866161809 50.984346953927343 0 0 0 0 -34.521624625615914 -83.227030557363491 0 -83.227030557363491 31.784185150636404 0 0 0 0 -49.77559634775389 -75.16331310297096 0 -75.16331310297096 55.468756593989156 0 0 0 0 24.715443045868597 -66.196703875690901 0 -66.196703875690901 53.089081357838495 0 0 0 0 -5.1836318421883334 -42.941147458860542 0 -42.941147458860542 65.684930813325536 0 0 0 0 14.29085805898103 -33.448746230744518 0 -33.448746230744518 68.286823631165589 0 0 0 0 -47.572836277064198 -65.234783460546851 0 -65.234783460546851 73.017446322212891 0 0 0 0 87.394331160488946 -79.426425764744295 0 -79.426425764744295 72.184844747682291 0 0 0 0 62.572687859348662 -31.064142036159637 0 -31.064142036159637 43.99221148154902 0 0 0 0 130.75639321384324 -45.917238572461258 0 -45.917238572461258 50.993701283709015 0 0 0 0 55.643934796700705 -48.200289935433148 0 -48.200289935433148 74.49681262490185 0 0 0 0 88.206724738088724 -3.6435205903322299 0 -3.6435205903322299 36.623591557695818 0 0 0 0 64.865642811004363 -23.000522486129512 0 -23.000522486129512 20.617355642871644 0 0 0 0 78.215816748563157 11.059465094003826 0 11.059465094003826 10.438990345867182 0 0 0 0 63.573578556814482 -18.184637837321588 0 -18.184637837321588 2.7039656973229285 0 0 0 0 32.664480209517933 -40.646705529075462 0 -40.646705529075462 -13.566942318824658 0 0 0 0 12.591975749021003 -51.07739268795558 0 -51.07739268795558 28.198885241115249 0 0 0 0 55.266353843358672 -38.595255817878112 0 -38.595255817878112 26.070903808106777 0 0 0 0 11.983011145239288 -49.25052580737588 0 -49.25052580737588 22.726492522999251 0 0 0 0 -27.389438091206102 -83.827732366947657 0 -83.827732366947657 -5.2241421312619423 0 0 0 0 7.981856869276271 -92.004033234949247 0 -92.004033234949247 -82.306547063376456 0 0 0 0 38.204431629721512 -45.881965004992253 0 -45.881965004992253 -17.592942175861936 0 0 0 0 -60.648787381560396 -152.27123358571907 0 -152.27123358571907 -114.35824423567192 0 0 0 0 -40.668874054092157 -100.36209819098076 0 -100.36209819098076 -10.516820517546876 0 0 0 0 -49.95820482116369 -96.909700354546544 0 -96.909700354546544 -79.619466813748659 0 0 0 0 -100.17934846628214 -118.73662703710261 0 -118.73662703710261 25.389358572089805 0 0 0 0 -25.191136297943103 -88.629188276975526 0 -88.629188276975526 -2.2934769761750431 0 0 0 0 14.56232642460418 -29.981846362126362 0 -29.981846362126362 -102.60696164087403 0 0 0 0 -23.817533124434703 30.882516125467646 0 30.882516125467646 -56.748507787468498 0 0 0 0 -7.5203160757100704 -8.7178814744934243 0 -8.7178814744934243 36.005152790834472 0 0 0 0 67.016298383527101 1.0361971332358735 0 1.0361971332358735 -40.319871222363872 0 0 0 0 4.8071938465791391 -20.534049228076128 0 -20.534049228076128 -29.530483938609905 0 0 0 0 20.108455304485688 -34.072036355946238 0 -34.072036355946238 -60.186855064177053 0 0 0 0 12.334961601422037 -73.403055444136498 0 -73.403055444136498 -145.41406251292665 0 0 0 0 57.34945207263371 -7.5853739433522662 0 -7.5853739433522662 -24.038448746164249 0 0 0 0 58.599585216461492 -43.043111734652484 0 -43.043111734652484 -74.417837160191993 0 0 0 0 80.878285237736122 23.558357783607086 0 23.558357783607086 2.1131977048335102 0 0 0 0 81.528082258424547 -11.269876699533597 0 -11.269876699533597 -35.811137282102209 0 0 0 0 54.147925094603124 10.43706624213155 0 10.43706624213155 -53.013011711757372 0 0 0 0 56.952309851532846 24.275606486349261 0 24.275606486349261 7.4371539118965302 0 0 0 0 107.22207343513946 -0.58257918044455437 0 -0.58257918044455437 19.548684232885535 0 0 0 0 83.24028237535822 44.928960732159339 0 44.928960732159339 50.888674283449291 0 0 0 0 93.138222097317339 16.262538152225716 0 16.262538152225716 6.0301762285293989 0 0 0 0 63.170657699465664 12.396659991224624 0 12.396659991224624 89.569598658099494 0 0 0 0 86.340138327046589 35.104103773658608 0 35.104103773658608 50.276649326122424 0 0 0 0 78.649877950494556 -3.2113179488405876 0 -3.2113179488405876 55.605121648673048 0 0 0 0 93.570429143606816 6.2653106120101256 0 6.2653106120101256 -1.7375379899822292 0 0 0 0 83.784962461617397 13.987114116218436 0 13.987114116218436 -4.1489342718966782 0 0 0 0 79.828438018656016 -7.0677095628539064 0 -7.0677095628539064 -37.098069748454236 0 0 0 0 71.170010308293968 -2.0477257153033861 0 -2.0477257153033861 -13.073030854339777 0 0 0 0 93.316685843508822 -1.526976420473602 0 -1.526976420473602 -36.240947411752586 0 0 0 0 92.254058022901518 13.23261141963053 0 13.23261141963053 -19.724675358679633 0 0 0 0 84.280686148371387 18.023973383851626 0 18.023973383851626 -9.4059917969816524 0 0 0 0 75.725824313547491 10.688560683454625 0 10.688560683454625 -5.8621902986715213 0 0 0 0 82.462846423920382 -1.3633041164487167 0 -1.3633041164487167 -32.353569858308219 0 0 0 0 80.618579921831042 -8.13029128588596 0 -8.13029128588596 -1.7111832647133269 0 0 0 0 -167.77250502213587 115.79721833248595 0 115.79721833248595 -384.66058294959112 0 0 0 0 -514.76017085752983 -252.19797522745193 0 -252.19797522745193 234.5586689145166 0 0 0 0 -145.09981535775398 -76.738507591853249 0 -76.738507591853249 119.53022665890967 0 0 0 0 196.06362682704639 -388.26574432403504 0 -388.26574432403504 285.36935681465411 0 0 0 0 -206.40862224534908 -203.94817354624502 0 -203.94817354624502 363.19043314835653 0 0 0 0 252.51070628764137 -338.45988323177698 0 -338.45988323177698 129.81428074789073 0 0 0 0 225.11720230476749 -391.10520679246838 0 -391.10520679246838 101.21973863042786 0 0 0 0 3.854008083123178 -0.1684839324833689 0 -0.1684839324833689 -0.40929276529907455 0 0 0 0 111.21527827800037 -212.54201237568668 0 -212.54201237568668 -178.71218711137044 0 0 0 0 -58.753176706801241 -33.427990241028965 0 -33.427990241028965 181.61546479185199 0 0 0 0 376.06553644081941 -623.76998820627341 0 -623.76998820627341 -5.4634464007212955 0 0 0 0 82.699130990151389 59.36435532147334 0 59.36435532147334 100.67156893626304 0 0 0 0 50.845833040584139 -29.848086337559753 0 -29.848086337559753 16.751356522834605 0 0 0 0 -334.47999638332658 379.83829208548195 0 379.83829208548195 -277.30719623275036 0 0 0 0 142.20505757166029 33.738858271091431 0 33.738858271091431 52.595133682496453 0 0 0 0 67.646593005250907 34.745982743268542 0 34.745982743268542 57.107323618226474 0 0 0 0 125.3252192461805 -32.304301414650581 0 -32.304301414650581 123.40493712425359 0 0 0 0 28.512644580865526 6.5577259332385438 0 6.5577259332385438 232.29157168449819 0 0 0 0 -16.495305521890259 2.798987558528097 0 2.798987558528097 -41.363551554855803 0 0 0 0 -72.478851542971825 30.478175807333173 0 30.478175807333173 -55.048518159610467 0 0 0 0 -135.00844392368981 -8.8150127210765277 0 -8.8150127210765277 4.5209250835287094 0 0 0 0 140.21741072033365 -289.15357913979096 0 -289.15357913979096 44.714404570306215 0 0 0 0 -25.391284967879983 -21.169615491839068 0 -21.169615491839068 -64.697749510769427 0 0 0 0 30.244407152851636 113.70306950341637 0 113.70306950341637 222.97775863052721 0 0 0 0 -51.997976072227175 -77.3495596227649 0 -77.3495596227649 -13.545751680081594 0 0 0 0 4.0316397880777792 -10.028841657210705 0 -10.028841657210705 2.9874120873611432 0 0 0 0 44.633536133883879 -31.922983545534311 0 -31.922983545534311 14.480056866775357 0 0 0 0 114.55495793860246 121.03938636777002 0 121.03938636777002 125.63927859422074 0 0 0 0 58.231529942786437 30.643351875851295 0 30.643351875851295 60.465479074119685 0 0 0 0 35.412737094298791 45.314111345767742 0 45.314111345767742 94.66463831308829 0 0 0 0 29.658409988462154 84.13974806187457 0 84.13974806187457 158.8437729252928 0 0 0 0 27.890246495702741 69.21569917737088 0 69.21569917737088 123.06326474236448 0 0 0 0 52.628870100514177 16.31614224741088 0 16.31614224741088 17.751301655209318 0 0 0 0 51.492702492742865 -16.221103313772005 0 -16.221103313772005 118.90735136948933 0 0 0 0 7.2566585710046638 42.423828077657163 0 42.423828077657163 100.51664357733171 0 0 0 0 -276.69642840804408 -604.24066462212204 0 -604.24066462212204 -183.61745281499316 0 0 0 0 -207.77722292015505 73.379134455142776 0 73.379134455142776 -93.19122091402096 0 0 0 0 291.68137385557054 -32.181204095837529 0 -32.181204095837529 -253.53391194225492 0 0 0 0 314.08386531974247 27.674110470175947 0 27.674110470175947 -30.772333574966979 0 0 0 0 571.11970312199628 -280.12784101981379 0 -280.12784101981379 -118.20057571727784 0 0 0 0 1387.566162899243 -79.735278117113921 0 -79.735278117113921 -276.98556812475726 0 0 0 0 1229.5071122336713 368.48770880822485 0 368.48770880822485 3.0405232165110192 0 0 0 0 7.9859089671500119 -6.5349449055542816 0 -6.5349449055542816 -2.1944670481456754 0 0 0 0 1064.6017017560316 -162.60166362006476 0 -162.60166362006476 44.384610201276246 0 0 0 0 586.13633392569136 199.88008233753317 0 199.88008233753317 -163.31861422072325 0 0 0 0 720.60213097728388 138.04270659453505 0 138.04270659453505 -753.86557659797108 0 0 0 0 17.809680862062137 -6.1966057565178039 0 -6.1966057565178039 1.6986529490514677 0 0 0 0 609.56857381129976 293.86501299822976 0 293.86501299822976 -806.17154917169137 0 0 0 0 58.247808332178465 -262.13702270691192 0 -262.13702270691192 461.28996187922667 0 0 0 0 1068.2986537678098 -213.44198244876407 0 -213.44198244876407 -447.43105337241605 0 0 0 0 4.4369675184045718 78.279590017000004 0 78.279590017000004 35.888566120810538 0 0 0 0 93.89285402508176 -18.720377539245419 0 -18.720377539245419 2.2335157724087367 0 0 0 0 22.835048198032382 -19.09947036762469 0 -19.09947036762469 6.578889613827414 0 0 0 0 109.52141091532576 -48.055676017155292 0 -48.055676017155292 -151.02970505474354 0 0 0 0 89.429895164128538 8.9304328780804099 0 8.9304328780804099 -5.9428352880140665 0 0 0 0 66.833306079017348 21.730824755527692 0 21.730824755527692 -19.355539543399118 0 0 0 0 -121.38676291806496 -418.22409732161395 0 -418.22409732161395 -632.36155203234375 0 0 0 0 49.383527315240258 -26.91428924248595 0 -26.91428924248595 12.944633024473662 0 0 0 0 -400.05568425377669 -219.83384198574913 0 -219.83384198574913 -173.63393167889444 0 0 0 0 40.032304611135508 -19.383405247692131 0 -19.383405247692131 7.8278487808604886 0 0 0 0 121.57824206479052 -656.45592969717291 0 -656.45592969717291 -937.11236505693341 0 0 0 0 -28.849675496676355 -63.110799320385922 0 -63.110799320385922 -604.23136017899469 0 0 0 0 102.60987459072226 -379.9085031459872 0 -379.9085031459872 -185.66562012568284 0 0 0 0 -157.66409173027066 -53.755104148177907 0 -53.755104148177907 97.563111047449638 0 0 0 0 -58.739913003500419 -273.71740662711545 0 -273.71740662711545 -174.45508276280816 0 0 0 0 281.54994477872572 -86.424483803453768 0 -86.424483803453768 44.283643550961642 0 0 0 0 -272.8490525466832 -55.898099242662283 0 -55.898099242662283 75.928635207344996 0 0 0 0 -209.52567925581116 -244.02176748977581 0 -244.02176748977581 26.031616528120139 0 0 0 0 -86.842451336808153 -177.57164260488207 0 -177.57164260488207 145.55890790220474 0 0 0 0 -95.411874057708573 -155.56095299620742 0 -155.56095299620742 272.90544799001873 0 0 0 0 -233.64986843214092 -85.788485755467264 0 -85.788485755467264 256.22613292531787 0 0 0 0 -228.77832852708616 -165.05654712907381 0 -165.05654712907381 305.17041737001637 0 0 0 0 -133.92696039022303 -119.12228712095748 0 -119.12228712095748 257.69963399242624 0 0 0 0 -95.247538572205485 -137.31049019237071 0 -137.31049019237071 291.88792135036056 0 0 0 0 190.93914737667029 -39.408426706764658 0 -39.408426706764658 232.87741799548667 0 0 0 0 229.95436237281595 -166.17845852021492 0 -166.17845852021492 267.5709064573457 0 0 0 0 375.13395442511342 -74.291085069116889 0 -74.291085069116889 176.54638595818687 0 0 0 0 621.56840865934714 -100.83059741689794 0 -100.83059741689794 154.54649556512595 0 0 0 0 774.26849593255031 -310.20033129250805 0 -310.20033129250805 182.8093973381292 0 0 0 0 856.71002214686405 -76.627262969434014 0 -76.627262969434014 118.3437516811573 0 0 0 0 264.84672817076154 -55.926036047199887 0 -55.926036047199887 263.81178212741179 0 0 0 0 1076.5379975147366 277.42634855138294 0 277.42634855138294 2.8459808616244118 0 0 0 0 122.22292793135585 -81.73353973725898 0 -81.73353973725898 255.32421433655691 0 0 0 0 -473.85460711528867 499.07309320458808 0 499.07309320458808 28.803921211481793 0 0 0 0 0.7893166506759739 0.11317838216930554 0 0.11317838216930554 -1.9396362329223962 0 0 0 0 22.712976514680122 -306.15918641851022 0 -306.15918641851022 117.01861215327335 0 0 0 0 1550.8839583339441 -384.45247908499687 0 -384.45247908499687 -45.948773175452516 0 0 0 0 610.1886944644948 -366.17711221223453 0 -366.17711221223453 230.6424079511562 0 0 0 0 1477.3504384903954 925.72049141963362 0 925.72049141963362 -163.26283792814502 0 0 0 0 6.9900592931615115 -3.0019556445364763 0 -3.0019556445364763 -5.3484625280172651 0 0 0 0 817.53630042037457 -256.26324995970572 0 -256.26324995970572 136.71705300236681 0 0 0 0 899.24057109264095 -343.05702981660397 0 -343.05702981660397 173.19975256926409 0 0 0 0 950.48244327069176 -106.86130655293346 0 -106.86130655293346 14.641704654161003 0 0 0 0 713.70316883430314 -319.29256237525124 0 -319.29256237525124 359.57575156535313 0 0 0 0 915.4764393531882 -194.96212794386884 0 -194.96212794386884 285.44383830793231 0 0 0 0 615.28393223981971 -278.74676358963188 0 -278.74676358963188 311.10297041626109 0 0 0 0 830.46192873667565 -621.51116406762048 0 -621.51116406762048 433.38463515935291 0 0 0 0 989.97672172284001 -710.24156370988203 0 -710.24156370988203 477.28358426513296 0 0 0 0 1.2810701171233774 -1.4321508378701679 0 -1.4321508378701679 1.7381924972536145 0 0 0 0 978.87380781999673 -396.93745923376264 0 -396.93745923376264 214.86742632439564 0 0 0 0 1215.424715700291 -505.49575474271478 0 -505.49575474271478 263.44399767447612 0 0 0 0 766.05275750724456 -507.89088555133435 0 -507.89088555133435 326.97100079932716 0 0 0 0 770.13794464739476 -386.30582127664456 0 -386.30582127664456 243.76186826769481 0 0 0 0 772.67173880174732 -393.36686433206341 0 -393.36686433206341 251.68457176856828 0 0 0 0 484.63282507241479 -251.68190712262367 0 -251.68190712262367 287.90328250308085 0 0 0 0 711.90101860271284 -220.16014257979259 0 -220.16014257979259 249.48120497918717 0 0 0 0 589.95421748747776 -239.47076204105338 0 -239.47076204105338 238.61215794667078 0 0 0 0 386.02063108407083 -194.06209411619784 0 -194.06209411619784 280.48261575575816 0 0 0 0 542.84872491786655 -300.86058146940195 0 -300.86058146940195 290.37793631449858 0 0 0 0 597.11874842211785 -368.68870793134113 0 -368.68870793134113 325.48400253029104 0 0 0 0 290.17913707299203 -171.74838773933152 0 -171.74838773933152 256.82511637374228 0 0 0 0 239.96532623877886 -56.650469325280028 0 -56.650469325280028 184.85483216276043 0 0 0 0 270.30125124514109 -73.910657507291035 0 -73.910657507291035 220.61780982315577 0 0 0 0 386.9930118345136 -207.12747370615034 0 -207.12747370615034 283.43293904682287 0 0 0 0 456.38289393523911 -130.25208503769682 0 -130.25208503769682 229.66758813866181 0 0 0 0 332.28794996567467 -90.526569790126814 0 -90.526569790126814 226.17349012425257 0 0 0 0 208.93787502077237 -164.20360416498079 0 -164.20360416498079 291.43773297154621 0 0 0 0 489.18497925476709 -267.16374466875641 0 -267.16374466875641 299.71695412621193 0 0 0 0 550.50504672032775 -161.42247445873727 0 -161.42247445873727 253.91398142334219 0 0 0 0 715.98008701481285 -292.04414348784667 0 -292.04414348784667 228.52479451018007 0 0 0 0 693.57725423652516 -216.9348123692821 0 -216.9348123692821 185.7232412272715 0 0 0 0 385.21396258214804 -202.3066351407906 0 -202.3066351407906 221.01990874949115 0 0 0 0 407.26998634610572 -104.86563408075926 0 -104.86563408075926 228.7353828229825 0 0 0 0 25.324286102535552 -65.77112132325783 0 -65.77112132325783 293.08047196857842 0 0 0 0 -73.015006298745902 -51.559048323171737 0 -51.559048323171737 226.28908444763692 0 0 0 0 -71.260748224785402 -172.48610826470758 0 -172.48610826470758 208.94852221641486 0 0 0 0 216.60276710654864 -132.93543687806959 0 -132.93543687806959 181.67273406598179 0 0 0 0 -147.35013563247139 -134.98738621614029 0 -134.98738621614029 279.14375199378355 0 0 0 0 -173.29396552752178 -177.0508834370612 0 -177.0508834370612 211.14319174774209 0 0 0 0 -194.85699296629218 -3.2145600593394192 0 -3.2145600593394192 40.151942653068545 0 0 0 0 -367.97678482287347 -144.12309827495028 0 -144.12309827495028 45.387671061213041 0 0 0 0 -141.31252204474993 -122.10852086913928 0 -122.10852086913928 176.83048716397025 0 0 0 0 -59.888734154252461 -4.1775662514901342 0 -4.1775662514901342 43.344069186518027 0 0 0 0 -224.14548527614215 -32.317492375288566 0 -32.317492375288566 118.15932183044788 0 0 0 0 -231.61600969367129 11.981409780647482 0 11.981409780647482 -9.5799813351732155 0 0 0 0 77.070833030845506 -59.325218948684778 0 -59.325218948684778 264.26842050869163 0 0 0 0 169.76008796440351 -147.14980874393223 0 -147.14980874393223 238.34106325281391 0 0 0 0 49.056530887868689 -118.935812508038 0 -118.935812508038 140.78159111130299 0 0 0 0 -67.061012305305667 -38.434986966469296 0 -38.434986966469296 217.96531302358017 0 0 0 0 79.413433150856463 -59.041144869333948 0 -59.041144869333948 229.57778138662252 0 0 0 0 85.47764626206208 -66.902865483977621 0 -66.902865483977621 108.28579223775159 0 0 0 0 -0.50847675505406187 49.206558014626353 0 49.206558014626353 133.19783638429362 0 0 0 0 -74.991332089289472 -25.808548499862809 0 -25.808548499862809 68.806253765498695 0 0 0 0 72.935789549673075 63.16070941948783 0 63.16070941948783 102.75200265843159 0 0 0 0 109.67765462100789 -55.36648328978481 0 -55.36648328978481 105.99226661905413 0 0 0 0 -148.57677805936009 73.182296220740682 0 73.182296220740682 73.348346756993124 0 0 0 0 -234.63823901215983 -12.201151061561177 0 -12.201151061561177 -1.4842236027725448 0 0 0 0 -401.98339071903638 125.66962694921313 0 125.66962694921313 37.887937540603161 0 0 0 0 -0.79571937676407867 -1.0878291710799033 0 -1.0878291710799033 -0.84753715628716009 0 0 0 0 -211.615252691401 129.92054345457927 0 129.92054345457927 -52.66896477258706 0 0 0 0 -158.84653629117338 20.13399882727208 0 20.13399882727208 18.838130769901909 0 0 0 0 -282.95793549960331 -6.4938064561065403 0 -6.4938064561065403 -22.822897477650258 0 0 0 0 19.261805295079057 1.9218170846534122 0 1.9218170846534122 33.931304206795176 0 0 0 0 -54.228807286963274 91.798136813395104 0 91.798136813395104 47.507005734109953 0 0 0 0 -32.07038496057487 45.99863997671855 0 45.99863997671855 -39.106907543697162 0 0 0 0 -120.03434652067972 107.03975811013879 0 107.03975811013879 -10.469566791176476 0 0 0 0 24.831060710149927 108.73459079504573 0 108.73459079504573 25.466559252141451 0 0 0 0 103.68542222070653 77.865807440150093 0 77.865807440150093 57.643091459691277 0 0 0 0 82.839552886397058 44.390521356626778 0 44.390521356626778 5.5735605721711181 0 0 0 0 156.68838649643851 -30.409880748487922 0 -30.409880748487922 98.488392527247925 0 0 0 0 288.65073298711883 -41.611533414834412 0 -41.611533414834412 98.308061153258677 0 0 0 0 132.738598958029 -20.48703435549578 0 -20.48703435549578 118.29791581687459 0 0 0 0 260.44413994011904 -2.6317026555807388 0 -2.6317026555807388 -12.159025395076924 0 0 0 0 295.00347858245186 -193.71138146733301 0 -193.71138146733301 261.41104536395142 0 0 0 0 221.69509482038802 27.572102783447917 0 27.572102783447917 155.66657354700874 0 0 0 0 235.01594704803466 -122.36340850678243 0 -122.36340850678243 306.71900761233701 0 0 0 0 424.96044573728659 -155.99045445424417 0 -155.99045445424417 223.21429173135766 0 0 0 0 387.21848121336279 -246.4034084739651 0 -246.4034084739651 468.53034336410201 0 0 0 0 638.3864895577492 -426.48838628874728 0 -426.48838628874728 369.84530753544823 0 0 0 0 636.88665667721671 -339.15463375640684 0 -339.15463375640684 323.08030695794878 0 0 0 0 542.26986722413722 -296.53056834430754 0 -296.53056834430754 305.6915923933775 0 0 0 0 333.98058772217291 -194.21919806857841 0 -194.21919806857841 348.02121616217482 0 0 0 0 395.05227791076675 -192.44590488420727 0 -192.44590488420727 251.28118382335379 0 0 0 0 311.81210896281135 -64.523141489154568 0 -64.523141489154568 221.41482268869004 0 0 0 0 146.96673057323665 1.0384576118776749 0 1.0384576118776749 189.37306474475008 0 0 0 0 241.03473257429482 -110.18948886302678 0 -110.18948886302678 175.68356915591721 0 0 0 0 166.23770621354589 3.0502474723434716 0 3.0502474723434716 176.87480262882309 0 0 0 0 258.1912994266782 -110.38117654032976 0 -110.38117654032976 184.36930110025423 0 0 0 0 -19.448303192657477 -38.970970150452558 0 -38.970970150452558 34.563650438383775 0 0 0 0 -22.927342216990837 -34.718819083722337 0 -34.718819083722337 30.228836748592585 0 0 0 0 -28.074823016441883 -12.467619857838372 0 -12.467619857838372 21.996117728216632 0 0 0 0 -26.715738820381468 -17.97195203258865 0 -17.97195203258865 2.3366448252738081 0 0 0 0 -16.986807729577777 -76.245740909209417 0 -76.245740909209417 -13.945340586725251 0 0 0 0 -44.638992826607137 -6.7708837812024285 0 -6.7708837812024285 28.911298563947639 0 0 0 0 -85.147149241543957 -29.412012679027612 0 -29.412012679027612 12.773808090199964 0 0 0 0 -23.124174128606285 -5.1385899765699037 0 -5.1385899765699037 21.739049722866184 0 0 0 0 -21.14879840825779 -23.911708537448249 0 -23.911708537448249 23.260743611645012 0 0 0 0 -19.229143042369287 -37.778673626635282 0 -37.778673626635282 37.388795025934087 0 0 0 0 -27.245360246975252 -12.98699042931338 0 -12.98699042931338 3.1988143967681708 0 0 0 0 -28.672585019276084 -5.5669435690888349 0 -5.5669435690888349 9.5745116840953415 0 0 0 0 -32.972128930714462 -11.905484221790175 0 -11.905484221790175 11.752932379245522 0 0 0 0 -82.440079162764505 23.860198296746603 0 23.860198296746603 47.781263982415112 0 0 0 0 -25.940681038217008 6.8305307699229161 0 6.8305307699229161 18.538640253224003 0 0 0 0 -5.9257488099051443 -26.738453738684257 0 -26.738453738684257 27.623299537786806 0 0 0 0 -22.973426832154018 2.1456421118205071 0 2.1456421118205071 -5.9412103107606526 0 0 0 0 -0.44948303751631347 -0.59883588807415578 0 -0.59883588807415578 3.0691965622740653 0 0 0 0 0.41527942740322032 -146.25508184128557 0 -146.25508184128557 220.51364799004114 0 0 0 0 -219.27954149388927 -34.502895066412066 0 -34.502895066412066 163.73482667190183 0 0 0 0 -0.15543368656703116 0.19875660238288617 0 0.19875660238288617 -1.1501395839865367 0 0 0 0 -38.193093392182163 -8.8655538410203008 0 -8.8655538410203008 8.9195463363557792 0 0 0 0 -2.3675212546830302 -0.90671382492163932 0 -0.90671382492163932 8.6642503110167439 0 0 0 0 11.263089214214233 -41.340331714143758 0 -41.340331714143758 114.31960338739191 0 0 0 0 -7.5766770091435038 -1.5243940744754205 0 -1.5243940744754205 10.990175974519758 0 0 0 0 -23.997478545129525 -6.6416453371857642 0 -6.6416453371857642 9.8068220763925638 0 0 0 0 -322.55464632452731 40.511574945159737 0 40.511574945159737 66.384604865612346 0 0 0 0 -2.2354278692962453 -25.104278193366554 0 -25.104278193366554 13.489040320331696 0 0 0 0 -4.761941637056907 -19.254721618009626 0 -19.254721618009626 23.192036652479146 0 0 0 0 -3.219886203686356 -4.0793211875172002 0 -4.0793211875172002 -2.5186017552793203 0 0 0 0 -28.675619561446183 -4.9794213409877557 0 -4.9794213409877557 63.367035273597139 0 0 0 0 -23.192378102012981 11.548985373696723 0 11.548985373696723 5.2141327519493643 0 0 0 0 80.647008689090967 -75.160992946020087 0 -75.160992946020087 -72.763465166193782 0 0 0 0 35.301438346391478 -20.053528158354311 0 -20.053528158354311 -36.608872632245038 0 0 0 0 -7.8412033097783933 9.3395665755233495 0 9.3395665755233495 31.327495413715951 0 0 0 0 -0.65931960561693614 -2.7369054947012827 0 -2.7369054947012827 3.73029825981763 0 0 0 0 -5.8199893380392496 -32.55215920999126 0 -32.55215920999126 13.143183888885687 0 0 0 0 35.527892380135228 -34.815610940223763 0 -34.815610940223763 -24.94665311191784 0 0 0 0 -27.687162844405975 -62.331987754609145 0 -62.331987754609145 66.511769747055951 0 0 0 0 8.1081718462311798 -19.966523182062783 0 -19.966523182062783 19.269762918479266 0 0 0 0 -5.9826384887691084 -3.8676535062319886 0 -3.8676535062319886 8.3971851840768323 0 0 0 0 2.3611240682103016 -28.050183676924462 0 -28.050183676924462 31.272696116888255 0 0 0 0 2.9099304810388276 -48.258627668321424 0 -48.258627668321424 26.86150619361797 0 0 0 0 -24.372880556999917 -12.567624425086251 0 -12.567624425086251 11.601710804757431 0 0 0 0 -22.34697685945536 -13.252981552810645 0 -13.252981552810645 9.6519105914448247 0 0 0 0 2.3982802970922421 -35.268654055313164 0 -35.268654055313164 25.600502197012247 0 0 0 0 -14.860294643223824 -42.984443927965913 0 -42.984443927965913 22.399361396152017 0 0 0 0 -10.12517989186108 -41.798250896848913 0 -41.798250896848913 -1.8061584112783748 0 0 0 0 3.5193738831126211 -35.768143644518204 0 -35.768143644518204 0.32706009487446863 0 0 0 0 3.7865514312970987 -11.433509917424761 0 -11.433509917424761 9.9290026548974737 0 0 0 0 7.8640738821138836 -11.739897593857986 0 -11.739897593857986 3.8646086721641311 0 0 0 0 -19.662032159643786 -31.908732105381205 0 -31.908732105381205 -8.2686529545680969 0 0 0 0 -27.303662888678446 -49.339724934017795 0 -49.339724934017795 11.262158035433458 0 0 0 0 -38.716424416994414 -56.030448183664703 0 -56.030448183664703 -2.8471756490689586 0 0 0 0 -19.423459674268088 -28.031098024934181 0 -28.031098024934181 -65.68853922674316 0 0 0 0 -26.120815794407463 -36.463436406178516 0 -36.463436406178516 7.9149392664039624 0 0 0 0 -28.223025213843357 -39.42889768056375 0 -39.42889768056375 18.117908735293895 0 0 0 0 -19.513760903995035 -44.00862502844393 0 -44.00862502844393 19.61084775414929 0 0 0 0 -13.982475994975175 -39.997735852819687 0 -39.997735852819687 16.087198568297026 0 0 0 0 -25.349019212611893 -42.054903770556848 0 -42.054903770556848 32.990599435104741 0 0 0 0 -21.496454564969554 -44.376475947896779 0 -44.376475947896779 38.59717322432698 0 0 0 0 -23.886297508377538 -38.754548029305624 0 -38.754548029305624 26.671666836125951 0 0 0 0 46.538446424420385 -16.185527571440616 0 -16.185527571440616 -9.8011833692835353 0 0 0 0 0.67253635500310338 29.280296323180664 0 29.280296323180664 49.714800395027851 0 0 0 0 -19.816434012640457 22.39044981245388 0 22.39044981245388 60.157379489191953 0 0 0 0 -2.7642184603288058 -2.8256802204837861 0 -2.8256802204837861 1.0997282043727807 0 0 0 0 59.818348841881743 -87.085685853329778 0 -87.085685853329778 34.050495489071182 0 0 0 0 23.323677945982126 -50.149044395078818 0 -50.149044395078818 -24.799642727706669 0 0 0 0 -0.17380095421200181 -14.206361004543588 0 -14.206361004543588 10.477794536628807 0 0 0 0 -8.3582722811465828 -3.7511747655862564 0 -3.7511747655862564 -8.8027876434607606 0 0 0 0 36.7637668769421 -89.34439480198489 0 -89.34439480198489 -208.16123312869058 0 0 0 0 -1.4726642655266993 -0.75623164897108808 0 -0.75623164897108808 5.8074499173845595 0 0 0 0 -3.5265566457823887 -14.077184190858404 0 -14.077184190858404 9.5223094464135123 0 0 0 0 -2.0202038505876772 -13.737583798905689 0 -13.737583798905689 1.9196945970834349 0 0 0 0 8.1185734718028471 8.4720743879806832 0 8.4720743879806832 51.448095029667456 0 0 0 0 -31.147871480670801 -0.31732506095977442 0 -0.31732506095977442 45.683234592025428 0 0 0 0 -10.335608629148737 16.616658580183866 0 16.616658580183866 48.225722494058573 0 0 0 0 -28.010657143856633 2.360855076709413 0 2.360855076709413 56.207374563698977 0 0 0 0 -6.5177581886050575 -1.5569654630289733 0 -1.5569654630289733 56.34772063213677 0 0 0 0 -24.408694403872687 2.8848239928474868 0 2.8848239928474868 64.237702867634653 0 0 0 0 -10.091585011832649 13.911210628095432 0 13.911210628095432 29.881283593094849 0 0 0 0 -15.526240813326012 1.3299423430635215 0 1.3299423430635215 64.360347259560513 0 0 0 0 20.641503812731571 -67.829187806428308 0 -67.829187806428308 36.291373358160854 0 0 0 0 -16.594277888232 -7.6403164105195884 0 -7.6403164105195884 0.057779676128815183 0 0 0 0 -105.67501502020605 -129.37643353242674 0 -129.37643353242674 153.06825043049139 0 0 0 0 -8.2726396225247179 -4.3137856688366014 0 -4.3137856688366014 -1.1413650110860551 0 0 0 0 -48.661923573518152 -10.64953715340198 0 -10.64953715340198 78.941400104249624 0 0 0 0 38.415638510213739 -37.312830981936713 0 -37.312830981936713 -30.068993468235931 0 0 0 0 -12.276287208548297 21.239089146536571 0 21.239089146536571 91.152102059011668 0 0 0 0 -24.881172328064821 -17.97875180202891 0 -17.97875180202891 123.97495091163728 0 0 0 0 -14.87226454718536 -8.1790866201138215 0 -8.1790866201138215 72.952779287108569 0 0 0 0 3.5527319088763818 2.4167554195610137 0 2.4167554195610137 -53.957447863944253 0 0 0 0 -6.2994761663733243 11.499959406861308 0 11.499959406861308 20.629693263639638 0 0 0 0 -20.846201830911014 25.077004886501527 0 25.077004886501527 47.028347936764476 0 0 0 0 -1.7849887947818388 17.56347272021776 0 17.56347272021776 0.43277579313144088 0 0 0 0 -32.055290884706892 10.698017263348447 0 10.698017263348447 0.31877427684958093 0 0 0 0 -229.31566128707038 111.27905799605105 0 111.27905799605105 -84.009882797538012 0 0 0 0 1.1273283087654902 -1.269658426919392 0 -1.269658426919392 -1.1571904573962044 0 0 0 0 93.065727633309052 -75.770051825360497 0 -75.770051825360497 -153.07169071902172 0 0 0 0 0.47150230679517335 267.6271938942773 0 267.6271938942773 -31.156757020045916 0 0 0 0 383.21982381526504 73.119427339919639 0 73.119427339919639 -222.63654878150555 0 0 0 0 261.48330733851822 -78.558391201051563 0 -78.558391201051563 -248.05229216853695 0 0 0 0 -39.938341885705995 -111.97876077640467 0 -111.97876077640467 -241.53526008208428 0 0 0 0 18.956348205875202 -11.086034424432 0 -11.086034424432 -250.29079411637213 0 0 0 0 -15.671799676694263 -6.2841077675075212 0 -6.2841077675075212 6.0109294008943834 0 0 0 0 2.5882992740220878 -1.2936840257653301 0 -1.2936840257653301 -1.2553676047876934 0 0 0 0 -5.2158227991089916 7.8612478197137534 0 7.8612478197137534 -18.653749885150319 0 0 0 0 -7.5857230784711192 27.581932130105088 0 27.581932130105088 -24.914425613187632 0 0 0 0 -23.450310966833058 15.558267689411878 0 15.558267689411878 29.777719354025066 0 0 0 0 -17.553869709050787 1.6526684823184041 0 1.6526684823184041 -81.803298622879083 0 0 0 0 -5.0265256454713381 -9.3530513309351591 0 -9.3530513309351591 -158.84181909007384 0 0 0 0 -40.668698966514057 -78.334353190908587 0 -78.334353190908587 -167.75433820295075 0 0 0 0 -16.422857368386758 -39.351775854938751 0 -39.351775854938751 -110.04804645445256 0 0 0 0 -16.877467693508152 -55.479073048973078 0 -55.479073048973078 -146.22974014507054 0 0 0 0 -8.4127026681235293 -4.6234317206944979 0 -4.6234317206944979 -107.66982804496911 0 0 0 0 -7.2909799793487764 -22.55744998361115 0 -22.55744998361115 -88.019110819041089 0 0 0 0 -13.895784379728866 -36.355002578904532 0 -36.355002578904532 -115.89055854007529 0 0 0 0 0.55946073369159421 -17.321776904209401 0 -17.321776904209401 -71.421294457672047 0 0 0 0 1.0442426098215947 -20.74882089591847 0 -20.74882089591847 -94.94311421270686 0 0 0 0 -3.9903602260201296 -9.336964341764542 0 -9.336964341764542 -64.867716363205545 0 0 0 0 -8.4185428243035858 -1.9939342559591751 0 -1.9939342559591751 -75.983277819668729 0 0 0 0 -7.8506847927255876 0.88761062456978834 0 0.88761062456978834 -82.043223913327893 0 0 0 0 2.7680629313372265 10.955848399654315 0 10.955848399654315 -72.733367546472437 0 0 0 0 150.84347123837233 -29.807573003290599 0 -29.807573003290599 -59.738031241331555 0 0 0 0 2.162079971578736 -1.4387759455017601 0 -1.4387759455017601 -1.3382754967384507 0 0 0 0 17.074720013746532 -0.96060846354968987 0 -0.96060846354968987 -0.39179051515107943 0 0 0 0 32.583870320462211 -38.042301275387217 0 -38.042301275387217 71.687437664437311 0 0 0 0 -35.073931744280344 -44.725939414031018 0 -44.725939414031018 203.87487826622782 0 0 0 0 89.510373841521712 60.340113789829047 0 60.340113789829047 -14.758999556531251 0 0 0 0 90.335282765788364 -116.87816557743872 0 -116.87816557743872 -75.652429332763859 0 0 0 0 18.115985438455368 107.47093626996866 0 107.47093626996866 4.4192674144800606 0 0 0 0 110.48298092451702 19.974400206328482 0 19.974400206328482 -165.51084027512115 0 0 0 0 22.776143804365745 114.560774550735 0 114.560774550735 -25.992618753814895 0 0 0 0 -48.015576882087089 107.74253092610888 0 107.74253092610888 28.196577654467546 0 0 0 0 -20.552008165775533 132.51585594030257 0 132.51585594030257 -24.493461713629586 0 0 0 0 -107.23456095348615 25.459536485710487 0 25.459536485710487 -107.12194445321074 0 0 0 0 16.024812364071749 154.96015843689383 0 154.96015843689383 -62.140740096394438 0 0 0 0 28.806049725598768 -0.67195390692359069 0 -0.67195390692359069 78.614334210957168 0 0 0 0 28.512817355387426 -28.357285412997143 0 -28.357285412997143 89.211523984777159 0 0 0 0 -1.0144697067017887 -10.097736822670413 0 -10.097736822670413 98.928702165041614 0 0 0 0 -15.251906368217874 27.352564991622785 0 27.352564991622785 70.792661040041821 0 0 0 0 -31.169872360467707 -26.535110654574964 0 -26.535110654574964 195.52054640702318 0 0 0 0 -5.9761775352103541 34.612132656777248 0 34.612132656777248 121.70554734927646 0 0 0 0 3.4006104880236876 -2.7130775434822922 0 -2.7130775434822922 -0.84139851864331661 0 0 0 0 0.054672896440251861 -2.79396934819124 0 -2.79396934819124 26.834819920746668 0 0 0 0 -20.941228046151991 50.713717128823191 0 50.713717128823191 -7.0231703369699972 0 0 0 0 -12.034831564546607 -4.3426701915147987 0 -4.3426701915147987 -40.625214152325498 0 0 0 0 -11.712873271332455 38.942361948704274 0 38.942361948704274 38.155855328994221 0 0 0 0 -6.7139258380378806 39.666630742838606 0 39.666630742838606 3.6914222188224812 0 0 0 0 9.2710684508056715 16.416879889336997 0 16.416879889336997 -20.157018811703892 0 0 0 0 -460.17589977739942 205.43855108792923 0 205.43855108792923 -105.02540353595032 0 0 0 0 11.191169993959875 47.164051294950696 0 47.164051294950696 -80.777382108520214 0 0 0 0 -31.550310998435179 41.93023627488401 0 41.93023627488401 -25.102484629319406 0 0 0 0 0.5209772937860695 -1.758472630930541 0 -1.758472630930541 -1.3418162067048591 0 0 0 0 -14.897864347094583 61.068722061387234 0 61.068722061387234 -135.65282561272215 0 0 0 0 -15.042179084241752 -2.2352391111830912 0 -2.2352391111830912 -78.988194100911642 0 0 0 0 -89.077343875978386 -107.35771857978102 0 -107.35771857978102 -196.25437865071217 0 0 0 0 -110.94024281049587 44.271611806374494 0 44.271611806374494 -45.462400400479964 0 0 0 0 4.11681414331224 -67.834583350518187 0 -67.834583350518187 -25.790396241740382 0 0 0 0 -58.462174720746589 25.024960390650449 0 25.024960390650449 51.868432753577508 0 0 0 0 32.490857222090199 -5.3340097427335422 0 -5.3340097427335422 62.206759020336904 0 0 0 0 28.278137973368757 -34.1192303569469 0 -34.1192303569469 -195.46946073092113 0 0 0 0 -34.009255669992854 -5.0677965292215958 0 -5.0677965292215958 -37.492440404937042 0 0 0 0 56.141836728298586 -66.746443302299667 0 -66.746443302299667 -87.989829715524138 0 0 0 0 16.972519414420276 -0.83323597827529738 0 -0.83323597827529738 -19.434540021040448 0 0 0 0 68.081823064454056 -20.140580975186822 0 -20.140580975186822 52.853738118938054 0 0 0 0 6.269737380292689 -7.2850229918109601 0 -7.2850229918109601 -14.969855814787309 0 0 0 0 59.957303891821539 -31.436678649123223 0 -31.436678649123223 -61.55369875258657 0 0 0 0 95.17235056104073 -99.772915507091966 0 -99.772915507091966 -5.2661270263979532 0 0 0 0 27.246262890424589 -95.050983236688239 0 -95.050983236688239 17.330705633990874 0 0 0 0 48.88412073413474 -47.564042312602396 0 -47.564042312602396 97.988250459158735 0 0 0 0 8.7664419127115067 -4.2187921300171709 0 -4.2187921300171709 -8.5817706193418957 0 0 0 0 12.520410746986784 -64.166366512308741 0 -64.166366512308741 -75.886466951927105 0 0 0 0 31.368929010584587 -0.40162340420938847 0 -0.40162340420938847 -4.554963001301962 0 0 0 0 101.58963359459472 -467.74105352068364 0 -467.74105352068364 309.37150053385631 0 0 0 0 1243.0222569561747 124.14600038510616 0 124.14600038510616 491.87385007374542 0 0 0 0 943.55502293864629 -1045.650606136136 0 -1045.650606136136 1728.9711775647811 0 0 0 0 1181.1225133017588 -1051.5449872685749 0 -1051.5449872685749 92.170076080670697 0 0 0 0 476.97186171770386 -363.8230288450759 0 -363.8230288450759 778.71114182282327 0 0 0 0 -223.52953166170064 503.08241494191907 0 503.08241494191907 421.97899061342105 0 0 0 0 612.02085567993004 -493.79258824144199 0 -493.79258824144199 -252.11203230632964 0 0 0 0 -13.145708315933007 -292.36289088047306 0 -292.36289088047306 661.97880543919018 0 0 0 0 312.11511373547 -222.2559768445908 0 -222.2559768445908 -128.13158177521473 0 0 0 0 11.154027183204128 -5.6111262744493686 0 -5.6111262744493686 3.2219513833459992 0 0 0 0 64.073427241602985 -527.81559773349181 0 -527.81559773349181 1240.8338359484578 0 0 0 0 250.60271629300769 9.0840703856083564 0 9.0840703856083564 -116.60660973760423 0 0 0 0 751.70692404612055 -816.00245070375786 0 -816.00245070375786 550.61722454981646 0 0 0 0 177.4949887352177 -250.98454821521227 0 -250.98454821521227 345.94418451042884 0 0 0 0 33.2719721059904 -2.4870117964740999 0 -2.4870117964740999 -4.778186830748492 0 0 0 0 641.48362837708464 -311.32014459895345 0 -311.32014459895345 -172.49315253916211 0 0 0 0 44.76990945239595 -750.66445857832605 0 -750.66445857832605 1209.2579396884557 0 0 0 0 89.644686083773195 -436.68748040732498 0 -436.68748040732498 614.98743952497898 0 0 0 0 152.18713560444303 83.695779007351575 0 83.695779007351575 -68.544756671293726 0 0 0 0 12.636437632370253 -3.2419215090561657 0 -3.2419215090561657 -0.022643677869524481 0 0 0 0 21.257746231755846 -45.860007276392025 0 -45.860007276392025 15.320872337562832 0 0 0 0 -1.0824675613841563 -3.1156911972451127 0 -3.1156911972451127 -11.596334158512441 0 0 0 0 55.82123681649864 -1.6250966979296209 0 -1.6250966979296209 32.68719676334149 0 0 0 0 603.09740395975678 -192.54554532889961 0 -192.54554532889961 -8.4563002776174017 0 0 0 0 131.63380377897192 -58.164542566284581 0 -58.164542566284581 -14.760882107553698 0 0 0 0 -18.244888733483094 -201.31681394569387 0 -201.31681394569387 788.18473868373076 0 0 0 0 308.63051899448783 -573.57244207763733 0 -573.57244207763733 392.83904977584098 0 0 0 0 1.2673018623609096 -295.07281942701411 0 -295.07281942701411 406.47664158377484 0 0 0 0 11.44771011985722 -284.28271061976739 0 -284.28271061976739 220.0988546579124 0 0 0 0 41.949634542103013 -297.55515152135922 0 -297.55515152135922 170.62330937146817 0 0 0 0 -6.8091065901462571 -321.32812431426282 0 -321.32812431426282 326.22684750765256 0 0 0 0 -143.73668450135119 -267.86560256333996 0 -267.86560256333996 347.21824621879205 0 0 0 0 -18.725437128912745 -264.71304182882704 0 -264.71304182882704 141.22546372285797 0 0 0 0 29.532563987077083 -138.01045515820078 0 -138.01045515820078 208.11707810795633 0 0 0 0 -0.19902837074185697 -10.242086530281682 0 -10.242086530281682 0.22593124874446424 0 0 0 0 -112.3819603412594 -127.44582753999748 0 -127.44582753999748 -73.984185344800153 0 0 0 0 -69.641537550232897 -50.803033772097479 0 -50.803033772097479 26.111875197890186 0 0 0 0 -136.96296453495188 -42.339626185907036 0 -42.339626185907036 307.8932645989953 0 0 0 0 46.641065951727796 77.078655561230335 0 77.078655561230335 92.23534160177951 0 0 0 0 -66.920709491256275 -4.7986812181170535 0 -4.7986812181170535 36.258772511115239 0 0 0 0 9.2282176597400394 36.293241304945695 0 36.293241304945695 -51.934001602272474 0 0 0 0 -66.874977618526714 -5.838072208264947 0 -5.838072208264947 -24.542433756476385 0 0 0 0 780.14135162722232 -544.68629394977415 0 -544.68629394977415 338.30673480294718 0 0 0 0 350.78019878413033 174.99639313582156 0 174.99639313582156 362.42995513025926 0 0 0 0 75.135457622200647 -39.824976835318694 0 -39.824976835318694 195.29311710881666 0 0 0 0 18.407165857504879 -61.282350783174479 0 -61.282350783174479 -125.48379368885071 0 0 0 0 321.25951598601205 -84.809763939240838 0 -84.809763939240838 -267.05804002568766 0 0 0 0 134.17438567996214 113.17440012449151 0 113.17440012449151 29.520003571837151 0 0 0 0 45.256760999636754 -52.598173227474035 0 -52.598173227474035 27.208882567521869 0 0 0 0 -179.50653706638332 -201.96860552897124 0 -201.96860552897124 -172.00720720844947 0 0 0 0 4.1809230190800157 -4.3841032980555639 0 -4.3841032980555639 -4.6679726645866708 0 0 0 0 -223.27251444348803 -195.19214393085713 0 -195.19214393085713 327.71429606609695 0 0 0 0 31.004630416695313 -16.816782065064345 0 -16.816782065064345 -1.5898251615192862 0 0 0 0 20.279066306159166 -52.502829022580045 0 -52.502829022580045 -51.216513286475674 0 0 0 0 83.773023731095236 -81.466678578157371 0 -81.466678578157371 -167.61534852660043 0 0 0 0 -10.687833361540385 -22.365312991756269 0 -22.365312991756269 7.4253964907389793 0 0 0 0 -35.229747674900864 -35.818970106043707 0 -35.818970106043707 -10.515386510167446 0 0 0 0 -67.744442650175188 -45.337009150383892 0 -45.337009150383892 5.5040478908340447 0 0 0 0 7.1332544417673489 -46.044692459388898 0 -46.044692459388898 -62.508683469655807 0 0 0 0 16.884030560070784 -3.0905325942455892 0 -3.0905325942455892 -10.122402989828764 0 0 0 0 1.3616539533768446 -51.418853693539859 0 -51.418853693539859 -9.9655431081318966 0 0 0 0 14.067778562676953 -25.76414907651067 0 -25.76414907651067 -23.525494989407974 0 0 0 0 25.42998277039942 -42.887806694106985 0 -42.887806694106985 -33.268976502928126 0 0 0 0 10.106043353196583 -75.390465715607206 0 -75.390465715607206 -10.668850295856828 0 0 0 0 -10.577320924369314 -39.953638241430454 0 -39.953638241430454 -26.282747890568842 0 0 0 0 -70.760428509522171 -10.798910060640992 0 -10.798910060640992 -29.630201176925766 0 0 0 0 101.59636759725981 -77.017900989103509 0 -77.017900989103509 -45.469431078017806 0 0 0 0 -10.968469908918536 -26.102153200481055 0 -26.102153200481055 2.5124248554051221 0 0 0 0 -28.962246564267843 -22.16944366153075 0 -22.16944366153075 -117.43523238711714 0 0 0 0 -6.2664300802072574 -28.212186870462389 0 -28.212186870462389 4.7492447502850439 0 0 0 0 4.6348548553214641 -38.523804756376194 0 -38.523804756376194 5.6046788486100922 0 0 0 0 4.206667370544892 -48.508704937314178 0 -48.508704937314178 -1.2909511739198933 0 0 0 0 -0.054246323543338804 -22.575433499604515 0 -22.575433499604515 -43.010894447535975 0 0 0 0 -10.120037664350093 -71.895793801275431 0 -71.895793801275431 -35.73983965057414 0 0 0 0 37.955172420697636 -100.69829018898236 0 -100.69829018898236 24.884357163332879 0 0 0 0 52.38618964615307 -100.11022664182019 0 -100.11022664182019 -15.759828897400439 0 0 0 0 33.254805436503375 -50.820328239073206 0 -50.820328239073206 -19.163153015113494 0 0 0 0 -20.53458817805349 -38.064405583175009 0 -38.064405583175009 -1.0351242560776939 0 0 0 0 -8.5033495008221465 -44.248813209101776 0 -44.248813209101776 -7.1978652549052384 0 0 0 0 80.974012611564831 -69.188927738156963 0 -69.188927738156963 -47.349340992443103 0 0 0 0 1.3023283969669137 -61.21890372496091 0 -61.21890372496091 -4.6912731286142844 0 0 0 0 -10.79691240514876 -54.308384901963109 0 -54.308384901963109 -2.0421154970426869 0 0 0 0 85.138214803919254 -43.632732357607892 0 -43.632732357607892 -15.919279114490564 0 0 0 0 20.936652699007844 -32.670524574266082 0 -32.670524574266082 -3.4139060847750096 0 0 0 0 38.672311013423581 -26.001120174306568 0 -26.001120174306568 -2.9737431704868826 0 0 0 0 19.527612815720204 -37.511257901698627 0 -37.511257901698627 96.596645394391999 0 0 0 0 6.7362269146769904 -47.435945854413148 0 -47.435945854413148 -9.2089731376499913 0 0 0 0 -17.173304377861669 -19.63116109303602 0 -19.63116109303602 -8.171021900208892 0 0 0 0 -4.3686306039560847 -21.107414113185694 0 -21.107414113185694 -20.681398090587521 0 0 0 0 2.041156428501381 -31.518381016887361 0 -31.518381016887361 -3.268722565684584 0 0 0 0 6.2757698237183099 -21.09088488587863 0 -21.09088488587863 1.7657490217716685 0 0 0 0 -4.3739085543238616 -48.792427596114067 0 -48.792427596114067 -1.700533385849667 0 0 0 0 115.97239251209066 -57.026906269871688 0 -57.026906269871688 -15.657498566240974 0 0 0 0 -0.043036956585629227 -4.8050571404512148 0 -4.8050571404512148 -1.5728123695360878 0 0 0 0 -7.2037719957727191 -24.38810622967458 0 -24.38810622967458 -3.7910869117736494 0 0 0 0 -24.478084994542769 -40.048632578907473 0 -40.048632578907473 -1.5379343881477325 0 0 0 0 4.5738687991561164 -29.175716381223538 0 -29.175716381223538 -7.4852934813552565 0 0 0 0 0.82720099986180173 -23.232238080531175 0 -23.232238080531175 -7.1057588502293134 0 0 0 0 -5.4887630624011763 -41.028520875783215 0 -41.028520875783215 -0.70612172577966703 0 0 0 0 7.5686170289513939 -25.6860293315749 0 -25.6860293315749 -16.721468709023611 0 0 0 0 -4.2270656856918745 -28.942148953514423 0 -28.942148953514423 -10.291899702773073 0 0 0 0 -2.6616895738238782 -43.254851665271417 0 -43.254851665271417 10.577551945640153 0 0 0 0 -9.5317620527866893 -38.542552463823085 0 -38.542552463823085 9.4885305322786735 0 0 0 0 -10.039162140724329 -56.110030783082038 0 -56.110030783082038 -2.960761167734745 0 0 0 0 8.3868802528340893 -22.024211171581555 0 -22.024211171581555 24.635826935745172 0 0 0 0 3.9484833649031543 -2.2567289699481989 0 -2.2567289699481989 65.809900722451857 0 0 0 0 -19.318208792788937 -81.240373634314892 0 -81.240373634314892 101.28972607466676 0 0 0 0 -16.91495398511961 -66.977960439446178 0 -66.977960439446178 35.233345202703276 0 0 0 0 23.177960909893955 -42.276287979353583 0 -42.276287979353583 -5.2215115126377896 0 0 0 0 19.729841741163614 -23.804312904724597 0 -23.804312904724597 -12.475747057661913 0 0 0 0 37.483335226638246 38.593347926071147 0 38.593347926071147 -31.79585603672308 0 0 0 0 52.627980473891512 -45.205048071421515 0 -45.205048071421515 -55.856278714323707 0 0 0 0 26.973686128407955 -17.123882081966396 0 -17.123882081966396 1.162765655465146 0 0 0 0 31.850575979163295 -44.090442516953772 0 -44.090442516953772 -38.64043033906637 0 0 0 0 26.216520776874795 -13.734741043488498 0 -13.734741043488498 -1.6002648574999889 0 0 0 0 52.467222680749273 -24.188754028949916 0 -24.188754028949916 -94.067455622760463 0 0 0 0 63.870635485301591 -8.4534868541340984 0 -8.4534868541340984 -85.663162409013239 0 0 0 0 758.33108573555091 -510.71206085936728 0 -510.71206085936728 367.97817525569553 0 0 0 0 -3.0854401553839121 -5.3656848991844015 0 -5.3656848991844015 13.008194793078161 0 0 0 0 -47.885804390526118 7.2395438490184461 0 7.2395438490184461 74.179066934339062 0 0 0 0 -69.205459890352813 -32.749835187700228 0 -32.749835187700228 270.45089107972308 0 0 0 0 758.67881877529999 -511.67886356155395 0 -511.67886356155395 328.36302458374121 0 0 0 0 108.26393447731698 -31.932523073104676 0 -31.932523073104676 -39.43836207651475 0 0 0 0 -43.507545343137281 -142.82066564014531 0 -142.82066564014531 604.88554625681718 0 0 0 0 734.55475976390062 -482.09638999574599 0 -482.09638999574599 461.78722275960172 0 0 0 0 643.61385456416474 -413.38413321157714 0 -413.38413321157714 402.54761647625855 0 0 0 0 747.21074579280412 -478.78905006764398 0 -478.78905006764398 300.65687559430808 0 0 0 0 4.7894460869112709 -3.015889121928538 0 -3.015889121928538 -2.89350690381454 0 0 0 0 76.345849179851939 23.255423595190223 0 23.255423595190223 -25.855848313178285 0 0 0 0 -13.678968823937794 0.07679659155473928 0 0.07679659155473928 129.95143288172403 0 0 0 0 119.80931735704416 -67.632835637294193 0 -67.632835637294193 35.888427138343104 0 0 0 0 -12.269380157104933 -86.303467025056307 0 -86.303467025056307 -2.5964803577662678 0 0 0 0 -5.0559721572217313 -68.841155840902502 0 -68.841155840902502 -18.487590995966457 0 0 0 0 -16.455894658137368 -121.63242280345366 0 -121.63242280345366 167.24701971807372 0 0 0 0 262.13947071084476 -167.68099164240266 0 -167.68099164240266 -202.6249779433856 0 0 0 0 12.841929393001919 30.913172122782271 0 30.913172122782271 -134.84636268919257 0 0 0 0 -64.978304197370335 -100.489849713269 0 -100.489849713269 -34.45872478284582 0 0 0 0 1342.8890518124479 -399.29600497713727 0 -399.29600497713727 221.32512838313414 0 0 0 0 623.59051890236606 -370.5419109000868 0 -370.5419109000868 497.03870183389517 0 0 0 0 711.92772831236107 -436.25074926685193 0 -436.25074926685193 397.80778152344283 0 0 0 0 719.17744190844189 -398.90369405114188 0 -398.90369405114188 565.77934560486756 0 0 0 0 831.38373012432248 -225.04426565078029 0 -225.04426565078029 547.3694899064285 0 0 0 0 554.32916240020359 -397.53586511328103 0 -397.53586511328103 478.57991324032628 0 0 0 0 791.8076516835622 -344.81742435840533 0 -344.81742435840533 383.38104388712964 0 0 0 0 376.08061501526663 -140.40891718841158 0 -140.40891718841158 292.76687567402769 0 0 0 0 720.55801891724911 -712.84349555311019 0 -712.84349555311019 468.84938009450707 0 0 0 0 456.08341676013339 -1125.0527396045109 0 -1125.0527396045109 282.94260956127437 0 0 0 0 -157.08170946967942 -395.13639754828728 0 -395.13639754828728 363.93799685954582 0 0 0 0 109.06317984450334 24.749362764145189 0 24.749362764145189 40.301616743667182 0 0 0 0 -277.48552565588807 -29.9506706862594 0 -29.9506706862594 -9.4402081665757578 0 0 0 0 -1.0220659884421446 -1.59496282198897 0 -1.59496282198897 3.6617714577610059 0 0 0 0 1364.6694925031479 -1184.5800977745475 0 -1184.5800977745475 233.08139908792509 0 0 0 0 356.79639269104769 -1184.0109999272427 0 -1184.0109999272427 921.95207091150951 0 0 0 0 -111.44421527600593 -489.42634602265571 0 -489.42634602265571 -34.229687360086245 0 0 0 0 98.407973627899992 -82.90146076860492 0 -82.90146076860492 -148.79100752639351 0 0 0 0 680.91827183673877 -222.93295052595749 0 -222.93295052595749 -122.29117856802623 0 0 0 0 -0.70753787286366787 0.45638770932782791 0 0.45638770932782791 -52.27369352164169 0 0 0 0 36.917500316534642 -93.795757072482957 0 -93.795757072482957 -135.27893497943296 0 0 0 0 60.88547390315307 -46.442149625559068 0 -46.442149625559068 -62.949057449215616 0 0 0 0 -7.5539493407623013 -72.887023703053273 0 -72.887023703053273 -64.037509348463573 0 0 0 0 -37.943714741565827 -49.361413648083726 0 -49.361413648083726 -30.024323746063601 0 0 0 0 -3.0999504862181766 -44.119152216459042 0 -44.119152216459042 -31.129410240035213 0 0 0 0 -15.771096069201121 -61.732573557796059 0 -61.732573557796059 -20.505818450274091 0 0 0 0 4.3577086165669243 -46.108977450912789 0 -46.108977450912789 -9.2565164827828994 0 0 0 0 -9.2928681520919554 -53.051725260406329 0 -53.051725260406329 -5.9867372183362022 0 0 0 0 8.7647069571567044 -61.173751943304524 0 -61.173751943304524 -6.6638831959101026 0 0 0 0 -16.515476665438655 -88.914611072497792 0 -88.914611072497792 0.72991622946301504 0 0 0 0 -5.2000084825026534 -66.15297373350586 0 -66.15297373350586 1.9214675407711184 0 0 0 0 8.8104925358443325 -70.86995955754719 0 -70.86995955754719 -70.287236490396026 0 0 0 0 
</DataArray>
<DataArray type="Float64" Name="cross_section_updated" format="ascii">
1 1 1 1 1 1 0.01031143947863968 1 1 1 0.010644397163504951 1 1 1 0.010826327062487928 1 1 1 1 1 1 0.010260030971589 0.01223162172816855 1 1 1 1 0.0099610328458639291 0.0099858377278811833 1 0.011204198831476385 0.01202531470243088 1 0.010059299119924018 1 1 1 0.0146923578950806 1 1 0.0094197517475684781 1 1 1 1 1 1 1 0.010333169335056258 1 1 1 1 1 1 1 1 0.010426248718399997 1 1 0.0085524526421746679 1 0.010487909715036802 1 0.010230730013464747 1 0.013358747080935245 1 1 1 1 1 1 1 1 1 1 1 1 1 1 1 1 0.0092143295125760756 1 1 1 1 1 1 1 1 0.010005989421589246 1 1 0.010014177580948122 0.010466243762972109 1 1 1 1 1 1 1 1 1 1 1 1 0.010128947997810016 1 1 1 1 1 0.0092270948246366662 1 1 0.0095465980553037771 1 1 1 1 1 1 1 1 1 1 1 1 1 1 1 1 1 1 1 0.0096638443809240263 1 1 1 1 1 0.0099174043992703367 1 1 1 1 1 1 1 1 1 1 1 1 1 1 1 1 1 1 1 1 1 1 1 1 0.0099859919676433227 1 0.014864390241056548 1 1 1 0.014300282982014072 1 1 1 0.015184560946370836 1 1 1 0.0096172463774853046 0.018367702086417786 1 1 0.0071219045265863562 1 1 1 1 0.0080735799088256632 1 1 1 1 1 0.010237188728327776 1 1 1 1 0.009990681395126778 1 0.0083039518333365078 1 1 0.0090265958572447944 1 1 1 0.0099484985251153679 1 1 0.013512160123794165 1 1 1 1 1 1 1 1 1 1 0.0090386187471196925 1 1 0.0099751479418356409 1 1 1 1 1 1 1 0.010463598691550348 1 1 1 1 1 1 1 1 1 1 1 1 1 1 1 1 1 1 1 1 1 0.0032705361711237568 1 0.0037873201116761374 1 1 1 1 1 0.010005230799406467 1 1 1 1 1 1 1 1 0.0072093067663125468 1 1 1 0.012252227060378013 1 1 0.0092380951407517956 1 1 1 1 0.011766545480385126 1 1 0.0085279490984678658 1 1 1 1 1 0.010106516621981251 1 0.0098668784878329155 1 1 1 1 1 1 1 1 1 1 1 1 1 1 1 1 1 1 0.010046835578966721 1 1 1 1 1 0.0072050781975758708 0.0095856810241569286 1 1 1 1 1 1 1 1 1 1 0.0088278249466203201 1 1 1 1 1 1 1 1 1 0.010698122416496585 1 1 0.011251244750140981 0.010000675395805618 1 1 1 0.0099939981666361741 1 1 0.013601282763602958 1 1 1 1 1 1 1 1 1 1 1 1 1 1 1 0.0055220834648564768 1 1 1 1 1 1 1 1 0.0086181152627176436 1 1 0.010047977042471987 1 1 1 1 0.018179699576011253 1 1 1 1 1 1 1 1 1 1 1 1 1 1 0.0068908706237189605 0.012833505481616467 1 1 0.012868744505037374 0.0079672582319456446 1 0.0099336591613897775 1 0.0093096310847763462 1 0.011360938285923244 1 1 0.01090977545804135 1 1 1 1 1 1 1 1 1 0.010514945502386831 0.012187907323644619 1 1 0.010163777515437671 1 1 1 1 1 0.0076527032089726225 1 1 0.0073383671168872362 1 1 1 1 0.0070259356843177627 1 1 1 0.010159780682248848 1 1 1 0.010204884638288817 1 0.0070950363783530597 1 1 0.012130580349628828 1 1 1 1 1 1 1 1 1 1 1 0.010280201982714992 1 1 1 1 1 1 0.010117066187961413 1 1 1 0.009887947916150757 1 1 1 1 1 1 1 0.014772878682561398 1 1 1 1 1 0.0094479614986225056 1 0.011197884978710385 1 1 1 1 1 0.0087471342021950959 0.013021090926839642 1 1 1 0.0099912130116883192 0.015985893274367877 1 0.012184016877477404 1 1 1 1 1 1 1 0.010090127564816365 1 1 1 1 1 1 1 1 1 1 1 1 1 1 0.0099764920972810704 1 1 0.009723045534578199 1 0.010066619662097435 1 1 1 1 1 1 1 1 1 1 1 1 1 1 0.0098660912036129169 1 1 1 1 1 1 1 1 1 1 1 1 1 1 1 1 0.0099414948258350795 1 1 1 1 1 1 1 1 1 1 1 0.010352465072944685 0.011021821907253603 1 1 1 1 1 1 1 1 1 1 1 1 1 1 1 1 0.0077311897833417485 1 1 1 1 1 1 1 0.0072324849391858428 1 1 1 1 1 1 1 1 0.0089762491328684718 1 1 1 0.010058759052785088 1 1 1 1 1 1 1 1 1 1 1 1 1 1 1 1 1 1 1 1 1 1 1 1 1 1 1 1 0.010107648662245165 1 0.010188262173575826 1 1 1 1 1 1 1 1 1 1 1 1 1 0.010092542218661767 1 1 1 0.010000064349624901 1 1 1 1 1 1 1 1 1 1 1 1 1 0.0099615644042581504 0.01040878434751924 1 1 1 1 1 1 1 0.010094221255877842 1 1 1 1 1 1 1 1 1 1 1 0.010170233236849112 1 1 1 1 1 1 1 0.010027031941247865 1 1 1 1 1 1 1 1 1 1 1 1 1 1 1 1 1 0.0098289092437716333 1 1 1 1 1 1 1 1 1 1 0.009758179242994016 1 1 1 1 1 0.0095602286308289364 1 1 1 0.0097102698305048356 1 1 1 1 0.012277634048510925 1 1 1 1 1 1 1 0.0095035423558083726 1 0.010187657134415449 1 1 0.0090783970377304232 1 0.0090482649524900836 1 1 1 1 1 1 1 1 1 1 1 1 1 1 1 1 1 1 1 1 1 1 1 1 1 1 1 1 1 1 1 1 1 1 1 0.010005218118351747 1 0.0068146410378229147 0.010000443503893532 1 1 1 1 1 1 1 1 1 1 1 0.014556144106933202 1 1 1 1 1 1 1 0.015681831899212548 1 0.0096995378548774963 1 0.016290035961138039 1 1 1 1 1 1 0.010456901219413003 1 0.0099082204426699152 0.011370813601928242 1 1 1 1 1 1 1 1 1 1 1 1 1 1 1 1 1 0.0097218105310791902 1 1 1 1 1 1 1 1 1 1 1 1 1 1 0.0099351908185905096 1 1 1 1 1 1 1 1 1 1 1 1 1 0.010695034859700947 1 1 1 1 1 1 1 1 1 0.009102799003734556 1 1 1 1 1 0.012119011694340261 0.010061220801310661 1 1 1 1 0.011343584138405249 0.011503699990721967 1 1 1 1 1 1 1 1 1 1 1 0.0045362478190152846 1 1 1 1 0.005568572109943614 1 1 1 1 1 1 0.013770726000745347 1 1 0.0065930039117115171 1 0.012650734582014692 1 1 1 0.0077470004449268839 1 1 1 1 1 1 1 0.010010624744475449 1 1 1 1 0.012217584737478838 0.0094787905690533417 1 1 0.0099623637820226412 1 1 1 0.010666393347961375 0.014980374081744187 0.0059111011831939116 0.010000227096979305 1 1 0.0087331987151460858 1 1 1 1 1 1 1 1 0.012390044258659565 0.012031418695763466 1 1 1 1 1 1 0.011667076634273174 1 0.012438904619567181 1 1 1 0.0098460101645974994 1 1 1 1 1 1 1 1 1 1 1 1 1 1 1 1 1 1 1 1 1 1 1 1 1 1 1 1 0.0096749194083691308 1 1 1 1 1 1 1 1 1 1 1 1 1 1 1 1 1 1 1 1 1 0.0083672945590365921 1 1 1 1 1 1 1 1 1 0.0097523238780336009 1 1 1 1 1 1 0.0099953319521192789 1 1 1 1 1 0.0086462672732959475 1 1 1 1 1 0.010433052378466005 1 1 1 1 1 1 1 1 1 1 0.010682739826189025 1 1 1 1 0.0097557528072490119 0.012053402511956366 1 1 0.010136261357389492 1 1 1 1 0.0098695321737961444 1 1 0.010550964682990466 1 1 1 1 1 0.0082549534593077088 0.01006542862502996 1 1 1 1 1 1 0.010153426091723547 1 1 1 1 1 1 1 0.012864236507065233 0.010343814616442034 1 1 1 0.011482750699996283 1 1 1 0.012446147304791027 1 1 0.012120013325665785 1 0.013308195904784721 1 1 1 0.0093551110381221401 1 1 0.011417554673931742 0.0099956033264072611 1 1 1 1 1 1 0.01329196279540382 1 0.0056207172998651335 1 0.010167418849710282 1 1 1 0.010105145479042135 0.0099854834946240725 1 0.0094243100737689493 1 1 1 1 1 1 1 1 1 1 1 1 1 1 1 1 0.0098913883370288277 1 1 1 1 1 1 1 0.0085701843763092179 1 1 1 1 1 0.010031760865130267 1 1 1 0.0078739038629448543 1 1 1 1 0.006523045362183422 1 0.010012570781431149 1 0.0064383296560313746 1 1 1 1 0.012843788479487497 1 1 0.0092961253104599621 1 1 1 1 1 1 1 1 1 1 1 0.0097044682678222201 1 1 1 1 0.0095471305953627426 1 1 1 1 0.0089410162278950166 1 1 1 1 1 1 0.0097194950428057692 1 1 1 0.0088565360023840009 1 0.0099980831242798621 0.010176446840715858 1 1 1 1 1 1 1 1 1 1 1 1 1 1 1 1 1 1 1 1 1 1 1 1 1 1 1 1 0.0098167001971107368 1 1 0.0099361279359525684 0.008909960707923454 1 0.0080848166463801802 1 1 1 1 0.0092160961905073738 1 1 0.0097315917657792815 1 1 1 1 1 1 1 1 1 1 1 1 1 1 1 1 1 1 1 1 1 1 1 1 1 1 1 1 0.010189123627895015 1 1 1 1 1 1 1 1 0.0096917798556174512 1 1 1 1 1 1 1 0.0091055650316907294 1 0.010048094078460596 1 1 1 0.010118175613351739 1 1 1 1 1 1 1 0.010080879191303961 1 0.010094783212200134 1 1 1 1 1 0.010118302901430561 1 1 1 1 1 1 1 1 1 1 1 1 1 1 1 1 1 1 1 1 1 1 1 1 1 1 1 1 1 1 1 1 1 1 1 1 1 1 1 0.0096493638225924622 0.0084235911481134376 1 1 0.0088028947583198604 1 1 1 0.010738764299665081 1 1 1 0.010075380369436917 0.010000257127177866 1 1 0.0097852487855897893 1 1 1 1 1 1 1 1 1 1 1 1 1 1 1 1 1 1 1 1 1 0.011342406573162062 1 0.010456598234790193 1 1 1 1 1 1 1 1 1 1 1 1 1 1 1 1 1 1 1 1 1 1 1 1 1 1 1 1 1 1 1 1 1 1 1 1 1 1 1 1 1 1 1 1 1 0.010353550021253457 1 0.013213100571739711 1 0.010979944524372518 1 1 0.012534482081226732 1 1 1 1 1 1 1 1 1 1 1 1 1 1 1 1 1 1 1 1 1 1 1 1 1 1 1 0.009693686653700585 1 1 1 1 1 1 1 1 1 1 1 1 1 1 1 1 1 1 1 1 1 1 1 1 1 1 1 1 1 1 1 1 1 1 1 1 1 1 1 1 1 1 1 1 1 1 1 1 1 0.010091248517605077 1 1 1 1 0.010246785106180415 1 1 1 1 1 1 1 1 0.0090589897688949164 1 1 1 1 1 0.011091146828120114 0.0098870634569347068 0.010566475453125836 1 1 1 1 0.01182373640309931 0.0098117950656016681 1 1 0.0097947913522976292 1 1 1 1 1 1 1 1 1 1 1 1 1 1 0.0088034477515434792 0.010015594871566315 1 0.0099512764668554139 1 1 1 1 1 1 1 1 1 1 1 1 1 1 1 1 1 1 0.0095066221401380793 1 1 1 1 1 1 0.0085150687712937934 1 1 1 1 1 1 1 1 1 1 1 1 1 1 1 1 1 1 0.010419771181767842 1 1 1 1 1 1 1 1 1 0.011228724692916196 1 1 0.0099734556407376114 1 1 1 1 1 1 1 1 1 1 1 1 1 1 1 1 0.011555587707194644 1 0.0087224396175655024 1 1 1 1 0.0088984182454105894 1 0.0082095387286630801 1 1 0.010280874887787098 0.012537438352461669 1 1 0.012345439138535502 1 1 1 0.010078971426227641 1 1 1 1 1 1 0.010007011007022977 1 1 1 0.014284074234378132 1 1 1 1 0.007511192741529722 1 1 1 1 1 1 1 0.01055079866622338 1 1 1 1 1 0.011564320932157699 1 1 0.010155227889745893 1 1 1 1 1 1 1 0.0098902069057978381 1 1 1 0.0094556844765631178 0.010308584099959378 1 1 1 0.0062493814642432142 1 1 1 1 1 0.0099940394020525541 0.0085322755826006402 0.0082189100093941741 1 1 1 1 1 1 1 1 1 0.0090699012233974394 0.0097180183451351133 1 0.011059198597773904 1 1 1 1 1 0.0099014574595009536 1 1 0.0095755742135979205 1 0.0097715970625659992 1 1 1 0.010857393984005998 1 1 0.010950825063733212 1 1 1 1 1 1 1 0.0090309927820088048 1 1 0.0078508067944196187 0.0092501120456380901 1 1 0.009825353738934034 1 0.0095946349470543944 1 1 0.010067573387205953 1 1 0.0091059734283856428 1 0.010138691949514521 1 1 1 0.010062939130540325 1 1 0.010593149596002539 1 0.011972204661700299 1 1 0.010173494877787653 1 0.010225103070270677 1 1 1 1 0.012538885189281772 0.011000499550036492 1 1 1 1 1 1 1 1 1 0.010152694985406947 1 1 1 1 1 1 1 1 1 1 1 1 1 1 1 1 1 1 0.0100018213998334 0.013719900393443478 1 1 1 0.0069928496687760968 1 1 1 1 0.0067698376106368908 1 1 0.012091205269112924 1 1 1 0.011465373860491786 1 1 0.011260002571484856 1 1 1 1 0.0099946230007678018 1 1 1 1 1 0.0099320378228038349 1 1 1 0.0098883113973935715 0.0099985479712737298 1 1 0.010027126221370813 1 1 1 1 1 0.0082100568314453209 0.0089579094940161891 1 1 1 1 0.0086192272812800445 1 1 1 1 0.0077287802092058586 1 1 1 1 1 1 1 1 1 1 1 1 1 1 1 1 1 1 1 1 1 1 1 1 1 1 1 1 0.0073307166504322022 1 1 1 1 1 1 1 1 1 1 1 0.014452789515963106 1 1 1 1 0.010555763085923365 1 1 1 0.013938831868393954 1 1 0.0099976249709670673 1 1 1 1 1 0.0096841852684591383 1 1 1 1 1 1 1 1 1 1 1 1 1 1 1 1 1 1 1 1 0.011679296217911399 1 1 1 1 1 0.012765862893936145 1 1 1 1 1 1 1 0.010133212841299758 1 1 1 1 1 1 1 1 1 1 1 1 1 0.010036656969833871 1 1 1 1 1 0.010349081197271754 0.010213430613082088 1 1 1 1 0.011518573839529245 1 0.0099966339995864392 1 1 1 0.0093913392865551983 0.006666682815343947 1 1 0.002485730990928448 1 1 1 0.0036675612125821699 1 1 1 1 0.0070341211572280196 1 1 0.0097107532204311724 0.0099029769086092217 1 1 1 1 1 1 0.011703346726204135 1 1 0.0099995035127863705 1 1 1 1 0.010304108125195104 1 1 1 1 1 1 1 1 1 1 1 1 1 1 1 1 1 1 1 0.0070113128830030002 1 0.010147636933056836 1 1 1 0.0099181839255229089 1 0.0093261902603568592 1 0.008567666813634963 1 1 0.0074760248808734935 1 1 0.0071362442926616518 0.0081643690110798049 0.010888074013334484 1 1 1 0.007956002733399279 1 1 1 1 1 1 0.01059297246975853 1 1 1 1 1 1 1 0.010418987119181046 1 0.0098507163949111756 1 1 1 1 1 1 1 0.010021210661853028 1 1 1 1 1 1 1 1 1 1 1 0.010179631141936395 1 1 0.010206628693887561 1 1 1 1 1 1 1 1 1 1 1 1 1 1 1 1 0.0095464720542405533 1 1 1 1 1 1 1 1 1 1 1 1 1 1 1 1 1 1 1 1 1 0.010372909148685983 1 1 1 0.010214488668602618 1 1 1 1 1 1 1 1 1 1 0.010178098328584687 1 1 1 1 1 1 1 1 1 1 0.010534954257478572 1 1 1 1 1 1 0.0089323750231385356 1 1 1 0.0070431939987830559 1 1 1 1 1 1 1 1 1 1 1 1 1 1 1 1 1 1 1 1 1 0.009638362243635408 1 1 1 1 1 0.0048418384804071249 1 1 0.0092760008269489984 1 1 1 1 1 1 0.0089163557026968182 1 1 1 1 0.0094105812633061767 1 1 1 1 1 1 1 1 1 1 1 1 1 1 1 1 1 1 0.0095427128508261821 1 1 1 1 1 0.0058248578092665038 1 1 1 0.0041522629009822579 1 0.0072612065129380593 1 1 1 1 1 1 1 0.0049067155050861299 1 1 1 0.0052858340305851452 0.0040489893123435965 1 1 1 1 1 0.010303522244808492 1 1 1 0.010822363602854329 1 1 1 1 1 1 1 1 1 1 1 1 1 1 1 0.0091621567778074793 1 1 1 1 1 1 0.0097263594865037994 1 1 1 1 1 1 1 1 1 1 1 0.0098350195562999024 1 1 1 1 1 1 1 1 1 0.012955665850704706 1 1 1 1 0.0067798772757780186 0.013171650628948687 1 1 1 1 1 1 1 1 0.00068454112941901835 0.012332787861203193 1 6.9388939039072284e-18 1 1 1 1 1 0.010338899010143784 1 1 1 1 1 1 0.0086164463879909552 1 0.010093954170204041 1 1 1 1 1 1 1 1 1 1 0.0093278207618328318 1 1 1 1 1 1 0.010119006846297188 1 1 1 1 1 1 1 1 0.0095466273171573562 1 1 1 1 1 0.013546248957029255 1 1 0.012313070035080226 1 1 1 1 1 1 0.0094056926695733224 1 1 1 1 1 1 1 1 0.0085742092816102553 1 1 1 1 0.0082208005729834562 1 1 1 1 1 1 1 1 1 1 0.0084704591281692474 1 1 1 1 1 1 1 1 1 0.0080268043087513598 1 1 1 1 0.0077794449891487481 1 1 1 1 1 1 1 1 0.0099217905628892263 1 0.008674273142222029 1 1 1 0.010137220330831115 1 1 1 1 1 1 1 1 0.011174355379536968 1 1 1 0.011062133553620755 1 1 1 0.010254882832168966 1 1 0.010002018352418242 1 1 1 1 1 1 1 1 1 1 1 1 1 1 1 1 1 1 1 1 1 1 1 1 1 1 1 1 1 1 1 1 1 1 1 1 1 1 1 1 1 1 1 1 1 1 1 1 1 1 1 1 1 0.0099508638361026427 1 1 1 0.0094815745987354011 1 1 1 1 1 1 0.010013549697284258 1 0.01010860912686351 1 1 1 1 0.0094191248816373804 0.0098895141525705259 1 1 1 1 1 1 1 1 1 1 1 1 1 1 1 1 1 1 1 1 1 1 0.0074257171250433707 1 1 0.0078182122920016552 1 1 1 0.0099656181511694787 1 1 1 1 1 1 1 1 1 1 1 1 1 1 0.0095652463124567422 1 0.0096922934983170173 1 0.011140587212988252 1 1 1 1 1 1 1 1 1 1 1 1 1 1 1 1 1 0.0097067683754722359 1 1 1 1 1 1 1 1 1 1 1 1 1 1 1 1 1 1 1 1 1 1 1 1 1 1 1 1 1 1 1 1 1 0.0099136417037063336 1 1 1 1 1 1 0.010854121070683615 1 1 0.0085809116116603024 1 0.010039884947433377 1 1 0.010207541268247534 1 1 1 0.0090756331613764101 1 1 1 1 1 1 1 1 1 1 1 1 1 1 1 1 1 1 1 1 1 1 1 1 1 0.0101092467996792 1 1 1 1 0.010194081469333038 1 1 0.010085196971190848 1 1 1 1 1 1 1 1 1 1 1 1 1 1 1 1 1 1 1 1 1 1 1 1 1 1 1 1 1 1 0.0097668724965886047 1 1 1 0.0098651725705974948 1 1 1 1 0.0094455366927762834 1 1 1 1 1 0.0092976340964681364 1 1 1 1 0.012566448756352568 1 1 1 1 1 1 1 1 1 1 1 1 1 1 0.009757710206841878 0.0093190576813346193 1 0.015021903344472573 1 0.013756931341957646 1 1 1 1 1 1 1 1 1 1 1 1 1 1 1 1 1 1 1 1 1 1 1 1 1 0.010154393155894312 0.011427313132695766 1 1 0.0071068697495262189 1 1 0.011866338867507358 1 1 1 1 1 1 1 1 1 1 1 0.011103004429594349 1 1 0.010360581412727575 1 1 1 1 1 1 1 1 1 1 1 1 1 1 0.0070162415504419449 0.010017371759420475 1 0.010634281619568295 0.0098142740709310419 1 1 1 1 0.0099843243623588974 1 1 1 0.0068915795756393497 0.012233712526049066 1 1 1 1 1 1 1 0.0099364016817318525 1 1 1 1 1 1 1 1 1 1 1 1 1 1 1 1 0.008244096642104062 1 1 1 1 0.0074804233031923531 1 1 1 1 1 1 1 0.011420329466302032 1 1 1 1 1 1 1 0.010771463338419253 1 1 0.010257828057779916 1 1 1 1 1 1 1 1 1 1 1 1 1 1 1 0.010150761925202836 1 1 1 1 1 1 1 1 0.010031850753887309 1 1 1 1 1 1 1 0.0099629129632972276 1 1 1 1 1 0.0099864120863394287 1 1 1 1 0.0097645643694747389 1 1 1 1 1 1 1 1 1 1 1 1 0.009337352982831117 1 1 1 1 1 1 1 1 1 1 1 1 1 1 0.010572481915502044 1 1 1 1 1 1 1 1 1 1 1 1 1 0.0098072091632657177 0.0099991234735068817 1 1 0.011563235257793784 1 1 1 1 0.011580071544141516 1 1 1 0.012006267522952335 1 1 0.0097247200046032579 1 1 1 1 0.012637575875142379 1 1 1 1 1 1 1 1 1 1 1 1 1 1 1 1 1 1 1 1 1 1 1 1 1 1 1 1 1 1 1 1 1 1 0.0099758260903339176 1 1 1 0.0096236515092019449 1 0.0098590871397271924 1 1 1 1 1 1 1 1 1 1 1 1 1 1 0.01029759523227447 1 1 1 1 1 1 1 1 0.0087023051473531302 1 1 1 0.010146833307071624 1 1 1 1 1 1 1 0.0091679578393779257 1 0.0089405108539332215 1 1 1 1 1 1 1 1 1 1 1 1 1 1 0.010368285988344488 1 1 0.010165836254578571 1 1 1 1 1 1 1 0.0088978535535716649 1 1 1 1 1 1 1 1 1 1 1 1 1 1 1 1 1 1 1 1 1 1 1 1 1 1 1 0.0097931433961301502 1 1 0.0088329544680329081 1 1 1 0.0092542574307191965 1 1 0.0093467936396656771 1 1 1 1 1 1 1 1 1 1 1 1 1 1 1 1 1 1 1 0.010235959354819 1 1 1 1 1 1 1 1 1 1 1 1 1 0.010033509621053083 1 1 1 1 1 1 1 1 1 1 1 1 1 1 1 1 1 1 1 0.0099611578232391487 1 1 1 1 1 1 1 1 1 1 1 1 1 1 1 1 0.010207718320869381 1 1 0.0099178969424173445 1 1 1 0.011553796908988985 1 1 0.0097265522124425491 1 1 1 1 1 1 1 1 1 1 1 1 1 1 0.0098291730199510062 1 1 0.0096405807431568513 1 1 1 1 1 1 1 1 1 1 1 1 1 1 1 1 1 1 1 1 1 1 1 1 1 1 1 1 1 1 1 1 1 1 1 1 0.015735731626222195 1 1 1 1 0.015050380881713009 1 1 1 1 1 1 1 1 1 1 1 1 1 1 1 0.012543062449239551 1 0.01356212420890187 0.012681730310395295 1 1 0.012821772377835801 1 0.012490239634653719 1 1 1 1 1 1 1 1 0.0033930540371530774 1 1 0.009741800340388504 1 1 1 1 0.0053790258869927622 0.011972970146124466 1 0.012439386665532999 1 1 1 1 1 1 1 1 1 1 1 1 1 1 1 1 1 1 1 1 1 0.010055349876929506 1 1 1 1 1 1 1 1 1 1 1 1 1 1 1 1 1 1 1 1 1 1 1 1 1 0.008615796118947661 1 1 1 1 1 0.0088829176221946124 1 1 1 1 1 1 1 1 1 0.0080484044848886174 1 1 1 1 1 1 1 1 1 1 1 1 1 1 1 1 1 0.0050119715326074777 0.0092923624421493243 1 1 0.0066661543080085272 1 1 1 0.0093140216166311702 1 1 1 1 1 1 1 1 1 1 0.0087464637867649634 1 1 0.00994986830876597 1 0.011148925434385979 1 1 1 1 0.010313781885670866 1 1 1 0.0092657782479242459 1 1 1 1 1 1 0.0099254333640083677 1 1 1 1 1 1 0.0099260066348588125 1 1 1 1 1 1 1 1 1 1 1 1 1 1 0.0097277819200154488 1 1 0.0094491152924000184 1 1 1 0.010127044698985718 0.010059148465490494 1 1 1 1 1 1 1 1 1 1 0.0089309134059710159 1 1 1 0.0086225823331716207 1 1 1 1 0.0097400796665219475 1 1 1 1 1 1 1 1 0.012821790875436584 1 1 1 1 1 0.011396011990350631 0.0095341587353101366 1 1 1 0.014134679505598385 1 0.0099434820683470034 0.009973871056153806 1 1 1 1 1 0.009275360177637729 1 1 1 1 1 1 0.010095031111450044 1 1 1 1 1 1 1 0.009520246756781774 1 1 0.0096854702960317927 1 1 0.01002713487795482 1 1 1 1 1 1 1 1 1 1 1 1 1 1 0.0098248486680200947 1 1 1 0.010000355368816684 1 1 0.0091209620183918989 1 1 1 1 0.010002382416869392 1 1 1 1 1 1 1 1 0.0093198957809373859 1 1 1 1 0.012947658353933243 1 1 1 1 1 1 1 1 0.013390860743308114 1 1 1 1 1 1 1 1 1 0.0095742248618180207 1 1 1 0.0088851352019678632 1 1 0.0090976497211827587 1 1 0.0087326583134732794 1 1 1 1 1 1 1 1 1 0.0095785351107718873 1 1 1 1 1 1 1 1 1 1 1 1 1 1 1 1 0.0098929735188303704 1 1 1 1 1 1 1 1 1 1 1 1 1 1 1 1 1 1 1 1 1 1 1 1 1 1 0.0019844322725869178 1 0.0027762076268371249 1 1 1 1 1 1 1 1 1 1 0.00082760930438884571 1 1 0.0097270867069745651 1 1 1 1 1 1 1 1 1 1 1 1 1 1 1 1 1 1 1 1 1 0.0098911541317635923 1 1 1 1 1 1 1 1 1 0.014715444773815608 1 0.0098494796490165952 1 1 1 1 1 1 1 0.0088762103870712369 1 0.0092710044621592026 1 1 1 1 1 1 1 1 1 1 1 0.008331206217174765 1 1 1 1 0.0099939956488770704 1 0.010797008310423409 1 1 1 1 1 1 0.0087922864702345525 1 1 0.015934991376108723 1 1 0.017005007920916405 1 1 1 0.008544525434796257 0.0029403143947996377 0.0041975249414945223 1 1 1 1 1 1 1 1 1 1 1 1 1 0.010288558550901421 1 1 1 1 1 1 1 0.01185012628414127 1 0.010753624063787621 1 0.00869582665335626 1 1 0.0086848278987054928 0.0099904912076936511 1 1 1 1 1 1 0.0094422801807308235 1 1 1 1 0.0099315642622368437 1 0.010215518514863119 1 0.009799574860586014 1 0.010810896936753472 1 1 1 1 0.012790880814339049 1 1 1 1 1 0.01100256926989459 1 1 1 1 1 1 1 1 1 1 1 1 1 1 0.010100144133536696 1 1 1 1 1 0.010116442933293555 1 1 1 0.010365995367749138 1 1 1 1 1 1 1 1 1 1 1 1 1 1 1 1 1 0.0068028169796646495 1 1 1 1 0.0080442920322166336 1 1 1 1 1 1 0.0099796979507960938 1 1 1 1 1 1 1 1 1 1 0.010661241677593978 1 1 0.009620367396382468 1 0.010021590452628067 1 1 1 1 1 1 1 1 1 1 1 0.0094327632930516249 1 1 1 1 1 1 0.010051683092246785 1 0.0086056995021726521 0.010215497607405652 1 0.0096017866211708953 1 1 1 1 1 1 1 0.0095025560154147586 1 1 1 1 1 1 1 1 1 1 1 1 1 1 1 1 0.0098539827612402937 1 1 1 1 1 1 1 1 1 1 0.0098823687649948738 1 1 1 1 1 1 1 1 1 1 0.0096466230345802779 1 1 1 1 0.0097641279189706644 1 1 1 1 1 0.0078677030774781803 1 1 1 1 0.0092817313023807538 1 1 1 1 1 1 1 1 1 1 1 1 1 1 1 1 1 1 0.0064605758304570188 1 1 1 1 1 1 1 1 0.0088217622534455219 1 0.0089641402857757822 0.010001921736569793 1 1 1 1 1 0.010291312468647869 1 1 1 1 1 1 1 1 1 1 1 1 1 1 0.0099825918162216067 1 1 0.010197574380989869 1 0.0096123163398083612 0.0091511424642738114 1 1 1 1 1 1 0.010379103906206805 1 1 1 1 0.010039248859996075 1 0.010022446178451492 1 1 0.0085675103251071916 1 1 1 1 1 1 0.0099762645961954527 0.011035569919964816 1 1 1 1 1 1 1 1 1 1 1 1 1 1 1 0.010215485613347161 1 1 1 1 1 1 1 0.0098811588046385252 1 0.0090598588486843837 1 1 1 0.0096245097357557305 1 0.0088547858813858328 1 1 1 1 1 1 1 1 0.010070273050556668 1 1 1 1 1 0.0090206884441157535 1 0.013128810894822061 1 1 1 1 0.012086758123464996 1 1 1 1 1 0.010761700569435463 1 1 1 1 1 1 1 1 1 1 1 1 1 1 1 1 1 1 1 1 1 1 1 1 0.0032542425573769849 1 1 1 0.012264828906772361 1 0.0035671406320643105 1 1 1 0.010361319424952956 1 1 1 1 1 1 1 1 1 1 1 1 1 1 1 1 1 0.009583737658855597 0.01012875443197324 0.0093058290586130864 0.010349294614134879 1 1 1 1 1 1 0.010059359263963275 1 1 1 0.010224501125930744 1 1 1 1 1 1 1 1 1 1 0.0081768374086682496 0.010921224951057915 0.010044680498120883 1 1 0.0067570309315826207 0.0099551474732255153 1 1 1 1 1 1 1 1 1 0.011091971801424391 1 1 1 1 1 1 1 1 0.012476801352357765 0.0094431304769300641 1 1 1 0.010037328826969005 1 1 1 1 1 1 1 1 1 1 1 0.01177843633819022 1 0.010147034416924376 1 1 1 1 1 0.0099855789951712425 0.0069219256352232444 1 1 0.0076694552527854154 0.011546805228753539 1 1 1 1 1 1 1 1 1 1 1 1 1 1 1 1 1 1 1 1 1 1 1 1 1 1 1 1 1 1 1 1 1 1 1 1 1 1 1 1 1 1 0.012642180950752879 0.010324427576377878 1 1 1 1 1 1 1 1 1 1 1 1 1 1 1 1 1 1 1 1 0.010547003046799952 1 1 1 1 1 1 1 1 1 1 1 1 1 1 1 1 0.0099409943950203774 1 0.010350326467792294 1 1 1 1 1 1 1 1 0.01171799054490651 1 1 1 1 1 1 1 1 1 1 1 0.0099961266180516352 1 1 0.0096919663864185289 1 1 0.011725952009785467 1 1 1 1 0.0087841936863616767 1 1 1 1 0.010008767159435331 1 1 0.0097733678600849146 1 0.010969009075666534 1 1 1 1 1 0.011100891692541805 1 1 1 1 1 1 1 0.010371280161200652 1 1 1 1 1 1 1 1 1 1 1 1 1 1 1 1 1 1 1 1 1 1 1 1 0.0085112120325508203 1 1 1 0.0098823137831525951 1 1 0.0077970394942551945 1 1 1 0.0082852850092173906 1 1 1 1 0.0079162322222485915 1 0.007201978039229907 1 1 1 1 1 1 1 1 0.0097906009376865031 1 1 1 1 1 1 1 1 1 1 0.014285311382904757 1 1 0.010014286520953191 1 1 0.0120359357644601 1 1 0.012982924181092649 0.0079756409898823419 1 1 1 1 1 1 1 0.0073761345562699705 0.0073577298926944005 1 1 1 0.010485685042405532 1 1 0.010288290472938142 0.010039372237531581 1 1 1 0.0090465967870756551 0.0090149305530904736 1 0.010659188164402599 1 1 0.010000388714317243 1 1 1 1 0.0090830340271636952 1 0.010801698463294951 0.011503524928582701 1 1 1 0.010427285863419334 1 0.0096958066181570182 0.010596361310659922 1 0.0084224327521300255 0.0098672227761180033 0.0088961627874001165 0.0090019953854022974 1 0.0093768712368174998 1 0.010404686781482771 1 0.0095769458752159066 1 1 1 0.0091998794388159656 1 1 0.010644026787621892 1 0.0096172136821340137 0.010314345678370392 1 1 1 1 0.010447038522717694 1 0.0081606394651767295 0.010521929164357334 1 1 1 0.0088427251406347097 0.010285393505449228 1 1 0.0098317146607189067 0.010258758156812436 1 1 1 1 0.0099851379668618508 1 1 1 1 0.009969343111676604 1 1 1 1 0.0099276814042998877 1 0.010024408388112598 1 0.0092196838268000965 1 0.0093496738358903302 1 0.0099638246064588428 1 0.0099993295530167343 1 1 1 1 1 0.0098870786579910944 1 1 0.0092139747470090187 0.010039923551474986 0.010242402824433483 1 1 0.010048480381866464 0.0094859840453170915 1 0.0097757976491909242 1 1 0.010245276813607094 1 1 1 1 1 1 0.0099134232166895354 1 1 0.0096012708431092685 1 0.0099714185890517198 1 1 1 1 0.009911814472330676 1 0.010023938585177569 1 0.010010621610124247 1 1 1 0.0095472904861367489 1 1 0.010009707871082194 1 0.008895012011484571 1 0.010145373751159497 1 1 1 1 1 0.0093400883571796572 1 1 1 1 1 1 1 1 1 1 0.0087895490941220112 1 1 1 1 0.0097867591921902142 1 1 0.010052824030400753 1 1 1 1 1 0.0096798002062403569 1 1 0.009498456031217942 1 1 1 0.0095178965440963579 1 0.010118894250211792 1 1 1 0.0093471039664888272 1 1 1 1 0.012987328452870687 1 1 1 1 0.011924497199688839 0.0098349094910171637 1 1 1 1 1 1 0.0094230616407968287 1 1 0.0084817846692026126 1 1 1 1 1 1 1 1 1 1 1 1 1 1 1 1 1 1 1 1 1 1 1 1 1 1 1 1 1 1 1 1 1 1 1 1 1 1 1 1 1 1 1 1 1 1 1 1 1 1 1 1 1 1 1 1 1 1 0.014301120744267126 1 1 1 1 1 1 1 1 1 1 1 1 0.0099865511752882646 1 1 0.013490143927327938 1 1 1 0.010305167999533803 1 1 1 1 1 1 1 1 1 1 1 1 1 1 1 0.0095421830682703296 1 1 1 1 1 1 1 1 1 1 1 1 1 1 1 1 0.0093476327152142817 1 1 1 1 1 1 1 1 1 1 1 1 1 0.010743723148460218 1 1 0.010006438718957546 1 1 0.0094367498707828741 1 0.010046107039218823 1 1 1 1 1 1 1 0.0035546998584682623 1 1 1 1 1 1 1 1 1 1 1 1 0.0098536545815206995 1 1 1 0.0099288653391272699 1 1 1 1 1 1 1 1 1 0.0096072833624698435 1 1 1 1 1 1 0.0053355159623126079 1 1 1 1 1 1 0.004595215900153945 1 1 1 0.010439797840636738 1 1 1 1 1 1 1 0.011407731690786736 1 1 1 1 1 1 1 1 1 1 0.0060935926922858772 1 1 1 1 1 1 1 1 1 1 1 1 1 1 1 1 0.0094326900277243806 1 0.0099893167837514334 1 1 1 1 1 1 1 1 1 1 0.012490653690030797 1 0.012045192177058912 1 1 1 1 1 1 1 1 1 1 1 0.0063488658300276607 1 1 1 1 1 1 1 1 1 1 1 0.0063196602489838235 1 1 1 1 1 1 1 0.0094497464124711668 1 1 1 1 1 1 1 0.0098276226427257782 1 1 1 1 1 1 1 1 1 1 1 0.010861434336424598 1 1 1 1 1 1 1 1 0.006499604473235783 1 0.012501892879827548 1 1 1 1 1 1 1 1 1 1 0.01007151549237474 1 1 1 0.010151705544827907 1 1 1 1 1 1 1 1 1 0.012415949704830427 1 1 1 1 1 1 1 1 1 1 1 1 1 1 1 1 0.0098334648980901058 1 1 1 1 1 1 1 1 1 1 1 1 1 1 1 1 1 1 0.0092760950750226199 1 1 0.0082261228856012579 1 1 0.009943722153547269 1 1 1 1 1 0.01013968597769419 1 1 1 1 1 1 1 1 1 1 1 1 1 1 1 1 1 1 1 1 1 1 1 1 1 1 1 1 1 1 1 1 1 1 1 1 1 1 1 1 1 1 1 1 1 1 1 1 1 1 1 1 1 1 1 1 1 1 1 0.0098842262283062414 1 1 0.0094331202861747711 1 1 1 1 1 1 1 1 1 1 1 1 1 1 1 1 1 1 1 1 1 1 1 1 0.0099988775589730881 0.010404349307050264 1 1 1 1 1 1 1 1 1 1 1 1 1 1 1 1 0.0099020659203310334 0.011475586149729104 1 1 1 1 1 1 1 0.010791907598417092 1 0.0084329395241224212 1 1 0.0084306942379184045 0.0099892050392686779 1 1 1 1 1 1 1 1 1 1 1 0.010012038853129027 1 0.0056036984177926441 1 1 1 0.0068128609201463025 1 1 1 0.012518500138925831 1 0.012332302000680233 1 1 1 1 1 0.012185427620934153 0.011653795952879705 1 1 1 1 1 1 1 1 1 1 1 1 1 1 1 1 1 1 1 1 1 1 1 1 1 1 1 1 1 1 1 1 1 1 1 1 1 1 1 1 1 1 1 1 1 1 1 1 1 1 1 1 1 1 1 1 1 1 1 1 1 1 1 1 1 1 1 1 1 1 1 1 1 1 1 1 1 1 1 1 1 1 1 1 1 1 1 1 1 1 1 1 1 1 1 1 1 1 1 1 1 1 1 1 0.011129259054396982 0.0091588236439117069 1 0.013324351374467802 1 0.010000928352713954 1 1 0.010403230094680086 1 1 1 1 0.0099942400321058333 1 1 1 1 1 1 1 0.014168131667692433 0.010079422819299307 0.010237852879512658 1 1 1 1 1 0.014286215161218037 0.010808068923714324 1 1 1 1 1 1 1 1 1 1 1 1 1 1 1 1 1 1 1 1 1 1 1 1 1 1 1 1 1 1 1 1 1 1 0.0086381242531191858 1 1 0.0095069041186256666 1 1 1 1 1 1 1 1 1 1 1 0.0099423407293278733 1 1 1 1 1 1 1 0.009892748238379611 1 1 1 1 1 1 1 1 1 1 1 1 1 1 1 1 0.013341382152315038 1 1 0.0073458273674503159 1 1 1 1 1 1 1 1 1 1 1 1 1 1 1 1 1 1 1 1 1 1 1 0.010073922291993309 1 1 0.009761798915001561 1 1 0.0099367160755154307 1 1 1 1 1 1 1 0.0098871235845671701 1 1 1 1 1 1 0.0099812701889506559 1 1 0.0099579727500244825 1 1 1 1 0.010154738526383758 1 0.01008086619125107 1 1 0.014220535243020428 1 1 1 1 0.0098779286931703798 1 0.014833793006705233 1 1 0.015154552759034988 1 1 1 1 1 1 1 1 1 1 1 1 0.0079438141475211381 1 1 1 0.014890698627136632 1 1 0.014424025804828225 1 1 1 1 0.0099943267631855924 1 1 1 1 1 1 1 1 1 1 0.0099559592674139333 1 1 1 1 1 1 1 1 1 1 0.010526125977167776 1 1 1 1 1 1 1 1 1 1 1 1 0.011005492587104117 1 1 0.010005874200427787 1 1 1 1 1 1 1 1 1 1 0.010563142278644655 1 1 1 1 1 0.010293705474644374 1 0.010062795033396419 0.010620424593144311 1 1 0.010462641793057507 1 1 1 1 1 1 1 1 1 0.010063362848919502 0.01046832642253305 1 1 1 1 1 1 0.0099799607377875701 1 1 1 1 1 1 1 1 1 1 1 1 1 1 1 1 1 1 1 1 1 1 1 1 1 0.010092533653956553 1 1 1 1 1 1 1 1 1 1 1 1 1 1 1 1 1 1 1 1 1 1 1 1 1 1 1 1 1 1 1 1 1 1 1 1 1 1 1 1 0.010558417158591045 1 1 1 1 1 1 1 1 1 1 0.010209496508849201 1 1 1 0.010530494780191265 1 0.01058089432401876 1 1 1 0.0098560966545211594 1 1 1 0.010004203742931525 1 0.011373489125387 1 0.011168363271918594 1 0.011024156145235657 0.009631741039961568 1 1 0.008925235690663693 1 1 1 0.0098714578073041577 1 1 1 1 1 0.0099544176797556529 1 1 1 1 0.0090962598883645683 1 1 1 0.0088085909476813256 1 1 1 1 0.00793852206696718 1 0.010024202116543542 1 1 1 1 1 1 1 1 1 1 1 1 1 1 0.010020003267577592 1 1 1 1 0.012271045416996746 1 1 0.01144294591273801 1 1 0.0087278009798671344 0.010015431751855835 1 1 0.010322586532754233 1 0.010874051044325782 1 1 1 0.0086398234934806709 0.0091255017923327977 0.011220440333116515 0.0086567112244705698 1 1 0.010008701204658957 1 1 1 1 0.0098934342012732684 1 0.011061382249601988 1 1 0.0092895879046352211 0.011703859401576786 0.010057138550132409 1 0.01198551628244226 1 1 0.0089856766238218897 0.012458035805424809 0.012297317638735678 1 1 1 1 1 1 1 1 1 0.0076928644273486901 0.0085661744318354695 1 1 1 1 0.0084087027680305182 0.0086479172751265689 1 1 1 0.014066962770497755 1 0.014147747626976171 1 1 1 1 1 1 1 1 1 1 1 0.01388945358055017 1 1 1 1 1 1 1 1 1 1 1 1 1 1 1 1 1 1 1 1 1 1 1 0.0095808311451496316 1 1 1 1 1 1 1 1 1 1 1 1 1 1 1 1 0.013148299842887448 1 1 0.0088403826882997652 1 1 1 1 1 1 1 1 1 0.011199762854065605 1 1 1 0.0089126116533556309 0.011989104765899723 1 1 0.010005746202160602 1 1 1 1 1 0.011060888420009192 1 0.010166362854849497 1 1 1 0.010133405960306489 1 1 1 1 1 1 1 0.012343760154658975 1 1 0.010124126757170285 1 1 1 1 0.013607422644445649 1 1 1 0.010180234419243931 0.0099893438840906769 1 1 0.0090781685537881414 1 1 1 0.013252221718845037 1 1 1 1 1 1 1 0.012345161610276332 1 1 0.015611053358368735 1 0.0098671894267009282 0.0098263214525139662 0.012790884718808824 1 0.0094294957613775855 1 0.012295373099501539 0.013839421523898778 1 1 1 1 1 1 0.013232106574791892 1 1 0.013284115421656232 1 1 1 1 1 1 1 1 1 1 1 1 1 1 1 1 1 1 1 1 1 1 1 1 1 1 1 1 1 1 1 1 1 1 1 0.0099299931671269007 0.007640636671551293 1 1 1 1 1 1 1 1 0.0085819221886148586 0.010907610564838525 0.010312517130357697 0.0079256738722777512 1 1 0.0088193068665445105 1 1 1 1 1 1 1 1 0.0090160736292389226 1 1 0.010090309575336383 1 1 1 0.010207673831672686 1 1 1 1 0.01033969017122513 1 1 1 1 1 1 1 1 1 1 1 1 1 1 0.0058074446125299523 1 1 1 1 1 0.0098829500619224131 1 1 1 1 1 1 1 1 0.01080402983655295 1 1 1 0.010535426965835551 0.0087002139678192154 1 1 0.010195583800197907 0.010893938133141325 1 1 1 1 1 0.010240215792757022 1 1 1 1 1 1 0.0099008326646816552 1 0.0084511394483277706 1 1 1 1 1 1 1 1 0.0075048208586586829 0.0070209461023696563 1 0.0073159939505694537 0.010552649711963381 0.0084570463930013218 1 0.0076288214330139112 1 1 1 1 1 1 0.0086771458207251725 1 1 1 1 1 1 1 0.0097367433762943836 1 1 1 1 1 1 1 1 1 1 1 1 1 1 1 1 1 1 1 1 1 1 1 1 1 1 1 1 1 1 1 1 1 1 1 1 1 1 1 1 1 1 1 1 1 1 1 1 1 1 1 1 1 1 1 1 1 0.010087361816192237 1 1 1 1 1 1 1 0.010252464257657013 1 1 0.011747771335902515 1 1 1 0.013087468145491048 1 0.0099983067566025256 1 1 0.010003119071473662 1 1 1 1 1 1 1 0.013639846611988119 1 1 1 0.0091541627625691176 1 1 1 1 1 1 1 0.010276908245873111 1 0.010108759103864114 1 1 1 1 1 1 1 1 1 1 1 1 1 1 1 1 1 1 1 1 1 1 1 1 1 0.0099933206546360797 0.0055600270053910994 1 0.011459194723658719 1 1 1 1 1 1 1 0.0099181556659416331 1 0.0098806506671057018 1 0.0086512217892145207 0.011950871988778344 0.0099920016759619118 1 1 0.01016214799784382 1 1 0.010768700891912106 1 1 1 0.010258962066259264 1 1 1 1 1 1 1 0.0076202708000787413 0.011271311692749572 1 1 0.0073108868858610763 1 1 1 0.010393937364797936 1 1 1 1 0.00858389586592429 1 0.010843180000079543 1 1 1 1 1 1 0.0099788353151551781 1 0.010007883020116404 1 1 1 1 1 0.010024050299347109 1 1 0.010011968129318915 1 1 1 1 1 1 1 1 1 1 1 1 1 1 1 1 0.0099912093040813894 1 1 0.0092956685613921081 0.010000705885725875 1 0.010024218137649239 1 1 1 1 1 1 1 1 0.010098650395316822 1 1 1 1 1 1 1 1 1 1 1 1 1 1 1 1 0.012134410407035922 1 1 1 0.010012082860138206 1 1 0.012937431482471996 1 1 1 1 1 1 0.013235600466579012 1 1 1 1 1 1 1 1 1 1 1 1 1 1 1 1 1 1 1 0.0079637582881792752 0.010011059685957427 1 1 1 1 1 1 1 0.0099390605891978203 1 1 1 0.009989185990536064 1 1 0.0080854658365260863 1 0.0084643957824906239 1 1 0.0087956012720210811 1 0.0096261726326615019 0.010693527350250047 1 0.0089903460390574706 1 0.010047259729105709 1 0.0099067078506604924 1 1 1 1 1 1 1 1 1 1 1 1 1 1 1 0.0099525713565639749 0.0097765183951978273 1 1 1 1 1 1 1 0.007513783761234967 1 1 1 1 1 1 1 1 1 1 1 1 1 1 1 0.0088674059641620697 1 0.0098668431234898938 1 1 1 1 1 1 0.0086661473899830449 1 1 1 0.0070934891248647883 1 1 1 0.0096856582266171137 1 1 1 1 1 1 1 1 1 1 1 1 1 1 1 1 1 1 1 1 1 0.010037626188633249 1 1 1 1 0.0097402936633313557 1 1 1 1 1 0.010004803894479242 1 1 1 0.0097937616040980127 1 1 1 1 1 1 1 1 1 1 1 1 0.0098001337711579022 1 1 1 1 0.0096136880818835178 1 1 1 1 1 1 1 1 0.0097461222013564639 1 1 1 1 1 1 1 0.0091328305824951838 1 1 1 1 0.0098723746120079527 1 1 1 1 1 1 1 1 0.0097547059088824665 1 1 1 1 1 1 1 1 1 0.0091501613608338511 1 1 1 1 1 1 1 1 1 1 1 1 1 1 1 1 1 1 1 1 1 1 1 1 1 1 1 1 0.0095600678531161769 1 1 1 1 1 1 1 0.0083013840209982728 1 1 1 1 1 1 1 1 1 1 1 1 1 1 1 1 1 1 1 1 1 1 1 1 1 1 1 1 1 0.0098188151031272132 1 1 1 1 1 1 1 1 1 1 1 1 1 1 1 1 1 1 1 1 1 1 1 1 1 1 1 1 1 1 1 1 0.010256006691607011 1 1 0.010131879934436715 1 1 1 1 0.013288021592909285 1 1 0.01224386314284312 1 1 1 1 0.012090907206568195 1 1 1 0.012652295396920622 1 1 1 0.010194520585826559 1 1 1 1 1 1 1 1 1 1 0.010573396556382487 1 1 0.0067860866519015503 1 1 1 1 1 1 0.012438049215185447 1 1 1 1 1 0.0067012164539665946 1 1 1 1 0.0066775640914228411 1 1 1 1 1 1 1 1 1 1 0.0067728532344953213 1 1 1 1 1 1 1 1 1 0.01029128527285981 1 1 1 1 1 1 1 1 1 1 1 1 1 0.01233278871831465 1 1 1 1 1 1 1 0.01045056903265623 1 1 1 1 1 0.0095490702085522204 1 1 1 1 1 1 1 1 1 1 1 1 1 1 0.010127641794913263 1 1 1 1 1 1 1 1 0.010614212510602775 1 1 1 1 1 1 1 1 1 1 1 1 1 1 1 1 1 1 1 1 1 1 1 1 1 1 1 1 1 1 1 1 1 0.011062702070897787 1 1 1 1 0.010016157906693185 0.012672629055533444 1 1 0.0099759853626205808 1 1 0.0087950298211059916 1 1 0.011587743482712781 1 1 1 1 1 1 1 1 1 1 1 1 1 1 1 1 1 1 1 0.011941551803737536 1 1 1 1 0.012183019744529618 1 1 1 1 1 1 1 1 1 1 1 1 1 1 1 1 1 1 1 1 1 1 1 1 1 1 1 1 1 1 1 1 1 1 1 1 1 1 1 1 1 1 1 1 1 1 1 1 1 1 1 1 1 1 1 1 1 1 1 1 1 1 1 1 1 1 1 1 1 1 1 0.011003956300277121 1 1 1 1 0.0096090082043226669 1 0.0095489517346376371 1 1 0.01074214870414689 1 1 1 1 0.01122987216623318 1 1 0.0099056091339460254 1 1 1 1 1 1 1 1 1 1 1 1 1 1 1 1 1 1 1 1 1 1 1 1 1 1 1 1 1 1 1 1 1 1 1 1 1 1 1 1 1 1 1 1 1 1 1 1 1 1 1 1 1 1 1 1 1 1 1 1 0.010264235979855313 1 1 1 1 1 1 1 1 1 0.01012039267066246 1 1 1 1 1 1 1 0.010420476692765945 1 1 1 1 1 1 1 1 1 1 1 1 1 1 1 1 1 1 1 0.013117627577585273 0.0031522915067740062 1 1 0.0099832612417586602 1 0.010781601402790173 1 1 1 1 1 1 1 1 1 1 1 1 1 1 1 1 1 1 1 1 1 1 1 1 1 1 1 1 1 1 1 1 1 1 1 1 1 1 1 1 1 1 1 1 1 1 1 1 1 1 1 1 1 1 1 0.011796888488899253 0.011797770799274965 1 1 1 1 1 1 1 1 1 1 1 1 1 1 1 1 1 1 1 1 0.010982839267296726 1 1 1 1 1 1 1 1 1 1 0.010325875483160472 1 1 1 0.015594217547351389 1 1 1 1 1 1 0.010445038543083963 1 1 1 1 1 1 1 1 1 1 1 1 1 0.01568084835357382 1 1 1 1 1 1 0.012005973041508753 0.010014692606054029 1 0.014967790948783003 1 1 0.01013552318399619 1 1 1 0.014288932841859362 1 1 1 0.013514743399122117 1 1 1 1 1 0.010015506938803624 1 0.012587590134634131 1 1 1 1 0.0068730513884896951 1 1 1 1 0.011896621426422477 1 0.011621869739061763 1 1 0.010062182911431699 0.010014402720133597 1 1 1 1 1 0.0098468583183152839 1 1 1 1 1 0.0096464899384326383 0.010405739519713767 0.010106287795847598 1 0.01135317163398113 1 0.01001053904250615 1 1 1 1 1 0.01017742840416869 1 1 1 1 1 1 1 1 0.0099736363197674618 0.010631422212174738 1 1 0.010582625366068117 1 1 1 1 0.010694800731537736 1 1 0.0096665343882732409 1 1 0.0098632204505895594 1 1 1 1 1 1 1 1 1 0.0099314088318775001 1 1 1 1 1 1 1 1 0.01006633864010717 1 1 1 1 1 1 1 1 1 0.0098747703090272393 0.011425724591864583 1 1 1 1 1 1 1 1 1 1 1 1 1 1 1 1 1 1 1 1 1 1 1 1 1 1 1 1 1 1 1 1 1 1 1 0.011229405763201408 1 1 1 1 0.0099813214380298915 1 1 1 1 1 1 1 1 1 1 1 1 1 1 1 1 0.009030613843047269 0.012037838773407351 1 1 1 1 1 1 1 1 1 0.011727831002402848 1 1 1 1 0.010762564732351872 1 1 0.010525881805085945 1 1 1 1 1 1 1 1 1 1 1 1 1 0.010377079328851241 1 1 1 1 1 1 1 1 1 1 1 1 1 1 1 1 1 1 1 1 1 1 1 1 1 0.0098902591279313671 1 1 1 1 1 0.010021643611820053 1 1 1 0.0094692516055592171 1 1 1 0.010682336448728295 0.010776469868739962 1 1 1 1 1 1 1 1 1 1 1 1 1 1 0.0099461543447281388 1 1 1 0.011332884999892049 1 1 1 1 0.010357602784036571 0.0099462176211455606 1 1 1 1 1 1 1 1 1 1 1 1 1 1 1 1 1 1 1 1 1 1 1 0.011521039967045905 1 1 1 1 1 1 1 1 1 0.010297864807952743 1 1 1 1 0.010505711032926362 1 0.010444399055586386 1 1 1 1 0.010004548704231868 1 1 1 1 1 1 1 1 1 1 1 1 1 1 1 0.0096421120147853565 1 1 0.0089940933751496283 1 1 1 1 1 1 1 1 1 1 0.0075561378838379569 0.0074272041769471425 1 1 1 1 0.012615349707166542 1 1 1 0.013913932905479414 1 1 1 1 0.0097074913117782182 0.0098917636610369904 1 0.0067498746892070589 1 0.004852092525999406 1 0.0062011561199155551 1 1 0.011671454221499828 1 1 0.0080580781242303497 1 1 0.011482575984933073 1 1 1 0.0052780313111168223 1 1 0.010000225514643808 1 0.0025695566487638419 1 0.011923904902804757 1 1 0.0041411719458294919 1 1 1 1 1 1 1 1 1 1 1 1 1 0.010070666594617163 1 1 1 1 1 1 1 1 1 1 1 1 1 1 1 1 0.0098852370265897702 0.0093727104086094026 1 1 1 1 1 0.010842269495911938 1 1 1 1 0.011081756296193745 1 1 0.0088004787858492611 1 1 1 1 0.010357344959871289 1 1 1 1 1 1 1 1 1 1 1 1 1 1 1 1 1 1 1 1 1 1 1 1 1 1 1 1 1 1 1 1 1 1 1 1 1 1 0.010162897546268047 1 1 1 1 1 1 1 1 1 1 1 1 1 0.011068307504998962 1 0.011657268850836136 1 1 1 1 0.011552653033391281 1 1 1 1 1 1 1 1 1 1 1 1 1 1 1 1 1 1 0.010852169663232682 1 0.010264478405953275 1 1 0.013287893549186459 1 1 1 0.014907936085717661 1 1 1 1 1 1 1 1 1 1 1 1 1 1 1 1 1 1 1 1 1 1 1 1 1 1 1 0.010083390913919611 1 1 0.010414789045404806 1 1 1 1 1 1 1 1 1 1 1 1 1 1 1 1 1 1 1 1 1 1 1 1 1 1 1 1 1 1 1 1 1 1 1 0.010251891499136754 1 0.010499073394842483 1 1 1 1 1 1 1 1 1 1 1 1 1 1 1 1 1 0.010216614143980243 0.010142523405688008 1 1 1 1 1 0.0096984973271241823 1 1 1 1 0.0094281615564790512 1 1 1 1 0.0098873580861646264 1 1 1 1 1 1 1 1 1 1 1 1 1 1 1 1 1 1 0.0099259092617077736 1 1 1 1 1 1 0.009278229269142145 1 1 0.0079708691442366419 1 1 1 1 1 1 1 1 1 1 1 1 0.0098347890998403582 1 1 0.0097865202969085567 1 1 1 1 1 1 1 1 0.0099356268890964487 1 1 1 1 1 1 0.0098528167582832837 1 1 0.0095824809876381613 1 1 1 1 1 1 1 1 1 1 1 1 1 1 1 1 1 1 1 1 1 1 1 1 1 1 1 1 1 1 1 1 1 1 1 1 0.010358615491087988 1 1 1 0.010779458591277031 1 1 0.010229711938551673 1 1 1 1 1 1 0.010099129106246588 1 1 1 1 1 0.010035959764834982 1 1 1 1 1 1 0.0094666666524234246 1 1 1 1 0.012035782293915028 1 0.01162448509825445 1 1 0.010839927487586661 1 1 1 0.010420843100189033 1 1 1 1 1 1 1 1 1 1 1 1 1 0.009622377380176253 1 1 1 1 1 1 1 1 1 1 1 1 1 1 1 1 1 1 1 1 1 1 1 1 0.010001477390199076 1 0.010005731130409706 1 0.0089337560778380669 1 0.0083941736064594569 1 1 1 1 0.0098676278488516716 1 1 1 1 0.0096495885718847971 1 1 1 1 1 1 1 1 1 1 1 1 1 1 0.0090429018746222781 1 1 1 0.0085140977046245046 1 1 1 0.010126304876508049 1 1 0.010360030233452992 1 1 1 0.0099321177234017489 1 1 1 1 0.010956988621187465 1 1 1 1 0.010623041315124475 1 1 1 1 1 1 1 1 1 1 0.011368922726364925 1 1 1 1 1 0.011185558731284625 1 0.0099984922631901028 1 1 1 1 1 0.011841212198785716 0.011216477969691234 1 1 0.0090177183177942433 1 0.010005345911934841 1 1 0.010094726890163802 1 1 1 1 1 1 1 1 1 1 1 1 1 0.0079324171027457795 1 1 1 1 1 0.011520133631932404 1 1 1 1 1 1 1 1 1 1 0.0072964532255354979 1 0.0049167294020788684 1 1 0.01199291084018702 1 1 0.0098664623310086574 1 0.0097084508000861991 1 0.0081083043236042443 1 1 1 1 1 0.007385525679726012 0.0077164102943531546 1 1 1 1 1 1 1 1 1 1 1 0.0098874143652409995 1 1 1 1 1 0.0099766543083075112 1 1 1 0.0097633318971444803 1 0.01020464723696686 1 1 1 1 1 1 1 1 1 1 1 1 1 1 1 0.010015996756002635 1 1 1 1 0.010035424628203962 1 1 1 1 1 1 1 1 1 1 1 1 1 1 1 1 1 1 1 1 1 1 1 0.010019427872201326 1 1 0.010821473693688763 1 1 1 1 1 1 1 0.010455564338966475 1 1 0.012555022059761615 1 0.015818793243385094 1 1 1 1 1 1 1 1 1 0.010241914746214132 1 1 0.010430672808123436 1 1 1 0.0096249650638179571 1 1 1 1 1 1 1 0.0095342314435374262 1 1 1 1 0.010090219225693805 0.0097715716899755695 1 1 1 1 1 1 1 1 1 0.0096136433348819311 1 1 1 1 1 1 1 1 1 1 1 1 1 1 1 1 0.01031002098999559 1 0.010242897133520036 1 1 1 0.011034183416292472 1 1 1 1 1 1 1 1 1 1 1 1 1 0.010793528767698426 1 1 1 1 1 0.0098017800690066888 1 1 1 0.011466426527669561 0.0099577823789409291 1 1 1 0.014263982467923189 1 1 0.010620279725092521 1 1 1 1 0.012093557846710346 0.0099829298979411899 1 1 1 0.0090497174440278966 1 1 0.0098388342759148806 1 1 1 1 0.006005069666552381 1 0.0064809644639762833 1 1 1 0.0053168767976499035 1 1 1 1 1 1 1 1 1 1 1 1 1 1 1 1 1 1 1 1 1 0.0095333732210398647 1 1 1 1 1 1 1 1 1 0.010070735604683828 1 1 1 0.0091153188501673192 1 0.0095997085967974571 1 1 1 1 1 1 1 1 1 1 1 0.0086152237605000258 1 1 1 1 1 0.0066558437000272652 1 1 1 1 1 0.013053958845880126 1 1 1 1 1 1 1 1 1 1 1 1 1 1 1 1 0.013322095883071115 1 1 1 1 1 1 1 1 1 0.012781956961097733 1 1 1 1 1 1 1 1 1 1 1 1 1 1 1 0.0099051564479740971 1 1 1 1 1 1 1 1 1 1 1 1 1 1 1 1 1 1 1 1 1 1 1 1 1 1 1 1 1 0.011705960941586229 1 1 1 1 0.0093679813396416872 1 0.011200144730106838 0.0099467185007444357 1 1 1 1 1 1 0.01014526824220336 1 0.0078311845682647579 1 1 1 0.010038110106250388 1 1 0.01354590038655515 1 1 1 1 1 1 0.010056544212657498 1 1 1 1 1 1 1 0.0094703719462564361 1 1 1 1 0.008606028956906174 1 1 1 1 1 1 0.0097459036411826055 1 1 1 1 1 1 1 1 1 1 1 1 0.0098045224167957849 1 0.0098137859177808619 1 1 1 1 1 1 1 0.0095835175619305157 0.01006968817255072 1 1 1 1 1 1 1 1 0.010008462203195435 1 1 1 0.010460109275287595 1 1 0.010157849941234191 1 1 1 1 1 1 1 1 1 1 1 1 1 1 1 1 1 1 1 1 1 1 1 1 1 0.010037320441393811 1 1 0.010055491298593412 1 1 1 1 1 0.010040024494036825 1 1 0.010112889353250356 1 0.010986521710993622 1 1 1 0.010010256502845698 1 1 1 1 0.010719722961095572 1 1 0.010249781250072938 0.0096292053992688507 1 1 1 1 1 0.010011919893969341 1 1 0.0098761700293484543 1 1 1 1 1 0.0099616626213645844 1 1 1 1 1 1 1 1 1 0.010010734647261096 1 1 1 1 0.010048393945658455 1 1 1 1 1 1 0.0091266456458142554 1 0.0086918378245337928 1 1 1 0.012030895024641861 1 0.0028570704142458526 1 1 0.008684219003513469 1 0.010005739476203191 1 1 1 0.010041034920533197 1 1 1 1 1 1 1 1 1 1 1 1 1 0.0045696009167136217 1 1 1 1 0.0031902852671378927 1 1 1 1 1 1 0.010417657288587311 1 1 1 1 1 1 1 0.0093560042633176032 1 1 1 1 1 1 0.0082230098157184666 1 1 1 1 1 1 1 0.0073429454649054388 1 1 0.011646760015423434 1 1 1 1 1 1 1 1 1 0.010324162417508781 0.012081639611845121 1 1 1 1 1 1 1 1 1 1 1 1 0.01017932968747285 1 1 1 1 1 1 1 0.010939227444117072 1 1 1 0.0094589102489438959 1 0.011540970080052384 1 1 0.0091659585302887817 1 1 1 1 1 0.012159323238622106 1 1 1 0.010102130175483594 1 1 1 1 0.010206467507224181 1 1 1 0.0099600545024752796 1 1 1 1 1 1 1 0.0079495779825978097 1 1 0.0092619047233898945 1 1 1 0.010640752017149105 1 1 1 0.01142866576536973 1 1 1 1 0.010187050758714936 1 1 1 0.0085387343705055734 1 1 1 1 1 1 1 1 1 0.009284109602940481 1 1 1 1 1 1 1 1 1 0.0084348395024338094 1 1 1 1 0.0091219508243790375 1 1 0.0076838123270008014 1 1 1 1 1 1 1 1 1 1 1 1 1 1 1 1 1 1 1 1 1 1 1 1 1 1 0.0095615734156685207 1 1 1 1 1 1 1 1 1 1 1 0.0088870849618603309 1 1 1 0.010123544586878518 1 1 1 1 1 1 0.010012562818398633 1 1 1 1 1 1 1 1 1 1 1 1 1 1 1 1 1 1 1 1 1 1 1 1 1 1 0.0093855922141256702 1 0.010656018299908735 1 1 0.0095952748663465873 0.010251893547043915 1 1 1 1 1 1 1 1 1 1 1 1 1 1 1 1 1 0.0097019104970956383 1 1 1 1 1 1 1 1 1 1 1 1 1 1 1 1 1 1 1 1 1 1 1 1 1 1 1 1 1 1 1 1 1 1 1 1 1 1 1 1 1 1 1 1 1 1 1 1 1 1 1 1 1 1 1 1 1 1 1 1 1 0.010077011846271319 1 1 0.010209167437811176 1 1 1 1 0.010386001376168673 1 1 1 1 1 1 1 1 1 1 0.0099969546710909074 1 0.0042069676443632856 1 1 1 0.0046842655057492133 1 1 1 0.010124026597858127 1 0.010332521877185674 1 1 1 0.0095870585281052079 1 0.01033053615193508 1 0.0090669851518099046 1 1 1 0.0065335963104736945 1 1 1 1 0.010151206464462241 1 0.0084538851605174443 1 1 1 1 1 0.0092932056358921381 1 0.0099412679808755268 0.012389211848243922 1 1 1 1 1 1 0.0088157943129312799 1 1 1 0.0099768184569291041 1 1 1 1 1 1 1 1 1 1 1 1 1 1 1 1 1 1 1 0.0099777187293118488 1 1 1 0.0077924733776211811 0.0099355578552424509 1 1 1 1 1 0.010340815317235231 1 1 1 1 1 1 1 1 1 1 1 1 1 1 0.0098090221229343248 1 1 0.0064601264895725024 1 0.0063187055554574049 1 1 1 0.0099968949573189247 1 0.012625791012193677 1 1 0.0080336827048321513 1 1 1 1 1 1 1 1 1 1 1 0.010836000184214671 1 1 1 1 1 1 1 1 1 1 0.0067309004904157598 0.010110404261072403 1 1 1 1 1 1 1 0.01096374668139794 1 1 1 1 1 1 1 1 1 1 1 1 1 1 0.010440828592753975 1 1 1 1 1 1 1 1 1 1 0.010273017928897128 1 1 1 0.010913965666607964 1 0.011812607384983144 0.0053237619395933404 1 1 1 1 1 1 1 1 0.014340631009555127 1 1 1 1 1 1 1 1 1 0.011834826150255323 1 0.0082254423705132168 1 0.0098210607287571947 1 1 1 1 1 1 1 1 0.010544260709525069 1 0.01046400226963156 1 1 1 1 1 1 0.0049059525268240825 1 1 0.011695168764863362 1 0.0074828004409108074 1 1 1 1 1 1 1 1 1 1 1 1 1 1 0.0079607457951046071 1 1 1 1 1 1 1 1 1 1 0.009580639914730682 1 1 1 1 1 1 0.010129094860670897 1 1 1 1 1 1 1 1 1 1 1 1 1 1 1 1 1 1 1 1 1 1 1 1 1 0.010140441826400864 1 1 1 1 1 0.010343601247936578 1 1 1 1 1 1 1 1 1 1 1 0.0099775485003270725 1 1 1 1 0.011120169625213608 1 1 1 1 1 0.011460526341452327 1 1 1 1 1 0.012091460855034849 1 1 0.01287986925982317 1 1 1 1 1 1 1 1 1 1 1 1 1 1 1 1 1 1 1 1 1 1 1 1 1 1 0.0099486104572453788 1 1 0.0099486275226668471 1 1 1 1 1 1 1 1 1 1 1 1 1 1 1 0.010092611646926876 1 1 1 1 1 1 1 1 1 0.010221706507597773 1 1 1 1 1 1 1 0.010463662482563257 1 1 1 1 1 0.0099612498042545659 1 1 1 1 1 1 0.010871536423268149 1 1 1 1 0.010456149393394447 1 1 1 1 1 1 1 0.0099837013039274988 1 1 0.010505366897951724 1 1 0.010397325620480659 1 1 1 1 0.010013399574126855 1 1 1 1 1 1 1 1 0.0097923771366395726 1 1 0.0086856442261803585 1 1 1 1 1 1 1 1 1 0.0098203224379183624 1 1 1 1 1 0.010226530552852536 1 1 1 1 0.009540035865359172 1 1 1 0.010152321235843448 1 1 1 1 1 1 1 1 1 1 1 0.010015957640127842 0.010012100767260354 1 1 1 1 1 1 1 1 1 1 1 0.0093587628473502851 1 1 1 1 1 0.010308244518891722 1 0.011182110529744327 0.0093850123775744559 1 0.010040119506627245 0.008391162903279261 1 1 0.010033742395385355 1 1 1 1 1 1 0.011240015472873137 1 0.010233404100117791 0.009996100887008464 1 1 1 1 1 0.0099809396998561482 1 1 1 1 1 1 1 1 0.011020741680609373 1 1 1 1 0.0096453563619628615 1 1 1 1 1 0.0099309915641001469 1 1 0.010598263013924566 1 1 1 1 1 1 1 0.0089819606192629679 1 0.010296927138069038 1 1 1 1 1 1 1 0.010637310223884819 0.010044650043975718 1 1 1 1 1 1 1 0.01003159810160942 1 1 1 1 1 1 0.010205042274816042 1 1 1 1 1 1 1 1 1 1 1 1 1 1 0.0094613518337657992 1 1 0.0098204350383193379 1 1 1 1 0.010220794717648 1 1 1 1 0.008036541216055822 1 1 1 1 1 1 0.0075889741020221443 1 1 1 1 1 1 1 0.0099283555341456373 1 1 1 0.010767917284485997 1 1 1 1 0.0070822393721447696 1 1 0.011033115041035184 1 1 1 1 1 1 1 0.0077535559743218338 1 1 1 1 0.008091540681767085 1 0.01002784952372263 1 1 1 1 1 1 1 1 1 1 1 1 1 1 0.010641879091809763 1 1 1 1 1 1 1 0.011162196518883394 1 1 0.010459878984687752 1 1 0.0099805910315424236 1 1 1 1 1 1 1 1 1 0.0081152224172466245 1 1 1 0.0086109957737803156 1 1 1 1 1 1 1 1 1 0.0091623595510731005 1 1 1 1 1 1 1 1 1 1 1 0.010060019229342323 1 1 1 0.0097279313429643587 1 1 1 1 1 1 1 1 1 1 1 0.010061243528936085 1 1 1 1 1 1 1 1 1 1 0.0099171076821407845 1 1 1 1 1 0.0089051756497510928 1 1 1 1 1 1 1 1 0.009908339209473779 1 1 0.0086909156420843549 1 1 0.0087850230576063618 1 1 1 1 0.0086036762745524565 0.0095246596720152746 1 1 1 1 0.010573431079065047 1 1 1 1 0.0097015830600424239 1 1 0.0098959365805883753 1 1 1 1 0.014138146265320124 1 1 0.012706627439568368 1 1 1 1 1 0.011246080033222371 1 1 1 1 1 1 1 1 0.014121145483634082 1 0.0099673242582879185 1 1 1 1 1 1 1 1 1 0.0078318754725288028 0.013005910102374249 1 1 1 1 1 1 0.013857957268836974 1 1 0.0055505789808814694 1 1 0.0052427282303476094 1 0.010015117942499704 1 1 1 0.0084122111354330651 1 1 0.0098330211859697994 1 1 1 1 1 1 1 1 0.0086814163077010287 0.0081760505786648494 1 1 0.011885331724144882 0.0095919468815064968 1 1 1 1 0.011622602064466594 1 1 1 0.010902451127514423 1 0.0087945623744989758 1 0.0077274275531278415 0.014023356241740585 0.012266407975295306 1 0.0087642971333301237 1 1 1 0.0095188251356747716 1 1 1 1 1 1 1 1 1 0.014374317244932303 1 1 0.014008823668296054 1 1 1 1 1 1 0.0078503660811752203 1 1 1 1 1 1 0.0099721051044084075 0.0098324743291947556 0.0075748871906697098 1 1 1 1 1 1 1 1 1 1 1 0.0055939805200022567 1 1 1 1 0.013601041100372328 1 1 1 1 1 1 1 1 0.013608456211533757 1 1 0.0070372760893117154 1 1 1 0.0097568136517592885 1 1 1 1 1 1 1 1 1 0.010019155967414714 1 1 1 1 1 1 1 1 0.015422157625304266 1 1 1 0.016665594092544228 1 1 0.0053010705550033382 1 1 1 0.010083015876722968 1 0.0059941172655629468 1 1 0.011991221046591035 1 0.013040826243742795 1 1 0.0098220191754260534 1 1 1 1 1 1 0.0073538063036501372 1 1 0.0095417084292600991 1 1 1 1 1 1 1 1 1 1 1 1 1 1 1 1 1 1 1 1 1 1 1 1 1 1 1 1 1 1 1 1 1 1 1 1 1 1 1 1 1 1 1 1 1 1 1 1 1 1 1 1 1 1 1 1 1 1 1 1 1 1 1 1 1 1 1 1 1 1 1 1 1 1 1 1 1 1 1 1 1 1 1 1 1 1 1 1 1 1 1 1 1 1 1 1 0.010330746948334739 1 1 1 1 0.016728549188500863 1 1 1 1 1 1 1 1 1 1 1 1 0.011116374347114592 0.01632286918039243 1 1 1 1 1 1 1 1 1 1 1 1 1 1 1 0.010989665499989323 1 1 1 0.011977320235460078 1 1 1 1 1 1 1 1 1 1 0.016329338877357363 1 0.014909345062574927 1 1 1 1 1 1 1 1 1 1 1 1 1 1 1 1 1 1 1 1 1 1 1 1 0.0098627518902545275 1 1 1 1 0.0094538336540243573 1 1 1 1 1 1 1 1 0.01012215602798669 1 1 1 1 1 1 1 1 1 1 1 1 1 1 1 1 1 1 1 1 1 1 1 1 1 1 1 1 1 1 1 1 1 1 1 1 1 1 1 1 1 1 1 1 1 1 1 1 1 0.0098553454079192693 1 1 1 1 1 1 1 1 1 1 1 1 1 1 1 1 1 1 1 1 1 1 1 1 1 1 1 1 1 1 1 1 0.0071224228305179719 1 1 1 1 1 1 0.0076417946731620612 1 1 1 1 1 1 0.010244163904810189 1 1 0.0099051083011677376 1 0.010723515676619309 1 0.010509474310128046 1 1 1 1 0.0095159945018557599 1 1 1 1 1 0.0099008045588275303 1 1 1 0.013437438516620184 0.010019503362638599 1 1 1 0.0081899006617998284 1 1 1 1 0.011439856835784934 0.011694850245889184 1 1 1 1 1 1 1 1 1 1 1 1 1 1 0.010232841127688854 1 1 0.011364703123322899 1 1 0.0098481762222705788 0.0092191859314828643 1 1 1 1 1 1 1 1 1 1 0.0081350190249826881 1 0.0090503137234532079 1 1 1 1 1 1 1 1 1 1 1 0.010024017545221324 1 1 1 1 1 1 1 0.010155928316406699 1 1 1 1 1 1 1 1 1 1 1 1 1 1 1 1 1 1 0.010108154943281086 0.011626794388070891 1 1 1 1 1 1 1 1 1 1 1 1 1 1 1 1 1 0.010238600786881404 1 1 1 1 1 1 1 1 1 0.0099399638033689803 1 1 1 1 1 1 1 1 1 1 1 1 0.0083408377485878864 1 1 1 1 0.0091468076115892114 1 0.013022927207008142 1 1 1 1 1 1 1 1 1 0.011307955531405619 1 1 1 1 0.013138424673034808 1 1 1 1 0.011121128588937292 1 0.008799022131286572 1 1 1 1 1 1 1 1 1 1 1 1 0.0098441574005774801 1 1 1 1 1 1 1 1 1 1 1 1 1 1 1 0.0097833663804988355 1 0.013640119596692403 1 1 0.0099097237644965794 1 1 1 0.0099749993204462806 1 0.0090374534441456343 1 1 0.0057673360666514288 1 1 0.010012653338887952 1 0.010557462029849614 1 1 1 1 1 1 1 0.0082088459377837909 0.0074170088001265346 1 1 1 1 0.011956398239611759 0.013757017944928803 1 1 0.0067893473383176996 0.0066056770565329293 1 0.011168377476082068 1 1 0.010071470889772156 0.0091780934074852851 1 1 0.0099855164637184281 1 1 0.0063699866498214894 1 1 1 1 1 1 1 1 0.012868326570205302 1 1 0.01262485443183557 1 0.012563180543352717 1 1 1 0.010608331120584997 1 1 1 1 1 1 1 1 0.010427166179513756 1 1 1 1 1 1 1 1 1 1 1 1 1 1 1 1 1 1 1 1 1 1 0.010162096166084602 1 1 1 1 1 1 1 1 1 1 1 1 1 1 1 1 1 1 
</DataArray>
</CellData>
</Piece>
</UnstructuredGrid>
</VTKFile>
