<?xml version="1.0"?>
<VTKFile type="UnstructuredGrid" version="0.1" byte_order="LittleEndian">
<UnstructuredGrid>
<Piece NumberOfPoints="31898" NumberOfCells="11152">
<Points>
<DataArray type="Float64" NumberOfComponents="3" format="ascii">
-0.5 -0.5 0 -0.47620991077874902 -0.44978878706170539 0 -0.49999999999999473 -0.42132396840504388 0 -0.5 -0.5 0 -0.47160970827802529 -0.4793630013852106 0 -0.47620991077874902 -0.44978878706170539 0 -0.5 -0.5 0 -0.47160970827802529 -0.4793630013852106 0 -0.44860394795025399 -0.5 0 -0.47160970827802529 -0.4793630013852106 0 -0.44860394795025399 -0.5 0 -0.4490820238307246 -0.45820516232899983 0 -0.44860394795025399 -0.5 0 -0.4490820238307246 -0.45820516232899983 0 -0.42881687682924802 -0.47781464288736519 0 -0.4490820238307246 -0.45820516232899983 0 -0.45555437223955858 -0.42914059360647611 0 -0.4490820238307246 -0.45820516232899983 0 -0.45555437223955858 -0.42914059360647611 0 -0.43867285131603428 -0.4271457417558665 0 -0.4490820238307246 -0.45820516232899983 0 -0.43867285131603428 -0.4271457417558665 0 -0.4263356171060747 -0.44269880333887462 0 -0.47160970827802529 -0.4793630013852106 0 -0.4490820238307246 -0.45820516232899983 0 -0.47620991077874902 -0.44978878706170539 0 -0.4490820238307246 -0.45820516232899983 0 -0.47620991077874902 -0.44978878706170539 0 -0.45555437223955858 -0.42914059360647611 0 -0.47620991077874902 -0.44978878706170539 0 -0.48101336032419229 -0.41069999664450008 0 -0.45555437223955858 -0.42914059360647611 0 -0.47620991077874902 -0.44978878706170539 0 -0.49999999999999473 -0.42132396840504388 0 -0.48101336032419229 -0.41069999664450008 0 -0.49999999999999473 -0.42132396840504388 0 -0.48101336032419229 -0.41069999664450008 0 -0.5 -0.393886241813306 0 -0.49999999999999473 -0.42132396840504388 0 -0.48101336032419229 -0.41069999664450008 0 -0.5 -0.393886241813306 0 -0.47854472220918332 -0.38978458738689759 0 -0.48422759779560409 -0.37130120630367158 0 -0.5 -0.393886241813306 0 -0.5 -0.36644851522156802 0 -0.48422759779560409 -0.37130120630367158 0 -0.48101336032419229 -0.41069999664450008 0 -0.5 -0.393886241813306 0 -0.47854472220918332 -0.38978458738689759 0 -0.48101336032419229 -0.41069999664450008 0 -0.47854472220918332 -0.38978458738689759 0 -0.46202672064839212 -0.40007602488395211 0 -0.48101336032419229 -0.41069999664450008 0 -0.46202672064839212 -0.40007602488395211 0 -0.47854472220918332 -0.38978458738689759 0 -0.46725442735267431 -0.37660061361585562 0 -0.46202672064839212 -0.40007602488395211 0 -0.47854472220918332 -0.38978458738689759 0 -0.46725442735267431 -0.37660061361585562 0 -0.48422759779560409 -0.37130120630367158 0 -0.46725442735267431 -0.37660061361585562 0 -0.46202672064839212 -0.40007602488395211 0 -0.46725442735267431 -0.37660061361585562 0 -0.45645674801697989 -0.38644133236760531 0 -0.46202672064839212 -0.40007602488395211 0 -0.46725442735267431 -0.37660061361585562 0 -0.45645674801697989 -0.38644133236760531 0 -0.4540003998136638 -0.37455519391687309 0 -0.45645674801697989 -0.38644133236760531 0 -0.46202672064839212 -0.40007602488395211 0 -0.44257020456291563 -0.38918913383950271 0 -0.46202672064839212 -0.40007602488395211 0 -0.44257020456291563 -0.38918913383950271 0 -0.44727608925983742 -0.41095911152778891 0 -0.46202672064839212 -0.40007602488395211 0 -0.44257020456291563 -0.38918913383950271 0 -0.44257020456291563 -0.38918913383950271 0 -0.44727608925983742 -0.41095911152778891 0 -0.43479358559901082 -0.4041454901736512 0 -0.44257020456291563 -0.38918913383950271 0 -0.4540003998136638 -0.37455519391687309 0 -0.44172858264042247 -0.37082207246888088 0 -0.45645674801697989 -0.38644133236760531 0 -0.44257020456291563 -0.38918913383950271 0 -0.4540003998136638 -0.37455519391687309 0 -0.46202672064839212 -0.40007602488395211 0 -0.45555437223955858 -0.42914059360647611 0 -0.44727608925983742 -0.41095911152778891 0 -0.46202672064839212 -0.40007602488395211 0 -0.45555437223955858 -0.42914059360647611 0 -0.48101336032419229 -0.41069999664450008 0 -0.46202672064839212 -0.40007602488395211 0 -0.45555437223955858 -0.42914059360647611 0 -0.44727608925983742 -0.41095911152778891 0 -0.43867285131603428 -0.4271457417558665 0 -0.43676601469929588 -0.41441201227470881 0 -0.44727608925983742 -0.41095911152778891 0 -0.43676601469929588 -0.41441201227470881 0 -0.43479358559901082 -0.4041454901736512 0 -0.45555437223955858 -0.42914059360647611 0 -0.44727608925983742 -0.41095911152778891 0 -0.43867285131603428 -0.4271457417558665 0 -0.43867285131603428 -0.4271457417558665 0 -0.42681803064840879 -0.42717069814352421 0 -0.4263356171060747 -0.44269880333887462 0 -0.42681803064840879 -0.42717069814352421 0 -0.41531815884496182 -0.42985383783075998 0 -0.4263356171060747 -0.44269880333887462 0 -0.42681803064840879 -0.42717069814352421 0 -0.42624289495594048 -0.42089725947505818 0 -0.42083332353326591 -0.42146747131641099 0 -0.42681803064840879 -0.42717069814352421 0 -0.43096994786351572 -0.41951492446283251 0 -0.42624289495594048 -0.42089725947505818 0 -0.43867285131603428 -0.4271457417558665 0 -0.42681803064840879 -0.42717069814352421 0 -0.43096994786351572 -0.41951492446283251 0 -0.43867285131603428 -0.4271457417558665 0 -0.43676601469929588 -0.41441201227470881 0 -0.43096994786351572 -0.41951492446283251 0 -0.43676601469929588 -0.41441201227470881 0 -0.43096994786351572 -0.41951492446283251 0 -0.42907264086257813 -0.41311715872526122 0 -0.43676601469929588 -0.41441201227470881 0 -0.42907264086257813 -0.41311715872526122 0 -0.43479358559901082 -0.4041454901736512 0 -0.42907264086257813 -0.41311715872526122 0 -0.43479358559901082 -0.4041454901736512 0 -0.42460885511582858 -0.40417321677700252 0 -0.42907264086257813 -0.41311715872526122 0 -0.41997834854398469 -0.41180534796019508 0 -0.42907264086257813 -0.41311715872526122 0 -0.42635027777857132 -0.41543594397746519 0 -0.41997834854398469 -0.41180534796019508 0 -0.42907264086257813 -0.41311715872526122 0 -0.41997834854398469 -0.41180534796019508 0 -0.42460885511582858 -0.40417321677700252 0 -0.42635027777857132 -0.41543594397746519 0 -0.41997834854398469 -0.41180534796019508 0 -0.42635027777857132 -0.41543594397746519 0 -0.42083332353326591 -0.42146747131641099 0 -0.41997834854398469 -0.41180534796019508 0 -0.43096994786351572 -0.41951492446283251 0 -0.42624289495594048 -0.42089725947505818 0 -0.42635027777857132 -0.41543594397746519 0 -0.43096994786351572 -0.41951492446283251 0 -0.42907264086257813 -0.41311715872526122 0 -0.42635027777857132 -0.41543594397746519 0 -0.42624289495594048 -0.42089725947505818 0 -0.42635027777857132 -0.41543594397746519 0 -0.42083332353326591 -0.42146747131641099 0 -0.42083332353326591 -0.42146747131641099 0 -0.41997834854398469 -0.41180534796019508 0 -0.40992282953163789 -0.42011435591993562 0 -0.41997834854398469 -0.41180534796019508 0 -0.39756877647335259 -0.40857286797681719 0 -0.41997834854398469 -0.41180534796019508 0 -0.40992282953163789 -0.42011435591993562 0 -0.39756877647335259 -0.40857286797681719 0 -0.40992282953163789 -0.42011435591993562 0 -0.41531815884496182 -0.42985383783075998 0 -0.39591554026262499 -0.42887225451549271 0 -0.41531815884496182 -0.42985383783075998 0 -0.39591554026262499 -0.42887225451549271 0 -0.41160927495564159 -0.44339431233754628 0 -0.42083332353326591 -0.42146747131641099 0 -0.40992282953163789 -0.42011435591993562 0 -0.41531815884496182 -0.42985383783075998 0 -0.42681803064840879 -0.42717069814352421 0 -0.42083332353326591 -0.42146747131641099 0 -0.41531815884496182 -0.42985383783075998 0 -0.44257020456291563 -0.38918913383950271 0 -0.42311368847744002 -0.37830224279505142 0 -0.42594061475171041 -0.39368797999533162 0 -0.44257020456291563 -0.38918913383950271 0 -0.42311368847744002 -0.37830224279505142 0 -0.44172858264042247 -0.37082207246888088 0 -0.44257020456291563 -0.38918913383950271 0 -0.42311368847744002 -0.37830224279505142 0 -0.42311368847744002 -0.37830224279505142 0 -0.42594061475171041 -0.39368797999533162 0 -0.416587075656149 -0.38785930376960043 0 -0.44257020456291563 -0.38918913383950271 0 -0.42594061475171041 -0.39368797999533162 0 -0.43479358559901082 -0.4041454901736512 0 -0.42594061475171041 -0.39368797999533162 0 -0.43479358559901082 -0.4041454901736512 0 -0.42460885511582858 -0.40417321677700252 0 -0.41997834854398469 -0.41180534796019508 0 -0.41325908582185972 -0.39811010703057192 0 -0.39770572831670092 -0.39911486077581648 0 -0.41997834854398469 -0.41180534796019508 0 -0.39770572831670092 -0.39911486077581648 0 -0.42594061475171041 -0.39368797999533162 0 -0.42460885511582858 -0.40417321677700252 0 -0.41325908582185972 -0.39811010703057192 0 -0.41997834854398469 -0.41180534796019508 0 -0.42460885511582858 -0.40417321677700252 0 -0.41325908582185972 -0.39811010703057192 0 -0.42594061475171041 -0.39368797999533162 0 -0.41325908582185972 -0.39811010703057192 0 -0.416587075656149 -0.38785930376960043 0 -0.41325908582185972 -0.39811010703057192 0 -0.416587075656149 -0.38785930376960043 0 -0.40403491357358612 -0.38133688525744702 0 -0.42311368847744002 -0.37830224279505142 0 -0.40403491357358612 -0.38133688525744702 0 -0.40365717239196519 -0.36741535175059892 0 -0.42311368847744002 -0.37830224279505142 0 -0.416587075656149 -0.38785930376960043 0 -0.40403491357358612 -0.38133688525744702 0 -0.40403491357358612 -0.38133688525744702 0 -0.39190790742475001 -0.38540387676521748 0 -0.39770572831670092 -0.39911486077581648 0 -0.40403491357358612 -0.38133688525744702 0 -0.39190790742475001 -0.38540387676521748 0 -0.3904578797192948 -0.37473938743617019 0 -0.41325908582185972 -0.39811010703057192 0 -0.40403491357358612 -0.38133688525744702 0 -0.39770572831670092 -0.39911486077581648 0 -0.39770572831670092 -0.39911486077581648 0 -0.37543310808941849 -0.38642437359143528 0 -0.39770572831670092 -0.39911486077581648 0 -0.37515920440272033 -0.40534038799344108 0 -0.37543310808941849 -0.38642437359143528 0 -0.39770572831670092 -0.39911486077581648 0 -0.37515920440272033 -0.40534038799344108 0 -0.39756877647335259 -0.40857286797681719 0 -0.37515920440272033 -0.40534038799344108 0 -0.37543310808941849 -0.38642437359143528 0 -0.37543310808941849 -0.38642437359143528 0 -0.3904578797192948 -0.37473938743617019 0 -0.37568304780698558 -0.36916333065311507 0 -0.39190790742475001 -0.38540387676521748 0 -0.37543310808941849 -0.38642437359143528 0 -0.3904578797192948 -0.37473938743617019 0 -0.37543310808941849 -0.38642437359143528 0 -0.37568304780698558 -0.36916333065311507 0 -0.39190790742475001 -0.38540387676521748 0 -0.39770572831670092 -0.39911486077581648 0 -0.37543310808941849 -0.38642437359143528 0 -0.41997834854398469 -0.41180534796019508 0 -0.39770572831670092 -0.39911486077581648 0 -0.39756877647335259 -0.40857286797681719 0 -0.40992282953163789 -0.42011435591993562 0 -0.39591554026262499 -0.42887225451549271 0 -0.39756877647335259 -0.40857286797681719 0 -0.37515920440272033 -0.40534038799344108 0 -0.39591554026262499 -0.42887225451549271 0 -0.39756877647335259 -0.40857286797681719 0 -0.37515920440272033 -0.40534038799344108 0 -0.39756877647335259 -0.40857286797681719 0 -0.37515920440272033 -0.40534038799344108 0 -0.39591554026262499 -0.42887225451549271 0 -0.37472313619600889 -0.43545561783144832 0 -0.39591554026262499 -0.42887225451549271 0 -0.39301703415267508 -0.44654444244683272 0 -0.37472313619600889 -0.43545561783144832 0 -0.39301703415267508 -0.44654444244683272 0 -0.37428706798929601 -0.46557084766945539 0 -0.37472313619600889 -0.43545561783144832 0 -0.39591554026262499 -0.42887225451549271 0 -0.39301703415267508 -0.44654444244683272 0 -0.41160927495564159 -0.44339431233754628 0 -0.39301703415267508 -0.44654444244683272 0 -0.40396056051613372 -0.45751466911048011 0 -0.41160927495564159 -0.44339431233754628 0 -0.40396056051613372 -0.45751466911048011 0 -0.39245383412573559 -0.47875733455523922 0 -0.41207507163844148 -0.46917161410542801 0 -0.40396056051613372 -0.45751466911048011 0 -0.38912381425271458 -0.46154275838996711 0 -0.39245383412573559 -0.47875733455523922 0 -0.40396056051613372 -0.45751466911048011 0 -0.39245383412573559 -0.47875733455523922 0 -0.40396056051613372 -0.45751466911048011 0 -0.40649676728151513 -0.45682610390212369 0 -0.40396056051613372 -0.45751466911048011 0 -0.38912381425271458 -0.46154275838996711 0 -0.39301703415267508 -0.44654444244683272 0 -0.40396056051613372 -0.45751466911048011 0 -0.38912381425271458 -0.46154275838996711 0 -0.39301703415267508 -0.44654444244683272 0 -0.38912381425271458 -0.46154275838996711 0 -0.37428706798929601 -0.46557084766945539 0 -0.38912381425271458 -0.46154275838996711 0 -0.37428706798929601 -0.46557084766945539 0 -0.38912381425271458 -0.46154275838996711 0 -0.38378714202547332 -0.47159002408209011 0 -0.37428706798929601 -0.46557084766945539 0 -0.38378714202547332 -0.47159002408209011 0 -0.39245383412573559 -0.47875733455523922 0 -0.37411677223754131 -0.47733161267270968 0 -0.39245383412573559 -0.47875733455523922 0 -0.37240076261097882 -0.48974555046165519 0 -0.37411677223754131 -0.47733161267270968 0 -0.38378714202547332 -0.47159002408209011 0 -0.37411677223754131 -0.47733161267270968 0 -0.37428706798929601 -0.46557084766945539 0 -0.38912381425271458 -0.46154275838996711 0 -0.38378714202547332 -0.47159002408209011 0 -0.39245383412573559 -0.47875733455523922 0 -0.38094710773533791 -0.49999999999999839 0 -0.39245383412573559 -0.47875733455523922 0 -0.38094710773533791 -0.49999999999999839 0 -0.39245383412573559 -0.47875733455523922 0 -0.37240076261097882 -0.48974555046165519 0 -0.38094710773533791 -0.49999999999999839 0 -0.39245383412573559 -0.47875733455523922 0 -0.40997732063196057 -0.5 0 -0.39245383412573559 -0.47875733455523922 0 -0.41207507163844148 -0.46917161410542801 0 -0.40997732063196057 -0.5 0 -0.41207507163844148 -0.46917161410542801 0 -0.40997732063196057 -0.5 0 -0.42881687682924802 -0.47781464288736519 0 -0.44860394795025399 -0.5 0 -0.40997732063196057 -0.5 0 -0.42881687682924802 -0.47781464288736519 0 -0.41207507163844148 -0.46917161410542801 0 -0.42881687682924802 -0.47781464288736519 0 -0.42627766738448791 -0.46032764904509182 0 -0.4490820238307246 -0.45820516232899983 0 -0.42881687682924802 -0.47781464288736519 0 -0.42627766738448791 -0.46032764904509182 0 -0.4490820238307246 -0.45820516232899983 0 -0.42627766738448791 -0.46032764904509182 0 -0.4263356171060747 -0.44269880333887462 0 -0.42627766738448791 -0.46032764904509182 0 -0.4263356171060747 -0.44269880333887462 0 -0.41655419253802572 -0.45404861160063659 0 -0.4263356171060747 -0.44269880333887462 0 -0.41160927495564159 -0.44339431233754628 0 -0.41655419253802572 -0.45404861160063659 0 -0.41531815884496182 -0.42985383783075998 0 -0.4263356171060747 -0.44269880333887462 0 -0.41160927495564159 -0.44339431233754628 0 -0.40396056051613372 -0.45751466911048011 0 -0.41160927495564159 -0.44339431233754628 0 -0.40649676728151513 -0.45682610390212369 0 -0.41160927495564159 -0.44339431233754628 0 -0.40649676728151513 -0.45682610390212369 0 -0.41655419253802572 -0.45404861160063659 0 -0.40396056051613372 -0.45751466911048011 0 -0.41160927495564159 -0.44339431233754628 0 -0.41207507163844148 -0.46917161410542801 0 -0.40649676728151513 -0.45682610390212369 0 -0.41655419253802572 -0.45404861160063659 0 -0.40396056051613372 -0.45751466911048011 0 -0.41207507163844148 -0.46917161410542801 0 -0.40649676728151513 -0.45682610390212369 0 -0.41207507163844148 -0.46917161410542801 0 -0.42627766738448791 -0.46032764904509182 0 -0.41655419253802572 -0.45404861160063659 0 -0.45662330498375908 -0.25656877445722759 0 -0.43445882011373449 -0.25478651907497341 0 -0.45662330498375908 -0.25656877445722759 0 -0.43445882011373449 -0.25478651907497341 0 -0.45034617445999431 -0.24335722649563979 0 -0.44999384684511368 -0.2755750489792308 0 -0.45662330498375908 -0.25656877445722759 0 -0.43445882011373449 -0.25478651907497341 0 -0.44999384684511368 -0.2755750489792308 0 -0.43077531442077321 -0.27459050524281542 0 -0.43445882011373449 -0.25478651907497341 0 -0.44999384684511368 -0.2755750489792308 0 -0.441361257405879 -0.29303276451920029 0 -0.43077531442077321 -0.27459050524281542 0 -0.44999384684511368 -0.2755750489792308 0 -0.4670541169931961 -0.26846056693166809 0 -0.46910519348062618 -0.28320526693770848 0 -0.44999384684511368 -0.2755750489792308 0 -0.4670541169931961 -0.26846056693166809 0 -0.45662330498375908 -0.25656877445722759 0 -0.45662330498375908 -0.25656877445722759 0 -0.47878778985378329 -0.25835102983948688 0 -0.4670541169931961 -0.26846056693166809 0 -0.45662330498375908 -0.25656877445722759 0 -0.47878778985378329 -0.25835102983948688 0 -0.45662330498375908 -0.25656877445722759 0 -0.47878778985378329 -0.25835102983948688 0 -0.47142395938804471 -0.23802335247430181 0 -0.47878778985378329 -0.25835102983948688 0 -0.5 -0.25669760885461612 0 -0.48361763707807442 -0.27426406281091331 0 -0.47878778985378329 -0.25835102983948688 0 -0.5 -0.25669760885461612 0 -0.4875835208682564 -0.24248539692068891 0 -0.5 -0.25669760885461612 0 -0.48361763707807442 -0.27426406281091331 0 -0.5 -0.28413533544635422 0 -0.4670541169931961 -0.26846056693166809 0 -0.47878778985378329 -0.25835102983948688 0 -0.48361763707807442 -0.27426406281091331 0 -0.4670541169931961 -0.26846056693166809 0 -0.48361763707807442 -0.27426406281091331 0 -0.46910519348062618 -0.28320526693770848 0 -0.46910519348062618 -0.28320526693770848 0 -0.48580896399913942 -0.29193665231809679 0 -0.47164434439118558 -0.29859902487093259 0 -0.48361763707807442 -0.27426406281091331 0 -0.46910519348062618 -0.28320526693770848 0 -0.48580896399913942 -0.29193665231809679 0 -0.5 -0.28413533544635422 0 -0.48580896399913942 -0.29193665231809679 0 -0.5 -0.3115730620380921 0 -0.48361763707807442 -0.27426406281091331 0 -0.5 -0.28413533544635422 0 -0.48580896399913942 -0.29193665231809679 0 -0.48580896399913942 -0.29193665231809679 0 -0.5 -0.3115730620380921 0 -0.48293754746551898 -0.30617437981156609 0 -0.48293754746551898 -0.30617437981156609 0 -0.47164434439118558 -0.29859902487093259 0 -0.47203566342767839 -0.31514771464943409 0 -0.48580896399913942 -0.29193665231809679 0 -0.48293754746551898 -0.30617437981156609 0 -0.47164434439118558 -0.29859902487093259 0 -0.47164434439118558 -0.29859902487093259 0 -0.46096111539772322 -0.3069557537098867 0 -0.47203566342767839 -0.31514771464943409 0 -0.46096111539772322 -0.3069557537098867 0 -0.44739706002137658 -0.30395698434733032 0 -0.45229582611609759 -0.31444164243390338 0 -0.46096111539772322 -0.3069557537098867 0 -0.45682111422556548 -0.29317658806621089 0 -0.44739706002137658 -0.30395698434733032 0 -0.47164434439118558 -0.29859902487093259 0 -0.46096111539772322 -0.3069557537098867 0 -0.45682111422556548 -0.29317658806621089 0 -0.44999384684511368 -0.2755750489792308 0 -0.46910519348062618 -0.28320526693770848 0 -0.45682111422556548 -0.29317658806621089 0 -0.46910519348062618 -0.28320526693770848 0 -0.47164434439118558 -0.29859902487093259 0 -0.45682111422556548 -0.29317658806621089 0 -0.44999384684511368 -0.2755750489792308 0 -0.45682111422556548 -0.29317658806621089 0 -0.441361257405879 -0.29303276451920029 0 -0.45682111422556548 -0.29317658806621089 0 -0.441361257405879 -0.29303276451920029 0 -0.44739706002137658 -0.30395698434733032 0 -0.441361257405879 -0.29303276451920029 0 -0.44739706002137658 -0.30395698434733032 0 -0.43527018611072049 -0.30465000121327751 0 -0.44739706002137658 -0.30395698434733032 0 -0.44024276041750632 -0.31887045497680111 0 -0.43527018611072049 -0.30465000121327751 0 -0.44739706002137658 -0.30395698434733032 0 -0.45229582611609759 -0.31444164243390338 0 -0.44024276041750632 -0.31887045497680111 0 -0.44024276041750632 -0.31887045497680111 0 -0.45653421084860168 -0.32646185290925811 0 -0.44024276041750632 -0.31887045497680111 0 -0.43930980958642257 -0.33554338078202212 0 -0.45653421084860168 -0.32646185290925811 0 -0.45229582611609759 -0.31444164243390338 0 -0.44024276041750632 -0.31887045497680111 0 -0.45653421084860168 -0.32646185290925811 0 -0.43930980958642257 -0.33554338078202212 0 -0.44966367396753332 -0.33841986907325933 0 -0.46855294336124231 -0.32873531729210143 0 -0.43930980958642257 -0.33554338078202212 0 -0.4507851133594416 -0.34910720111649318 0 -0.43930980958642257 -0.33554338078202212 0 -0.44966367396753332 -0.33841986907325933 0 -0.4507851133594416 -0.34910720111649318 0 -0.44966367396753332 -0.33841986907325933 0 -0.46855294336124231 -0.32873531729210143 0 -0.46386644800117471 -0.33586508895417932 0 -0.43930980958642257 -0.33554338078202212 0 -0.46855294336124231 -0.32873531729210143 0 -0.43930980958642257 -0.33554338078202212 0 -0.46855294336124231 -0.32873531729210143 0 -0.45653421084860168 -0.32646185290925811 0 -0.44966367396753332 -0.33841986907325933 0 -0.4586808436472537 -0.3401528003513713 0 -0.45711636988675219 -0.34547487934353349 0 -0.44966367396753332 -0.33841986907325933 0 -0.4586808436472537 -0.3401528003513713 0 -0.46386644800117471 -0.33586508895417932 0 -0.4586808436472537 -0.3401528003513713 0 -0.46472493826860672 -0.34236766697450172 0 -0.45711636988675219 -0.34547487934353349 0 -0.4586808436472537 -0.3401528003513713 0 -0.46472493826860672 -0.34236766697450172 0 -0.46386644800117471 -0.33586508895417932 0 -0.46855294336124231 -0.32873531729210143 0 -0.46207595183026873 -0.31834845619891672 0 -0.47203566342767839 -0.31514771464943409 0 -0.46855294336124231 -0.32873531729210143 0 -0.45653421084860168 -0.32646185290925811 0 -0.46207595183026873 -0.31834845619891672 0 -0.46096111539772322 -0.3069557537098867 0 -0.45229582611609759 -0.31444164243390338 0 -0.46207595183026873 -0.31834845619891672 0 -0.45229582611609759 -0.31444164243390338 0 -0.45653421084860168 -0.32646185290925811 0 -0.46207595183026873 -0.31834845619891672 0 -0.46096111539772322 -0.3069557537098867 0 -0.46207595183026873 -0.31834845619891672 0 -0.47203566342767839 -0.31514771464943409 0 -0.48293754746551898 -0.30617437981156609 0 -0.47203566342767839 -0.31514771464943409 0 -0.47770984076123751 -0.32964979107966252 0 -0.48293754746551898 -0.30617437981156609 0 -0.47770984076123751 -0.32964979107966252 0 -0.48293754746551898 -0.30617437981156609 0 -0.48763303240419292 -0.31981883507337211 0 -0.47770984076123751 -0.32964979107966252 0 -0.46855294336124231 -0.32873531729210143 0 -0.47203566342767839 -0.31514771464943409 0 -0.47770984076123751 -0.32964979107966252 0 -0.5 -0.3115730620380921 0 -0.5 -0.33901078862982997 0 -0.49048543526404831 -0.32960291085151988 0 -0.5 -0.3115730620380921 0 -0.48763303240419292 -0.31981883507337211 0 -0.49048543526404831 -0.32960291085151988 0 -0.5 -0.3115730620380921 0 -0.48293754746551898 -0.30617437981156609 0 -0.48763303240419292 -0.31981883507337211 0 -0.48763303240419292 -0.31981883507337211 0 -0.49048543526404831 -0.32960291085151988 0 -0.47770984076123751 -0.32964979107966252 0 -0.49048543526404831 -0.32960291085151988 0 -0.47770984076123751 -0.32964979107966252 0 -0.48708430315481122 -0.3479620774366432 0 -0.5 -0.33901078862982997 0 -0.49048543526404831 -0.32960291085151988 0 -0.48708430315481122 -0.3479620774366432 0 -0.47770984076123751 -0.32964979107966252 0 -0.47248213405695583 -0.35312520234775913 0 -0.47770984076123751 -0.32964979107966252 0 -0.47248213405695583 -0.35312520234775913 0 -0.48708430315481122 -0.3479620774366432 0 -0.46472493826860672 -0.34236766697450172 0 -0.47770984076123751 -0.32964979107966252 0 -0.47248213405695583 -0.35312520234775913 0 -0.46855294336124231 -0.32873531729210143 0 -0.46386644800117471 -0.33586508895417932 0 -0.47770984076123751 -0.32964979107966252 0 -0.46472493826860672 -0.34236766697450172 0 -0.46386644800117471 -0.33586508895417932 0 -0.47770984076123751 -0.32964979107966252 0 -0.47248213405695583 -0.35312520234775913 0 -0.48708430315481122 -0.3479620774366432 0 -0.48422759779560409 -0.37130120630367158 0 -0.5 -0.33901078862982997 0 -0.48708430315481122 -0.3479620774366432 0 -0.5 -0.36644851522156802 0 -0.48708430315481122 -0.3479620774366432 0 -0.5 -0.36644851522156802 0 -0.48422759779560409 -0.37130120630367158 0 -0.46725442735267431 -0.37660061361585562 0 -0.47248213405695583 -0.35312520234775913 0 -0.48422759779560409 -0.37130120630367158 0 -0.46725442735267431 -0.37660061361585562 0 -0.47248213405695583 -0.35312520234775913 0 -0.46725442735267431 -0.37660061361585562 0 -0.4540003998136638 -0.37455519391687309 0 -0.46226041713245919 -0.36267102145096558 0 -0.46725442735267431 -0.37660061361585562 0 -0.47248213405695583 -0.35312520234775913 0 -0.46226041713245919 -0.36267102145096558 0 -0.4540003998136638 -0.37455519391687309 0 -0.46226041713245919 -0.36267102145096558 0 -0.45167034254705118 -0.36337553476545958 0 -0.47248213405695583 -0.35312520234775913 0 -0.46226041713245919 -0.36267102145096558 0 -0.46130034509645268 -0.35111989715704561 0 -0.46472493826860672 -0.34236766697450172 0 -0.47248213405695583 -0.35312520234775913 0 -0.46130034509645268 -0.35111989715704561 0 -0.46472493826860672 -0.34236766697450172 0 -0.46130034509645268 -0.35111989715704561 0 -0.45711636988675219 -0.34547487934353349 0 -0.46130034509645268 -0.35111989715704561 0 -0.45711636988675219 -0.34547487934353349 0 -0.4507851133594416 -0.34910720111649318 0 -0.46226041713245919 -0.36267102145096558 0 -0.4507851133594416 -0.34910720111649318 0 -0.45167034254705118 -0.36337553476545958 0 -0.46226041713245919 -0.36267102145096558 0 -0.46130034509645268 -0.35111989715704561 0 -0.4507851133594416 -0.34910720111649318 0 -0.46226041713245919 -0.36267102145096558 0 -0.4507851133594416 -0.34910720111649318 0 -0.4507851133594416 -0.34910720111649318 0 -0.44504098357239391 -0.35771747353496869 0 -0.45167034254705118 -0.36337553476545958 0 -0.44966367396753332 -0.33841986907325933 0 -0.45711636988675219 -0.34547487934353349 0 -0.4507851133594416 -0.34910720111649318 0 -0.4507851133594416 -0.34910720111649318 0 -0.44408457896710762 -0.34741130507322732 0 -0.44504098357239391 -0.35771747353496869 0 -0.43930980958642257 -0.33554338078202212 0 -0.4507851133594416 -0.34910720111649318 0 -0.44408457896710762 -0.34741130507322732 0 -0.44408457896710762 -0.34741130507322732 0 -0.43834809566141358 -0.35386966642967582 0 -0.4310745521241639 -0.35060051531725012 0 -0.44408457896710762 -0.34741130507322732 0 -0.43834809566141358 -0.35386966642967582 0 -0.44504098357239391 -0.35771747353496869 0 -0.43834809566141358 -0.35386966642967582 0 -0.44504098357239391 -0.35771747353496869 0 -0.43256408976529492 -0.36260533289695268 0 -0.44504098357239391 -0.35771747353496869 0 -0.44172858264042247 -0.37082207246888088 0 -0.43256408976529492 -0.36260533289695268 0 -0.4540003998136638 -0.37455519391687309 0 -0.44172858264042247 -0.37082207246888088 0 -0.45167034254705118 -0.36337553476545958 0 -0.44504098357239391 -0.35771747353496869 0 -0.44172858264042247 -0.37082207246888088 0 -0.45167034254705118 -0.36337553476545958 0 -0.42311368847744002 -0.37830224279505142 0 -0.44172858264042247 -0.37082207246888088 0 -0.43256408976529492 -0.36260533289695268 0 -0.42311368847744002 -0.37830224279505142 0 -0.43256408976529492 -0.36260533289695268 0 -0.41867380740831611 -0.36398836527224071 0 -0.43256408976529492 -0.36260533289695268 0 -0.42210656065146929 -0.35476551363046099 0 -0.41867380740831611 -0.36398836527224071 0 -0.44408457896710762 -0.34741130507322732 0 -0.4310745521241639 -0.35060051531725012 0 -0.42443636388738298 -0.3390060521705498 0 -0.43834809566141358 -0.35386966642967582 0 -0.43256408976529492 -0.36260533289695268 0 -0.4310745521241639 -0.35060051531725012 0 -0.4310745521241639 -0.35060051531725012 0 -0.42266042161335821 -0.34652378860874011 0 -0.42210656065146929 -0.35476551363046099 0 -0.4310745521241639 -0.35060051531725012 0 -0.42266042161335821 -0.34652378860874011 0 -0.42443636388738298 -0.3390060521705498 0 -0.43256408976529492 -0.36260533289695268 0 -0.4310745521241639 -0.35060051531725012 0 -0.42210656065146929 -0.35476551363046099 0 -0.42210656065146929 -0.35476551363046099 0 -0.41243440171204931 -0.35621682403100541 0 -0.41867380740831611 -0.36398836527224071 0 -0.41243440171204931 -0.35621682403100541 0 -0.40365717239196519 -0.36741535175059892 0 -0.40302160193259851 -0.3439916005776541 0 -0.42210656065146929 -0.35476551363046099 0 -0.41714587076776338 -0.34786779488983011 0 -0.41243440171204931 -0.35621682403100541 0 -0.42266042161335821 -0.34652378860874011 0 -0.42210656065146929 -0.35476551363046099 0 -0.41714587076776338 -0.34786779488983011 0 -0.42266042161335821 -0.34652378860874011 0 -0.41714587076776338 -0.34786779488983011 0 -0.41853876063601031 -0.34037906703560689 0 -0.41714587076776338 -0.34786779488983011 0 -0.41853876063601031 -0.34037906703560689 0 -0.41714587076776338 -0.34786779488983011 0 -0.41243440171204931 -0.35621682403100541 0 -0.40302160193259851 -0.3439916005776541 0 -0.41714587076776338 -0.34786779488983011 0 -0.40302160193259851 -0.3439916005776541 0 -0.41853876063601031 -0.34037906703560689 0 -0.42311368847744002 -0.37830224279505142 0 -0.41867380740831611 -0.36398836527224071 0 -0.40365717239196519 -0.36741535175059892 0 -0.42311368847744002 -0.37830224279505142 0 -0.40365717239196519 -0.36741535175059892 0 -0.41243440171204931 -0.35621682403100541 0 -0.41867380740831611 -0.36398836527224071 0 -0.40365717239196519 -0.36741535175059892 0 -0.40403491357358612 -0.38133688525744702 0 -0.40365717239196519 -0.36741535175059892 0 -0.40403491357358612 -0.38133688525744702 0 -0.40365717239196519 -0.36741535175059892 0 -0.3904578797192948 -0.37473938743617019 0 -0.40365717239196519 -0.36741535175059892 0 -0.38979507995825918 -0.35965881973269581 0 -0.40365717239196519 -0.36741535175059892 0 -0.3904578797192948 -0.37473938743617019 0 -0.38979507995825918 -0.35965881973269581 0 -0.3904578797192948 -0.37473938743617019 0 -0.38979507995825918 -0.35965881973269581 0 -0.37568304780698558 -0.36916333065311507 0 -0.37568304780698558 -0.36916333065311507 0 -0.37593298752455201 -0.35190228771479481 0 -0.38979507995825918 -0.35965881973269581 0 -0.37568304780698558 -0.36916333065311507 0 -0.37593298752455201 -0.35190228771479481 0 -0.38979507995825918 -0.35965881973269581 0 -0.37595629511297179 -0.35029264644438168 0 -0.40302160193259851 -0.3439916005776541 0 -0.37595629511297179 -0.35029264644438168 0 -0.40302160193259851 -0.3439916005776541 0 -0.38842354837557669 -0.33756560667471242 0 -0.37595629511297179 -0.35029264644438168 0 -0.40302160193259851 -0.3439916005776541 0 -0.37595629511297179 -0.35029264644438168 0 -0.37607676276689278 -0.3419730509543204 0 -0.37390838074359528 -0.35076941925389299 0 -0.37595629511297179 -0.35029264644438168 0 -0.37607676276689278 -0.3419730509543204 0 -0.37595629511297179 -0.35029264644438168 0 -0.37593298752455201 -0.35190228771479481 0 -0.37390838074359528 -0.35076941925389299 0 -0.37595629511297179 -0.35029264644438168 0 -0.37593298752455201 -0.35190228771479481 0 -0.38979507995825918 -0.35965881973269581 0 -0.37595629511297179 -0.35029264644438168 0 -0.37593298752455201 -0.35190228771479481 0 -0.38979507995825918 -0.35965881973269581 0 -0.37593298752455201 -0.35190228771479481 0 -0.40365717239196519 -0.36741535175059892 0 -0.40302160193259851 -0.3439916005776541 0 -0.40365717239196519 -0.36741535175059892 0 -0.38979507995825918 -0.35965881973269581 0 -0.40302160193259851 -0.3439916005776541 0 -0.40302160193259851 -0.3439916005776541 0 -0.40263324863316441 -0.32967896077653092 0 -0.40263324863316441 -0.32967896077653092 0 -0.38842354837557669 -0.33756560667471242 0 -0.38442983343225828 -0.32189177462067481 0 -0.40302160193259851 -0.3439916005776541 0 -0.40263324863316441 -0.32967896077653092 0 -0.38842354837557669 -0.33756560667471242 0 -0.37607676276689278 -0.3419730509543204 0 -0.37641717267996733 -0.3184640617331177 0 -0.38842354837557669 -0.33756560667471242 0 -0.37607676276689278 -0.3419730509543204 0 -0.38442983343225828 -0.32189177462067481 0 -0.37607676276689278 -0.3419730509543204 0 -0.38442983343225828 -0.32189177462067481 0 -0.37595629511297179 -0.35029264644438168 0 -0.38842354837557669 -0.33756560667471242 0 -0.37607676276689278 -0.3419730509543204 0 -0.37607676276689278 -0.3419730509543204 0 -0.37641717267996733 -0.3184640617331177 0 -0.38442983343225828 -0.32189177462067481 0 -0.37641717267996733 -0.3184640617331177 0 -0.38442983343225828 -0.32189177462067481 0 -0.3841914044669909 -0.30132118344037401 0 -0.37641717267996733 -0.3184640617331177 0 -0.38442983343225828 -0.32189177462067481 0 -0.40263324863316441 -0.32967896077653092 0 -0.38442983343225828 -0.32189177462067481 0 -0.40185461233875269 -0.30098256284660307 0 -0.40263324863316441 -0.32967896077653092 0 -0.38442983343225828 -0.32189177462067481 0 -0.40263324863316441 -0.32967896077653092 0 -0.40185461233875269 -0.30098256284660307 0 -0.40263324863316441 -0.32967896077653092 0 -0.41242695344044827 -0.31820451366256841 0 -0.40185461233875269 -0.30098256284660307 0 -0.41242695344044827 -0.31820451366256841 0 -0.41920998916455232 -0.33677027649670849 0 -0.42301959421646518 -0.31628833020920039 0 -0.41920998916455232 -0.33677027649670849 0 -0.42301959421646518 -0.31628833020920039 0 -0.41242695344044827 -0.31820451366256841 0 -0.42301959421646518 -0.31628833020920039 0 -0.41541732284930832 -0.30730243798379953 0 -0.40302160193259851 -0.3439916005776541 0 -0.41920998916455232 -0.33677027649670849 0 -0.41853876063601031 -0.34037906703560689 0 -0.40302160193259851 -0.3439916005776541 0 -0.40263324863316441 -0.32967896077653092 0 -0.41920998916455232 -0.33677027649670849 0 -0.40263324863316441 -0.32967896077653092 0 -0.41920998916455232 -0.33677027649670849 0 -0.40263324863316441 -0.32967896077653092 0 -0.41242695344044827 -0.31820451366256841 0 -0.41920998916455232 -0.33677027649670849 0 -0.40302160193259851 -0.3439916005776541 0 -0.41853876063601031 -0.34037906703560689 0 -0.41853876063601031 -0.34037906703560689 0 -0.42443636388738298 -0.3390060521705498 0 -0.41920998916455232 -0.33677027649670849 0 -0.42443636388738298 -0.3390060521705498 0 -0.41920998916455232 -0.33677027649670849 0 -0.41853876063601031 -0.34037906703560689 0 -0.42443636388738298 -0.3390060521705498 0 -0.41920998916455232 -0.33677027649670849 0 -0.41853876063601031 -0.34037906703560689 0 -0.43930980958642257 -0.33554338078202212 0 -0.44408457896710762 -0.34741130507322732 0 -0.42443636388738298 -0.3390060521705498 0 -0.43930980958642257 -0.33554338078202212 0 -0.42443636388738298 -0.3390060521705498 0 -0.42301959421646518 -0.31628833020920039 0 -0.41920998916455232 -0.33677027649670849 0 -0.42443636388738298 -0.3390060521705498 0 -0.42301959421646518 -0.31628833020920039 0 -0.44408457896710762 -0.34741130507322732 0 -0.42443636388738298 -0.3390060521705498 0 -0.42266042161335821 -0.34652378860874011 0 -0.41853876063601031 -0.34037906703560689 0 -0.42443636388738298 -0.3390060521705498 0 -0.43930980958642257 -0.33554338078202212 0 -0.42443636388738298 -0.3390060521705498 0 -0.43930980958642257 -0.33554338078202212 0 -0.42301959421646518 -0.31628833020920039 0 -0.44024276041750632 -0.31887045497680111 0 -0.42395130998641067 -0.31127905704434472 0 -0.44024276041750632 -0.31887045497680111 0 -0.43930980958642257 -0.33554338078202212 0 -0.42301959421646518 -0.31628833020920039 0 -0.44024276041750632 -0.31887045497680111 0 -0.42301959421646518 -0.31628833020920039 0 -0.42395130998641067 -0.31127905704434472 0 -0.42301959421646518 -0.31628833020920039 0 -0.42395130998641067 -0.31127905704434472 0 -0.42395130998641067 -0.31127905704434472 0 -0.42709180872781188 -0.29439449141065738 0 -0.44024276041750632 -0.31887045497680111 0 -0.42395130998641067 -0.31127905704434472 0 -0.43527018611072049 -0.30465000121327751 0 -0.42395130998641067 -0.31127905704434472 0 -0.42709180872781188 -0.29439449141065738 0 -0.41541732284930832 -0.30730243798379953 0 -0.42395130998641067 -0.31127905704434472 0 -0.43527018611072049 -0.30465000121327751 0 -0.42709180872781188 -0.29439449141065738 0 -0.441361257405879 -0.29303276451920029 0 -0.43527018611072049 -0.30465000121327751 0 -0.42709180872781188 -0.29439449141065738 0 -0.42709180872781188 -0.29439449141065738 0 -0.43077531442077321 -0.27459050524281542 0 -0.42709180872781188 -0.29439449141065738 0 -0.41684225135067149 -0.28376244362903152 0 -0.43077531442077321 -0.27459050524281542 0 -0.441361257405879 -0.29303276451920029 0 -0.42709180872781188 -0.29439449141065738 0 -0.441361257405879 -0.29303276451920029 0 -0.42709180872781188 -0.29439449141065738 0 -0.43077531442077321 -0.27459050524281542 0 -0.42709180872781188 -0.29439449141065738 0 -0.41684225135067149 -0.28376244362903152 0 -0.40618483967714292 -0.29638963380315841 0 -0.42709180872781188 -0.29439449141065738 0 -0.40618483967714292 -0.29638963380315841 0 -0.41684225135067149 -0.28376244362903152 0 -0.40690107601488551 -0.28490397733270861 0 -0.40618483967714292 -0.29638963380315841 0 -0.41541732284930832 -0.30730243798379953 0 -0.40185461233875269 -0.30098256284660307 0 -0.40618483967714292 -0.29638963380315841 0 -0.42709180872781188 -0.29439449141065738 0 -0.41541732284930832 -0.30730243798379953 0 -0.40618483967714292 -0.29638963380315841 0 -0.41541732284930832 -0.30730243798379953 0 -0.40618483967714292 -0.29638963380315841 0 -0.41242695344044827 -0.31820451366256841 0 -0.41541732284930832 -0.30730243798379953 0 -0.40185461233875269 -0.30098256284660307 0 -0.41541732284930832 -0.30730243798379953 0 -0.40185461233875269 -0.30098256284660307 0 -0.42301959421646518 -0.31628833020920039 0 -0.41541732284930832 -0.30730243798379953 0 -0.42395130998641067 -0.31127905704434472 0 -0.41541732284930832 -0.30730243798379953 0 -0.42301959421646518 -0.31628833020920039 0 -0.42395130998641067 -0.31127905704434472 0 -0.41541732284930832 -0.30730243798379953 0 -0.38442983343225828 -0.32189177462067481 0 -0.40185461233875269 -0.30098256284660307 0 -0.39448508010510541 -0.297525044214214 0 -0.40185461233875269 -0.30098256284660307 0 -0.40174149504185092 -0.29681366012781812 0 -0.40618483967714292 -0.29638963380315841 0 -0.40185461233875269 -0.30098256284660307 0 -0.40174149504185092 -0.29681366012781812 0 -0.40185461233875269 -0.30098256284660307 0 -0.39448508010510541 -0.297525044214214 0 -0.40174149504185092 -0.29681366012781812 0 -0.40185461233875269 -0.30098256284660307 0 -0.39448508010510541 -0.297525044214214 0 -0.39448508010510541 -0.297525044214214 0 -0.40174149504185092 -0.29681366012781812 0 -0.37641717267996733 -0.3184640617331177 0 -0.37669606201677502 -0.29920373422444158 0 -0.38442983343225828 -0.32189177462067481 0 -0.39448508010510541 -0.297525044214214 0 -0.38442983343225828 -0.32189177462067481 0 -0.39448508010510541 -0.297525044214214 0 -0.3841914044669909 -0.30132118344037401 0 -0.37641717267996733 -0.3184640617331177 0 -0.3841914044669909 -0.30132118344037401 0 -0.37669606201677502 -0.29920373422444158 0 -0.39448508010510541 -0.297525044214214 0 -0.3841914044669909 -0.30132118344037401 0 -0.37928718982873688 -0.29895646409505849 0 -0.39448508010510541 -0.297525044214214 0 -0.37928718982873688 -0.29895646409505849 0 -0.3841914044669909 -0.30132118344037401 0 -0.37928718982873688 -0.29895646409505849 0 -0.3841914044669909 -0.30132118344037401 0 -0.37928718982873688 -0.29895646409505849 0 -0.37669606201677502 -0.29920373422444158 0 -0.37928718982873688 -0.29895646409505849 0 -0.37669606201677502 -0.29920373422444158 0 -0.37671758341694961 -0.29771744858697219 0 -0.37928718982873688 -0.29895646409505849 0 -0.37671758341694961 -0.29771744858697219 0 -0.37928718982873688 -0.29895646409505849 0 -0.37669606201677502 -0.29920373422444158 0 -0.37669606201677502 -0.29920373422444158 0 -0.37671758341694961 -0.29771744858697219 0 -0.37671758341694961 -0.29771744858697219 0 -0.38607699004493318 -0.28757386461908069 0 -0.38483052758877101 -0.28123782127595193 0 -0.37671758341694961 -0.29771744858697219 0 -0.3770412393053626 -0.27536550612006683 0 -0.37671758341694961 -0.29771744858697219 0 -0.38483052758877101 -0.28123782127595193 0 -0.3770412393053626 -0.27536550612006683 0 -0.37928718982873688 -0.29895646409505849 0 -0.37671758341694961 -0.29771744858697219 0 -0.38467000758835601 -0.29297497791584359 0 -0.37671758341694961 -0.29771744858697219 0 -0.38467000758835601 -0.29297497791584359 0 -0.38607699004493318 -0.28757386461908069 0 -0.39448508010510541 -0.297525044214214 0 -0.37928718982873688 -0.29895646409505849 0 -0.38467000758835601 -0.29297497791584359 0 -0.39448508010510541 -0.297525044214214 0 -0.38467000758835601 -0.29297497791584359 0 -0.39448508010510541 -0.297525044214214 0 -0.38467000758835601 -0.29297497791584359 0 -0.39217701296355612 -0.28987936211692023 0 -0.38467000758835601 -0.29297497791584359 0 -0.38607699004493318 -0.28757386461908069 0 -0.39217701296355612 -0.28987936211692023 0 -0.38607699004493318 -0.28757386461908069 0 -0.39049541959166939 -0.28414526237041138 0 -0.39217701296355612 -0.28987936211692023 0 -0.39049541959166939 -0.28414526237041138 0 -0.39420405367365152 -0.27853706101481662 0 -0.38483052758877101 -0.28123782127595193 0 -0.38607699004493318 -0.28757386461908069 0 -0.39049541959166939 -0.28414526237041138 0 -0.38483052758877101 -0.28123782127595193 0 -0.39597078832761667 -0.28551153658085893 0 -0.40174149504185092 -0.29681366012781812 0 -0.40123596036735593 -0.27818233727432817 0 -0.39049541959166939 -0.28414526237041138 0 -0.39597078832761667 -0.28551153658085893 0 -0.39420405367365152 -0.27853706101481662 0 -0.40174149504185092 -0.29681366012781812 0 -0.40123596036735593 -0.27818233727432817 0 -0.40174149504185092 -0.29681366012781812 0 -0.40322207619149192 -0.29288764445213411 0 -0.40123596036735593 -0.27818233727432817 0 -0.39049541959166939 -0.28414526237041138 0 -0.39597078832761667 -0.28551153658085893 0 -0.39217701296355612 -0.28987936211692023 0 -0.39597078832761667 -0.28551153658085893 0 -0.39217701296355612 -0.28987936211692023 0 -0.40174149504185092 -0.29681366012781812 0 -0.39448508010510541 -0.297525044214214 0 -0.39217701296355612 -0.28987936211692023 0 -0.40174149504185092 -0.29681366012781812 0 -0.40690107601488551 -0.28490397733270861 0 -0.40322207619149192 -0.29288764445213411 0 -0.40618483967714292 -0.29638963380315841 0 -0.40174149504185092 -0.29681366012781812 0 -0.40322207619149192 -0.29288764445213411 0 -0.40618483967714292 -0.29638963380315841 0 -0.40174149504185092 -0.29681366012781812 0 -0.40618483967714292 -0.29638963380315841 0 -0.40322207619149192 -0.29288764445213411 0 -0.40618483967714292 -0.29638963380315841 0 -0.40690107601488551 -0.28490397733270861 0 -0.40322207619149192 -0.29288764445213411 0 -0.40123596036735593 -0.27818233727432817 0 -0.39420405367365152 -0.27853706101481662 0 -0.37710287173325818 -0.2711091198417086 0 -0.40073042569286338 -0.25955101442083811 0 -0.40123596036735593 -0.27818233727432817 0 -0.39420405367365152 -0.27853706101481662 0 -0.40073042569286338 -0.25955101442083811 0 -0.40123596036735593 -0.27818233727432817 0 -0.40073042569286338 -0.25955101442083811 0 -0.40123596036735593 -0.27818233727432817 0 -0.40073042569286338 -0.25955101442083811 0 -0.41341650638623911 -0.27076301679274262 0 -0.39597078832761667 -0.28551153658085893 0 -0.40123596036735593 -0.27818233727432817 0 -0.39420405367365152 -0.27853706101481662 0 -0.39420405367365152 -0.27853706101481662 0 -0.37710287173325818 -0.2711091198417086 0 -0.3770412393053626 -0.27536550612006683 0 -0.39420405367365152 -0.27853706101481662 0 -0.3770412393053626 -0.27536550612006683 0 -0.39420405367365152 -0.27853706101481662 0 -0.38483052758877101 -0.28123782127595193 0 -0.3770412393053626 -0.27536550612006683 0 -0.37710287173325818 -0.2711091198417086 0 -0.3770412393053626 -0.27536550612006683 0 -0.37710287173325818 -0.2711091198417086 0 -0.38543722149146659 -0.25821727905458303 0 -0.40073042569286338 -0.25955101442083811 0 -0.37710287173325818 -0.2711091198417086 0 -0.37747963509906429 -0.24508953120583671 0 -0.37710287173325818 -0.2711091198417086 0 -0.40073042569286338 -0.25955101442083811 0 -0.37710287173325818 -0.2711091198417086 0 -0.38543722149146659 -0.25821727905458303 0 -0.37747963509906429 -0.24508953120583671 0 -0.38543722149146659 -0.25821727905458303 0 -0.3938256931015453 -0.25037754026629511 0 -0.37747963509906429 -0.24508953120583671 0 -0.38543722149146659 -0.25821727905458303 0 -0.3938256931015453 -0.25037754026629511 0 -0.40073042569286338 -0.25955101442083811 0 -0.40073042569286338 -0.25955101442083811 0 -0.40282532782868952 -0.25224285689579767 0 -0.40022281387448849 -0.24084313907701979 0 -0.40073042569286338 -0.25955101442083811 0 -0.40022281387448849 -0.24084313907701979 0 -0.3938256931015453 -0.25037754026629511 0 -0.40073042569286338 -0.25955101442083811 0 -0.40022281387448849 -0.24084313907701979 0 -0.40073042569286338 -0.25955101442083811 0 -0.40282532782868952 -0.25224285689579767 0 -0.41385673751816382 -0.25312989710486528 0 -0.40073042569286338 -0.25955101442083811 0 -0.41385673751816382 -0.25312989710486528 0 -0.40073042569286338 -0.25955101442083811 0 -0.41385673751816382 -0.25312989710486528 0 -0.41341650638623911 -0.27076301679274262 0 -0.41385673751816382 -0.25312989710486528 0 -0.41341650638623911 -0.27076301679274262 0 -0.42312684460972783 -0.26331748455384929 0 -0.41385673751816382 -0.25312989710486528 0 -0.41679144862722167 -0.25169429778568547 0 -0.43445882011373449 -0.25478651907497341 0 -0.40282532782868952 -0.25224285689579767 0 -0.41385673751816382 -0.25312989710486528 0 -0.4086566941719203 -0.24778871483445111 0 -0.40282532782868952 -0.25224285689579767 0 -0.41385673751816382 -0.25312989710486528 0 -0.41385673751816382 -0.25312989710486528 0 -0.41679144862722167 -0.25169429778568547 0 -0.41627810448972868 -0.24641300060905449 0 -0.41385673751816382 -0.25312989710486528 0 -0.41679144862722167 -0.25169429778568547 0 -0.41684225135067149 -0.28376244362903152 0 -0.41341650638623911 -0.27076301679274262 0 -0.43077531442077321 -0.27459050524281542 0 -0.40690107601488551 -0.28490397733270861 0 -0.40123596036735593 -0.27818233727432817 0 -0.41341650638623911 -0.27076301679274262 0 -0.41684225135067149 -0.28376244362903152 0 -0.40690107601488551 -0.28490397733270861 0 -0.41341650638623911 -0.27076301679274262 0 -0.41341650638623911 -0.27076301679274262 0 -0.43077531442077321 -0.27459050524281542 0 -0.42312684460972783 -0.26331748455384929 0 -0.43077531442077321 -0.27459050524281542 0 -0.42312684460972783 -0.26331748455384929 0 -0.43445882011373449 -0.25478651907497341 0 -0.41385673751816382 -0.25312989710486528 0 -0.43445882011373449 -0.25478651907497341 0 -0.43077531442077321 -0.27459050524281542 0 -0.43445882011373449 -0.25478651907497341 0 -0.41385673751816382 -0.25312989710486528 0 -0.42312684460972783 -0.26331748455384929 0 -0.43445882011373449 -0.25478651907497341 0 -0.41679144862722167 -0.25169429778568547 0 -0.43445882011373449 -0.25478651907497341 0 -0.42335340856967768 -0.24893549408922019 0 -0.32580796388430833 -0.26195871891040218 0 -0.34139866608006603 -0.2687790352098644 0 -0.31202674084989918 -0.26335133138269068 0 -0.32580796388430833 -0.26195871891040218 0 -0.33345250408021371 -0.25331871279766999 0 -0.32023222063025569 -0.2489608815952247 0 -0.32580796388430833 -0.26195871891040218 0 -0.31664960680882542 -0.25714232151458272 0 -0.32023222063025569 -0.2489608815952247 0 -0.31664960680882542 -0.25714232151458272 0 -0.30853150187083839 -0.25429835417001312 0 -0.32023222063025569 -0.2489608815952247 0 -0.32580796388430833 -0.26195871891040218 0 -0.31664960680882542 -0.25714232151458272 0 -0.31202674084989918 -0.26335133138269068 0 -0.33223611708196649 -0.27626932861073827 0 -0.31972670239926188 -0.28454160199560091 0 -0.31187737399160442 -0.27618124236115132 0 -0.34139866608006603 -0.2687790352098644 0 -0.31202674084989918 -0.26335133138269068 0 -0.33223611708196649 -0.27626932861073827 0 -0.31202674084989918 -0.26335133138269068 0 -0.3062135479255173 -0.26372173898871692 0 -0.33223611708196649 -0.27626932861073827 0 -0.31187737399160442 -0.27618124236115132 0 -0.3062135479255173 -0.26372173898871692 0 -0.33260241140844943 -0.2743168067351805 0 -0.33223611708196649 -0.27626932861073827 0 -0.31202674084989918 -0.26335133138269068 0 -0.33223611708196649 -0.27626932861073827 0 -0.3062135479255173 -0.26372173898871692 0 -0.33260241140844943 -0.2743168067351805 0 -0.34139866608006603 -0.2687790352098644 0 -0.31202674084989918 -0.26335133138269068 0 -0.33223611708196649 -0.27626932861073827 0 -0.34139866608006603 -0.2687790352098644 0 -0.34951875912658742 -0.28460269103381453 0 -0.33223611708196649 -0.27626932861073827 0 -0.34951875912658742 -0.28460269103381453 0 -0.33260241140844943 -0.2743168067351805 0 -0.33223611708196649 -0.27626932861073827 0 -0.34139866608006603 -0.2687790352098644 0 -0.33260241140844943 -0.2743168067351805 0 -0.33223611708196649 -0.27626932861073827 0 -0.34139866608006603 -0.2687790352098644 0 -0.3363084638556994 -0.26041051377605268 0 -0.34457472137820933 -0.25758558818627408 0 -0.32580796388430833 -0.26195871891040218 0 -0.34139866608006603 -0.2687790352098644 0 -0.3363084638556994 -0.26041051377605268 0 -0.32580796388430833 -0.26195871891040218 0 -0.3363084638556994 -0.26041051377605268 0 -0.33345250408021371 -0.25331871279766999 0 -0.3363084638556994 -0.26041051377605268 0 -0.33345250408021371 -0.25331871279766999 0 -0.34457472137820933 -0.25758558818627408 0 -0.33345250408021371 -0.25331871279766999 0 -0.34457472137820933 -0.25758558818627408 0 -0.34395992200845399 -0.24382677409400949 0 -0.34139866608006603 -0.2687790352098644 0 -0.34457472137820933 -0.25758558818627408 0 -0.35733732661955131 -0.26288598862094092 0 -0.34457472137820933 -0.25758558818627408 0 -0.35872453044413888 -0.25078889886649508 0 -0.34395992200845399 -0.24382677409400949 0 -0.34457472137820933 -0.25758558818627408 0 -0.35733732661955131 -0.26288598862094092 0 -0.35872453044413888 -0.25078889886649508 0 -0.37710287173325818 -0.2711091198417086 0 -0.36828299104124951 -0.26081605551440462 0 -0.37747963509906429 -0.24508953120583671 0 -0.35872453044413888 -0.25078889886649508 0 -0.36828299104124951 -0.26081605551440462 0 -0.37747963509906429 -0.24508953120583671 0 -0.35733732661955131 -0.26288598862094092 0 -0.35872453044413888 -0.25078889886649508 0 -0.36828299104124951 -0.26081605551440462 0 -0.37077059131023282 -0.27420673903703829 0 -0.34951875912658742 -0.28460269103381453 0 -0.37710287173325818 -0.2711091198417086 0 -0.3770412393053626 -0.27536550612006683 0 -0.37077059131023282 -0.27420673903703829 0 -0.3770412393053626 -0.27536550612006683 0 -0.37077059131023282 -0.27420673903703829 0 -0.37710287173325818 -0.2711091198417086 0 -0.36828299104124951 -0.26081605551440462 0 -0.37077059131023282 -0.27420673903703829 0 -0.37710287173325818 -0.2711091198417086 0 -0.37077059131023282 -0.27420673903703829 0 -0.35733732661955131 -0.26288598862094092 0 -0.36828299104124951 -0.26081605551440462 0 -0.37077059131023282 -0.27420673903703829 0 -0.34139866608006603 -0.2687790352098644 0 -0.35733732661955131 -0.26288598862094092 0 -0.37077059131023282 -0.27420673903703829 0 -0.34139866608006603 -0.2687790352098644 0 -0.37077059131023282 -0.27420673903703829 0 -0.34951875912658742 -0.28460269103381453 0 -0.34139866608006603 -0.2687790352098644 0 -0.37077059131023282 -0.27420673903703829 0 -0.34951875912658742 -0.28460269103381453 0 -0.3581763596052473 -0.30097106086504849 0 -0.34010739644885768 -0.2892065328944351 0 -0.34951875912658742 -0.28460269103381453 0 -0.34010739644885768 -0.2892065328944351 0 -0.37671758341694961 -0.29771744858697219 0 -0.37077059131023282 -0.27420673903703829 0 -0.34951875912658742 -0.28460269103381453 0 -0.37671758341694961 -0.29771744858697219 0 -0.34951875912658742 -0.28460269103381453 0 -0.37671758341694961 -0.29771744858697219 0 -0.3770412393053626 -0.27536550612006683 0 -0.37077059131023282 -0.27420673903703829 0 -0.37671758341694961 -0.29771744858697219 0 -0.34951875912658742 -0.28460269103381453 0 -0.3581763596052473 -0.30097106086504849 0 -0.37669606201677502 -0.29920373422444158 0 -0.37671758341694961 -0.29771744858697219 0 -0.3581763596052473 -0.30097106086504849 0 -0.37641717267996733 -0.3184640617331177 0 -0.37669606201677502 -0.29920373422444158 0 -0.36799370156123501 -0.30592930732763762 0 -0.37641717267996733 -0.3184640617331177 0 -0.36799370156123501 -0.30592930732763762 0 -0.35803691493684492 -0.31060122461938489 0 -0.37669606201677502 -0.29920373422444158 0 -0.36799370156123501 -0.30592930732763762 0 -0.3581763596052473 -0.30097106086504849 0 -0.37669606201677502 -0.29920373422444158 0 -0.3581763596052473 -0.30097106086504849 0 -0.36799370156123501 -0.30592930732763762 0 -0.35803691493684492 -0.31060122461938489 0 -0.3581763596052473 -0.30097106086504849 0 -0.35803691493684492 -0.31060122461938489 0 -0.33965665719371979 -0.30273838750565862 0 -0.35803691493684492 -0.31060122461938489 0 -0.33965665719371979 -0.30273838750565862 0 -0.34514704515453298 -0.31300544250539297 0 -0.3581763596052473 -0.30097106086504849 0 -0.33965665719371979 -0.30273838750565862 0 -0.34010739644885768 -0.2892065328944351 0 -0.35803691493684492 -0.31060122461938489 0 -0.3581763596052473 -0.30097106086504849 0 -0.33965665719371979 -0.30273838750565862 0 -0.3581763596052473 -0.30097106086504849 0 -0.33965665719371979 -0.30273838750565862 0 -0.33676996251121621 -0.31158184422573892 0 -0.33965665719371979 -0.30273838750565862 0 -0.34514704515453298 -0.31300544250539297 0 -0.33676996251121621 -0.31158184422573892 0 -0.33965665719371979 -0.30273838750565862 0 -0.32704471803945162 -0.30394193902942662 0 -0.33676996251121621 -0.31158184422573892 0 -0.32594772137393307 -0.30978944971135602 0 -0.32704471803945162 -0.30394193902942662 0 -0.33965665719371979 -0.30273838750565862 0 -0.32704471803945162 -0.30394193902942662 0 -0.32819068517220462 -0.29783339261299951 0 -0.33965665719371979 -0.30273838750565862 0 -0.32704471803945162 -0.30394193902942662 0 -0.32819068517220462 -0.29783339261299951 0 -0.33965665719371979 -0.30273838750565862 0 -0.33223611708196649 -0.27626932861073827 0 -0.32819068517220462 -0.29783339261299951 0 -0.33223611708196649 -0.27626932861073827 0 -0.32819068517220462 -0.29783339261299951 0 -0.34010739644885768 -0.2892065328944351 0 -0.33223611708196649 -0.27626932861073827 0 -0.34951875912658742 -0.28460269103381453 0 -0.34010739644885768 -0.2892065328944351 0 -0.32819068517220462 -0.29783339261299951 0 -0.33965665719371979 -0.30273838750565862 0 -0.34010739644885768 -0.2892065328944351 0 -0.32819068517220462 -0.29783339261299951 0 -0.31972670239926188 -0.28454160199560091 0 -0.31332574866090718 -0.291474364566292 0 -0.32819068517220462 -0.29783339261299951 0 -0.31332574866090718 -0.291474364566292 0 -0.33223611708196649 -0.27626932861073827 0 -0.32819068517220462 -0.29783339261299951 0 -0.31972670239926188 -0.28454160199560091 0 -0.31972670239926188 -0.28454160199560091 0 -0.31332574866090718 -0.291474364566292 0 -0.30937392239009109 -0.28339120160471948 0 -0.31972670239926188 -0.28454160199560091 0 -0.30937392239009109 -0.28339120160471948 0 -0.31187737399160442 -0.27618124236115132 0 -0.31992409361072222 -0.30462145692723192 0 -0.32594772137393307 -0.30978944971135602 0 -0.31307430431717392 -0.31869978567557272 0 -0.31992409361072222 -0.30462145692723192 0 -0.32594772137393307 -0.30978944971135602 0 -0.32594772137393307 -0.30978944971135602 0 -0.32704471803945162 -0.30394193902942662 0 -0.31992409361072222 -0.30462145692723192 0 -0.32594772137393307 -0.30978944971135602 0 -0.32704471803945162 -0.30394193902942662 0 -0.32819068517220462 -0.29783339261299951 0 -0.31332574866090718 -0.291474364566292 0 -0.31992409361072222 -0.30462145692723192 0 -0.32819068517220462 -0.29783339261299951 0 -0.32704471803945162 -0.30394193902942662 0 -0.32819068517220462 -0.29783339261299951 0 -0.31992409361072222 -0.30462145692723192 0 -0.32704471803945162 -0.30394193902942662 0 -0.31992409361072222 -0.30462145692723192 0 -0.32704471803945162 -0.30394193902942662 0 -0.32594772137393307 -0.30978944971135602 0 -0.31307430431717392 -0.31869978567557272 0 -0.32184288384298337 -0.33167017375041419 0 -0.32594772137393307 -0.30978944971135602 0 -0.32184288384298337 -0.33167017375041419 0 -0.32184288384298337 -0.33167017375041419 0 -0.31773804631203251 -0.35355089778947202 0 -0.32184288384298337 -0.33167017375041419 0 -0.34475024534571441 -0.34586667392980902 0 -0.31773804631203251 -0.35355089778947202 0 -0.32184288384298337 -0.33167017375041419 0 -0.34612464597635118 -0.32710031367078812 0 -0.34475024534571441 -0.34586667392980902 0 -0.33676996251121621 -0.31158184422573892 0 -0.32594772137393307 -0.30978944971135602 0 -0.34612464597635118 -0.32710031367078812 0 -0.32594772137393307 -0.30978944971135602 0 -0.34612464597635118 -0.32710031367078812 0 -0.32594772137393307 -0.30978944971135602 0 -0.32184288384298337 -0.33167017375041419 0 -0.34612464597635118 -0.32710031367078812 0 -0.33676996251121621 -0.31158184422573892 0 -0.34514704515453298 -0.31300544250539297 0 -0.34612464597635118 -0.32710031367078812 0 -0.35803691493684492 -0.31060122461938489 0 -0.34514704515453298 -0.31300544250539297 0 -0.34612464597635118 -0.32710031367078812 0 -0.35803691493684492 -0.31060122461938489 0 -0.34612464597635118 -0.32710031367078812 0 -0.35600230731325749 -0.33324145173106873 0 -0.37641717267996733 -0.3184640617331177 0 -0.35803691493684492 -0.31060122461938489 0 -0.37641717267996733 -0.3184640617331177 0 -0.35803691493684492 -0.31060122461938489 0 -0.36719759625642318 -0.33008752154143739 0 -0.35803691493684492 -0.31060122461938489 0 -0.36719759625642318 -0.33008752154143739 0 -0.35600230731325749 -0.33324145173106873 0 -0.37607676276689278 -0.3419730509543204 0 -0.37641717267996733 -0.3184640617331177 0 -0.36719759625642318 -0.33008752154143739 0 -0.37607676276689278 -0.3419730509543204 0 -0.3688763256213185 -0.34309961767568647 0 -0.36719759625642318 -0.33008752154143739 0 -0.36719759625642318 -0.33008752154143739 0 -0.36118874601324108 -0.3436521492952741 0 -0.35600230731325749 -0.33324145173106873 0 -0.3688763256213185 -0.34309961767568647 0 -0.36719759625642318 -0.33008752154143739 0 -0.36118874601324108 -0.3436521492952741 0 -0.34612464597635118 -0.32710031367078812 0 -0.35600230731325749 -0.33324145173106873 0 -0.34475024534571441 -0.34586667392980902 0 -0.36118874601324108 -0.3436521492952741 0 -0.35600230731325749 -0.33324145173106873 0 -0.34475024534571441 -0.34586667392980902 0 -0.36118874601324108 -0.3436521492952741 0 -0.34475024534571441 -0.34586667392980902 0 -0.35925477447714671 -0.35134479444962452 0 -0.34475024534571441 -0.34586667392980902 0 -0.35480891830463612 -0.3592101017575729 0 -0.33937201587241012 -0.36587749477948078 0 -0.34475024534571441 -0.34586667392980902 0 -0.35480891830463612 -0.3592101017575729 0 -0.35925477447714671 -0.35134479444962452 0 -0.36118874601324108 -0.3436521492952741 0 -0.37225797237559449 -0.35115364910559932 0 -0.36118874601324108 -0.3436521492952741 0 -0.35925477447714671 -0.35134479444962452 0 -0.36985982957495511 -0.35171195823109852 0 -0.37568304780698558 -0.36916333065311507 0 -0.37593298752455201 -0.35190228771479481 0 -0.37225797237559449 -0.35115364910559932 0 -0.35480891830463612 -0.3592101017575729 0 -0.35925477447714671 -0.35134479444962452 0 -0.36985982957495511 -0.35171195823109852 0 -0.37607676276689278 -0.3419730509543204 0 -0.3688763256213185 -0.34309961767568647 0 -0.37225797237559449 -0.35115364910559932 0 -0.37607676276689278 -0.3419730509543204 0 -0.37225797237559449 -0.35115364910559932 0 -0.37607676276689278 -0.3419730509543204 0 -0.37390838074359528 -0.35076941925389299 0 -0.37225797237559449 -0.35115364910559932 0 -0.37593298752455201 -0.35190228771479481 0 -0.37390838074359528 -0.35076941925389299 0 -0.37225797237559449 -0.35115364910559932 0 -0.3688763256213185 -0.34309961767568647 0 -0.36118874601324108 -0.3436521492952741 0 -0.37225797237559449 -0.35115364910559932 0 -0.37593298752455201 -0.35190228771479481 0 -0.37390838074359528 -0.35076941925389299 0 -0.36118874601324108 -0.3436521492952741 0 -0.36985982957495511 -0.35171195823109852 0 -0.37225797237559449 -0.35115364910559932 0 -0.37595629511297179 -0.35029264644438168 0 -0.37390838074359528 -0.35076941925389299 0 -0.37390838074359528 -0.35076941925389299 0 -0.37225797237559449 -0.35115364910559932 0 -0.36985982957495511 -0.35171195823109852 0 -0.37225797237559449 -0.35115364910559932 0 -0.37568304780698558 -0.36916333065311507 0 -0.37225797237559449 -0.35115364910559932 0 -0.36100598543278789 -0.37820409176948921 0 -0.35480891830463612 -0.3592101017575729 0 -0.36985982957495511 -0.35171195823109852 0 -0.36100598543278789 -0.37820409176948921 0 -0.36985982957495511 -0.35171195823109852 0 -0.37225797237559449 -0.35115364910559932 0 -0.36100598543278789 -0.37820409176948921 0 -0.37225797237559449 -0.35115364910559932 0 -0.36100598543278789 -0.37820409176948921 0 -0.33937201587241012 -0.36587749477948078 0 -0.36100598543278789 -0.37820409176948921 0 -0.35480891830463612 -0.3592101017575729 0 -0.33937201587241012 -0.36587749477948078 0 -0.36100598543278789 -0.37820409176948921 0 -0.33937201587241012 -0.36587749477948078 0 -0.31773804631203251 -0.35355089778947202 0 -0.33937201587241012 -0.36587749477948078 0 -0.31773804631203251 -0.35355089778947202 0 -0.32803705280137402 -0.37447550275240871 0 -0.34475024534571441 -0.34586667392980902 0 -0.33937201587241012 -0.36587749477948078 0 -0.31773804631203251 -0.35355089778947202 0 -0.31773804631203251 -0.35355089778947202 0 -0.31381007312398762 -0.37448885129246268 0 -0.31773804631203251 -0.35355089778947202 0 -0.31381007312398762 -0.37448885129246268 0 -0.32803705280137402 -0.37447550275240871 0 -0.31381007312398762 -0.37448885129246268 0 -0.29871455833571747 -0.36148408621311728 0 -0.29196992941862432 -0.3825632544476108 0 -0.31773804631203251 -0.35355089778947202 0 -0.31381007312398762 -0.37448885129246268 0 -0.29871455833571747 -0.36148408621311728 0 -0.31773804631203251 -0.35355089778947202 0 -0.29871455833571747 -0.36148408621311728 0 -0.29282778547957722 -0.33935753649529382 0 -0.31773804631203251 -0.35355089778947202 0 -0.29282778547957722 -0.33935753649529382 0 -0.29871455833571747 -0.36148408621311728 0 -0.27675503022224163 -0.36681377825091099 0 -0.29282778547957722 -0.33935753649529382 0 -0.29871455833571747 -0.36148408621311728 0 -0.27675503022224163 -0.36681377825091099 0 -0.29196992941862432 -0.3825632544476108 0 -0.27675503022224163 -0.36681377825091099 0 -0.25757508569408222 -0.36424633604315798 0 -0.26546808025963542 -0.34847395767735678 0 -0.27675503022224163 -0.36681377825091099 0 -0.25757508569408222 -0.36424633604315798 0 -0.25812358553267323 -0.37605355791306738 0 -0.25757508569408222 -0.36424633604315798 0 -0.24839247009954951 -0.37292447016044328 0 -0.24532753696728959 -0.36501789644951049 0 -0.25757508569408222 -0.36424633604315798 0 -0.25812358553267323 -0.37605355791306738 0 -0.24839247009954951 -0.37292447016044328 0 -0.25757508569408222 -0.36424633604315798 0 -0.26546808025963542 -0.34847395767735678 0 -0.24650166737573331 -0.3569693529562265 0 -0.26546808025963542 -0.34847395767735678 0 -0.24650166737573331 -0.3569693529562265 0 -0.24881121389389799 -0.33838995723746451 0 -0.27675503022224163 -0.36681377825091099 0 -0.26546808025963542 -0.34847395767735678 0 -0.29282778547957722 -0.33935753649529382 0 -0.26791752464712137 -0.32516417520111718 0 -0.27544300416693679 -0.31995488319631832 0 -0.29282778547957722 -0.33935753649529382 0 -0.26546808025963542 -0.34847395767735678 0 -0.26791752464712137 -0.32516417520111718 0 -0.29282778547957722 -0.33935753649529382 0 -0.26791752464712137 -0.32516417520111718 0 -0.29282778547957722 -0.33935753649529382 0 -0.26791752464712137 -0.32516417520111718 0 -0.24881121389389799 -0.33838995723746451 0 -0.26546808025963542 -0.34847395767735678 0 -0.26791752464712137 -0.32516417520111718 0 -0.24881121389389799 -0.33838995723746451 0 -0.26791752464712137 -0.32516417520111718 0 -0.24881121389389799 -0.33838995723746451 0 -0.2441082332202735 -0.32380704628422963 0 -0.26791752464712137 -0.32516417520111718 0 -0.2444966906846206 -0.31181945912301329 0 -0.26791752464712137 -0.32516417520111718 0 -0.26963915832665503 -0.30942012505775762 0 -0.2444966906846206 -0.31181945912301329 0 -0.26791752464712137 -0.32516417520111718 0 -0.2441082332202735 -0.32380704628422963 0 -0.2444966906846206 -0.31181945912301329 0 -0.26791752464712137 -0.32516417520111718 0 -0.27544300416693679 -0.31995488319631832 0 -0.26963915832665503 -0.30942012505775762 0 -0.26791752464712137 -0.32516417520111718 0 -0.27544300416693679 -0.31995488319631832 0 -0.27544300416693679 -0.31995488319631832 0 -0.29403167998309421 -0.32125824908992018 0 -0.29478162596868879 -0.30702079099249591 0 -0.27544300416693679 -0.31995488319631832 0 -0.29403167998309421 -0.32125824908992018 0 -0.29282778547957722 -0.33935753649529382 0 -0.31307430431717392 -0.31869978567557272 0 -0.32184288384298337 -0.33167017375041419 0 -0.29282778547957722 -0.33935753649529382 0 -0.32184288384298337 -0.33167017375041419 0 -0.31773804631203251 -0.35355089778947202 0 -0.29282778547957722 -0.33935753649529382 0 -0.31307430431717392 -0.31869978567557272 0 -0.29403167998309421 -0.32125824908992018 0 -0.29282778547957722 -0.33935753649529382 0 -0.31307430431717392 -0.31869978567557272 0 -0.29403167998309421 -0.32125824908992018 0 -0.29478162596868879 -0.30702079099249591 0 -0.31992409361072222 -0.30462145692723192 0 -0.29478162596868879 -0.30702079099249591 0 -0.31992409361072222 -0.30462145692723192 0 -0.31307430431717392 -0.31869978567557272 0 -0.29478162596868879 -0.30702079099249591 0 -0.31992409361072222 -0.30462145692723192 0 -0.30687808727867438 -0.29770175581860719 0 -0.29478162596868879 -0.30702079099249591 0 -0.30687808727867438 -0.29770175581860719 0 -0.29813438661480679 -0.29530641477552327 0 -0.29478162596868879 -0.30702079099249591 0 -0.31992409361072222 -0.30462145692723192 0 -0.2984608121496099 -0.28511533651958437 0 -0.31992409361072222 -0.30462145692723192 0 -0.30687808727867438 -0.29770175581860719 0 -0.2984608121496099 -0.28511533651958437 0 -0.31332574866090718 -0.291474364566292 0 -0.31992409361072222 -0.30462145692723192 0 -0.2984608121496099 -0.28511533651958437 0 -0.31332574866090718 -0.291474364566292 0 -0.30937392239009109 -0.28339120160471948 0 -0.2984608121496099 -0.28511533651958437 0 -0.31332574866090718 -0.291474364566292 0 -0.2984608121496099 -0.28511533651958437 0 -0.30937392239009109 -0.28339120160471948 0 -0.2984608121496099 -0.28511533651958437 0 -0.30347897474907187 -0.279643462580969 0 -0.30687808727867438 -0.29770175581860719 0 -0.29951482580247829 -0.29240083595456018 0 -0.29813438661480679 -0.29530641477552327 0 -0.30687808727867438 -0.29770175581860719 0 -0.2984608121496099 -0.28511533651958437 0 -0.29951482580247829 -0.29240083595456018 0 -0.29951482580247829 -0.29240083595456018 0 -0.29813438661480679 -0.29530641477552327 0 -0.29499124589990039 -0.29073588210889412 0 -0.2984608121496099 -0.28511533651958437 0 -0.29951482580247829 -0.29240083595456018 0 -0.29499124589990039 -0.29073588210889412 0 -0.29499124589990039 -0.29073588210889412 0 -0.29148170063899659 -0.29460773718781319 0 -0.28586576089235322 -0.28577101837165192 0 -0.29813438661480679 -0.29530641477552327 0 -0.29499124589990039 -0.29073588210889412 0 -0.29148170063899659 -0.29460773718781319 0 -0.2984608121496099 -0.28511533651958437 0 -0.29499124589990039 -0.29073588210889412 0 -0.28586576089235322 -0.28577101837165192 0 -0.29148170063899659 -0.29460773718781319 0 -0.28586576089235322 -0.28577101837165192 0 -0.2798353156189245 -0.29508903771003908 0 -0.29148170063899659 -0.29460773718781319 0 -0.29478162596868879 -0.30702079099249591 0 -0.2798353156189245 -0.29508903771003908 0 -0.29478162596868879 -0.30702079099249591 0 -0.26963915832665503 -0.30942012505775762 0 -0.2798353156189245 -0.29508903771003908 0 -0.29478162596868879 -0.30702079099249591 0 -0.26963915832665503 -0.30942012505775762 0 -0.29813438661480679 -0.29530641477552327 0 -0.29148170063899659 -0.29460773718781319 0 -0.29478162596868879 -0.30702079099249591 0 -0.27544300416693679 -0.31995488319631832 0 -0.29478162596868879 -0.30702079099249591 0 -0.26963915832665503 -0.30942012505775762 0 -0.26963915832665503 -0.30942012505775762 0 -0.26057201890547982 -0.29344093798311832 0 -0.2798353156189245 -0.29508903771003908 0 -0.26963915832665503 -0.30942012505775762 0 -0.2444966906846206 -0.31181945912301329 0 -0.26963915832665503 -0.30942012505775762 0 -0.26057201890547982 -0.29344093798311832 0 -0.2444966906846206 -0.31181945912301329 0 -0.26057201890547982 -0.29344093798311832 0 -0.27108878797196961 -0.28331686931735522 0 -0.25298377122075039 -0.27518622721876451 0 -0.26057201890547982 -0.29344093798311832 0 -0.25298377122075039 -0.27518622721876451 0 -0.2435111179254994 -0.29490773243705071 0 -0.26057201890547982 -0.29344093798311832 0 -0.27108878797196961 -0.28331686931735522 0 -0.2798353156189245 -0.29508903771003908 0 -0.28586576089235322 -0.28577101837165192 0 -0.27108878797196961 -0.28331686931735522 0 -0.2798353156189245 -0.29508903771003908 0 -0.27108878797196961 -0.28331686931735522 0 -0.27618707322233982 -0.26709712530320262 0 -0.25298377122075039 -0.27518622721876451 0 -0.28586576089235322 -0.28577101837165192 0 -0.27108878797196961 -0.28331686931735522 0 -0.27618707322233982 -0.26709712530320262 0 -0.27618707322233982 -0.26709712530320262 0 -0.25431856302814809 -0.24833495949118861 0 -0.27618707322233982 -0.26709712530320262 0 -0.25298377122075039 -0.27518622721876451 0 -0.25431856302814809 -0.24833495949118861 0 -0.27618707322233982 -0.26709712530320262 0 -0.27309361240676189 -0.24179026653703889 0 -0.25431856302814809 -0.24833495949118861 0 -0.27618707322233982 -0.26709712530320262 0 -0.2907170577323625 -0.25177677077710309 0 -0.27309361240676189 -0.24179026653703889 0 -0.27618707322233982 -0.26709712530320262 0 -0.2907170577323625 -0.25177677077710309 0 -0.29477899871119112 -0.26293378760569941 0 -0.2984608121496099 -0.28511533651958437 0 -0.28586576089235322 -0.28577101837165192 0 -0.27618707322233982 -0.26709712530320262 0 -0.2984608121496099 -0.28511533651958437 0 -0.27618707322233982 -0.26709712530320262 0 -0.27618707322233982 -0.26709712530320262 0 -0.29477899871119112 -0.26293378760569941 0 -0.29948479845841441 -0.27338487519771032 0 -0.2984608121496099 -0.28511533651958437 0 -0.27618707322233982 -0.26709712530320262 0 -0.29948479845841441 -0.27338487519771032 0 -0.29477899871119112 -0.26293378760569941 0 -0.29948479845841441 -0.27338487519771032 0 -0.30156079933714469 -0.26765617134954151 0 -0.30156079933714469 -0.26765617134954151 0 -0.30403476516136241 -0.27459464834518948 0 -0.30588444940973558 -0.27063474712059482 0 -0.29948479845841441 -0.27338487519771032 0 -0.30156079933714469 -0.26765617134954151 0 -0.30403476516136241 -0.27459464834518948 0 -0.30156079933714469 -0.26765617134954151 0 -0.30588444940973558 -0.27063474712059482 0 -0.3062135479255173 -0.26372173898871692 0 -0.2984608121496099 -0.28511533651958437 0 -0.29948479845841441 -0.27338487519771032 0 -0.30347897474907187 -0.279643462580969 0 -0.29948479845841441 -0.27338487519771032 0 -0.30403476516136241 -0.27459464834518948 0 -0.30347897474907187 -0.279643462580969 0 -0.30937392239009109 -0.28339120160471948 0 -0.30347897474907187 -0.279643462580969 0 -0.31187737399160442 -0.27618124236115132 0 -0.30403476516136241 -0.27459464834518948 0 -0.30347897474907187 -0.279643462580969 0 -0.31187737399160442 -0.27618124236115132 0 -0.30403476516136241 -0.27459464834518948 0 -0.31187737399160442 -0.27618124236115132 0 -0.30588444940973558 -0.27063474712059482 0 -0.31187737399160442 -0.27618124236115132 0 -0.30588444940973558 -0.27063474712059482 0 -0.3062135479255173 -0.26372173898871692 0 -0.31664960680882542 -0.25714232151458272 0 -0.31202674084989918 -0.26335133138269068 0 -0.30853150187083839 -0.25429835417001312 0 -0.2907170577323625 -0.25177677077710309 0 -0.29477899871119112 -0.26293378760569941 0 -0.30853150187083839 -0.25429835417001312 0 -0.31202674084989918 -0.26335133138269068 0 -0.3062135479255173 -0.26372173898871692 0 -0.30853150187083839 -0.25429835417001312 0 -0.29477899871119112 -0.26293378760569941 0 -0.30156079933714469 -0.26765617134954151 0 -0.3062135479255173 -0.26372173898871692 0 -0.29477899871119112 -0.26293378760569941 0 -0.3062135479255173 -0.26372173898871692 0 -0.30853150187083839 -0.25429835417001312 0 -0.33709504481289931 -0.46474263175187808 0 -0.33075086723682939 -0.45093918684289991 0 -0.35302422329502631 -0.44785824460859458 0 -0.33709504481289931 -0.46474263175187808 0 -0.33075086723682939 -0.45093918684289991 0 -0.32054712240525829 -0.47546959342145068 0 -0.33075086723682939 -0.45093918684289991 0 -0.34095461206840061 -0.42640878026434909 0 -0.33075086723682939 -0.45093918684289991 0 -0.35302422329502631 -0.44785824460859458 0 -0.34095461206840061 -0.42640878026434909 0 -0.33075086723682939 -0.45093918684289991 0 -0.32054706720266329 -0.44859283512714471 0 -0.3206124180200437 -0.43193612962395289 0 -0.33075086723682939 -0.45093918684289991 0 -0.32054706720266329 -0.44859283512714471 0 -0.31571728338184601 -0.45752087103574601 0 -0.32054706720266329 -0.44859283512714471 0 -0.31571728338184601 -0.45752087103574601 0 -0.30706080135445341 -0.45057148265483188 0 -0.33075086723682939 -0.45093918684289991 0 -0.32054712240525829 -0.47546959342145068 0 -0.33075086723682939 -0.45093918684289991 0 -0.31571728338184601 -0.45752087103574601 0 -0.32054712240525829 -0.47546959342145068 0 -0.32054712240525829 -0.47546959342145068 0 -0.32750579650535672 -0.48798687004089669 0 -0.32933965142182292 -0.47777380670114528 0 -0.32054712240525829 -0.47546959342145068 0 -0.31034337757368669 -0.50000000000000133 0 -0.32750579650535672 -0.48798687004089669 0 -0.33387795429423722 -0.5 0 -0.31034337757368669 -0.50000000000000133 0 -0.32054712240525829 -0.47546959342145068 0 -0.32750579650535672 -0.48798687004089669 0 -0.31034337757368669 -0.50000000000000133 0 -0.32750579650535672 -0.48798687004089669 0 -0.34342087683177741 -0.48669095008188618 0 -0.33387795429423722 -0.5 0 -0.33709504481289931 -0.46474263175187808 0 -0.32933965142182292 -0.47777380670114528 0 -0.35181335970555933 -0.47167232718529989 0 -0.34342087683177741 -0.48669095008188618 0 -0.32933965142182292 -0.47777380670114528 0 -0.35181335970555933 -0.47167232718529989 0 -0.32750579650535672 -0.48798687004089669 0 -0.34342087683177741 -0.48669095008188618 0 -0.32933965142182292 -0.47777380670114528 0 -0.33709504481289931 -0.46474263175187808 0 -0.32054712240525829 -0.47546959342145068 0 -0.32933965142182292 -0.47777380670114528 0 -0.32933965142182292 -0.47777380670114528 0 -0.35181335970555933 -0.47167232718529989 0 -0.34342087683177741 -0.48669095008188618 0 -0.35181335970555933 -0.47167232718529989 0 -0.35979455825166368 -0.48519290092039941 0 -0.34342087683177741 -0.48669095008188618 0 -0.35741253101478748 -0.5 0 -0.35979455825166368 -0.48519290092039941 0 -0.34342087683177741 -0.48669095008188618 0 -0.33387795429423722 -0.5 0 -0.35741253101478748 -0.5 0 -0.38094710773533791 -0.49999999999999839 0 -0.35741253101478748 -0.5 0 -0.37240076261097882 -0.48974555046165519 0 -0.35741253101478748 -0.5 0 -0.35979455825166368 -0.48519290092039941 0 -0.37240076261097882 -0.48974555046165519 0 -0.35181335970555933 -0.47167232718529989 0 -0.35979455825166368 -0.48519290092039941 0 -0.37411677223754131 -0.47733161267270968 0 -0.35181335970555933 -0.47167232718529989 0 -0.37411677223754131 -0.47733161267270968 0 -0.37428706798929601 -0.46557084766945539 0 -0.35979455825166368 -0.48519290092039941 0 -0.37240076261097882 -0.48974555046165519 0 -0.37411677223754131 -0.47733161267270968 0 -0.37411677223754131 -0.47733161267270968 0 -0.37428706798929601 -0.46557084766945539 0 -0.35181335970555933 -0.47167232718529989 0 -0.37428706798929601 -0.46557084766945539 0 -0.35302422329502631 -0.44785824460859458 0 -0.35181335970555933 -0.47167232718529989 0 -0.37428706798929601 -0.46557084766945539 0 -0.33709504481289931 -0.46474263175187808 0 -0.35181335970555933 -0.47167232718529989 0 -0.35302422329502631 -0.44785824460859458 0 -0.37428706798929601 -0.46557084766945539 0 -0.35302422329502631 -0.44785824460859458 0 -0.37472313619600889 -0.43545561783144832 0 -0.37428706798929601 -0.46557084766945539 0 -0.37472313619600889 -0.43545561783144832 0 -0.35302422329502631 -0.44785824460859458 0 -0.37472313619600889 -0.43545561783144832 0 -0.36076670325611282 -0.42019275678090617 0 -0.37515920440272033 -0.40534038799344108 0 -0.37472313619600889 -0.43545561783144832 0 -0.36076670325611282 -0.42019275678090617 0 -0.37515920440272033 -0.40534038799344108 0 -0.36076670325611282 -0.42019275678090617 0 -0.35115835689997099 -0.40187837368579798 0 -0.37515920440272033 -0.40534038799344108 0 -0.37472313619600889 -0.43545561783144832 0 -0.36076670325611282 -0.42019275678090617 0 -0.35115835689997099 -0.40187837368579798 0 -0.34095461206840061 -0.42640878026434909 0 -0.34815033243380111 -0.40144447968524521 0 -0.35115835689997099 -0.40187837368579798 0 -0.34095461206840061 -0.42640878026434909 0 -0.35115835689997099 -0.40187837368579798 0 -0.34095461206840061 -0.42640878026434909 0 -0.35302422329502631 -0.44785824460859458 0 -0.36076670325611282 -0.42019275678090617 0 -0.34095461206840061 -0.42640878026434909 0 -0.37543310808941849 -0.38642437359143528 0 -0.36100598543278789 -0.37820409176948921 0 -0.35115835689997099 -0.40187837368579798 0 -0.37543310808941849 -0.38642437359143528 0 -0.37568304780698558 -0.36916333065311507 0 -0.36100598543278789 -0.37820409176948921 0 -0.37543310808941849 -0.38642437359143528 0 -0.36100598543278789 -0.37820409176948921 0 -0.37515920440272033 -0.40534038799344108 0 -0.37543310808941849 -0.38642437359143528 0 -0.35115835689997099 -0.40187837368579798 0 -0.37515920440272033 -0.40534038799344108 0 -0.35115835689997099 -0.40187837368579798 0 -0.35115835689997099 -0.40187837368579798 0 -0.34646966066369161 -0.38533898881774881 0 -0.34316085436749 -0.39382471367395527 0 -0.34815033243380111 -0.40144447968524521 0 -0.35115835689997099 -0.40187837368579798 0 -0.34316085436749 -0.39382471367395527 0 -0.34815033243380111 -0.40144447968524521 0 -0.35115835689997099 -0.40187837368579798 0 -0.33937201587241012 -0.36587749477948078 0 -0.36100598543278789 -0.37820409176948921 0 -0.34646966066369161 -0.38533898881774881 0 -0.36100598543278789 -0.37820409176948921 0 -0.35115835689997099 -0.40187837368579798 0 -0.36100598543278789 -0.37820409176948921 0 -0.35115835689997099 -0.40187837368579798 0 -0.34646966066369161 -0.38533898881774881 0 -0.33937201587241012 -0.36587749477948078 0 -0.32803705280137402 -0.37447550275240871 0 -0.34646966066369161 -0.38533898881774881 0 -0.32803705280137402 -0.37447550275240871 0 -0.34646966066369161 -0.38533898881774881 0 -0.32931529664348408 -0.38869437358142001 0 -0.34646966066369161 -0.38533898881774881 0 -0.32931529664348408 -0.38869437358142001 0 -0.34316085436749 -0.39382471367395527 0 -0.34815033243380111 -0.40144447968524521 0 -0.33486919938690762 -0.39884665705885908 0 -0.32944617452305069 -0.41182817437998842 0 -0.32931529664348408 -0.38869437358142001 0 -0.34316085436749 -0.39382471367395527 0 -0.33486919938690762 -0.39884665705885908 0 -0.32931529664348408 -0.38869437358142001 0 -0.33486919938690762 -0.39884665705885908 0 -0.32365381597648563 -0.39942827076698811 0 -0.34815033243380111 -0.40144447968524521 0 -0.34316085436749 -0.39382471367395527 0 -0.33486919938690762 -0.39884665705885908 0 -0.33486919938690762 -0.39884665705885908 0 -0.32365381597648563 -0.39942827076698811 0 -0.32944617452305069 -0.41182817437998842 0 -0.32931529664348408 -0.38869437358142001 0 -0.32365381597648563 -0.39942827076698811 0 -0.30988209993594379 -0.39542680479545339 0 -0.32365381597648563 -0.39942827076698811 0 -0.30595412674790001 -0.41636475829844438 0 -0.30988209993594379 -0.39542680479545339 0 -0.31381007312398762 -0.37448885129246268 0 -0.32931529664348408 -0.38869437358142001 0 -0.30988209993594379 -0.39542680479545339 0 -0.31381007312398762 -0.37448885129246268 0 -0.32803705280137402 -0.37447550275240871 0 -0.32931529664348408 -0.38869437358142001 0 -0.34095461206840061 -0.42640878026434909 0 -0.32944617452305069 -0.41182817437998842 0 -0.3206124180200437 -0.43193612962395289 0 -0.33075086723682939 -0.45093918684289991 0 -0.34095461206840061 -0.42640878026434909 0 -0.3206124180200437 -0.43193612962395289 0 -0.34815033243380111 -0.40144447968524521 0 -0.34095461206840061 -0.42640878026434909 0 -0.32944617452305069 -0.41182817437998842 0 -0.32944617452305069 -0.41182817437998842 0 -0.3206124180200437 -0.43193612962395289 0 -0.30595412674790001 -0.41636475829844438 0 -0.32365381597648563 -0.39942827076698811 0 -0.32944617452305069 -0.41182817437998842 0 -0.30595412674790001 -0.41636475829844438 0 -0.3206124180200437 -0.43193612962395289 0 -0.30595412674790001 -0.41636475829844438 0 -0.29602166034141808 -0.43748304283089118 0 -0.30595412674790001 -0.41636475829844438 0 -0.28680587137917263 -0.41476105187328532 0 -0.29502227998321778 -0.40112933436643161 0 -0.30595412674790001 -0.41636475829844438 0 -0.28680587137917263 -0.41476105187328532 0 -0.29602166034141808 -0.43748304283089118 0 -0.28680587137917263 -0.41476105187328532 0 -0.29602166034141808 -0.43748304283089118 0 -0.27149625348017281 -0.42637325053463759 0 -0.29602166034141808 -0.43748304283089118 0 -0.27149625348017281 -0.42637325053463759 0 -0.29602166034141808 -0.43748304283089118 0 -0.27149625348017281 -0.42637325053463759 0 -0.27906578537949278 -0.44687665772048962 0 -0.31381007312398762 -0.37448885129246268 0 -0.30988209993594379 -0.39542680479545339 0 -0.31381007312398762 -0.37448885129246268 0 -0.30988209993594379 -0.39542680479545339 0 -0.29196992941862432 -0.3825632544476108 0 -0.30595412674790001 -0.41636475829844438 0 -0.30988209993594379 -0.39542680479545339 0 -0.30595412674790001 -0.41636475829844438 0 -0.30988209993594379 -0.39542680479545339 0 -0.29502227998321778 -0.40112933436643161 0 -0.30988209993594379 -0.39542680479545339 0 -0.29502227998321778 -0.40112933436643161 0 -0.29196992941862432 -0.3825632544476108 0 -0.28680587137917263 -0.41476105187328532 0 -0.29502227998321778 -0.40112933436643161 0 -0.2806661672136338 -0.39648987600255969 0 -0.29502227998321778 -0.40112933436643161 0 -0.29196992941862432 -0.3825632544476108 0 -0.2806661672136338 -0.39648987600255969 0 -0.27675503022224163 -0.36681377825091099 0 -0.29196992941862432 -0.3825632544476108 0 -0.26924588117792803 -0.38334910629271668 0 -0.29196992941862432 -0.3825632544476108 0 -0.26924588117792803 -0.38334910629271668 0 -0.2806661672136338 -0.39648987600255969 0 -0.27675503022224163 -0.36681377825091099 0 -0.26924588117792803 -0.38334910629271668 0 -0.25812358553267323 -0.37605355791306738 0 -0.28680587137917263 -0.41476105187328532 0 -0.2806661672136338 -0.39648987600255969 0 -0.26326431180229581 -0.40282557300305732 0 -0.26924588117792803 -0.38334910629271668 0 -0.2806661672136338 -0.39648987600255969 0 -0.26326431180229581 -0.40282557300305732 0 -0.26326431180229581 -0.40282557300305732 0 -0.2504897110532438 -0.38524934403489181 0 -0.24394706363899241 -0.39877073912243299 0 -0.26326431180229581 -0.40282557300305732 0 -0.24697084661892749 -0.41526345823838401 0 -0.24394706363899241 -0.39877073912243299 0 -0.26924588117792803 -0.38334910629271668 0 -0.26326431180229581 -0.40282557300305732 0 -0.2504897110532438 -0.38524934403489181 0 -0.26924588117792803 -0.38334910629271668 0 -0.2504897110532438 -0.38524934403489181 0 -0.25812358553267323 -0.37605355791306738 0 -0.2504897110532438 -0.38524934403489181 0 -0.25812358553267323 -0.37605355791306738 0 -0.24839247009954951 -0.37292447016044328 0 -0.28680587137917263 -0.41476105187328532 0 -0.26326431180229581 -0.40282557300305732 0 -0.27149625348017281 -0.42637325053463759 0 -0.27149625348017281 -0.42637325053463759 0 -0.24697084661892749 -0.41526345823838401 0 -0.26326431180229581 -0.40282557300305732 0 -0.27149625348017281 -0.42637325053463759 0 -0.24697084661892749 -0.41526345823838401 0 -0.27149625348017281 -0.42637325053463759 0 -0.25687425522332558 -0.44642006451091643 0 -0.24697084661892749 -0.41526345823838401 0 -0.25687425522332558 -0.44642006451091643 0 -0.27607931301277078 -0.46657199895299017 0 -0.25409384940020791 -0.47271975939701871 0 -0.25687425522332558 -0.44642006451091643 0 -0.27607931301277078 -0.46657199895299017 0 -0.27906578537949278 -0.44687665772048962 0 -0.27149625348017281 -0.42637325053463759 0 -0.25687425522332558 -0.44642006451091643 0 -0.27906578537949278 -0.44687665772048962 0 -0.29602166034141808 -0.43748304283089118 0 -0.27906578537949278 -0.44687665772048962 0 -0.29968055871002541 -0.46203125713240301 0 -0.27607931301277078 -0.46657199895299017 0 -0.27906578537949278 -0.44687665772048962 0 -0.29968055871002541 -0.46203125713240301 0 -0.31571728338184601 -0.45752087103574601 0 -0.29968055871002541 -0.46203125713240301 0 -0.30706080135445341 -0.45057148265483188 0 -0.31571728338184601 -0.45752087103574601 0 -0.32054712240525829 -0.47546959342145068 0 -0.29968055871002541 -0.46203125713240301 0 -0.32054706720266329 -0.44859283512714471 0 -0.29602166034141808 -0.43748304283089118 0 -0.32054706720266329 -0.44859283512714471 0 -0.3206124180200437 -0.43193612962395289 0 -0.29602166034141808 -0.43748304283089118 0 -0.32054706720266329 -0.44859283512714471 0 -0.29602166034141808 -0.43748304283089118 0 -0.30706080135445341 -0.45057148265483188 0 -0.29602166034141808 -0.43748304283089118 0 -0.29968055871002541 -0.46203125713240301 0 -0.30706080135445341 -0.45057148265483188 0 -0.32054712240525829 -0.47546959342145068 0 -0.31034337757368669 -0.50000000000000133 0 -0.2941570887960146 -0.48201569375099518 0 -0.32054712240525829 -0.47546959342145068 0 -0.29968055871002541 -0.46203125713240301 0 -0.2941570887960146 -0.48201569375099518 0 -0.27607931301277078 -0.46657199895299017 0 -0.29968055871002541 -0.46203125713240301 0 -0.2941570887960146 -0.48201569375099518 0 -0.2941570887960146 -0.48201569375099518 0 -0.28248249767631262 -0.5 0 -0.27039562620846602 -0.48462576079096858 0 -0.31034337757368669 -0.50000000000000133 0 -0.2941570887960146 -0.48201569375099518 0 -0.28248249767631262 -0.5 0 -0.28248249767631262 -0.5 0 -0.27039562620846602 -0.48462576079096858 0 -0.25462161777893849 -0.5 0 -0.27607931301277078 -0.46657199895299017 0 -0.2941570887960146 -0.48201569375099518 0 -0.27039562620846602 -0.48462576079096858 0 -0.27607931301277078 -0.46657199895299017 0 -0.27039562620846602 -0.48462576079096858 0 -0.25409384940020791 -0.47271975939701871 0 -0.27039562620846602 -0.48462576079096858 0 -0.25409384940020791 -0.47271975939701871 0 -0.25462161777893849 -0.5 0 -0.25462161777893849 -0.5 0 -0.23155232774708009 -0.47932355884050398 0 -0.22676073788156451 -0.5 0 -0.25409384940020791 -0.47271975939701871 0 -0.25462161777893849 -0.5 0 -0.23155232774708009 -0.47932355884050398 0 -0.25409384940020791 -0.47271975939701871 0 -0.23155232774708009 -0.47932355884050398 0 -0.2350399564306665 -0.45937717328673289 0 -0.23155232774708009 -0.47932355884050398 0 -0.2350399564306665 -0.45937717328673289 0 -0.2080224731694312 -0.47403962225972662 0 -0.23155232774708009 -0.47932355884050398 0 -0.22676073788156451 -0.5 0 -0.2080224731694312 -0.47403962225972662 0 -0.25687425522332558 -0.44642006451091643 0 -0.2350399564306665 -0.45937717328673289 0 -0.23180750449586429 -0.4343742486430574 0 -0.25687425522332558 -0.44642006451091643 0 -0.25409384940020791 -0.47271975939701871 0 -0.2350399564306665 -0.45937717328673289 0 -0.2350399564306665 -0.45937717328673289 0 -0.21590660946663959 -0.44883644739355771 0 -0.2080224731694312 -0.47403962225972662 0 -0.2350399564306665 -0.45937717328673289 0 -0.21590660946663959 -0.44883644739355771 0 -0.23180750449586429 -0.4343742486430574 0 -0.21590660946663959 -0.44883644739355771 0 -0.1943898331460783 -0.4473597119794826 0 -0.20910912931781811 -0.42543372189632289 0 -0.21590660946663959 -0.44883644739355771 0 -0.1943898331460783 -0.4473597119794826 0 -0.2080224731694312 -0.47403962225972662 0 -0.1943898331460783 -0.4473597119794826 0 -0.2080224731694312 -0.47403962225972662 0 -0.17967053697433849 -0.46928570206264231 0 -0.22676073788156451 -0.5 0 -0.2080224731694312 -0.47403962225972662 0 -0.19889985798419041 -0.5 0 -0.2080224731694312 -0.47403962225972662 0 -0.1821948971586228 -0.48648437486529872 0 -0.17967053697433849 -0.46928570206264231 0 -0.2080224731694312 -0.47403962225972662 0 -0.19889985798419041 -0.5 0 -0.1821948971586228 -0.48648437486529872 0 -0.19889985798419041 -0.5 0 -0.1821948971586228 -0.48648437486529872 0 -0.17103897808681609 -0.49999999999999778 0 -0.1821948971586228 -0.48648437486529872 0 -0.17103897808681609 -0.49999999999999778 0 -0.16495124080259491 -0.49121169214579941 0 -0.17103897808681609 -0.49999999999999778 0 -0.16495124080259491 -0.49121169214579941 0 -0.17103897808681609 -0.49999999999999778 0 -0.16495124080259491 -0.49121169214579941 0 -0.15905149781887321 -0.49999999999999961 0 -0.16495124080259491 -0.49121169214579941 0 -0.15905149781887321 -0.49999999999999961 0 -0.1545750311736096 -0.49062041690426861 0 -0.16495124080259491 -0.49121169214579941 0 -0.15905149781887321 -0.49999999999999961 0 -0.16495124080259491 -0.49121169214579941 0 -0.16530166315622061 -0.47155300009798301 0 -0.17967053697433849 -0.46928570206264231 0 -0.16495124080259491 -0.49121169214579941 0 -0.16530166315622061 -0.47155300009798301 0 -0.15083103946930049 -0.47082765280793248 0 -0.16495124080259491 -0.49121169214579941 0 -0.1545750311736096 -0.49062041690426861 0 -0.15083103946930049 -0.47082765280793248 0 -0.16495124080259491 -0.49121169214579941 0 -0.15083103946930049 -0.47082765280793248 0 -0.16495124080259491 -0.49121169214579941 0 -0.17967053697433849 -0.46928570206264231 0 -0.1821948971586228 -0.48648437486529872 0 -0.16495124080259491 -0.49121169214579941 0 -0.17967053697433849 -0.46928570206264231 0 -0.1943898331460783 -0.4473597119794826 0 -0.17967053697433849 -0.46928570206264231 0 -0.1943898331460783 -0.4473597119794826 0 -0.17967053697433849 -0.46928570206264231 0 -0.1657538353786501 -0.45488695337555668 0 -0.1943898331460783 -0.4473597119794826 0 -0.1657538353786501 -0.45488695337555668 0 -0.1755027511393909 -0.43471579892562301 0 -0.1657538353786501 -0.45488695337555668 0 -0.15761868306950341 -0.43586407366366631 0 -0.1755027511393909 -0.43471579892562301 0 -0.16530166315622061 -0.47155300009798301 0 -0.1657538353786501 -0.45488695337555668 0 -0.15083103946930049 -0.47082765280793248 0 -0.16530166315622061 -0.47155300009798301 0 -0.17967053697433849 -0.46928570206264231 0 -0.1657538353786501 -0.45488695337555668 0 -0.13671083813600751 -0.45044361347006462 0 -0.15083103946930049 -0.47082765280793248 0 -0.13671083813600751 -0.45044361347006462 0 -0.13441782301728619 -0.47175980973682791 0 -0.15083103946930049 -0.47082765280793248 0 -0.1657538353786501 -0.45488695337555668 0 -0.13671083813600751 -0.45044361347006462 0 -0.15083103946930049 -0.47082765280793248 0 -0.13671083813600751 -0.45044361347006462 0 -0.13816776916695811 -0.432543871779144 0 -0.15761868306950341 -0.43586407366366631 0 -0.1657538353786501 -0.45488695337555668 0 -0.13671083813600751 -0.45044361347006462 0 -0.15761868306950341 -0.43586407366366631 0 -0.13671083813600751 -0.45044361347006462 0 -0.13816776916695811 -0.432543871779144 0 -0.1225906368027144 -0.43005957413219659 0 -0.13671083813600751 -0.45044361347006462 0 -0.1225906368027144 -0.43005957413219659 0 -0.13671083813600751 -0.45044361347006462 0 -0.13441782301728619 -0.47175980973682791 0 -0.1201929706126502 -0.46127799294672761 0 -0.13441782301728619 -0.47175980973682791 0 -0.12605423818426559 -0.48707922202292669 0 -0.14429533434837091 -0.48908967660720287 0 -0.13441782301728619 -0.47175980973682791 0 -0.12605423818426559 -0.48707922202292669 0 -0.1201929706126502 -0.46127799294672761 0 -0.1295391708778694 -0.5 0 -0.12605423818426559 -0.48707922202292669 0 -0.14429533434837091 -0.48908967660720287 0 -0.15905149781887321 -0.49999999999999961 0 -0.1295391708778694 -0.5 0 -0.14429533434837091 -0.48908967660720287 0 -0.15905149781887321 -0.49999999999999961 0 -0.14429533434837091 -0.48908967660720287 0 -0.1545750311736096 -0.49062041690426861 0 -0.14429533434837091 -0.48908967660720287 0 -0.1545750311736096 -0.49062041690426861 0 -0.15083103946930049 -0.47082765280793248 0 -0.13441782301728619 -0.47175980973682791 0 -0.14429533434837091 -0.48908967660720287 0 -0.15083103946930049 -0.47082765280793248 0 -0.15345949684661231 -0.4053237642064671 0 -0.15136585988972451 -0.39002590355483568 0 -0.13982663417143551 -0.39933000433158738 0 -0.15136585988972451 -0.39002590355483568 0 -0.1368738238800834 -0.3880397179408614 0 -0.13982663417143551 -0.39933000433158738 0 -0.15345949684661231 -0.4053237642064671 0 -0.13982663417143551 -0.39933000433158738 0 -0.1398029654186671 -0.41064466143528439 0 -0.15136585988972451 -0.39002590355483568 0 -0.1368738238800834 -0.3880397179408614 0 -0.13959568407155781 -0.37291875636350952 0 -0.15136585988972451 -0.39002590355483568 0 -0.15951650330528561 -0.37856285477961621 0 -0.13959568407155781 -0.37291875636350952 0 -0.1368738238800834 -0.3880397179408614 0 -0.12625141541498519 -0.38197991289387551 0 -0.13959568407155781 -0.37291875636350952 0 -0.1368738238800834 -0.3880397179408614 0 -0.12625141541498519 -0.38197991289387551 0 -0.1273295258527142 -0.39594401256049883 0 -0.1368738238800834 -0.3880397179408614 0 -0.1273295258527142 -0.39594401256049883 0 -0.13982663417143551 -0.39933000433158738 0 -0.13982663417143551 -0.39933000433158738 0 -0.1295768038857959 -0.40463739140698729 0 -0.1398029654186671 -0.41064466143528439 0 -0.1273295258527142 -0.39594401256049883 0 -0.13982663417143551 -0.39933000433158738 0 -0.1295768038857959 -0.40463739140698729 0 -0.1273295258527142 -0.39594401256049883 0 -0.1295768038857959 -0.40463739140698729 0 -0.1219584454402414 -0.40406961642135292 0 -0.1295768038857959 -0.40463739140698729 0 -0.1296119374269841 -0.41417592727859581 0 -0.1225700411049412 -0.40994677461386392 0 -0.1296119374269841 -0.41417592727859581 0 -0.12315425937001 -0.41747458531602638 0 -0.1225700411049412 -0.40994677461386392 0 -0.1296119374269841 -0.41417592727859581 0 -0.13713184062407599 -0.42036644340313623 0 -0.12908399078123631 -0.42243277819987513 0 -0.1296119374269841 -0.41417592727859581 0 -0.12908399078123631 -0.42243277819987513 0 -0.12315425937001 -0.41747458531602638 0 -0.1296119374269841 -0.41417592727859581 0 -0.13713184062407599 -0.42036644340313623 0 -0.1398029654186671 -0.41064466143528439 0 -0.1295768038857959 -0.40463739140698729 0 -0.1296119374269841 -0.41417592727859581 0 -0.1398029654186671 -0.41064466143528439 0 -0.12908399078123631 -0.42243277819987513 0 -0.13816776916695811 -0.432543871779144 0 -0.1225906368027144 -0.43005957413219659 0 -0.13713184062407599 -0.42036644340313623 0 -0.12908399078123631 -0.42243277819987513 0 -0.13816776916695811 -0.432543871779144 0 -0.13816776916695811 -0.432543871779144 0 -0.14921107955709881 -0.42003443798493328 0 -0.15761868306950341 -0.43586407366366631 0 -0.13713184062407599 -0.42036644340313623 0 -0.13816776916695811 -0.432543871779144 0 -0.14921107955709881 -0.42003443798493328 0 -0.15345949684661231 -0.4053237642064671 0 -0.1398029654186671 -0.41064466143528439 0 -0.14921107955709881 -0.42003443798493328 0 -0.13713184062407599 -0.42036644340313623 0 -0.1398029654186671 -0.41064466143528439 0 -0.14921107955709881 -0.42003443798493328 0 -0.15345949684661231 -0.4053237642064671 0 -0.14921107955709881 -0.42003443798493328 0 -0.17009787391258249 -0.41611158199907422 0 -0.14921107955709881 -0.42003443798493328 0 -0.17009787391258249 -0.41611158199907422 0 -0.15761868306950341 -0.43586407366366631 0 -0.17009787391258249 -0.41611158199907422 0 -0.15761868306950341 -0.43586407366366631 0 -0.1755027511393909 -0.43471579892562301 0 -0.1943898331460783 -0.4473597119794826 0 -0.1755027511393909 -0.43471579892562301 0 -0.18951413900105801 -0.42212105940109063 0 -0.17009787391258249 -0.41611158199907422 0 -0.1755027511393909 -0.43471579892562301 0 -0.18951413900105801 -0.42212105940109063 0 -0.17009787391258249 -0.41611158199907422 0 -0.18562609472684241 -0.40161550393767448 0 -0.18951413900105801 -0.42212105940109063 0 -0.18562609472684241 -0.40161550393767448 0 -0.16863204450281991 -0.39380366607865908 0 -0.18254917963999329 -0.38971973427100182 0 -0.17009787391258249 -0.41611158199907422 0 -0.18562609472684241 -0.40161550393767448 0 -0.16863204450281991 -0.39380366607865908 0 -0.18562609472684241 -0.40161550393767448 0 -0.18254917963999329 -0.38971973427100182 0 -0.19364364155811911 -0.391297223908462 0 -0.15345949684661231 -0.4053237642064671 0 -0.17009787391258249 -0.41611158199907422 0 -0.16863204450281991 -0.39380366607865908 0 -0.15345949684661231 -0.4053237642064671 0 -0.15136585988972451 -0.39002590355483568 0 -0.16863204450281991 -0.39380366607865908 0 -0.15951650330528561 -0.37856285477961621 0 -0.17625218554490921 -0.38180729220612769 0 -0.1663610822414904 -0.3702523776444529 0 -0.16863204450281991 -0.39380366607865908 0 -0.15951650330528561 -0.37856285477961621 0 -0.17625218554490921 -0.38180729220612769 0 -0.15136585988972451 -0.39002590355483568 0 -0.16863204450281991 -0.39380366607865908 0 -0.15951650330528561 -0.37856285477961621 0 -0.17625218554490921 -0.38180729220612769 0 -0.1663610822414904 -0.3702523776444529 0 -0.18579747934449059 -0.37379744869579251 0 -0.16863204450281991 -0.39380366607865908 0 -0.17625218554490921 -0.38180729220612769 0 -0.18254917963999329 -0.38971973427100182 0 -0.17625218554490921 -0.38180729220612769 0 -0.18254917963999329 -0.38971973427100182 0 -0.18859193186727599 -0.38007498522408562 0 -0.17625218554490921 -0.38180729220612769 0 -0.18859193186727599 -0.38007498522408562 0 -0.18579747934449059 -0.37379744869579251 0 -0.18859193186727599 -0.38007498522408562 0 -0.2014200033848125 -0.37119512976538899 0 -0.18859193186727599 -0.38007498522408562 0 -0.2014200033848125 -0.37119512976538899 0 -0.18579747934449059 -0.37379744869579251 0 -0.18859193186727599 -0.38007498522408562 0 -0.1989719328316337 -0.38216032023399737 0 -0.2014200033848125 -0.37119512976538899 0 -0.1989719328316337 -0.38216032023399737 0 -0.20694960464083431 -0.38128159833907621 0 -0.2014200033848125 -0.37119512976538899 0 -0.1989719328316337 -0.38216032023399737 0 -0.19364364155811911 -0.391297223908462 0 -0.20620014074293039 -0.39180645285032889 0 -0.18859193186727599 -0.38007498522408562 0 -0.1989719328316337 -0.38216032023399737 0 -0.19364364155811911 -0.391297223908462 0 -0.18254917963999329 -0.38971973427100182 0 -0.18859193186727599 -0.38007498522408562 0 -0.19364364155811911 -0.391297223908462 0 -0.18562609472684241 -0.40161550393767448 0 -0.19364364155811911 -0.391297223908462 0 -0.20208872018367391 -0.4070926974887904 0 -0.19364364155811911 -0.391297223908462 0 -0.20620014074293039 -0.39180645285032889 0 -0.20208872018367391 -0.4070926974887904 0 -0.20620014074293039 -0.39180645285032889 0 -0.21479853281951461 -0.38638530273916921 0 -0.22382842548955789 -0.4035077318131633 0 -0.20620014074293039 -0.39180645285032889 0 -0.20208872018367391 -0.4070926974887904 0 -0.22382842548955789 -0.4035077318131633 0 -0.21479853281951461 -0.38638530273916921 0 -0.20694960464083431 -0.38128159833907621 0 -0.21335741342528061 -0.3748607861064962 0 -0.21479853281951461 -0.38638530273916921 0 -0.22412886374227589 -0.38235217247817599 0 -0.21335741342528061 -0.3748607861064962 0 -0.20694960464083431 -0.38128159833907621 0 -0.2014200033848125 -0.37119512976538899 0 -0.21335741342528061 -0.3748607861064962 0 -0.20620014074293039 -0.39180645285032889 0 -0.21479853281951461 -0.38638530273916921 0 -0.20694960464083431 -0.38128159833907621 0 -0.1989719328316337 -0.38216032023399737 0 -0.20620014074293039 -0.39180645285032889 0 -0.20694960464083431 -0.38128159833907621 0 -0.1943898331460783 -0.4473597119794826 0 -0.20910912931781811 -0.42543372189632289 0 -0.1943898331460783 -0.4473597119794826 0 -0.18951413900105801 -0.42212105940109063 0 -0.20910912931781811 -0.42543372189632289 0 -0.18951413900105801 -0.42212105940109063 0 -0.20208872018367391 -0.4070926974887904 0 -0.20910912931781811 -0.42543372189632289 0 -0.18562609472684241 -0.40161550393767448 0 -0.18951413900105801 -0.42212105940109063 0 -0.20208872018367391 -0.4070926974887904 0 -0.20208872018367391 -0.4070926974887904 0 -0.20910912931781811 -0.42543372189632289 0 -0.22382842548955789 -0.4035077318131633 0 -0.20910912931781811 -0.42543372189632289 0 -0.22382842548955789 -0.4035077318131633 0 -0.21590660946663959 -0.44883644739355771 0 -0.20910912931781811 -0.42543372189632289 0 -0.23180750449586429 -0.4343742486430574 0 -0.20910912931781811 -0.42543372189632289 0 -0.23180750449586429 -0.4343742486430574 0 -0.22382842548955789 -0.4035077318131633 0 -0.23180750449586429 -0.4343742486430574 0 -0.24697084661892749 -0.41526345823838401 0 -0.22382842548955789 -0.4035077318131633 0 -0.25687425522332558 -0.44642006451091643 0 -0.23180750449586429 -0.4343742486430574 0 -0.24697084661892749 -0.41526345823838401 0 -0.22412886374227589 -0.38235217247817599 0 -0.2351820232309369 -0.38700758852266848 0 -0.22952037500089251 -0.37311519752493849 0 -0.22412886374227589 -0.38235217247817599 0 -0.22186900287429051 -0.37074082218821958 0 -0.21335741342528061 -0.3748607861064962 0 -0.22412886374227589 -0.38235217247817599 0 -0.22952037500089251 -0.37311519752493849 0 -0.22186900287429051 -0.37074082218821958 0 -0.22382842548955789 -0.4035077318131633 0 -0.24394706363899241 -0.39877073912243299 0 -0.2351820232309369 -0.38700758852266848 0 -0.21479853281951461 -0.38638530273916921 0 -0.22412886374227589 -0.38235217247817599 0 -0.22382842548955789 -0.4035077318131633 0 -0.22412886374227589 -0.38235217247817599 0 -0.22382842548955789 -0.4035077318131633 0 -0.2351820232309369 -0.38700758852266848 0 -0.24697084661892749 -0.41526345823838401 0 -0.22382842548955789 -0.4035077318131633 0 -0.24394706363899241 -0.39877073912243299 0 -0.2504897110532438 -0.38524934403489181 0 -0.24394706363899241 -0.39877073912243299 0 -0.2351820232309369 -0.38700758852266848 0 -0.2504897110532438 -0.38524934403489181 0 -0.2351820232309369 -0.38700758852266848 0 -0.24036284435674521 -0.37772398595485779 0 -0.2351820232309369 -0.38700758852266848 0 -0.24036284435674521 -0.37772398595485779 0 -0.22952037500089251 -0.37311519752493849 0 -0.2504897110532438 -0.38524934403489181 0 -0.24036284435674521 -0.37772398595485779 0 -0.24839247009954951 -0.37292447016044328 0 -0.24839247009954951 -0.37292447016044328 0 -0.24532753696728959 -0.36501789644951049 0 -0.23861636880082099 -0.36955921174380651 0 -0.24036284435674521 -0.37772398595485779 0 -0.24839247009954951 -0.37292447016044328 0 -0.23861636880082099 -0.36955921174380651 0 -0.25757508569408222 -0.36424633604315798 0 -0.24532753696728959 -0.36501789644951049 0 -0.24650166737573331 -0.3569693529562265 0 -0.24532753696728959 -0.36501789644951049 0 -0.24234943749700691 -0.36154613291017651 0 -0.24650166737573331 -0.3569693529562265 0 -0.24532753696728959 -0.36501789644951049 0 -0.24234943749700691 -0.36154613291017651 0 -0.23928568589256061 -0.36455139619594779 0 -0.24234943749700691 -0.36154613291017651 0 -0.23928568589256061 -0.36455139619594779 0 -0.23696933381926599 -0.3585493042599866 0 -0.24532753696728959 -0.36501789644951049 0 -0.23928568589256061 -0.36455139619594779 0 -0.23861636880082099 -0.36955921174380651 0 -0.23928568589256061 -0.36455139619594779 0 -0.23861636880082099 -0.36955921174380651 0 -0.23345080570298909 -0.36409891217005902 0 -0.23928568589256061 -0.36455139619594779 0 -0.23345080570298909 -0.36409891217005902 0 -0.23696933381926599 -0.3585493042599866 0 -0.24036284435674521 -0.37772398595485779 0 -0.23861636880082099 -0.36955921174380651 0 -0.22952037500089251 -0.37311519752493849 0 -0.23345080570298909 -0.36409891217005902 0 -0.22186900287429051 -0.37074082218821958 0 -0.21424807490234879 -0.36231527430669241 0 -0.22952037500089251 -0.37311519752493849 0 -0.23345080570298909 -0.36409891217005902 0 -0.22186900287429051 -0.37074082218821958 0 -0.23696933381926599 -0.3585493042599866 0 -0.21424807490234879 -0.36231527430669241 0 -0.23861636880082099 -0.36955921174380651 0 -0.22952037500089251 -0.37311519752493849 0 -0.23345080570298909 -0.36409891217005902 0 -0.23345080570298909 -0.36409891217005902 0 -0.23696933381926599 -0.3585493042599866 0 -0.21424807490234879 -0.36231527430669241 0 -0.22913587473404851 -0.35200963246311751 0 -0.2097464541822805 -0.33582260124732738 0 -0.22913587473404851 -0.35200963246311751 0 -0.23696933381926599 -0.3585493042599866 0 -0.21424807490234879 -0.36231527430669241 0 -0.22913587473404851 -0.35200963246311751 0 -0.21998707993494029 -0.33959044394559312 0 -0.22913587473404851 -0.35200963246311751 0 -0.21424807490234879 -0.36231527430669241 0 -0.22913587473404851 -0.35200963246311751 0 -0.23696933381926599 -0.3585493042599866 0 -0.22913587473404851 -0.35200963246311751 0 -0.24881121389389799 -0.33838995723746451 0 -0.22913587473404851 -0.35200963246311751 0 -0.23696933381926599 -0.3585493042599866 0 -0.24650166737573331 -0.3569693529562265 0 -0.22913587473404851 -0.35200963246311751 0 -0.24650166737573331 -0.3569693529562265 0 -0.24881121389389799 -0.33838995723746451 0 -0.23696933381926599 -0.3585493042599866 0 -0.24650166737573331 -0.3569693529562265 0 -0.24234943749700691 -0.36154613291017651 0 -0.23696933381926599 -0.3585493042599866 0 -0.24650166737573331 -0.3569693529562265 0 -0.22913587473404851 -0.35200963246311751 0 -0.24881121389389799 -0.33838995723746451 0 -0.2325545649384867 -0.33453283978227571 0 -0.24881121389389799 -0.33838995723746451 0 -0.2441082332202735 -0.32380704628422963 0 -0.2325545649384867 -0.33453283978227571 0 -0.23613058105125781 -0.31890710479075163 0 -0.2279063026952847 -0.3135077128279592 0 -0.2444966906846206 -0.31181945912301329 0 -0.2441082332202735 -0.32380704628422963 0 -0.23498207165859719 -0.32537142019391418 0 -0.23613058105125781 -0.31890710479075163 0 -0.2441082332202735 -0.32380704628422963 0 -0.23498207165859719 -0.32537142019391418 0 -0.2325545649384867 -0.33453283978227571 0 -0.2441082332202735 -0.32380704628422963 0 -0.23613058105125781 -0.31890710479075163 0 -0.2444966906846206 -0.31181945912301329 0 -0.2279063026952847 -0.3135077128279592 0 -0.2193464910840433 -0.31976030368968739 0 -0.21134622408423179 -0.310554889255794 0 -0.23613058105125781 -0.31890710479075163 0 -0.2279063026952847 -0.3135077128279592 0 -0.22829430606921119 -0.32293804105388452 0 -0.23498207165859719 -0.32537142019391418 0 -0.22829430606921119 -0.32293804105388452 0 -0.2325545649384867 -0.33453283978227571 0 -0.23498207165859719 -0.32537142019391418 0 -0.23613058105125781 -0.31890710479075163 0 -0.22829430606921119 -0.32293804105388452 0 -0.22829430606921119 -0.32293804105388452 0 -0.2193464910840433 -0.31976030368968739 0 -0.22209033975117781 -0.32887735541776358 0 -0.2279063026952847 -0.3135077128279592 0 -0.22829430606921119 -0.32293804105388452 0 -0.2193464910840433 -0.31976030368968739 0 -0.22913587473404851 -0.35200963246311751 0 -0.2325545649384867 -0.33453283978227571 0 -0.21998707993494029 -0.33959044394559312 0 -0.22913587473404851 -0.35200963246311751 0 -0.21998707993494029 -0.33959044394559312 0 -0.2097464541822805 -0.33582260124732738 0 -0.22829430606921119 -0.32293804105388452 0 -0.2325545649384867 -0.33453283978227571 0 -0.22209033975117781 -0.32887735541776358 0 -0.2325545649384867 -0.33453283978227571 0 -0.22209033975117781 -0.32887735541776358 0 -0.21998707993494029 -0.33959044394559312 0 -0.21998707993494029 -0.33959044394559312 0 -0.21026925672920721 -0.32756514861737779 0 -0.22209033975117781 -0.32887735541776358 0 -0.21998707993494029 -0.33959044394559312 0 -0.21026925672920721 -0.32756514861737779 0 -0.21998707993494029 -0.33959044394559312 0 -0.2097464541822805 -0.33582260124732738 0 -0.21026925672920721 -0.32756514861737779 0 -0.2097464541822805 -0.33582260124732738 0 -0.21026925672920721 -0.32756514861737779 0 -0.21026925672920721 -0.32756514861737779 0 -0.21134622408423179 -0.310554889255794 0 -0.19267178705524021 -0.30578920503631912 0 -0.21026925672920721 -0.32756514861737779 0 -0.21134622408423179 -0.310554889255794 0 -0.2097464541822805 -0.33582260124732738 0 -0.21026925672920721 -0.32756514861737779 0 -0.19254159852174429 -0.31996122112867409 0 -0.2193464910840433 -0.31976030368968739 0 -0.21026925672920721 -0.32756514861737779 0 -0.21134622408423179 -0.310554889255794 0 -0.2193464910840433 -0.31976030368968739 0 -0.22209033975117781 -0.32887735541776358 0 -0.21026925672920721 -0.32756514861737779 0 -0.2097464541822805 -0.33582260124732738 0 -0.1943588054861482 -0.32297640251143073 0 -0.19254159852174429 -0.31996122112867409 0 -0.21026925672920721 -0.32756514861737779 0 -0.19267178705524021 -0.30578920503631912 0 -0.21026925672920721 -0.32756514861737779 0 -0.19254159852174429 -0.31996122112867409 0 -0.19267178705524021 -0.30578920503631912 0 -0.2097464541822805 -0.33582260124732738 0 -0.19254159852174429 -0.31996122112867409 0 -0.1943588054861482 -0.32297640251143073 0 -0.18737083868624629 -0.33075534874643497 0 -0.18479650728396149 -0.32227615663527998 0 -0.1943588054861482 -0.32297640251143073 0 -0.19254159852174429 -0.31996122112867409 0 -0.1789711567900161 -0.3101302037755338 0 -0.2097464541822805 -0.33582260124732738 0 -0.19466829689393059 -0.33824472710720138 0 -0.19565175395430129 -0.3512554891803924 0 -0.2097464541822805 -0.33582260124732738 0 -0.1943588054861482 -0.32297640251143073 0 -0.19466829689393059 -0.33824472710720138 0 -0.2097464541822805 -0.33582260124732738 0 -0.1943588054861482 -0.32297640251143073 0 -0.1943588054861482 -0.32297640251143073 0 -0.19466829689393059 -0.33824472710720138 0 -0.18737083868624629 -0.33075534874643497 0 -0.19466829689393059 -0.33824472710720138 0 -0.18164424501215659 -0.34621916084723381 0 -0.18737083868624629 -0.33075534874643497 0 -0.19466829689393059 -0.33824472710720138 0 -0.19565175395430129 -0.3512554891803924 0 -0.18164424501215659 -0.34621916084723381 0 -0.20800359978069241 -0.36335027445133922 0 -0.18480326185087809 -0.36719565018674682 0 -0.19565175395430129 -0.3512554891803924 0 -0.20800359978069241 -0.36335027445133922 0 -0.18480326185087809 -0.36719565018674682 0 -0.2014200033848125 -0.37119512976538899 0 -0.18480326185087809 -0.36719565018674682 0 -0.18579747934449059 -0.37379744869579251 0 -0.2014200033848125 -0.37119512976538899 0 -0.20800359978069241 -0.36335027445133922 0 -0.18480326185087809 -0.36719565018674682 0 -0.2014200033848125 -0.37119512976538899 0 -0.20800359978069241 -0.36335027445133922 0 -0.20803809997708481 -0.36661394692190907 0 -0.20800359978069241 -0.36335027445133922 0 -0.20803809997708481 -0.36661394692190907 0 -0.21424807490234879 -0.36231527430669241 0 -0.20800359978069241 -0.36335027445133922 0 -0.20803809997708481 -0.36661394692190907 0 -0.2014200033848125 -0.37119512976538899 0 -0.20803809997708481 -0.36661394692190907 0 -0.21335741342528061 -0.3748607861064962 0 -0.2014200033848125 -0.37119512976538899 0 -0.20803809997708481 -0.36661394692190907 0 -0.20803809997708481 -0.36661394692190907 0 -0.21335741342528061 -0.3748607861064962 0 -0.21424807490234879 -0.36231527430669241 0 -0.22186900287429051 -0.37074082218821958 0 -0.21335741342528061 -0.3748607861064962 0 -0.21424807490234879 -0.36231527430669241 0 -0.20800359978069241 -0.36335027445133922 0 -0.21424807490234879 -0.36231527430669241 0 -0.20803809997708481 -0.36661394692190907 0 -0.21424807490234879 -0.36231527430669241 0 -0.2097464541822805 -0.33582260124732738 0 -0.19565175395430129 -0.3512554891803924 0 -0.20800359978069241 -0.36335027445133922 0 -0.2097464541822805 -0.33582260124732738 0 -0.20800359978069241 -0.36335027445133922 0 -0.2097464541822805 -0.33582260124732738 0 -0.20800359978069241 -0.36335027445133922 0 -0.21424807490234879 -0.36231527430669241 0 -0.22913587473404851 -0.35200963246311751 0 -0.2097464541822805 -0.33582260124732738 0 -0.21424807490234879 -0.36231527430669241 0 -0.2335542019388327 -0.26090262277066528 0 -0.21472073189145299 -0.25725591714607071 0 -0.22837296648480071 -0.23789375384220129 0 -0.2335542019388327 -0.26090262277066528 0 -0.21357196166535461 -0.27540027352014051 0 -0.21472073189145299 -0.25725591714607071 0 -0.25298377122075039 -0.27518622721876451 0 -0.2335542019388327 -0.26090262277066528 0 -0.25431856302814809 -0.24833495949118861 0 -0.25298377122075039 -0.27518622721876451 0 -0.2335542019388327 -0.26090262277066528 0 -0.23093648268818689 -0.28342115129973 0 -0.2335542019388327 -0.26090262277066528 0 -0.23093648268818689 -0.28342115129973 0 -0.21357196166535461 -0.27540027352014051 0 -0.23093648268818689 -0.28342115129973 0 -0.21242319143925911 -0.29354462989421048 0 -0.21357196166535461 -0.27540027352014051 0 -0.23093648268818689 -0.28342115129973 0 -0.2435111179254994 -0.29490773243705071 0 -0.2284599410619414 -0.30268204450860919 0 -0.23093648268818689 -0.28342115129973 0 -0.2284599410619414 -0.30268204450860919 0 -0.21242319143925911 -0.29354462989421048 0 -0.25298377122075039 -0.27518622721876451 0 -0.23093648268818689 -0.28342115129973 0 -0.2435111179254994 -0.29490773243705071 0 -0.2444966906846206 -0.31181945912301329 0 -0.2284599410619414 -0.30268204450860919 0 -0.2435111179254994 -0.29490773243705071 0 -0.2444966906846206 -0.31181945912301329 0 -0.2284599410619414 -0.30268204450860919 0 -0.26057201890547982 -0.29344093798311832 0 -0.2435111179254994 -0.29490773243705071 0 -0.2444966906846206 -0.31181945912301329 0 -0.2279063026952847 -0.3135077128279592 0 -0.2444966906846206 -0.31181945912301329 0 -0.2284599410619414 -0.30268204450860919 0 -0.2284599410619414 -0.30268204450860919 0 -0.21242319143925911 -0.29354462989421048 0 -0.2279063026952847 -0.3135077128279592 0 -0.2284599410619414 -0.30268204450860919 0 -0.21134622408423179 -0.310554889255794 0 -0.2284599410619414 -0.30268204450860919 0 -0.21134622408423179 -0.310554889255794 0 -0.21242319143925911 -0.29354462989421048 0 -0.21134622408423179 -0.310554889255794 0 -0.19267178705524021 -0.30578920503631912 0 -0.21242319143925911 -0.29354462989421048 0 -0.21134622408423179 -0.310554889255794 0 -0.21242319143925911 -0.29354462989421048 0 -0.19267178705524021 -0.30578920503631912 0 -0.19410774352861071 -0.2831088592208712 0 -0.21242319143925911 -0.29354462989421048 0 -0.19410774352861071 -0.2831088592208712 0 -0.21242319143925911 -0.29354462989421048 0 -0.21357196166535461 -0.27540027352014051 0 -0.19410774352861071 -0.2831088592208712 0 -0.21242319143925911 -0.29354462989421048 0 -0.21242319143925911 -0.29354462989421048 0 -0.21357196166535461 -0.27540027352014051 0 -0.21357196166535461 -0.27540027352014051 0 -0.21472073189145299 -0.25725591714607071 0 -0.19410774352861071 -0.2831088592208712 0 -0.21357196166535461 -0.27540027352014051 0 -0.1965391795889786 -0.26204425282134669 0 -0.19410774352861071 -0.2831088592208712 0 -0.1965391795889786 -0.26204425282134669 0 -0.17579229561796161 -0.27267308854753308 0 -0.1965391795889786 -0.26204425282134669 0 -0.20565562739327201 -0.24334207984173631 0 -0.18863044441395099 -0.24733650333174401 0 -0.1965391795889786 -0.26204425282134669 0 -0.18340152769721799 -0.25642831405215172 0 -0.18863044441395099 -0.24733650333174401 0 -0.1965391795889786 -0.26204425282134669 0 -0.21472073189145299 -0.25725591714607071 0 -0.20565562739327201 -0.24334207984173631 0 -0.21357196166535461 -0.27540027352014051 0 -0.1965391795889786 -0.26204425282134669 0 -0.21472073189145299 -0.25725591714607071 0 -0.15747684770731041 -0.26223731787419863 0 -0.16344648285301799 -0.25937253054906129 0 -0.17579229561796161 -0.27267308854753308 0 -0.1593809120407062 -0.25278805690175971 0 -0.16344648285301799 -0.25937253054906129 0 -0.1534429259631987 -0.25724555178864622 0 -0.1593809120407062 -0.25278805690175971 0 -0.16344648285301799 -0.25937253054906129 0 -0.16709258238786229 -0.25188408856254202 0 -0.1593809120407062 -0.25278805690175971 0 -0.16709258238786229 -0.25188408856254202 0 -0.1601832428566283 -0.24550858739866141 0 -0.15747684770731041 -0.26223731787419863 0 -0.16344648285301799 -0.25937253054906129 0 -0.1534429259631987 -0.25724555178864622 0 -0.16344648285301799 -0.25937253054906129 0 -0.1534429259631987 -0.25724555178864622 0 -0.16344648285301799 -0.25937253054906129 0 -0.17379217291466831 -0.25992581321180469 0 -0.17579229561796161 -0.27267308854753308 0 -0.16344648285301799 -0.25937253054906129 0 -0.16709258238786229 -0.25188408856254202 0 -0.17379217291466831 -0.25992581321180469 0 -0.16709258238786229 -0.25188408856254202 0 -0.17679077873490559 -0.25046109420941731 0 -0.17379217291466831 -0.25992581321180469 0 -0.1965391795889786 -0.26204425282134669 0 -0.18340152769721799 -0.25642831405215172 0 -0.17579229561796161 -0.27267308854753308 0 -0.17679077873490559 -0.25046109420941731 0 -0.18340152769721799 -0.25642831405215172 0 -0.17379217291466831 -0.25992581321180469 0 -0.18340152769721799 -0.25642831405215172 0 -0.17379217291466831 -0.25992581321180469 0 -0.17579229561796161 -0.27267308854753308 0 -0.17679077873490559 -0.25046109420941731 0 -0.18340152769721799 -0.25642831405215172 0 -0.18863044441395099 -0.24733650333174401 0 -0.19410774352861071 -0.2831088592208712 0 -0.17579229561796161 -0.27267308854753308 0 -0.17507431738127369 -0.28401326145526029 0 -0.19410774352861071 -0.2831088592208712 0 -0.17579229561796161 -0.27267308854753308 0 -0.15747684770731041 -0.26223731787419863 0 -0.17507431738127369 -0.28401326145526029 0 -0.15747684770731041 -0.26223731787419863 0 -0.17579229561796161 -0.27267308854753308 0 -0.15747684770731041 -0.26223731787419863 0 -0.17579229561796161 -0.27267308854753308 0 -0.17507431738127369 -0.28401326145526029 0 -0.15747684770731041 -0.26223731787419863 0 -0.1596399504195592 -0.27820623095404468 0 -0.17507431738127369 -0.28401326145526029 0 -0.1596399504195592 -0.27820623095404468 0 -0.1624028041075358 -0.29248408411088062 0 -0.1494793968803598 -0.28070198605355251 0 -0.1624028041075358 -0.29248408411088062 0 -0.15973767967650701 -0.30493196891575292 0 -0.15108397830665751 -0.29236825921418419 0 -0.1624028041075358 -0.29248408411088062 0 -0.17507431738127369 -0.28401326145526029 0 -0.17391538329452061 -0.29489800819007239 0 -0.1596399504195592 -0.27820623095404468 0 -0.1624028041075358 -0.29248408411088062 0 -0.17507431738127369 -0.28401326145526029 0 -0.19267178705524021 -0.30578920503631912 0 -0.19410774352861071 -0.2831088592208712 0 -0.17507431738127369 -0.28401326145526029 0 -0.19267178705524021 -0.30578920503631912 0 -0.17507431738127369 -0.28401326145526029 0 -0.17391538329452061 -0.29489800819007239 0 -0.19267178705524021 -0.30578920503631912 0 -0.17507431738127369 -0.28401326145526029 0 -0.17391538329452061 -0.29489800819007239 0 -0.17532621133471249 -0.30426618216820789 0 -0.19254159852174429 -0.31996122112867409 0 -0.19267178705524021 -0.30578920503631912 0 -0.17532621133471249 -0.30426618216820789 0 -0.19267178705524021 -0.30578920503631912 0 -0.17391538329452061 -0.29489800819007239 0 -0.17532621133471249 -0.30426618216820789 0 -0.19254159852174429 -0.31996122112867409 0 -0.17532621133471249 -0.30426618216820789 0 -0.1789711567900161 -0.3101302037755338 0 -0.19254159852174429 -0.31996122112867409 0 -0.17532621133471249 -0.30426618216820789 0 -0.17532621133471249 -0.30426618216820789 0 -0.15973767967650701 -0.30493196891575292 0 -0.16582550601247259 -0.31644195918285489 0 -0.1624028041075358 -0.29248408411088062 0 -0.17532621133471249 -0.30426618216820789 0 -0.15973767967650701 -0.30493196891575292 0 -0.1624028041075358 -0.29248408411088062 0 -0.17532621133471249 -0.30426618216820789 0 -0.1624028041075358 -0.29248408411088062 0 -0.17391538329452061 -0.29489800819007239 0 -0.17532621133471249 -0.30426618216820789 0 -0.144593184228827 -0.30237793828586917 0 -0.15261731536399281 -0.31699983390472031 0 -0.1327552185807534 -0.31482398186879779 0 -0.15973767967650701 -0.30493196891575292 0 -0.144593184228827 -0.30237793828586917 0 -0.15261731536399281 -0.31699983390472031 0 -0.15973767967650701 -0.30493196891575292 0 -0.144593184228827 -0.30237793828586917 0 -0.15108397830665751 -0.29236825921418419 0 -0.144593184228827 -0.30237793828586917 0 -0.1304175251842298 -0.30012492429455973 0 -0.1327552185807534 -0.31482398186879779 0 -0.1304175251842298 -0.30012492429455973 0 -0.1327552185807534 -0.31482398186879779 0 -0.11567190875339491 -0.3081878681979589 0 -0.1304175251842298 -0.30012492429455973 0 -0.13697378053928061 -0.28594316463020741 0 -0.11725087491461519 -0.29108504565108578 0 -0.144593184228827 -0.30237793828586917 0 -0.1304175251842298 -0.30012492429455973 0 -0.13697378053928061 -0.28594316463020741 0 -0.13697378053928061 -0.28594316463020741 0 -0.15108397830665751 -0.29236825921418419 0 -0.1494793968803598 -0.28070198605355251 0 -0.144593184228827 -0.30237793828586917 0 -0.13697378053928061 -0.28594316463020741 0 -0.15108397830665751 -0.29236825921418419 0 -0.1624028041075358 -0.29248408411088062 0 -0.15108397830665751 -0.29236825921418419 0 -0.1494793968803598 -0.28070198605355251 0 -0.1624028041075358 -0.29248408411088062 0 -0.1494793968803598 -0.28070198605355251 0 -0.15747684770731041 -0.26223731787419863 0 -0.1596399504195592 -0.27820623095404468 0 -0.1503927610565664 -0.27179087804580171 0 -0.1596399504195592 -0.27820623095404468 0 -0.1494793968803598 -0.28070198605355251 0 -0.1503927610565664 -0.27179087804580171 0 -0.15747684770731041 -0.26223731787419863 0 -0.1503927610565664 -0.27179087804580171 0 -0.1469785187108 -0.2635474229235048 0 -0.1503927610565664 -0.27179087804580171 0 -0.13966748117377659 -0.26847157538705668 0 -0.1469785187108 -0.2635474229235048 0 -0.1503927610565664 -0.27179087804580171 0 -0.14153524490660671 -0.2763029116229278 0 -0.13966748117377659 -0.26847157538705668 0 -0.1494793968803598 -0.28070198605355251 0 -0.1503927610565664 -0.27179087804580171 0 -0.14153524490660671 -0.2763029116229278 0 -0.13697378053928061 -0.28594316463020741 0 -0.1494793968803598 -0.28070198605355251 0 -0.14153524490660671 -0.2763029116229278 0 -0.13697378053928061 -0.28594316463020741 0 -0.14153524490660671 -0.2763029116229278 0 -0.13219795163187159 -0.27110871778552531 0 -0.13697378053928061 -0.28594316463020741 0 -0.1173011125765811 -0.2721428964285707 0 -0.13697378053928061 -0.28594316463020741 0 -0.13219795163187159 -0.27110871778552531 0 -0.1173011125765811 -0.2721428964285707 0 -0.13219795163187159 -0.27110871778552531 0 -0.1333337708168415 -0.26377523499205202 0 -0.12600056203783161 -0.26301541000095829 0 -0.13219795163187159 -0.27110871778552531 0 -0.12600056203783161 -0.26301541000095829 0 -0.1173011125765811 -0.2721428964285707 0 -0.13219795163187159 -0.27110871778552531 0 -0.13966748117377659 -0.26847157538705668 0 -0.1333337708168415 -0.26377523499205202 0 -0.14153524490660671 -0.2763029116229278 0 -0.13219795163187159 -0.27110871778552531 0 -0.13966748117377659 -0.26847157538705668 0 -0.13966748117377659 -0.26847157538705668 0 -0.13807993829988649 -0.25979154560904222 0 -0.1333337708168415 -0.26377523499205202 0 -0.13807993829988649 -0.25979154560904222 0 -0.1333337708168415 -0.26377523499205202 0 -0.13072292094084129 -0.25648892617767749 0 -0.12600056203783161 -0.26301541000095829 0 -0.13072292094084129 -0.25648892617767749 0 -0.1187556211832122 -0.25814451816493872 0 -0.1333337708168415 -0.26377523499205202 0 -0.12600056203783161 -0.26301541000095829 0 -0.13072292094084129 -0.25648892617767749 0 -0.13072292094084129 -0.25648892617767749 0 -0.13218950310710981 -0.25272660122947088 0 -0.1187556211832122 -0.25814451816493872 0 -0.13072292094084129 -0.25648892617767749 0 -0.13218950310710981 -0.25272660122947088 0 -0.13218950310710981 -0.25272660122947088 0 -0.1459019403517107 -0.25564217047089421 0 -0.13375162957080131 -0.24871916986845621 0 -0.13218950310710981 -0.25272660122947088 0 -0.1459019403517107 -0.25564217047089421 0 -0.13218950310710981 -0.25272660122947088 0 -0.13375162957080131 -0.24871916986845621 0 -0.1459019403517107 -0.25564217047089421 0 -0.13375162957080131 -0.24871916986845621 0 -0.13807993829988649 -0.25979154560904222 0 -0.13218950310710981 -0.25272660122947088 0 -0.1459019403517107 -0.25564217047089421 0 -0.13807993829988649 -0.25979154560904222 0 -0.13072292094084129 -0.25648892617767749 0 -0.13218950310710981 -0.25272660122947088 0 -0.1459019403517107 -0.25564217047089421 0 -0.1534429259631987 -0.25724555178864622 0 -0.1378886282313006 -0.2381062402767252 0 -0.13966748117377659 -0.26847157538705668 0 -0.13807993829988649 -0.25979154560904222 0 -0.1469785187108 -0.2635474229235048 0 -0.13807993829988649 -0.25979154560904222 0 -0.1459019403517107 -0.25564217047089421 0 -0.1469785187108 -0.2635474229235048 0 -0.15747684770731041 -0.26223731787419863 0 -0.1459019403517107 -0.25564217047089421 0 -0.1534429259631987 -0.25724555178864622 0 -0.15747684770731041 -0.26223731787419863 0 -0.1459019403517107 -0.25564217047089421 0 -0.1469785187108 -0.2635474229235048 0 -0.15747684770731041 -0.26223731787419863 0 -0.1459019403517107 -0.25564217047089421 0 -0.15747684770731041 -0.26223731787419863 0 -0.1534429259631987 -0.25724555178864622 0 -0.1593809120407062 -0.25278805690175971 0 -0.1534429259631987 -0.25724555178864622 0 -0.15289321433053751 -0.246830478479277 0 -0.1459019403517107 -0.25564217047089421 0 -0.1534429259631987 -0.25724555178864622 0 -0.17143624801538501 -0.35840063883308271 0 -0.1580141783998408 -0.34710035810185619 0 -0.15489216358121211 -0.36256913283011211 0 -0.17143624801538501 -0.35840063883308271 0 -0.1580141783998408 -0.34710035810185619 0 -0.18164424501215659 -0.34621916084723381 0 -0.17143624801538501 -0.35840063883308271 0 -0.1663610822414904 -0.3702523776444529 0 -0.15489216358121211 -0.36256913283011211 0 -0.15951650330528561 -0.37856285477961621 0 -0.1663610822414904 -0.3702523776444529 0 -0.15489216358121211 -0.36256913283011211 0 -0.17143624801538501 -0.35840063883308271 0 -0.1663610822414904 -0.3702523776444529 0 -0.18480326185087809 -0.36719565018674682 0 -0.1663610822414904 -0.3702523776444529 0 -0.18480326185087809 -0.36719565018674682 0 -0.1663610822414904 -0.3702523776444529 0 -0.18480326185087809 -0.36719565018674682 0 -0.18579747934449059 -0.37379744869579251 0 -0.18480326185087809 -0.36719565018674682 0 -0.18579747934449059 -0.37379744869579251 0 -0.18480326185087809 -0.36719565018674682 0 -0.18164424501215659 -0.34621916084723381 0 -0.19565175395430129 -0.3512554891803924 0 -0.18480326185087809 -0.36719565018674682 0 -0.18164424501215659 -0.34621916084723381 0 -0.17143624801538501 -0.35840063883308271 0 -0.18480326185087809 -0.36719565018674682 0 -0.18164424501215659 -0.34621916084723381 0 -0.18164424501215659 -0.34621916084723381 0 -0.17848522817343529 -0.32524267150772068 0 -0.1629610955137164 -0.33076913941787212 0 -0.18164424501215659 -0.34621916084723381 0 -0.17848522817343529 -0.32524267150772068 0 -0.18164424501215659 -0.34621916084723381 0 -0.18737083868624629 -0.33075534874643497 0 -0.17848522817343529 -0.32524267150772068 0 -0.17532621133471249 -0.30426618216820789 0 -0.17848522817343529 -0.32524267150772068 0 -0.17532621133471249 -0.30426618216820789 0 -0.1789711567900161 -0.3101302037755338 0 -0.17848522817343529 -0.32524267150772068 0 -0.17532621133471249 -0.30426618216820789 0 -0.17848522817343529 -0.32524267150772068 0 -0.16582550601247259 -0.31644195918285489 0 -0.1943588054861482 -0.32297640251143073 0 -0.1789711567900161 -0.3101302037755338 0 -0.18479650728396149 -0.32227615663527998 0 -0.1789711567900161 -0.3101302037755338 0 -0.18479650728396149 -0.32227615663527998 0 -0.17848522817343529 -0.32524267150772068 0 -0.1943588054861482 -0.32297640251143073 0 -0.1789711567900161 -0.3101302037755338 0 -0.18737083868624629 -0.33075534874643497 0 -0.18479650728396149 -0.32227615663527998 0 -0.17848522817343529 -0.32524267150772068 0 -0.17848522817343529 -0.32524267150772068 0 -0.16582550601247259 -0.31644195918285489 0 -0.1629610955137164 -0.33076913941787212 0 -0.16582550601247259 -0.31644195918285489 0 -0.1629610955137164 -0.33076913941787212 0 -0.15261731536399281 -0.31699983390472031 0 -0.15973767967650701 -0.30493196891575292 0 -0.16582550601247259 -0.31644195918285489 0 -0.15261731536399281 -0.31699983390472031 0 -0.1580141783998408 -0.34710035810185619 0 -0.18164424501215659 -0.34621916084723381 0 -0.1629610955137164 -0.33076913941787212 0 -0.1580141783998408 -0.34710035810185619 0 -0.1629610955137164 -0.33076913941787212 0 -0.14559484309128301 -0.3331209990743299 0 -0.14559484309128301 -0.3331209990743299 0 -0.15261731536399281 -0.31699983390472031 0 -0.1327552185807534 -0.31482398186879779 0 -0.1629610955137164 -0.33076913941787212 0 -0.14559484309128301 -0.3331209990743299 0 -0.15261731536399281 -0.31699983390472031 0 -0.14559484309128301 -0.3331209990743299 0 -0.1327552185807534 -0.31482398186879779 0 -0.12678352480283511 -0.3369129194106073 0 -0.14559484309128301 -0.3331209990743299 0 -0.12678352480283511 -0.3369129194106073 0 -0.14043772588655989 -0.35211976174212622 0 -0.12678352480283511 -0.3369129194106073 0 -0.14043772588655989 -0.35211976174212622 0 -0.1203130985899742 -0.35955571918490481 0 -0.1580141783998408 -0.34710035810185619 0 -0.14043772588655989 -0.35211976174212622 0 -0.15489216358121211 -0.36256913283011211 0 -0.1580141783998408 -0.34710035810185619 0 -0.14559484309128301 -0.3331209990743299 0 -0.14043772588655989 -0.35211976174212622 0 -0.14043772588655989 -0.35211976174212622 0 -0.15489216358121211 -0.36256913283011211 0 -0.13959568407155781 -0.37291875636350952 0 -0.15951650330528561 -0.37856285477961621 0 -0.15489216358121211 -0.36256913283011211 0 -0.13959568407155781 -0.37291875636350952 0 -0.12625141541498519 -0.38197991289387551 0 -0.13959568407155781 -0.37291875636350952 0 -0.1203130985899742 -0.35955571918490481 0 -0.14043772588655989 -0.35211976174212622 0 -0.13959568407155781 -0.37291875636350952 0 -0.1203130985899742 -0.35955571918490481 0 -0.1203130985899742 -0.35955571918490481 0 -0.11384267237711319 -0.38219851895920232 0 -0.1203130985899742 -0.35955571918490481 0 -0.10849363524981311 -0.36442991456039969 0 -0.11384267237711319 -0.38219851895920232 0 -0.12625141541498519 -0.38197991289387551 0 -0.1203130985899742 -0.35955571918490481 0 -0.11384267237711319 -0.38219851895920232 0 -0.10849363524981311 -0.36442991456039969 0 -0.096157591159299352 -0.35547454281719221 0 -0.10176491866177829 -0.38015793077534599 0 -0.096157591159299352 -0.35547454281719221 0 -0.10176491866177829 -0.38015793077534599 0 -0.096157591159299352 -0.35547454281719221 0 -0.10176491866177829 -0.38015793077534599 0 -0.085276019388031976 -0.37619188405436782 0 -0.096157591159299352 -0.35547454281719221 0 -0.10964553082547281 -0.34513317088572909 0 -0.090550263656820479 -0.33079115485903843 0 -0.10849363524981311 -0.36442991456039969 0 -0.096157591159299352 -0.35547454281719221 0 -0.10964553082547281 -0.34513317088572909 0 -0.1203130985899742 -0.35955571918490481 0 -0.10849363524981311 -0.36442991456039969 0 -0.10964553082547281 -0.34513317088572909 0 -0.12678352480283511 -0.3369129194106073 0 -0.1203130985899742 -0.35955571918490481 0 -0.10964553082547281 -0.34513317088572909 0 -0.12678352480283511 -0.3369129194106073 0 -0.1203130985899742 -0.35955571918490481 0 -0.12678352480283511 -0.3369129194106073 0 -0.10964553082547281 -0.34513317088572909 0 -0.1112875311940303 -0.32576775904759792 0 -0.1327552185807534 -0.31482398186879779 0 -0.12678352480283511 -0.3369129194106073 0 -0.1112875311940303 -0.32576775904759792 0 -0.1327552185807534 -0.31482398186879779 0 -0.1112875311940303 -0.32576775904759792 0 -0.11567190875339491 -0.3081878681979589 0 -0.1112875311940303 -0.32576775904759792 0 -0.1011365257202933 -0.31403431577096802 0 -0.11567190875339491 -0.3081878681979589 0 -0.1112875311940303 -0.32576775904759792 0 -0.1011365257202933 -0.31403431577096802 0 -0.090550263656820479 -0.33079115485903843 0 -0.10964553082547281 -0.34513317088572909 0 -0.1112875311940303 -0.32576775904759792 0 -0.090550263656820479 -0.33079115485903843 0 -0.096157591159299352 -0.35547454281719221 0 -0.090550263656820479 -0.33079115485903843 0 -0.096157591159299352 -0.35547454281719221 0 -0.090550263656820479 -0.33079115485903843 0 -0.073144777225565616 -0.33606175945158517 0 -0.090550263656820479 -0.33079115485903843 0 -0.084942936154341619 -0.30610776690088481 0 -0.090550263656820479 -0.33079115485903843 0 -0.073144777225565616 -0.33606175945158517 0 -0.084942936154341619 -0.30610776690088481 0 -0.1011365257202933 -0.31403431577096802 0 -0.090550263656820479 -0.33079115485903843 0 -0.084942936154341619 -0.30610776690088481 0 -0.073144777225565616 -0.33606175945158517 0 -0.084942936154341619 -0.30610776690088481 0 -0.060613113796085999 -0.32288269869712272 0 -0.073144777225565616 -0.33606175945158517 0 -0.076755031766953086 -0.35884624094615858 0 -0.063306301319701316 -0.35299520754669739 0 -0.076755031766953086 -0.35884624094615858 0 -0.063306301319701316 -0.35299520754669739 0 -0.065890469742167113 -0.37350781086095058 0 -0.076755031766953086 -0.35884624094615858 0 -0.065890469742167113 -0.37350781086095058 0 -0.085276019388031976 -0.37619188405436782 0 -0.096157591159299352 -0.35547454281719221 0 -0.076755031766953086 -0.35884624094615858 0 -0.085276019388031976 -0.37619188405436782 0 -0.096157591159299352 -0.35547454281719221 0 -0.073144777225565616 -0.33606175945158517 0 -0.076755031766953086 -0.35884624094615858 0 -0.097628444613881649 -0.25834262822693399 0 -0.1173011125765811 -0.2721428964285707 0 -0.097628444613881649 -0.25834262822693399 0 -0.1187556211832122 -0.25814451816493872 0 -0.1098930818979398 -0.24798588601512411 0 -0.13218950310710981 -0.25272660122947088 0 -0.1187556211832122 -0.25814451816493872 0 -0.1098930818979398 -0.24798588601512411 0 -0.097628444613881649 -0.25834262822693399 0 -0.1187556211832122 -0.25814451816493872 0 -0.1173011125765811 -0.2721428964285707 0 -0.13218950310710981 -0.25272660122947088 0 -0.1098930818979398 -0.24798588601512411 0 -0.12600056203783161 -0.26301541000095829 0 -0.1187556211832122 -0.25814451816493872 0 -0.1173011125765811 -0.2721428964285707 0 -0.097628444613881649 -0.25834262822693399 0 -0.1173011125765811 -0.2721428964285707 0 -0.090762408808148426 -0.27102181932101072 0 -0.1173011125765811 -0.2721428964285707 0 -0.096655829275762523 -0.28444542957314378 0 -0.090762408808148426 -0.27102181932101072 0 -0.096655829275762523 -0.28444542957314378 0 -0.10322998884287909 -0.29931702984935987 0 -0.084942936154341619 -0.30610776690088481 0 -0.096655829275762523 -0.28444542957314378 0 -0.11725087491461519 -0.29108504565108578 0 -0.10322998884287909 -0.29931702984935987 0 -0.13697378053928061 -0.28594316463020741 0 -0.1173011125765811 -0.2721428964285707 0 -0.11725087491461519 -0.29108504565108578 0 -0.1173011125765811 -0.2721428964285707 0 -0.096655829275762523 -0.28444542957314378 0 -0.11725087491461519 -0.29108504565108578 0 -0.11725087491461519 -0.29108504565108578 0 -0.11567190875339491 -0.3081878681979589 0 -0.10322998884287909 -0.29931702984935987 0 -0.1304175251842298 -0.30012492429455973 0 -0.11725087491461519 -0.29108504565108578 0 -0.11567190875339491 -0.3081878681979589 0 -0.1011365257202933 -0.31403431577096802 0 -0.10322998884287909 -0.29931702984935987 0 -0.084942936154341619 -0.30610776690088481 0 -0.1011365257202933 -0.31403431577096802 0 -0.11567190875339491 -0.3081878681979589 0 -0.10322998884287909 -0.29931702984935987 0 -0.084942936154341619 -0.30610776690088481 0 -0.066237696895848033 -0.30175990202967712 0 -0.078368201618682937 -0.28822753231137022 0 -0.084942936154341619 -0.30610776690088481 0 -0.066237696895848033 -0.30175990202967712 0 -0.060613113796085999 -0.32288269869712272 0 -0.066237696895848033 -0.30175990202967712 0 -0.078368201618682937 -0.28822753231137022 0 -0.057136779716869042 -0.28712205926022771 0 -0.078368201618682937 -0.28822753231137022 0 -0.072744725061100565 -0.27289296274949931 0 -0.057136779716869042 -0.28712205926022771 0 -0.096655829275762523 -0.28444542957314378 0 -0.084942936154341619 -0.30610776690088481 0 -0.078368201618682937 -0.28822753231137022 0 -0.096655829275762523 -0.28444542957314378 0 -0.078368201618682937 -0.28822753231137022 0 -0.090762408808148426 -0.27102181932101072 0 -0.078368201618682937 -0.28822753231137022 0 -0.090762408808148426 -0.27102181932101072 0 -0.072744725061100565 -0.27289296274949931 0 -0.090762408808148426 -0.27102181932101072 0 -0.072744725061100565 -0.27289296274949931 0 -0.081281336266817772 -0.26097832242812891 0 -0.072744725061100565 -0.27289296274949931 0 -0.067161912638977472 -0.25903173736147111 0 -0.055745381016590281 -0.2682223094504298 0 -0.072744725061100565 -0.27289296274949931 0 -0.067161912638977472 -0.25903173736147111 0 -0.081281336266817772 -0.26097832242812891 0 -0.067161912638977472 -0.25903173736147111 0 -0.081281336266817772 -0.26097832242812891 0 -0.077955776651182085 -0.24454236002529731 0 -0.067161912638977472 -0.25903173736147111 0 -0.056939497423126581 -0.24878681181634871 0 -0.077955776651182085 -0.24454236002529731 0 -0.097628444613881649 -0.25834262822693399 0 -0.081281336266817772 -0.26097832242812891 0 -0.077955776651182085 -0.24454236002529731 0 -0.097628444613881649 -0.25834262822693399 0 -0.090762408808148426 -0.27102181932101072 0 -0.081281336266817772 -0.26097832242812891 0 -0.097628444613881649 -0.25834262822693399 0 -0.077955776651182085 -0.24454236002529731 0 -0.025857267464119819 -0.25506418495113531 0 -0.050191684441297867 -0.2485850187836515 0 -0.034199021844566052 -0.25740496373097072 0 -0.056939497423126581 -0.24878681181634871 0 -0.034199021844566052 -0.25740496373097072 0 -0.041398382443623198 -0.25192549838374201 0 -0.056939497423126581 -0.24878681181634871 0 -0.041398382443623198 -0.25192549838374201 0 -0.025857267464119819 -0.25506418495113531 0 -0.050191684441297867 -0.2485850187836515 0 -0.034199021844566052 -0.25740496373097072 0 -0.048255079716108998 -0.25800015923011232 0 -0.056939497423126581 -0.24878681181634871 0 -0.034199021844566052 -0.25740496373097072 0 -0.041398382443623198 -0.25192549838374201 0 -0.025857267464119819 -0.25506418495113531 0 -0.041398382443623198 -0.25192549838374201 0 -0.025857267464119819 -0.25506418495113531 0 -0.034199021844566052 -0.25740496373097072 0 -0.037307574571523318 -0.26201401924185519 0 -0.024854767991187229 -0.26705994663832661 0 -0.037307574571523318 -0.26201401924185519 0 -0.048255079716108998 -0.25800015923011232 0 -0.046606779304586107 -0.26584835010199509 0 -0.034199021844566052 -0.25740496373097072 0 -0.037307574571523318 -0.26201401924185519 0 -0.048255079716108998 -0.25800015923011232 0 -0.05702546769870083 -0.25851025446459042 0 -0.048255079716108998 -0.25800015923011232 0 -0.056939497423126581 -0.24878681181634871 0 -0.041398382443623198 -0.25192549838374201 0 -0.056939497423126581 -0.24878681181634871 0 -0.067161912638977472 -0.25903173736147111 0 -0.05702546769870083 -0.25851025446459042 0 -0.056939497423126581 -0.24878681181634871 0 -0.067161912638977472 -0.25903173736147111 0 -0.05702546769870083 -0.25851025446459042 0 -0.055745381016590281 -0.2682223094504298 0 -0.05702546769870083 -0.25851025446459042 0 -0.048255079716108998 -0.25800015923011232 0 -0.055745381016590281 -0.2682223094504298 0 -0.048255079716108998 -0.25800015923011232 0 -0.055745381016590281 -0.2682223094504298 0 -0.046606779304586107 -0.26584835010199509 0 -0.055745381016590281 -0.2682223094504298 0 -0.045119081914121867 -0.27515691248558288 0 -0.046606779304586107 -0.26584835010199509 0 -0.055745381016590281 -0.2682223094504298 0 -0.045119081914121867 -0.27515691248558288 0 -0.057136779716869042 -0.28712205926022771 0 -0.072744725061100565 -0.27289296274949931 0 -0.055745381016590281 -0.2682223094504298 0 -0.057136779716869042 -0.28712205926022771 0 -0.037307574571523318 -0.26201401924185519 0 -0.034478529498429812 -0.28951379058442123 0 -0.037307574571523318 -0.26201401924185519 0 -0.034478529498429812 -0.28951379058442123 0 -0.024854767991187229 -0.26705994663832661 0 -0.037307574571523318 -0.26201401924185519 0 -0.045119081914121867 -0.27515691248558288 0 -0.034478529498429812 -0.28951379058442123 0 -0.037307574571523318 -0.26201401924185519 0 -0.045119081914121867 -0.27515691248558288 0 -0.046606779304586107 -0.26584835010199509 0 -0.045119081914121867 -0.27515691248558288 0 -0.034478529498429812 -0.28951379058442123 0 -0.057136779716869042 -0.28712205926022771 0 -0.034478529498429812 -0.28951379058442123 0 -0.057136779716869042 -0.28712205926022771 0 -0.05012745319326059 -0.30445945297878008 0 -0.066237696895848033 -0.30175990202967712 0 -0.05012745319326059 -0.30445945297878008 0 -0.060613113796085999 -0.32288269869712272 0 -0.066237696895848033 -0.30175990202967712 0 -0.057136779716869042 -0.28712205926022771 0 -0.05012745319326059 -0.30445945297878008 0 -0.034478529498429812 -0.28951379058442123 0 -0.05012745319326059 -0.30445945297878008 0 -0.031649484425336299 -0.31701356192698721 0 -0.034478529498429812 -0.28951379058442123 0 -0.031649484425336299 -0.31701356192698721 0 -0.034478529498429812 -0.28951379058442123 0 -0.020284114256294641 -0.29759304008048471 0 -0.031649484425336299 -0.31701356192698721 0 -0.020284114256294641 -0.29759304008048471 0 -0.01007927323019326 -0.3103345258507364 0 -0.031649484425336299 -0.31701356192698721 0 -0.020284114256294641 -0.29759304008048471 0 -0.01007927323019326 -0.3103345258507364 0 -0.0080748459131490501 -0.2914060437848453 0 -0.01007927323019326 -0.3103345258507364 0 -0.0080748459131490501 -0.2914060437848453 0 0.0017563221397047381 -0.2997067901486577 0 -0.020284114256294641 -0.29759304008048471 0 -0.0080748459131490501 -0.2914060437848453 0 -0.017138438214364771 -0.27969727825543328 0 -0.0080748459131490501 -0.2914060437848453 0 -0.002848760243290064 -0.27761611820401882 0 0.0066437179820165657 -0.2861171845936395 0 -0.0080748459131490501 -0.2914060437848453 0 -0.017138438214364771 -0.27969727825543328 0 -0.002848760243290064 -0.27761611820401882 0 -0.034478529498429812 -0.28951379058442123 0 -0.020284114256294641 -0.29759304008048471 0 -0.017138438214364771 -0.27969727825543328 0 -0.034478529498429812 -0.28951379058442123 0 -0.024854767991187229 -0.26705994663832661 0 -0.017138438214364771 -0.27969727825543328 0 -0.024854767991187229 -0.26705994663832661 0 -0.01588915841142927 -0.27169793716392882 0 -0.01145854626600548 -0.26602311564559261 0 -0.024854767991187229 -0.26705994663832661 0 -0.01588915841142927 -0.27169793716392882 0 -0.017138438214364771 -0.27969727825543328 0 -0.017138438214364771 -0.27969727825543328 0 -0.011833725783772399 -0.27375861231724341 0 -0.002848760243290064 -0.27761611820401882 0 -0.01145854626600548 -0.26602311564559261 0 0.01128192931255503 -0.27464126756021451 0 -0.002848760243290064 -0.27761611820401882 0 -0.01145854626600548 -0.26602311564559261 0 0.01128192931255503 -0.27464126756021451 0 -0.01588915841142927 -0.27169793716392882 0 -0.017138438214364771 -0.27969727825543328 0 -0.011833725783772399 -0.27375861231724341 0 -0.011833725783772399 -0.27375861231724341 0 -0.002848760243290064 -0.27761611820401882 0 -0.01145854626600548 -0.26602311564559261 0 -0.01588915841142927 -0.27169793716392882 0 -0.011833725783772399 -0.27375861231724341 0 -0.01145854626600548 -0.26602311564559261 0 -0.01269776775011346 -0.25850600500130039 0 -0.0051360078472848583 -0.25701396995817721 0 0.0057158633005241696 -0.26337829885565528 0 -0.01145854626600548 -0.26602311564559261 0 -0.01269776775011346 -0.25850600500130039 0 0.0057158633005241696 -0.26337829885565528 0 -0.01269776775011346 -0.25850600500130039 0 0.0057158633005241696 -0.26337829885565528 0 -0.0009620894167222515 -0.25496392916579452 0 -0.0051360078472848583 -0.25701396995817721 0 0.0057158633005241696 -0.26337829885565528 0 -0.0071971320314794382 -0.2528457057960789 0 -0.01082738352359053 -0.24876902592697839 0 -0.0029313858115674811 -0.24854412401401971 0 -0.0009620894167222515 -0.25496392916579452 0 -0.0071971320314794382 -0.2528457057960789 0 -0.0029313858115674811 -0.24854412401401971 0 -0.0009620894167222515 -0.25496392916579452 0 -0.0051360078472848583 -0.25701396995817721 0 -0.0071971320314794382 -0.2528457057960789 0 -0.0051360078472848583 -0.25701396995817721 0 -0.0071971320314794382 -0.2528457057960789 0 -0.0094143843739788544 -0.25459574361389747 0 -0.0071971320314794382 -0.2528457057960789 0 -0.0094143843739788544 -0.25459574361389747 0 -0.01082738352359053 -0.24876902592697839 0 -0.01269776775011346 -0.25850600500130039 0 -0.0094143843739788544 -0.25459574361389747 0 -0.01082738352359053 -0.24876902592697839 0 -0.01269776775011346 -0.25850600500130039 0 -0.0051360078472848583 -0.25701396995817721 0 -0.0094143843739788544 -0.25459574361389747 0 -0.01269776775011346 -0.25850600500130039 0 -0.025857267464119819 -0.25506418495113531 0 -0.034199021844566052 -0.25740496373097072 0 -0.01145854626600548 -0.26602311564559261 0 -0.025857267464119819 -0.25506418495113531 0 -0.01269776775011346 -0.25850600500130039 0 -0.025857267464119819 -0.25506418495113531 0 -0.02368513365757598 -0.23851275990414511 0 -0.034199021844566052 -0.25740496373097072 0 -0.024854767991187229 -0.26705994663832661 0 -0.01145854626600548 -0.26602311564559261 0 -0.034199021844566052 -0.25740496373097072 0 -0.01145854626600548 -0.26602311564559261 0 -0.01145854626600548 -0.26602311564559261 0 -0.01269776775011346 -0.25850600500130039 0 -0.025857267464119819 -0.25506418495113531 0 -0.046940286889098168 -0.35955036210978841 0 -0.050269733973634309 -0.3392354021108881 0 -0.02882043935224279 -0.34451333326955308 0 -0.046940286889098168 -0.35955036210978841 0 -0.02882043935224279 -0.34451333326955308 0 -0.026419717968229769 -0.36867473508972981 0 -0.046940286889098168 -0.35955036210978841 0 -0.026419717968229769 -0.36867473508972981 0 -0.046935058978613817 -0.3783756837809118 0 -0.065890469742167113 -0.37350781086095058 0 -0.046940286889098168 -0.35955036210978841 0 -0.046935058978613817 -0.3783756837809118 0 -0.063306301319701316 -0.35299520754669739 0 -0.065890469742167113 -0.37350781086095058 0 -0.046940286889098168 -0.35955036210978841 0 -0.063306301319701316 -0.35299520754669739 0 -0.046940286889098168 -0.35955036210978841 0 -0.050269733973634309 -0.3392354021108881 0 -0.073144777225565616 -0.33606175945158517 0 -0.063306301319701316 -0.35299520754669739 0 -0.050269733973634309 -0.3392354021108881 0 -0.073144777225565616 -0.33606175945158517 0 -0.050269733973634309 -0.3392354021108881 0 -0.060613113796085999 -0.32288269869712272 0 -0.050269733973634309 -0.3392354021108881 0 -0.060613113796085999 -0.32288269869712272 0 -0.031649484425336299 -0.31701356192698721 0 -0.05012745319326059 -0.30445945297878008 0 -0.060613113796085999 -0.32288269869712272 0 -0.031649484425336299 -0.31701356192698721 0 -0.050269733973634309 -0.3392354021108881 0 -0.031649484425336299 -0.31701356192698721 0 -0.02882043935224279 -0.34451333326955308 0 -0.031649484425336299 -0.31701356192698721 0 -0.02882043935224279 -0.34451333326955308 0 -0.031649484425336299 -0.31701356192698721 0 -0.0038616663111063101 -0.33241552487502413 0 -0.02882043935224279 -0.34451333326955308 0 -0.01007927323019326 -0.3103345258507364 0 -0.031649484425336299 -0.31701356192698721 0 -0.0038616663111063101 -0.33241552487502413 0 -0.01007927323019326 -0.3103345258507364 0 -0.0038616663111063101 -0.33241552487502413 0 0.0094652366165251054 -0.31053241408104548 0 -0.0038616663111063101 -0.33241552487502413 0 -0.0043130761299947744 -0.35643483176966217 0 -0.02882043935224279 -0.34451333326955308 0 -0.0043130761299947744 -0.35643483176966217 0 -0.02882043935224279 -0.34451333326955308 0 -0.026419717968229769 -0.36867473508972981 0 -0.0043130761299947744 -0.35643483176966217 0 -0.026419717968229769 -0.36867473508972981 0 -0.0064694903547723136 -0.38059021958606692 0 -0.0064694903547723136 -0.38059021958606692 0 -0.0080625817845775948 -0.40608726553411861 0 -0.026496984295852101 -0.39226102623928111 0 -0.0064694903547723136 -0.38059021958606692 0 -0.0080625817845775948 -0.40608726553411861 0 0.009690974369139977 -0.39295199195252922 0 -0.0080625817845775948 -0.40608726553411861 0 -0.026496984295852101 -0.39226102623928111 0 -0.029852467816379728 -0.41236872525256307 0 -0.026419717968229769 -0.36867473508972981 0 -0.0064694903547723136 -0.38059021958606692 0 -0.026496984295852101 -0.39226102623928111 0 -0.026496984295852101 -0.39226102623928111 0 -0.048213792324517578 -0.39768762776665978 0 -0.046935058978613817 -0.3783756837809118 0 -0.026419717968229769 -0.36867473508972981 0 -0.026496984295852101 -0.39226102623928111 0 -0.046935058978613817 -0.3783756837809118 0 -0.026496984295852101 -0.39226102623928111 0 -0.048213792324517578 -0.39768762776665978 0 -0.029852467816379728 -0.41236872525256307 0 -0.048213792324517578 -0.39768762776665978 0 -0.065379196062645584 -0.39052657147488062 0 -0.06528413140028641 -0.40548789039177052 0 -0.048213792324517578 -0.39768762776665978 0 -0.046935058978613817 -0.3783756837809118 0 -0.065379196062645584 -0.39052657147488062 0 -0.065890469742167113 -0.37350781086095058 0 -0.046935058978613817 -0.3783756837809118 0 -0.065379196062645584 -0.39052657147488062 0 -0.052630130657334448 -0.42871109396582502 0 -0.036803499053157718 -0.43392585985635063 0 -0.055908543568221357 -0.44353945242809251 0 -0.052630130657334448 -0.42871109396582502 0 -0.048282499091199083 -0.41684649723306111 0 -0.065713266975248902 -0.42040157794015642 0 -0.052630130657334448 -0.42871109396582502 0 -0.055908543568221357 -0.44353945242809251 0 -0.077753046024815156 -0.43509142098737241 0 -0.048282499091199083 -0.41684649723306111 0 -0.06528413140028641 -0.40548789039177052 0 -0.065713266975248902 -0.42040157794015642 0 -0.048213792324517578 -0.39768762776665978 0 -0.048282499091199083 -0.41684649723306111 0 -0.06528413140028641 -0.40548789039177052 0 -0.048213792324517578 -0.39768762776665978 0 -0.048282499091199083 -0.41684649723306111 0 -0.029852467816379728 -0.41236872525256307 0 -0.048282499091199083 -0.41684649723306111 0 -0.036803499053157718 -0.43392585985635063 0 -0.029852467816379728 -0.41236872525256307 0 -0.052630130657334448 -0.42871109396582502 0 -0.048282499091199083 -0.41684649723306111 0 -0.036803499053157718 -0.43392585985635063 0 -0.036803499053157718 -0.43392585985635063 0 -0.01686747062211669 -0.42668809062348251 0 -0.022482277956740859 -0.44034230556013138 0 -0.036803499053157718 -0.43392585985635063 0 -0.01686747062211669 -0.42668809062348251 0 -0.029852467816379728 -0.41236872525256307 0 -0.0080625817845775948 -0.40608726553411861 0 -0.01686747062211669 -0.42668809062348251 0 -0.029852467816379728 -0.41236872525256307 0 -0.0080625817845775948 -0.40608726553411861 0 -0.01686747062211669 -0.42668809062348251 0 0.01224976062295041 -0.42183763890738629 0 -0.01686747062211669 -0.42668809062348251 0 -0.008216644178786571 -0.4466179140804285 0 0.01224976062295041 -0.42183763890738629 0 -0.008216644178786571 -0.4466179140804285 0 -0.0021957942935651631 -0.46571035637089769 0 -0.016151777162071251 -0.46269316979172348 0 -0.0021957942935651631 -0.46571035637089769 0 -0.016151777162071251 -0.46269316979172348 0 -0.01292321871024151 -0.47600360382280887 0 -0.008216644178786571 -0.4466179140804285 0 -0.016151777162071251 -0.46269316979172348 0 -0.028753682251359231 -0.45370767630375852 0 -0.016151777162071251 -0.46269316979172348 0 -0.030722049445265721 -0.46513815794063051 0 -0.025757536927686689 -0.47561542944709773 0 -0.016151777162071251 -0.46269316979172348 0 -0.030722049445265721 -0.46513815794063051 0 -0.028753682251359231 -0.45370767630375852 0 -0.036803499053157718 -0.43392585985635063 0 -0.028753682251359231 -0.45370767630375852 0 -0.022482277956740859 -0.44034230556013138 0 -0.01686747062211669 -0.42668809062348251 0 -0.008216644178786571 -0.4466179140804285 0 -0.022482277956740859 -0.44034230556013138 0 -0.008216644178786571 -0.4466179140804285 0 -0.028753682251359231 -0.45370767630375852 0 -0.022482277956740859 -0.44034230556013138 0 -0.011489863113854141 -0.5 0 -0.010144146689038991 -0.48941639725935437 0 0.012735562036971701 -0.48508522326900949 0 -0.010144146689038991 -0.48941639725935437 0 -0.00065605929082254884 -0.47874224407546379 0 -0.01292321871024151 -0.47600360382280887 0 -0.010144146689038991 -0.48941639725935437 0 -0.01292321871024151 -0.47600360382280887 0 -0.022633997898264431 -0.48384402599231691 0 -0.0021957942935651631 -0.46571035637089769 0 -0.00065605929082254884 -0.47874224407546379 0 -0.01292321871024151 -0.47600360382280887 0 -0.016151777162071251 -0.46269316979172348 0 -0.01292321871024151 -0.47600360382280887 0 -0.025757536927686689 -0.47561542944709773 0 -0.025757536927686689 -0.47561542944709773 0 -0.022633997898264431 -0.48384402599231691 0 -0.032724513000240443 -0.48384135401243772 0 -0.01292321871024151 -0.47600360382280887 0 -0.025757536927686689 -0.47561542944709773 0 -0.022633997898264431 -0.48384402599231691 0 -0.011489863113854141 -0.5 0 -0.010144146689038991 -0.48941639725935437 0 -0.033023855415049652 -0.49374757124969931 0 -0.010144146689038991 -0.48941639725935437 0 -0.022633997898264431 -0.48384402599231691 0 -0.033023855415049652 -0.49374757124969931 0 -0.011489863113854141 -0.5 0 -0.041002190054857779 -0.5 0 -0.033023855415049652 -0.49374757124969931 0 -0.010144146689038991 -0.48941639725935437 0 -0.033023855415049652 -0.49374757124969931 0 -0.022633997898264431 -0.48384402599231691 0 -0.033023855415049652 -0.49374757124969931 0 -0.032724513000240443 -0.48384135401243772 0 -0.041002190054857779 -0.5 0 -0.040644419244316249 -0.48874723383863622 0 -0.055758353525359711 -0.48944453406372251 0 -0.041002190054857779 -0.5 0 -0.033023855415049652 -0.49374757124969931 0 -0.040644419244316249 -0.48874723383863622 0 -0.033023855415049652 -0.49374757124969931 0 -0.040644419244316249 -0.48874723383863622 0 -0.032724513000240443 -0.48384135401243772 0 -0.040644419244316249 -0.48874723383863622 0 -0.040713184226073652 -0.47670270986732172 0 -0.055758353525359711 -0.48944453406372251 0 -0.040644419244316249 -0.48874723383863622 0 -0.040713184226073652 -0.47670270986732172 0 -0.032724513000240443 -0.48384135401243772 0 -0.025757536927686689 -0.47561542944709773 0 -0.040713184226073652 -0.47670270986732172 0 -0.032724513000240443 -0.48384135401243772 0 -0.030722049445265721 -0.46513815794063051 0 -0.025757536927686689 -0.47561542944709773 0 -0.040713184226073652 -0.47670270986732172 0 -0.040713184226073652 -0.47670270986732172 0 -0.05604151524233808 -0.47085547185542692 0 -0.042137987481662489 -0.46199998676314519 0 -0.040713184226073652 -0.47670270986732172 0 -0.05604151524233808 -0.47085547185542692 0 -0.055758353525359711 -0.48944453406372251 0 -0.05604151524233808 -0.47085547185542692 0 -0.055758353525359711 -0.48944453406372251 0 -0.068357021366280857 -0.47830767763467641 0 -0.041002190054857779 -0.5 0 -0.055758353525359711 -0.48944453406372251 0 -0.070514516995861642 -0.5 0 -0.036803499053157718 -0.43392585985635063 0 -0.028753682251359231 -0.45370767630375852 0 -0.042591220718736618 -0.44931976272637059 0 -0.036803499053157718 -0.43392585985635063 0 -0.042591220718736618 -0.44931976272637059 0 -0.055908543568221357 -0.44353945242809251 0 -0.028753682251359231 -0.45370767630375852 0 -0.042591220718736618 -0.44931976272637059 0 -0.042137987481662489 -0.46199998676314519 0 -0.030722049445265721 -0.46513815794063051 0 -0.028753682251359231 -0.45370767630375852 0 -0.042137987481662489 -0.46199998676314519 0 -0.030722049445265721 -0.46513815794063051 0 -0.040713184226073652 -0.47670270986732172 0 -0.042137987481662489 -0.46199998676314519 0 -0.042591220718736618 -0.44931976272637059 0 -0.042137987481662489 -0.46199998676314519 0 -0.054601469153056192 -0.45704509188174619 0 -0.05604151524233808 -0.47085547185542692 0 -0.054601469153056192 -0.45704509188174619 0 -0.071896784036839162 -0.45711427830285839 0 -0.05604151524233808 -0.47085547185542692 0 -0.042137987481662489 -0.46199998676314519 0 -0.054601469153056192 -0.45704509188174619 0 -0.054601469153056192 -0.45704509188174619 0 -0.055908543568221357 -0.44353945242809251 0 -0.071896784036839162 -0.45711427830285839 0 -0.042591220718736618 -0.44931976272637059 0 -0.054601469153056192 -0.45704509188174619 0 -0.055908543568221357 -0.44353945242809251 0 -0.055908543568221357 -0.44353945242809251 0 -0.071896784036839162 -0.45711427830285839 0 -0.077753046024815156 -0.43509142098737241 0 -0.071896784036839162 -0.45711427830285839 0 -0.087573937031005744 -0.47412410395137422 0 -0.093954286744555499 -0.45179652052777369 0 -0.087573937031005744 -0.47412410395137422 0 -0.093954286744555499 -0.45179652052777369 0 -0.071896784036839162 -0.45711427830285839 0 -0.093954286744555499 -0.45179652052777369 0 -0.077753046024815156 -0.43509142098737241 0 -0.093954286744555499 -0.45179652052777369 0 -0.10033463645810529 -0.42946893710417328 0 -0.077753046024815156 -0.43509142098737241 0 -0.055758353525359711 -0.48944453406372251 0 -0.070514516995861642 -0.5 0 -0.068357021366280857 -0.47830767763467641 0 -0.05604151524233808 -0.47085547185542692 0 -0.071896784036839162 -0.45711427830285839 0 -0.068357021366280857 -0.47830767763467641 0 -0.071896784036839162 -0.45711427830285839 0 -0.068357021366280857 -0.47830767763467641 0 -0.087573937031005744 -0.47412410395137422 0 -0.070514516995861642 -0.5 0 -0.068357021366280857 -0.47830767763467641 0 -0.087573937031005744 -0.47412410395137422 0 -0.070514516995861642 -0.5 0 -0.087573937031005744 -0.47412410395137422 0 -0.10002684393686551 -0.5 0 -0.087573937031005744 -0.47412410395137422 0 -0.10002684393686551 -0.5 0 -0.10780494223314389 -0.47765854937150709 0 -0.087573937031005744 -0.47412410395137422 0 -0.10780494223314389 -0.47765854937150709 0 -0.1029954147344513 -0.46359439800738522 0 -0.12605423818426559 -0.48707922202292669 0 -0.10780494223314389 -0.47765854937150709 0 -0.1201929706126502 -0.46127799294672761 0 -0.12605423818426559 -0.48707922202292669 0 -0.1201929706126502 -0.46127799294672761 0 -0.12605423818426559 -0.48707922202292669 0 -0.10002684393686551 -0.5 0 -0.10780494223314389 -0.47765854937150709 0 -0.1295391708778694 -0.5 0 -0.12605423818426559 -0.48707922202292669 0 -0.10002684393686551 -0.5 0 -0.093954286744555499 -0.45179652052777369 0 -0.10033463645810529 -0.42946893710417328 0 -0.10636180231815941 -0.44832292249131772 0 -0.11433170304103479 -0.43547676387052858 0 -0.10033463645810529 -0.42946893710417328 0 -0.10636180231815941 -0.44832292249131772 0 -0.093954286744555499 -0.45179652052777369 0 -0.10033463645810529 -0.42946893710417328 0 -0.087573937031005744 -0.47412410395137422 0 -0.093954286744555499 -0.45179652052777369 0 -0.1029954147344513 -0.46359439800738522 0 -0.10636180231815941 -0.44832292249131772 0 -0.093954286744555499 -0.45179652052777369 0 -0.1029954147344513 -0.46359439800738522 0 -0.10780494223314389 -0.47765854937150709 0 -0.1029954147344513 -0.46359439800738522 0 -0.1201929706126502 -0.46127799294672761 0 -0.10636180231815941 -0.44832292249131772 0 -0.1029954147344513 -0.46359439800738522 0 -0.1201929706126502 -0.46127799294672761 0 -0.13671083813600751 -0.45044361347006462 0 -0.1201929706126502 -0.46127799294672761 0 -0.11433170304103479 -0.43547676387052858 0 -0.10636180231815941 -0.44832292249131772 0 -0.1201929706126502 -0.46127799294672761 0 -0.11433170304103479 -0.43547676387052858 0 -0.13671083813600751 -0.45044361347006462 0 -0.1225906368027144 -0.43005957413219659 0 -0.11433170304103479 -0.43547676387052858 0 -0.1201929706126502 -0.46127799294672761 0 -0.11433170304103479 -0.43547676387052858 0 -0.1225906368027144 -0.43005957413219659 0 -0.11433170304103479 -0.43547676387052858 0 -0.10847043546942051 -0.40967553479432928 0 -0.11433170304103479 -0.43547676387052858 0 -0.10847043546942051 -0.40967553479432928 0 -0.12908399078123631 -0.42243277819987513 0 -0.1225906368027144 -0.43005957413219659 0 -0.12315425937001 -0.41747458531602638 0 -0.11433170304103479 -0.43547676387052858 0 -0.10033463645810529 -0.42946893710417328 0 -0.10847043546942051 -0.40967553479432928 0 -0.10033463645810529 -0.42946893710417328 0 -0.094107383989168333 -0.41562629379671062 0 -0.1067149861716557 -0.40714135368057303 0 -0.10033463645810529 -0.42946893710417328 0 -0.1067149861716557 -0.40714135368057303 0 -0.10847043546942051 -0.40967553479432928 0 -0.10033463645810529 -0.42946893710417328 0 -0.1067149861716557 -0.40714135368057303 0 -0.094107383989168333 -0.41562629379671062 0 -0.1067149861716557 -0.40714135368057303 0 -0.093615658715422545 -0.40476526464288082 0 -0.10847043546942051 -0.40967553479432928 0 -0.1105756132387118 -0.40676785322215941 0 -0.1073722461642546 -0.40484131873350049 0 -0.10847043546942051 -0.40967553479432928 0 -0.1073722461642546 -0.40484131873350049 0 -0.1067149861716557 -0.40714135368057303 0 -0.10847043546942051 -0.40967553479432928 0 -0.1073722461642546 -0.40484131873350049 0 -0.1067149861716557 -0.40714135368057303 0 -0.10847043546942051 -0.40967553479432928 0 -0.1225906368027144 -0.43005957413219659 0 -0.1163272184937543 -0.41351727508190028 0 -0.12315425937001 -0.41747458531602638 0 -0.10847043546942051 -0.40967553479432928 0 -0.1125412123036873 -0.40894162881917728 0 -0.1163272184937543 -0.41351727508190028 0 -0.1125412123036873 -0.40894162881917728 0 -0.1105756132387118 -0.40676785322215941 0 -0.1147915820128618 -0.40580585217832088 0 -0.1225906368027144 -0.43005957413219659 0 -0.10847043546942051 -0.40967553479432928 0 -0.1163272184937543 -0.41351727508190028 0 -0.10847043546942051 -0.40967553479432928 0 -0.1125412123036873 -0.40894162881917728 0 -0.1105756132387118 -0.40676785322215941 0 -0.1225906368027144 -0.43005957413219659 0 -0.10847043546942051 -0.40967553479432928 0 -0.1125412123036873 -0.40894162881917728 0 -0.1163272184937543 -0.41351727508190028 0 -0.1147915820128618 -0.40580585217832088 0 -0.1225700411049412 -0.40994677461386392 0 -0.1219584454402414 -0.40406961642135292 0 -0.1147915820128618 -0.40580585217832088 0 -0.1163272184937543 -0.41351727508190028 0 -0.1225700411049412 -0.40994677461386392 0 -0.1147915820128618 -0.40580585217832088 0 -0.1163272184937543 -0.41351727508190028 0 -0.12315425937001 -0.41747458531602638 0 -0.1225700411049412 -0.40994677461386392 0 -0.1273295258527142 -0.39594401256049883 0 -0.1219584454402414 -0.40406961642135292 0 -0.1190781430676657 -0.39944145851713192 0 -0.11305295545189779 -0.39895005080087959 0 -0.11384267237711319 -0.38219851895920232 0 -0.1073722461642546 -0.40484131873350049 0 -0.1295768038857959 -0.40463739140698729 0 -0.1225700411049412 -0.40994677461386392 0 -0.1219584454402414 -0.40406961642135292 0 -0.1182582065806136 -0.392437760624607 0 -0.11305295545189779 -0.39895005080087959 0 -0.11384267237711319 -0.38219851895920232 0 -0.11384267237711319 -0.38219851895920232 0 -0.1073722461642546 -0.40484131873350049 0 -0.1219584454402414 -0.40406961642135292 0 -0.1190781430676657 -0.39944145851713192 0 -0.1147915820128618 -0.40580585217832088 0 -0.1273295258527142 -0.39594401256049883 0 -0.1190781430676657 -0.39944145851713192 0 -0.1182582065806136 -0.392437760624607 0 -0.1190781430676657 -0.39944145851713192 0 -0.1182582065806136 -0.392437760624607 0 -0.11305295545189779 -0.39895005080087959 0 -0.1105756132387118 -0.40676785322215941 0 -0.1114480992169309 -0.40409126873371493 0 -0.1073722461642546 -0.40484131873350049 0 -0.1105756132387118 -0.40676785322215941 0 -0.1114480992169309 -0.40409126873371493 0 -0.1147915820128618 -0.40580585217832088 0 -0.11305295545189779 -0.39895005080087959 0 -0.1114480992169309 -0.40409126873371493 0 -0.1147915820128618 -0.40580585217832088 0 -0.11305295545189779 -0.39895005080087959 0 -0.1114480992169309 -0.40409126873371493 0 -0.1073722461642546 -0.40484131873350049 0 -0.1190781430676657 -0.39944145851713192 0 -0.11305295545189779 -0.39895005080087959 0 -0.1147915820128618 -0.40580585217832088 0 -0.12625141541498519 -0.38197991289387551 0 -0.1182582065806136 -0.392437760624607 0 -0.11384267237711319 -0.38219851895920232 0 -0.12625141541498519 -0.38197991289387551 0 -0.1273295258527142 -0.39594401256049883 0 -0.1182582065806136 -0.392437760624607 0 -0.11384267237711319 -0.38219851895920232 0 -0.10176491866177829 -0.38015793077534599 0 -0.1073722461642546 -0.40484131873350049 0 -0.10176491866177829 -0.38015793077534599 0 -0.095995502779844255 -0.39166661886747001 0 -0.085276019388031976 -0.37619188405436782 0 -0.10849363524981311 -0.36442991456039969 0 -0.11384267237711319 -0.38219851895920232 0 -0.10176491866177829 -0.38015793077534599 0 -0.10176491866177829 -0.38015793077534599 0 -0.1073722461642546 -0.40484131873350049 0 -0.095995502779844255 -0.39166661886747001 0 -0.10176491866177829 -0.38015793077534599 0 -0.1073722461642546 -0.40484131873350049 0 -0.1067149861716557 -0.40714135368057303 0 -0.1073722461642546 -0.40484131873350049 0 -0.095995502779844255 -0.39166661886747001 0 -0.1067149861716557 -0.40714135368057303 0 -0.1073722461642546 -0.40484131873350049 0 -0.1067149861716557 -0.40714135368057303 0 -0.095995502779844255 -0.39166661886747001 0 -0.1067149861716557 -0.40714135368057303 0 -0.095995502779844255 -0.39166661886747001 0 -0.093615658715422545 -0.40476526464288082 0 -0.093615658715422545 -0.40476526464288082 0 -0.081664681120336771 -0.39582842074610342 0 -0.082451352827770552 -0.41163664718976212 0 -0.095995502779844255 -0.39166661886747001 0 -0.093615658715422545 -0.40476526464288082 0 -0.081664681120336771 -0.39582842074610342 0 -0.095995502779844255 -0.39166661886747001 0 -0.081664681120336771 -0.39582842074610342 0 -0.085276019388031976 -0.37619188405436782 0 -0.081664681120336771 -0.39582842074610342 0 -0.085276019388031976 -0.37619188405436782 0 -0.074552591578295357 -0.38401367178407558 0 -0.095995502779844255 -0.39166661886747001 0 -0.085276019388031976 -0.37619188405436782 0 -0.081664681120336771 -0.39582842074610342 0 -0.065379196062645584 -0.39052657147488062 0 -0.074552591578295357 -0.38401367178407558 0 -0.065890469742167113 -0.37350781086095058 0 -0.085276019388031976 -0.37619188405436782 0 -0.074552591578295357 -0.38401367178407558 0 -0.065890469742167113 -0.37350781086095058 0 -0.065379196062645584 -0.39052657147488062 0 -0.074552591578295357 -0.38401367178407558 0 -0.081664681120336771 -0.39582842074610342 0 -0.06528413140028641 -0.40548789039177052 0 -0.082451352827770552 -0.41163664718976212 0 -0.081664681120336771 -0.39582842074610342 0 -0.065379196062645584 -0.39052657147488062 0 -0.06528413140028641 -0.40548789039177052 0 -0.065713266975248902 -0.42040157794015642 0 -0.085028608260126398 -0.42320905853578622 0 -0.082451352827770552 -0.41163664718976212 0 -0.06528413140028641 -0.40548789039177052 0 -0.065713266975248902 -0.42040157794015642 0 -0.082451352827770552 -0.41163664718976212 0 -0.065713266975248902 -0.42040157794015642 0 -0.077753046024815156 -0.43509142098737241 0 -0.085028608260126398 -0.42320905853578622 0 -0.052630130657334448 -0.42871109396582502 0 -0.065713266975248902 -0.42040157794015642 0 -0.077753046024815156 -0.43509142098737241 0 -0.10033463645810529 -0.42946893710417328 0 -0.077753046024815156 -0.43509142098737241 0 -0.085028608260126398 -0.42320905853578622 0 -0.10033463645810529 -0.42946893710417328 0 -0.094107383989168333 -0.41562629379671062 0 -0.085028608260126398 -0.42320905853578622 0 -0.094107383989168333 -0.41562629379671062 0 -0.085028608260126398 -0.42320905853578622 0 -0.082451352827770552 -0.41163664718976212 0 -0.094107383989168333 -0.41562629379671062 0 -0.093615658715422545 -0.40476526464288082 0 -0.082451352827770552 -0.41163664718976212 0 -0.080832567710134945 -0.085265223789800185 0 -0.09573268077664969 -0.090624673380050064 0 -0.094924188455715333 -0.074372309221374736 0 -0.080832567710134945 -0.085265223789800185 0 -0.0944050220014645 -0.1050702242089397 0 -0.09573268077664969 -0.090624673380050064 0 -0.094924188455715333 -0.074372309221374736 0 -0.077079431972146645 -0.050953682142663811 0 -0.080832567710134945 -0.085265223789800185 0 -0.077460787511610923 -0.070469280456870842 0 -0.094924188455715333 -0.074372309221374736 0 -0.077460787511610923 -0.070469280456870842 0 -0.094924188455715333 -0.074372309221374736 0 -0.078535685693175539 -0.061573663464548622 0 -0.080832567710134945 -0.085265223789800185 0 -0.072736864716213656 -0.076885636419884412 0 -0.077460787511610923 -0.070469280456870842 0 -0.072736864716213656 -0.076885636419884412 0 -0.077460787511610923 -0.070469280456870842 0 -0.067174029152377468 -0.071022972744677337 0 -0.077460787511610923 -0.070469280456870842 0 -0.067174029152377468 -0.071022972744677337 0 -0.070308423821052124 -0.061023041189074957 0 -0.077460787511610923 -0.070469280456870842 0 -0.078535685693175539 -0.061573663464548622 0 -0.070308423821052124 -0.061023041189074957 0 -0.067174029152377468 -0.071022972744677337 0 -0.070308423821052124 -0.061023041189074957 0 -0.060830035872249492 -0.064558057335980773 0 -0.072736864716213656 -0.076885636419884412 0 -0.067174029152377468 -0.071022972744677337 0 -0.063732237529271596 -0.080733089011810297 0 -0.067174029152377468 -0.071022972744677337 0 -0.063732237529271596 -0.080733089011810297 0 -0.058000192015007383 -0.073011667883306972 0 -0.080832567710134945 -0.085265223789800185 0 -0.063732237529271596 -0.080733089011810297 0 -0.066023591375222151 -0.09957098179305135 0 -0.080832567710134945 -0.085265223789800185 0 -0.072736864716213656 -0.076885636419884412 0 -0.063732237529271596 -0.080733089011810297 0 -0.066023591375222151 -0.09957098179305135 0 -0.069466171350113709 -0.1135628440840601 0 -0.0944050220014645 -0.1050702242089397 0 -0.066023591375222151 -0.09957098179305135 0 -0.069466171350113709 -0.1135628440840601 0 -0.054384952187449757 -0.110609208962567 0 -0.077516787342341589 -0.1242022911324857 0 -0.069466171350113709 -0.1135628440840601 0 -0.059238207921678762 -0.13024384051707169 0 -0.077516787342341589 -0.1242022911324857 0 -0.093262550211769629 -0.1231040070079162 0 -0.0944050220014645 -0.1050702242089397 0 -0.077516787342341589 -0.1242022911324857 0 -0.069466171350113709 -0.1135628440840601 0 -0.0944050220014645 -0.1050702242089397 0 -0.066023591375222151 -0.09957098179305135 0 -0.0944050220014645 -0.1050702242089397 0 -0.080832567710134945 -0.085265223789800185 0 -0.066023591375222151 -0.09957098179305135 0 -0.0944050220014645 -0.1050702242089397 0 -0.0944050220014645 -0.1050702242089397 0 -0.1071147179002416 -0.1244919901550422 0 -0.11276894493928399 -0.097790936300085646 0 -0.0944050220014645 -0.1050702242089397 0 -0.11276894493928399 -0.097790936300085646 0 -0.09573268077664969 -0.090624673380050064 0 -0.093262550211769629 -0.1231040070079162 0 -0.0944050220014645 -0.1050702242089397 0 -0.1071147179002416 -0.1244919901550422 0 -0.1071147179002416 -0.1244919901550422 0 -0.11276894493928399 -0.097790936300085646 0 -0.1306137014228527 -0.1212095633787966 0 -0.11276894493928399 -0.097790936300085646 0 -0.1306137014228527 -0.1212095633787966 0 -0.112702195828283 -0.076339248342475546 0 -0.13438499311011279 -0.096174695905308166 0 -0.11276894493928399 -0.097790936300085646 0 -0.112702195828283 -0.076339248342475546 0 -0.13438499311011279 -0.096174695905308166 0 -0.11276894493928399 -0.097790936300085646 0 -0.094924188455715333 -0.074372309221374736 0 -0.112702195828283 -0.076339248342475546 0 -0.11276894493928399 -0.097790936300085646 0 -0.094924188455715333 -0.074372309221374736 0 -0.11276894493928399 -0.097790936300085646 0 -0.09573268077664969 -0.090624673380050064 0 -0.094924188455715333 -0.074372309221374736 0 -0.094924188455715333 -0.074372309221374736 0 -0.1026030192468113 -0.064894788769428779 0 -0.112702195828283 -0.076339248342475546 0 -0.094924188455715333 -0.074372309221374736 0 -0.1026030192468113 -0.064894788769428779 0 -0.090333769324138391 -0.059362086744932152 0 -0.1026030192468113 -0.064894788769428779 0 -0.112702195828283 -0.076339248342475546 0 -0.1158705629695205 -0.060236298698018297 0 -0.112702195828283 -0.076339248342475546 0 -0.1158705629695205 -0.060236298698018297 0 -0.13497135686491851 -0.078315161523928284 0 -0.1158705629695205 -0.060236298698018297 0 -0.1150956899200111 -0.045830426672337207 0 -0.1070798181065768 -0.041876824406217303 0 -0.1158705629695205 -0.060236298698018297 0 -0.1150956899200111 -0.045830426672337207 0 -0.12809376798702951 -0.047905065599393698 0 -0.1163329610324388 -0.034474533447810513 0 -0.12530131535501859 -0.034952786400489197 0 -0.12809376798702951 -0.047905065599393698 0 -0.11023593420079281 -0.033339602888773932 0 -0.1150956899200111 -0.045830426672337207 0 -0.12809376798702951 -0.047905065599393698 0 -0.11023593420079281 -0.033339602888773932 0 -0.1163329610324388 -0.034474533447810513 0 -0.12809376798702951 -0.047905065599393698 0 -0.11023593420079281 -0.033339602888773932 0 -0.12809376798702951 -0.047905065599393698 0 -0.1163329610324388 -0.034474533447810513 0 -0.1221370268088495 -0.025998648103035 0 -0.12530131535501859 -0.034952786400489197 0 -0.11023593420079281 -0.033339602888773932 0 -0.1150956899200111 -0.045830426672337207 0 -0.1070798181065768 -0.041876824406217303 0 -0.11023593420079281 -0.033339602888773932 0 -0.1163329610324388 -0.034474533447810513 0 -0.097427134368436918 -0.027820357899848831 0 -0.11023593420079281 -0.033339602888773932 0 -0.1070798181065768 -0.041876824406217303 0 -0.097427134368436918 -0.027820357899848831 0 -0.1070798181065768 -0.041876824406217303 0 -0.096769769074122519 -0.04215743587210824 0 -0.097427134368436918 -0.027820357899848831 0 -0.1158705629695205 -0.060236298698018297 0 -0.1070798181065768 -0.041876824406217303 0 -0.096769769074122519 -0.04215743587210824 0 -0.1026030192468113 -0.064894788769428779 0 -0.1158705629695205 -0.060236298698018297 0 -0.099264754381345577 -0.055060356505970513 0 -0.1158705629695205 -0.060236298698018297 0 -0.096769769074122519 -0.04215743587210824 0 -0.099264754381345577 -0.055060356505970513 0 -0.096769769074122519 -0.04215743587210824 0 -0.099264754381345577 -0.055060356505970513 0 -0.090746651292135133 -0.048651172445365112 0 -0.1158705629695205 -0.060236298698018297 0 -0.096769769074122519 -0.04215743587210824 0 -0.1026030192468113 -0.064894788769428779 0 -0.099264754381345577 -0.055060356505970513 0 -0.090333769324138391 -0.059362086744932152 0 -0.1029392013539359 -0.0085751277431150782 0 -0.12735709500343681 0.004015926865657337 0 -0.1236693299605585 -0.0137973575501921 0 -0.1110604598185659 -0.0207882196779367 0 -0.1029392013539359 -0.0085751277431150782 0 -0.1236693299605585 -0.0137973575501921 0 -0.1029392013539359 -0.0085751277431150782 0 -0.12735709500343681 0.004015926865657337 0 -0.1236693299605585 -0.0137973575501921 0 -0.1110604598185659 -0.0207882196779367 0 -0.1221370268088495 -0.025998648103035 0 -0.1163329610324388 -0.034474533447810513 0 -0.1221370268088495 -0.025998648103035 0 -0.11173939550707281 -0.027270439782157759 0 -0.1110604598185659 -0.0207882196779367 0 -0.1221370268088495 -0.025998648103035 0 -0.11173939550707281 -0.027270439782157759 0 -0.1163329610324388 -0.034474533447810513 0 -0.097427134368436918 -0.027820357899848831 0 -0.1110604598185659 -0.0207882196779367 0 -0.097427134368436918 -0.027820357899848831 0 -0.1029392013539359 -0.0085751277431150782 0 -0.1163329610324388 -0.034474533447810513 0 -0.11173939550707281 -0.027270439782157759 0 -0.097427134368436918 -0.027820357899848831 0 -0.1110604598185659 -0.0207882196779367 0 -0.11173939550707281 -0.027270439782157759 0 -0.097427134368436918 -0.027820357899848831 0 -0.1029392013539359 -0.0085751277431150782 0 -0.086097875964997059 -0.0058870606910941042 0 -0.078521307704434995 -0.021166182351887271 0 -0.1029392013539359 -0.0085751277431150782 0 -0.078521307704434995 -0.021166182351887271 0 -0.1029392013539359 -0.0085751277431150782 0 -0.086097875964997059 -0.0058870606910941042 0 -0.091682611010439896 0.0063963380850077774 0 -0.086097875964997059 -0.0058870606910941042 0 -0.073830544796709738 -0.0078542708917730738 0 -0.078933949510919491 0.00072378658541613432 0 -0.086097875964997059 -0.0058870606910941042 0 -0.078521307704434995 -0.021166182351887271 0 -0.073830544796709738 -0.0078542708917730738 0 -0.097427134368436918 -0.027820357899848831 0 -0.078521307704434995 -0.021166182351887271 0 -0.097427134368436918 -0.027820357899848831 0 -0.078521307704434995 -0.021166182351887271 0 -0.077668975178724509 -0.024078573046198169 0 -0.097427134368436918 -0.027820357899848831 0 -0.1029392013539359 -0.0085751277431150782 0 -0.078521307704434995 -0.021166182351887271 0 -0.078521307704434995 -0.021166182351887271 0 -0.055132092173872667 -0.033226800447327051 0 -0.05822397002114936 -0.01402224463886402 0 -0.078521307704434995 -0.021166182351887271 0 -0.055132092173872667 -0.033226800447327051 0 -0.077668975178724509 -0.024078573046198169 0 -0.075465350998538308 -0.032772608828030472 0 -0.055132092173872667 -0.033226800447327051 0 -0.078521307704434995 -0.021166182351887271 0 -0.077668975178724509 -0.024078573046198169 0 -0.055132092173872667 -0.033226800447327051 0 -0.078521307704434995 -0.021166182351887271 0 -0.05822397002114936 -0.01402224463886402 0 -0.078521307704434995 -0.021166182351887271 0 -0.073830544796709738 -0.0078542708917730738 0 -0.05822397002114936 -0.01402224463886402 0 -0.073830544796709738 -0.0078542708917730738 0 -0.05822397002114936 -0.01402224463886402 0 -0.068462160169621672 0.0025537029525893409 0 -0.073830544796709738 -0.0078542708917730738 0 -0.078933949510919491 0.00072378658541613432 0 -0.068462160169621672 0.0025537029525893409 0 -0.094924188455715333 -0.074372309221374736 0 -0.090333769324138391 -0.059362086744932152 0 -0.077079431972146645 -0.050953682142663811 0 -0.094924188455715333 -0.074372309221374736 0 -0.078535685693175539 -0.061573663464548622 0 -0.077079431972146645 -0.050953682142663811 0 -0.084868245962835154 -0.053326759561897898 0 -0.090333769324138391 -0.059362086744932152 0 -0.077079431972146645 -0.050953682142663811 0 -0.084868245962835154 -0.053326759561897898 0 -0.080876314157704687 -0.04955372347343575 0 -0.082849096915408454 -0.045583035938281863 0 -0.080876314157704687 -0.04955372347343575 0 -0.078708481780428496 -0.048351416250899462 0 -0.082849096915408454 -0.045583035938281863 0 -0.080876314157704687 -0.04955372347343575 0 -0.078708481780428496 -0.048351416250899462 0 -0.077079431972146645 -0.050953682142663811 0 -0.084868245962835154 -0.053326759561897898 0 -0.080876314157704687 -0.04955372347343575 0 -0.077079431972146645 -0.050953682142663811 0 -0.084868245962835154 -0.053326759561897898 0 -0.090746651292135133 -0.048651172445365112 0 -0.082849096915408454 -0.045583035938281863 0 -0.084868245962835154 -0.053326759561897898 0 -0.090333769324138391 -0.059362086744932152 0 -0.090746651292135133 -0.048651172445365112 0 -0.099264754381345577 -0.055060356505970513 0 -0.090333769324138391 -0.059362086744932152 0 -0.090746651292135133 -0.048651172445365112 0 -0.096769769074122519 -0.04215743587210824 0 -0.088481073739883592 -0.043344290748051233 0 -0.083558777677868248 -0.036985518736449702 0 -0.096769769074122519 -0.04215743587210824 0 -0.097427134368436918 -0.027820357899848831 0 -0.077668975178724509 -0.024078573046198169 0 -0.096769769074122519 -0.04215743587210824 0 -0.077668975178724509 -0.024078573046198169 0 -0.083558777677868248 -0.036985518736449702 0 -0.096769769074122519 -0.04215743587210824 0 -0.077668975178724509 -0.024078573046198169 0 -0.090746651292135133 -0.048651172445365112 0 -0.088481073739883592 -0.043344290748051233 0 -0.082849096915408454 -0.045583035938281863 0 -0.096769769074122519 -0.04215743587210824 0 -0.090746651292135133 -0.048651172445365112 0 -0.088481073739883592 -0.043344290748051233 0 -0.077668975178724509 -0.024078573046198169 0 -0.083558777677868248 -0.036985518736449702 0 -0.075465350998538308 -0.032772608828030472 0 -0.083558777677868248 -0.036985518736449702 0 -0.082849096915408454 -0.045583035938281863 0 -0.075062618692292638 -0.040325846155841297 0 -0.088481073739883592 -0.043344290748051233 0 -0.083558777677868248 -0.036985518736449702 0 -0.082849096915408454 -0.045583035938281863 0 -0.082849096915408454 -0.045583035938281863 0 -0.078067002861142085 -0.04575568247049161 0 -0.075062618692292638 -0.040325846155841297 0 -0.078708481780428496 -0.048351416250899462 0 -0.082849096915408454 -0.045583035938281863 0 -0.078067002861142085 -0.04575568247049161 0 -0.075647814056438792 -0.048762431536943832 0 -0.055132092173872667 -0.033226800447327051 0 -0.078067002861142085 -0.04575568247049161 0 -0.075062618692292638 -0.040325846155841297 0 -0.075647814056438792 -0.048762431536943832 0 -0.075062618692292638 -0.040325846155841297 0 -0.075465350998538308 -0.032772608828030472 0 -0.055132092173872667 -0.033226800447327051 0 -0.075647814056438792 -0.048762431536943832 0 -0.061428605263776047 -0.046553119166432878 0 -0.055132092173872667 -0.033226800447327051 0 -0.075062618692292638 -0.040325846155841297 0 -0.075647814056438792 -0.048762431536943832 0 -0.055132092173872667 -0.033226800447327051 0 -0.083558777677868248 -0.036985518736449702 0 -0.075062618692292638 -0.040325846155841297 0 -0.075465350998538308 -0.032772608828030472 0 -0.065722760200719738 -0.052253177456942877 0 -0.075647814056438792 -0.048762431536943832 0 -0.061428605263776047 -0.046553119166432878 0 -0.065722760200719738 -0.052253177456942877 0 -0.07269306068786438 -0.052406879740114577 0 -0.069833853901725543 -0.055329661047837618 0 -0.065722760200719738 -0.052253177456942877 0 -0.07269306068786438 -0.052406879740114577 0 -0.075647814056438792 -0.048762431536943832 0 -0.07269306068786438 -0.052406879740114577 0 -0.073703714626092445 -0.056102563442451223 0 -0.069833853901725543 -0.055329661047837618 0 -0.07269306068786438 -0.052406879740114577 0 -0.077079431972146645 -0.050953682142663811 0 -0.073703714626092445 -0.056102563442451223 0 -0.078708481780428496 -0.048351416250899462 0 -0.077079431972146645 -0.050953682142663811 0 -0.075647814056438792 -0.048762431536943832 0 -0.07269306068786438 -0.052406879740114577 0 -0.077079431972146645 -0.050953682142663811 0 -0.075647814056438792 -0.048762431536943832 0 -0.078708481780428496 -0.048351416250899462 0 -0.078067002861142085 -0.04575568247049161 0 -0.075647814056438792 -0.048762431536943832 0 -0.078535685693175539 -0.061573663464548622 0 -0.073703714626092445 -0.056102563442451223 0 -0.070308423821052124 -0.061023041189074957 0 -0.078535685693175539 -0.061573663464548622 0 -0.077079431972146645 -0.050953682142663811 0 -0.073703714626092445 -0.056102563442451223 0 -0.073703714626092445 -0.056102563442451223 0 -0.070308423821052124 -0.061023041189074957 0 -0.069833853901725543 -0.055329661047837618 0 -0.070308423821052124 -0.061023041189074957 0 -0.064391701294429504 -0.057679717025484439 0 -0.060830035872249492 -0.064558057335980773 0 -0.070308423821052124 -0.061023041189074957 0 -0.069833853901725543 -0.055329661047837618 0 -0.064391701294429504 -0.057679717025484439 0 -0.065722760200719738 -0.052253177456942877 0 -0.069833853901725543 -0.055329661047837618 0 -0.064391701294429504 -0.057679717025484439 0 -0.064391701294429504 -0.057679717025484439 0 -0.055978059279945473 -0.056388284161067823 0 -0.060830035872249492 -0.064558057335980773 0 -0.065722760200719738 -0.052253177456942877 0 -0.064391701294429504 -0.057679717025484439 0 -0.055978059279945473 -0.056388284161067823 0 -0.055978059279945473 -0.056388284161067823 0 -0.041230103293456458 -0.058058117591144771 0 -0.049479852383656611 -0.067543566470139038 0 -0.055978059279945473 -0.056388284161067823 0 -0.049741921456861897 -0.048697412542500033 0 -0.041230103293456458 -0.058058117591144771 0 -0.055978059279945473 -0.056388284161067823 0 -0.049741921456861897 -0.048697412542500033 0 -0.061428605263776047 -0.046553119166432878 0 -0.065722760200719738 -0.052253177456942877 0 -0.055978059279945473 -0.056388284161067823 0 -0.061428605263776047 -0.046553119166432878 0 -0.049741921456861897 -0.048697412542500033 0 -0.061428605263776047 -0.046553119166432878 0 -0.055132092173872667 -0.033226800447327051 0 -0.049741921456861897 -0.048697412542500033 0 -0.055132092173872667 -0.033226800447327051 0 -0.032367863380537598 -0.044965144957206583 0 -0.055132092173872667 -0.033226800447327051 0 -0.032367863380537598 -0.044965144957206583 0 -0.055132092173872667 -0.033226800447327051 0 -0.032367863380537598 -0.044965144957206583 0 -0.031233838643279398 -0.031193199633022049 0 -0.049741921456861897 -0.048697412542500033 0 -0.032367863380537598 -0.044965144957206583 0 -0.041230103293456458 -0.058058117591144771 0 -0.032367863380537598 -0.044965144957206583 0 -0.041230103293456458 -0.058058117591144771 0 -0.026902341230915561 -0.060374551747501753 0 -0.05822397002114936 -0.01402224463886402 0 -0.057836245250817257 0.0062936453779614283 0 -0.044352522143416888 0.0050416822031405977 0 -0.05822397002114936 -0.01402224463886402 0 -0.037926632337863607 -0.0068783069258408786 0 -0.05822397002114936 -0.01402224463886402 0 -0.068462160169621672 0.0025537029525893409 0 -0.057836245250817257 0.0062936453779614283 0 -0.055132092173872667 -0.033226800447327051 0 -0.05822397002114936 -0.01402224463886402 0 -0.036243114184870161 -0.018923029155399909 0 -0.055132092173872667 -0.033226800447327051 0 -0.036243114184870161 -0.018923029155399909 0 -0.031233838643279398 -0.031193199633022049 0 -0.055132092173872667 -0.033226800447327051 0 -0.036243114184870161 -0.018923029155399909 0 -0.05822397002114936 -0.01402224463886402 0 -0.036243114184870161 -0.018923029155399909 0 -0.037926632337863607 -0.0068783069258408786 0 -0.05822397002114936 -0.01402224463886402 0 -0.037926632337863607 -0.0068783069258408786 0 -0.044352522143416888 0.0050416822031405977 0 -0.036243114184870161 -0.018923029155399909 0 -0.037926632337863607 -0.0068783069258408786 0 -0.029121832422534862 -0.0067169982391169078 0 -0.037926632337863607 -0.0068783069258408786 0 -0.029539197120254941 -0.00051038393964639519 0 -0.029121832422534862 -0.0067169982391169078 0 -0.037926632337863607 -0.0068783069258408786 0 -0.029539197120254941 -0.00051038393964639519 0 -0.03614709390981162 0.0015378833132510439 0 -0.037926632337863607 -0.0068783069258408786 0 -0.03614709390981162 0.0015378833132510439 0 -0.044352522143416888 0.0050416822031405977 0 -0.036243114184870161 -0.018923029155399909 0 -0.017354136195868258 -0.0046192578634720229 0 -0.01819617019275287 -0.0061732580868559192 0 -0.036243114184870161 -0.018923029155399909 0 -0.017354136195868258 -0.0046192578634720229 0 -0.029121832422534862 -0.0067169982391169078 0 -0.036243114184870161 -0.018923029155399909 0 -0.01819617019275287 -0.0061732580868559192 0 -0.019637671972121611 -0.02148729346067638 0 -0.036243114184870161 -0.018923029155399909 0 -0.017354136195868258 -0.0046192578634720229 0 -0.017354136195868258 -0.0046192578634720229 0 -0.01819617019275287 -0.0061732580868559192 0 -0.013500839782477779 -0.0058155532537883976 0 -0.017354136195868258 -0.0046192578634720229 0 -0.01819617019275287 -0.0061732580868559192 0 -0.017354136195868258 -0.0046192578634720229 0 -0.024546082273817361 -0.00265401331122534 0 -0.02112675760807068 0.0030512678310729521 0 -0.024546082273817361 -0.00265401331122534 0 -0.029539197120254941 -0.00051038393964639519 0 -0.02112675760807068 0.0030512678310729521 0 -0.017354136195868258 -0.0046192578634720229 0 -0.024546082273817361 -0.00265401331122534 0 -0.029121832422534862 -0.0067169982391169078 0 -0.024546082273817361 -0.00265401331122534 0 -0.029539197120254941 -0.00051038393964639519 0 -0.029121832422534862 -0.0067169982391169078 0 -0.01819617019275287 -0.0061732580868559192 0 -0.019637671972121611 -0.02148729346067638 0 -0.011008321991883009 -0.01057962122923565 0 -0.036243114184870161 -0.018923029155399909 0 -0.019637671972121611 -0.02148729346067638 0 -0.031233838643279398 -0.031193199633022049 0 -0.019637671972121611 -0.02148729346067638 0 -0.031233838643279398 -0.031193199633022049 0 -0.016064986363794779 -0.036441041599790329 0 -0.0077215053668332834 -0.022860670268973711 0 -0.00118246574067416 -0.01324232368796026 0 0.0015263381015913891 -0.033415212413580753 0 -0.0077215053668332834 -0.022860670268973711 0 -0.016064986363794779 -0.036441041599790329 0 0.0015263381015913891 -0.033415212413580753 0 -0.019637671972121611 -0.02148729346067638 0 -0.0077215053668332834 -0.022860670268973711 0 -0.016064986363794779 -0.036441041599790329 0 -0.019637671972121611 -0.02148729346067638 0 -0.0077215053668332834 -0.022860670268973711 0 -0.011008321991883009 -0.01057962122923565 0 -0.011008321991883009 -0.01057962122923565 0 -0.00118246574067416 -0.01324232368796026 0 -0.0072764121498596901 -0.0036325873431357339 0 -0.0077215053668332834 -0.022860670268973711 0 -0.011008321991883009 -0.01057962122923565 0 -0.00118246574067416 -0.01324232368796026 0 -0.00118246574067416 -0.01324232368796026 0 -0.0072764121498596901 -0.0036325873431357339 0 0.0012074066645448821 -0.00065723147797176382 0 -0.0072764121498596901 -0.0036325873431357339 0 -0.013500839782477779 -0.0058155532537883976 0 -0.013607688627124061 -0.00178224205395049 0 -0.011008321991883009 -0.01057962122923565 0 -0.0072764121498596901 -0.0036325873431357339 0 -0.013500839782477779 -0.0058155532537883976 0 -0.01819617019275287 -0.0061732580868559192 0 -0.011008321991883009 -0.01057962122923565 0 -0.013500839782477779 -0.0058155532537883976 0 -0.017354136195868258 -0.0046192578634720229 0 -0.013500839782477779 -0.0058155532537883976 0 -0.013607688627124061 -0.00178224205395049 0 -0.017354136195868258 -0.0046192578634720229 0 -0.013607688627124061 -0.00178224205395049 0 -0.032367863380537598 -0.044965144957206583 0 -0.0096036345872028556 -0.056703489467087059 0 -0.032367863380537598 -0.044965144957206583 0 -0.026902341230915561 -0.060374551747501753 0 -0.0096036345872028556 -0.056703489467087059 0 -0.032367863380537598 -0.044965144957206583 0 -0.031233838643279398 -0.031193199633022049 0 -0.016064986363794779 -0.036441041599790329 0 -0.032367863380537598 -0.044965144957206583 0 -0.016064986363794779 -0.036441041599790329 0 -0.0096036345872028556 -0.056703489467087059 0 -0.0096036345872028556 -0.056703489467087059 0 0.0015263381015913891 -0.033415212413580753 0 -0.016064986363794779 -0.036441041599790329 0 -0.0096036345872028556 -0.056703489467087059 0 0.0015263381015913891 -0.033415212413580753 0 -0.0096036345872028556 -0.056703489467087059 0 0.0015263381015913891 -0.033415212413580753 0 0.007298405735321048 -0.051477207310420908 0 -0.0096036345872028556 -0.056703489467087059 0 0.0052181775422467033 -0.064346337314722044 0 -0.0096036345872028556 -0.056703489467087059 0 -0.0043762627118289626 -0.071729097412358583 0 0.0052181775422467033 -0.064346337314722044 0 -0.0043762627118289626 -0.071729097412358583 0 -0.0092607301227374331 -0.088572496961274561 0 -0.01646375475339092 -0.071057556949349329 0 -0.0096036345872028556 -0.056703489467087059 0 -0.01646375475339092 -0.071057556949349329 0 -0.0096036345872028556 -0.056703489467087059 0 -0.0043762627118289626 -0.071729097412358583 0 -0.01646375475339092 -0.071057556949349329 0 -0.0092607301227374331 -0.088572496961274561 0 -0.00044729776891663488 -0.1011528385718463 0 0.0042106568376920582 -0.081118225430045127 0 -0.0043762627118289626 -0.071729097412358583 0 -0.0092607301227374331 -0.088572496961274561 0 0.0042106568376920582 -0.081118225430045127 0 -0.0092607301227374331 -0.088572496961274561 0 -0.037642160748979789 -0.094071739377162955 0 -0.0092607301227374331 -0.088572496961274561 0 -0.023323874919582349 -0.085411624431610003 0 -0.01646375475339092 -0.071057556949349329 0 -0.0092607301227374331 -0.088572496961274561 0 -0.023323874919582349 -0.085411624431610003 0 -0.037642160748979789 -0.094071739377162955 0 -0.023323874919582349 -0.085411624431610003 0 -0.01646375475339092 -0.071057556949349329 0 -0.023323874919582349 -0.085411624431610003 0 -0.01646375475339092 -0.071057556949349329 0 -0.034846350139989962 -0.07108844977272101 0 -0.026902341230915561 -0.060374551747501753 0 -0.01646375475339092 -0.071057556949349329 0 -0.034846350139989962 -0.07108844977272101 0 -0.026902341230915561 -0.060374551747501753 0 -0.0096036345872028556 -0.056703489467087059 0 -0.01646375475339092 -0.071057556949349329 0 -0.041230103293456458 -0.058058117591144771 0 -0.026902341230915561 -0.060374551747501753 0 -0.034846350139989962 -0.07108844977272101 0 -0.041230103293456458 -0.058058117591144771 0 -0.034846350139989962 -0.07108844977272101 0 -0.049479852383656611 -0.067543566470139038 0 -0.034846350139989962 -0.07108844977272101 0 -0.048784805137481749 -0.081200653853927454 0 -0.049479852383656611 -0.067543566470139038 0 -0.023323874919582349 -0.085411624431610003 0 -0.034846350139989962 -0.07108844977272101 0 -0.036149297736508462 -0.082943116858855345 0 -0.023323874919582349 -0.085411624431610003 0 -0.036149297736508462 -0.082943116858855345 0 -0.037642160748979789 -0.094071739377162955 0 -0.036149297736508462 -0.082943116858855345 0 -0.048784805137481749 -0.081200653853927454 0 -0.037642160748979789 -0.094071739377162955 0 -0.034846350139989962 -0.07108844977272101 0 -0.036149297736508462 -0.082943116858855345 0 -0.048784805137481749 -0.081200653853927454 0 -0.063732237529271596 -0.080733089011810297 0 -0.066023591375222151 -0.09957098179305135 0 -0.048784805137481749 -0.081200653853927454 0 -0.066023591375222151 -0.09957098179305135 0 -0.048784805137481749 -0.081200653853927454 0 -0.037642160748979789 -0.094071739377162955 0 -0.063732237529271596 -0.080733089011810297 0 -0.048784805137481749 -0.081200653853927454 0 -0.058000192015007383 -0.073011667883306972 0 -0.055978059279945473 -0.056388284161067823 0 -0.060830035872249492 -0.064558057335980773 0 -0.049479852383656611 -0.067543566470139038 0 -0.058000192015007383 -0.073011667883306972 0 -0.060830035872249492 -0.064558057335980773 0 -0.049479852383656611 -0.067543566470139038 0 -0.067174029152377468 -0.071022972744677337 0 -0.058000192015007383 -0.073011667883306972 0 -0.060830035872249492 -0.064558057335980773 0 -0.048784805137481749 -0.081200653853927454 0 -0.058000192015007383 -0.073011667883306972 0 -0.049479852383656611 -0.067543566470139038 0 -0.069466171350113709 -0.1135628440840601 0 -0.054384952187449757 -0.110609208962567 0 -0.059238207921678762 -0.13024384051707169 0 -0.054384952187449757 -0.110609208962567 0 -0.059238207921678762 -0.13024384051707169 0 -0.032945469352336033 -0.1293562392835419 0 -0.066023591375222151 -0.09957098179305135 0 -0.054384952187449757 -0.110609208962567 0 -0.037642160748979789 -0.094071739377162955 0 -0.066023591375222151 -0.09957098179305135 0 -0.037642160748979789 -0.094071739377162955 0 -0.054384952187449757 -0.110609208962567 0 -0.037642160748979789 -0.094071739377162955 0 -0.035661083064217503 -0.11124856921529409 0 -0.054384952187449757 -0.110609208962567 0 -0.032945469352336033 -0.1293562392835419 0 -0.054384952187449757 -0.110609208962567 0 -0.035661083064217503 -0.11124856921529409 0 -0.032945469352336033 -0.1293562392835419 0 -0.01767174996810443 -0.1109570892379047 0 -0.012892303975098539 -0.12786221844410239 0 -0.032945469352336033 -0.1293562392835419 0 -0.035661083064217503 -0.11124856921529409 0 -0.01767174996810443 -0.1109570892379047 0 -0.032945469352336033 -0.1293562392835419 0 -0.0092607301227374331 -0.088572496961274561 0 -0.037642160748979789 -0.094071739377162955 0 -0.01767174996810443 -0.1109570892379047 0 -0.037642160748979789 -0.094071739377162955 0 -0.035661083064217503 -0.11124856921529409 0 -0.01767174996810443 -0.1109570892379047 0 -0.01767174996810443 -0.1109570892379047 0 -0.00044729776891663488 -0.1011528385718463 0 0.005085065621477718 -0.1151057880332567 0 -0.0092607301227374331 -0.088572496961274561 0 -0.01767174996810443 -0.1109570892379047 0 -0.00044729776891663488 -0.1011528385718463 0 -0.01767174996810443 -0.1109570892379047 0 -0.012892303975098539 -0.12786221844410239 0 0.005085065621477718 -0.1151057880332567 0 -0.012892303975098539 -0.12786221844410239 0 0.0027021066240326768 -0.1317064378292063 0 0.005085065621477718 -0.1151057880332567 0 -0.011505986517222349 -0.14810326960451681 0 -0.033736789854580403 -0.16402697950055581 0 -0.032945469352336033 -0.1293562392835419 0 -0.012892303975098539 -0.12786221844410239 0 -0.011505986517222349 -0.14810326960451681 0 0.0027021066240326768 -0.1317064378292063 0 -0.011505986517222349 -0.14810326960451681 0 -0.032945469352336033 -0.1293562392835419 0 -0.012892303975098539 -0.12786221844410239 0 -0.011505986517222349 -0.14810326960451681 0 -0.032945469352336033 -0.1293562392835419 0 -0.011505986517222349 -0.14810326960451681 0 0.009933496317892726 -0.16685029992549011 0 -0.011505986517222349 -0.14810326960451681 0 -0.0085976242789068957 -0.177408956520272 0 0.009933496317892726 -0.16685029992549011 0 -0.0085976242789068957 -0.177408956520272 0 -0.003739977245034012 -0.19168309442994089 0 -0.02712874487570623 -0.18796761311505439 0 -0.0085976242789068957 -0.177408956520272 0 -0.003739977245034012 -0.19168309442994089 0 0.0034571977838801569 -0.17702496179755631 0 -0.0085976242789068957 -0.177408956520272 0 -0.02712874487570623 -0.18796761311505439 0 -0.0085976242789068957 -0.177408956520272 0 -0.033736789854580403 -0.16402697950055581 0 -0.02712874487570623 -0.18796761311505439 0 -0.011505986517222349 -0.14810326960451681 0 -0.0085976242789068957 -0.177408956520272 0 -0.033736789854580403 -0.16402697950055581 0 -0.033736789854580403 -0.16402697950055581 0 -0.041678182321736049 -0.18065303021324261 0 -0.02712874487570623 -0.18796761311505439 0 -0.033736789854580403 -0.16402697950055581 0 -0.041678182321736049 -0.18065303021324261 0 -0.060187329084152079 -0.17209125852752319 0 -0.041678182321736049 -0.18065303021324261 0 -0.060187329084152079 -0.17209125852752319 0 -0.045659865472505487 -0.198526269709837 0 -0.060187329084152079 -0.17209125852752319 0 -0.045659865472505487 -0.198526269709837 0 -0.033736789854580403 -0.16402697950055581 0 -0.060187329084152079 -0.17209125852752319 0 -0.051699405537506939 -0.14899167338562519 0 -0.060187329084152079 -0.17209125852752319 0 -0.051699405537506939 -0.14899167338562519 0 -0.072389231474787458 -0.1492400490994332 0 -0.051699405537506939 -0.14899167338562519 0 -0.059238207921678762 -0.13024384051707169 0 -0.072389231474787458 -0.1492400490994332 0 -0.033736789854580403 -0.16402697950055581 0 -0.051699405537506939 -0.14899167338562519 0 -0.032945469352336033 -0.1293562392835419 0 -0.051699405537506939 -0.14899167338562519 0 -0.059238207921678762 -0.13024384051707169 0 -0.032945469352336033 -0.1293562392835419 0 -0.025857267464119819 -0.25506418495113531 0 -0.02368513365757598 -0.23851275990414511 0 -0.036167443228362108 -0.24337299090061551 0 -0.01269776775011346 -0.25850600500130039 0 -0.02368513365757598 -0.23851275990414511 0 -0.01269776775011346 -0.25850600500130039 0 -0.02368513365757598 -0.23851275990414511 0 -0.01082738352359053 -0.24876902592697839 0 -0.02368513365757598 -0.23851275990414511 0 -0.0067432183097289999 -0.239968376336817 0 -0.0090267388034834407 -0.23007068799598671 0 -0.02368513365757598 -0.23851275990414511 0 -0.01082738352359053 -0.24876902592697839 0 -0.0067432183097289999 -0.239968376336817 0 -0.01082738352359053 -0.24876902592697839 0 -0.0029313858115674811 -0.24854412401401971 0 -0.0067432183097289999 -0.239968376336817 0 -0.0029313858115674811 -0.24854412401401971 0 -0.0067432183097289999 -0.239968376336817 0 0.0026199421412959989 -0.2430643023623929 0 -0.0067432183097289999 -0.239968376336817 0 0.0026199421412959989 -0.2430643023623929 0 0.0017465435191736189 -0.23378549097037141 0 -0.0067432183097289999 -0.239968376336817 0 -0.0090267388034834407 -0.23007068799598671 0 0.0017465435191736189 -0.23378549097037141 0 -0.0090267388034834407 -0.23007068799598671 0 -0.00080535468136348092 -0.21995366459000901 0 -0.01839049427805331 -0.2195873775130934 0 -0.0090267388034834407 -0.23007068799598671 0 -0.00080535468136348092 -0.21995366459000901 0 0.0017465435191736189 -0.23378549097037141 0 -0.02368513365757598 -0.23851275990414511 0 -0.0090267388034834407 -0.23007068799598671 0 -0.01839049427805331 -0.2195873775130934 0 -0.02368513365757598 -0.23851275990414511 0 -0.01839049427805331 -0.2195873775130934 0 -0.034672499565036527 -0.2185195148069887 0 -0.02368513365757598 -0.23851275990414511 0 -0.034672499565036527 -0.2185195148069887 0 -0.01839049427805331 -0.2195873775130934 0 -0.027127261386640289 -0.20489204062456881 0 -0.034672499565036527 -0.2185195148069887 0 -0.01839049427805331 -0.2195873775130934 0 -0.027127261386640289 -0.20489204062456881 0 -0.01084996336714465 -0.20584666152463099 0 -0.00080535468136348092 -0.21995366459000901 0 -0.01839049427805331 -0.2195873775130934 0 -0.01084996336714465 -0.20584666152463099 0 -0.00080535468136348092 -0.21995366459000901 0 -0.01084996336714465 -0.20584666152463099 0 0.01016515501406726 -0.20926501301563591 0 -0.01084996336714465 -0.20584666152463099 0 -0.003739977245034012 -0.19168309442994089 0 0.01016515501406726 -0.20926501301563591 0 -0.01084996336714465 -0.20584666152463099 0 -0.003739977245034012 -0.19168309442994089 0 -0.02712874487570623 -0.18796761311505439 0 -0.027127261386640289 -0.20489204062456881 0 -0.01084996336714465 -0.20584666152463099 0 -0.02712874487570623 -0.18796761311505439 0 -0.041678182321736049 -0.18065303021324261 0 -0.02712874487570623 -0.18796761311505439 0 -0.045659865472505487 -0.198526269709837 0 -0.02712874487570623 -0.18796761311505439 0 -0.045659865472505487 -0.198526269709837 0 -0.027127261386640289 -0.20489204062456881 0 -0.02712874487570623 -0.18796761311505439 0 -0.045659865472505487 -0.198526269709837 0 -0.045659865472505487 -0.198526269709837 0 -0.067682806497079445 -0.21107449474949169 0 -0.062708331551170268 -0.19442045911658551 0 -0.060187329084152079 -0.17209125852752319 0 -0.045659865472505487 -0.198526269709837 0 -0.062708331551170268 -0.19442045911658551 0 -0.045659865472505487 -0.198526269709837 0 -0.067682806497079445 -0.21107449474949169 0 -0.045659865472505487 -0.198526269709837 0 -0.054546183461555722 -0.22015285450131489 0 -0.067682806497079445 -0.21107449474949169 0 -0.045659865472505487 -0.198526269709837 0 -0.034672499565036527 -0.2185195148069887 0 -0.054546183461555722 -0.22015285450131489 0 -0.045659865472505487 -0.198526269709837 0 -0.034672499565036527 -0.2185195148069887 0 -0.027127261386640289 -0.20489204062456881 0 -0.045659865472505487 -0.198526269709837 0 -0.034672499565036527 -0.2185195148069887 0 -0.034672499565036527 -0.2185195148069887 0 -0.044145410485190079 -0.23242073182379891 0 -0.054546183461555722 -0.22015285450131489 0 -0.02368513365757598 -0.23851275990414511 0 -0.034672499565036527 -0.2185195148069887 0 -0.044145410485190079 -0.23242073182379891 0 -0.044145410485190079 -0.23242073182379891 0 -0.054546183461555722 -0.22015285450131489 0 -0.061280333386656921 -0.23284462843810469 0 -0.061280333386656921 -0.23284462843810469 0 -0.050191684441297867 -0.2485850187836515 0 -0.071591358857016049 -0.2429226102204386 0 -0.050191684441297867 -0.2485850187836515 0 -0.071591358857016049 -0.2429226102204386 0 -0.056939497423126581 -0.24878681181634871 0 -0.050191684441297867 -0.2485850187836515 0 -0.071591358857016049 -0.2429226102204386 0 -0.044145410485190079 -0.23242073182379891 0 -0.061280333386656921 -0.23284462843810469 0 -0.050191684441297867 -0.2485850187836515 0 -0.041398382443623198 -0.25192549838374201 0 -0.056939497423126581 -0.24878681181634871 0 -0.050191684441297867 -0.2485850187836515 0 -0.044145410485190079 -0.23242073182379891 0 -0.050191684441297867 -0.2485850187836515 0 -0.036167443228362108 -0.24337299090061551 0 -0.02368513365757598 -0.23851275990414511 0 -0.044145410485190079 -0.23242073182379891 0 -0.036167443228362108 -0.24337299090061551 0 -0.025857267464119819 -0.25506418495113531 0 -0.050191684441297867 -0.2485850187836515 0 -0.036167443228362108 -0.24337299090061551 0 -0.097628444613881649 -0.25834262822693399 0 -0.087470553331264578 -0.24262075389877999 0 -0.077955776651182085 -0.24454236002529731 0 -0.087470553331264578 -0.24262075389877999 0 -0.087928467376508473 -0.23859976953689591 0 -0.1005617376665941 -0.23997685579502359 0 -0.087928467376508473 -0.23859976953689591 0 -0.07453604668454375 -0.2421434382925548 0 -0.07383618536286593 -0.22753148747966839 0 -0.087928467376508473 -0.23859976953689591 0 -0.07453604668454375 -0.2421434382925548 0 -0.087928467376508473 -0.23859976953689591 0 -0.077955776651182085 -0.24454236002529731 0 -0.07453604668454375 -0.2421434382925548 0 -0.087470553331264578 -0.24262075389877999 0 -0.087928467376508473 -0.23859976953689591 0 -0.077955776651182085 -0.24454236002529731 0 -0.087470553331264578 -0.24262075389877999 0 -0.077955776651182085 -0.24454236002529731 0 -0.056939497423126581 -0.24878681181634871 0 -0.077955776651182085 -0.24454236002529731 0 -0.071591358857016049 -0.2429226102204386 0 -0.056939497423126581 -0.24878681181634871 0 -0.077955776651182085 -0.24454236002529731 0 -0.077955776651182085 -0.24454236002529731 0 -0.071591358857016049 -0.2429226102204386 0 -0.07453604668454375 -0.2421434382925548 0 -0.077955776651182085 -0.24454236002529731 0 -0.07453604668454375 -0.2421434382925548 0 -0.071591358857016049 -0.2429226102204386 0 -0.07453604668454375 -0.2421434382925548 0 -0.056939497423126581 -0.24878681181634871 0 -0.071591358857016049 -0.2429226102204386 0 -0.061280333386656921 -0.23284462843810469 0 -0.071591358857016049 -0.2429226102204386 0 -0.07453604668454375 -0.2421434382925548 0 -0.061280333386656921 -0.23284462843810469 0 -0.07453604668454375 -0.2421434382925548 0 -0.07383618536286593 -0.22753148747966839 0 -0.089705747521653334 -0.22362271978914661 0 -0.067682806497079445 -0.21107449474949169 0 -0.054546183461555722 -0.22015285450131489 0 -0.061280333386656921 -0.23284462843810469 0 -0.07383618536286593 -0.22753148747966839 0 -0.054546183461555722 -0.22015285450131489 0 -0.07383618536286593 -0.22753148747966839 0 -0.067682806497079445 -0.21107449474949169 0 -0.061280333386656921 -0.23284462843810469 0 -0.07453604668454375 -0.2421434382925548 0 -0.07383618536286593 -0.22753148747966839 0 -0.087928467376508473 -0.23859976953689591 0 -0.07383618536286593 -0.22753148747966839 0 -0.089705747521653334 -0.22362271978914661 0 -0.087928467376508473 -0.23859976953689591 0 -0.089705747521653334 -0.22362271978914661 0 -0.1005617376665941 -0.23997685579502359 0 -0.089705747521653334 -0.22362271978914661 0 -0.067682806497079445 -0.21107449474949169 0 -0.089705747521653334 -0.22362271978914661 0 -0.084027466008495671 -0.20735524824550181 0 -0.09921486728828334 -0.20109800384388701 0 -0.089705747521653334 -0.22362271978914661 0 -0.084027466008495671 -0.20735524824550181 0 -0.067682806497079445 -0.21107449474949169 0 -0.084027466008495671 -0.20735524824550181 0 -0.067682806497079445 -0.21107449474949169 0 -0.079506442726966622 -0.19362577459948219 0 -0.067682806497079445 -0.21107449474949169 0 -0.062708331551170268 -0.19442045911658551 0 -0.079506442726966622 -0.19362577459948219 0 -0.079506442726966622 -0.19362577459948219 0 -0.09921486728828334 -0.20109800384388701 0 -0.089369030920126963 -0.1732707743578942 0 -0.084027466008495671 -0.20735524824550181 0 -0.079506442726966622 -0.19362577459948219 0 -0.09921486728828334 -0.20109800384388701 0 -0.09921486728828334 -0.20109800384388701 0 -0.1156293974943295 -0.1822747327150937 0 -0.1210853022939376 -0.205467400633562 0 -0.1156293974943295 -0.1822747327150937 0 -0.13505851963374399 -0.18906788910329131 0 -0.09921486728828334 -0.20109800384388701 0 -0.1210853022939376 -0.205467400633562 0 -0.1156293974943295 -0.1822747327150937 0 -0.1210853022939376 -0.205467400633562 0 -0.10755849924533691 -0.2178899443088799 0 -0.11989889803527461 -0.22145143588075511 0 -0.1210853022939376 -0.205467400633562 0 -0.11989889803527461 -0.22145143588075511 0 -0.13086176299679239 -0.21746526838305219 0 -0.089705747521653334 -0.22362271978914661 0 -0.09921486728828334 -0.20109800384388701 0 -0.10755849924533691 -0.2178899443088799 0 -0.09921486728828334 -0.20109800384388701 0 -0.1210853022939376 -0.205467400633562 0 -0.10755849924533691 -0.2178899443088799 0 -0.089705747521653334 -0.22362271978914661 0 -0.11172868854622731 -0.23617094482880149 0 -0.1005617376665941 -0.23997685579502359 0 -0.089705747521653334 -0.22362271978914661 0 -0.11172868854622731 -0.23617094482880149 0 -0.089705747521653334 -0.22362271978914661 0 -0.10755849924533691 -0.2178899443088799 0 -0.11172868854622731 -0.23617094482880149 0 -0.11989889803527461 -0.22145143588075511 0 -0.11172868854622731 -0.23617094482880149 0 -0.127825895831608 -0.22987551408160201 0 -0.10755849924533691 -0.2178899443088799 0 -0.11989889803527461 -0.22145143588075511 0 -0.11172868854622731 -0.23617094482880149 0 -0.13218950310710981 -0.25272660122947088 0 -0.1218823470606431 -0.24640061544388489 0 -0.1098930818979398 -0.24798588601512411 0 -0.11172868854622731 -0.23617094482880149 0 -0.13375162957080131 -0.24871916986845621 0 -0.11172868854622731 -0.23617094482880149 0 -0.1218823470606431 -0.24640061544388489 0 -0.13375162957080131 -0.24871916986845621 0 -0.11172868854622731 -0.23617094482880149 0 -0.13375162957080131 -0.24871916986845621 0 -0.127825895831608 -0.22987551408160201 0 -0.11172868854622731 -0.23617094482880149 0 -0.1218823470606431 -0.24640061544388489 0 -0.1098930818979398 -0.24798588601512411 0 -0.097628444613881649 -0.25834262822693399 0 -0.087470553331264578 -0.24262075389877999 0 -0.1098930818979398 -0.24798588601512411 0 -0.087470553331264578 -0.24262075389877999 0 -0.1098930818979398 -0.24798588601512411 0 -0.1005617376665941 -0.23997685579502359 0 -0.087470553331264578 -0.24262075389877999 0 -0.1098930818979398 -0.24798588601512411 0 -0.11172868854622731 -0.23617094482880149 0 -0.1098930818979398 -0.24798588601512411 0 -0.1005617376665941 -0.23997685579502359 0 -0.087470553331264578 -0.24262075389877999 0 -0.1005617376665941 -0.23997685579502359 0 -0.072389231474787458 -0.1492400490994332 0 -0.089369030920126963 -0.1732707743578942 0 -0.096011965921864201 -0.14265464397282879 0 -0.077516787342341589 -0.1242022911324857 0 -0.093262550211769629 -0.1231040070079162 0 -0.096011965921864201 -0.14265464397282879 0 -0.077516787342341589 -0.1242022911324857 0 -0.072389231474787458 -0.1492400490994332 0 -0.096011965921864201 -0.14265464397282879 0 -0.077516787342341589 -0.1242022911324857 0 -0.059238207921678762 -0.13024384051707169 0 -0.072389231474787458 -0.1492400490994332 0 -0.060187329084152079 -0.17209125852752319 0 -0.072389231474787458 -0.1492400490994332 0 -0.089369030920126963 -0.1732707743578942 0 -0.060187329084152079 -0.17209125852752319 0 -0.079506442726966622 -0.19362577459948219 0 -0.089369030920126963 -0.1732707743578942 0 -0.060187329084152079 -0.17209125852752319 0 -0.062708331551170268 -0.19442045911658551 0 -0.079506442726966622 -0.19362577459948219 0 -0.089369030920126963 -0.1732707743578942 0 -0.1107512355661594 -0.16096683979900789 0 -0.096011965921864201 -0.14265464397282879 0 -0.09921486728828334 -0.20109800384388701 0 -0.089369030920126963 -0.1732707743578942 0 -0.1156293974943295 -0.1822747327150937 0 -0.089369030920126963 -0.1732707743578942 0 -0.1156293974943295 -0.1822747327150937 0 -0.1107512355661594 -0.16096683979900789 0 -0.1156293974943295 -0.1822747327150937 0 -0.13204392770037571 -0.1634514615863005 0 -0.1156293974943295 -0.1822747327150937 0 -0.1107512355661594 -0.16096683979900789 0 -0.13204392770037571 -0.1634514615863005 0 -0.1107512355661594 -0.16096683979900789 0 -0.12070185579410091 -0.1431825863629223 0 -0.13204392770037571 -0.1634514615863005 0 -0.1107512355661594 -0.16096683979900789 0 -0.12070185579410091 -0.1431825863629223 0 -0.096011965921864201 -0.14265464397282879 0 -0.1071147179002416 -0.1244919901550422 0 -0.12070185579410091 -0.1431825863629223 0 -0.096011965921864201 -0.14265464397282879 0 -0.093262550211769629 -0.1231040070079162 0 -0.1071147179002416 -0.1244919901550422 0 -0.096011965921864201 -0.14265464397282879 0 -0.1071147179002416 -0.1244919901550422 0 -0.12070185579410091 -0.1431825863629223 0 -0.1306137014228527 -0.1212095633787966 0 -0.12070185579410091 -0.1431825863629223 0 -0.14845845790642179 -0.14462819045750719 0 -0.1306137014228527 -0.1212095633787966 0 -0.14845845790642179 -0.14462819045750719 0 -0.1306137014228527 -0.1212095633787966 0 -0.15036797716661271 -0.14243845987679379 0 -0.14845845790642179 -0.14462819045750719 0 -0.1306137014228527 -0.1212095633787966 0 -0.15406265534163929 -0.1294064941378926 0 -0.15036797716661271 -0.14243845987679379 0 -0.1306137014228527 -0.1212095633787966 0 -0.15406265534163929 -0.1294064941378926 0 -0.15036797716661271 -0.14243845987679379 0 -0.1564494690737798 -0.13971242061594299 0 -0.1543278084257422 -0.1453912472931165 0 -0.14845845790642179 -0.14462819045750719 0 -0.15894149653025619 -0.15184230729274609 0 -0.15519343748037609 -0.14309809199123349 0 -0.15036797716661271 -0.14243845987679379 0 -0.1564494690737798 -0.13971242061594299 0 -0.1543278084257422 -0.1453912472931165 0 -0.15519343748037609 -0.14309809199123349 0 -0.15036797716661271 -0.14243845987679379 0 -0.1543278084257422 -0.1453912472931165 0 -0.15036797716661271 -0.14243845987679379 0 -0.14845845790642179 -0.14462819045750719 0 -0.15036797716661271 -0.14243845987679379 0 -0.14845845790642179 -0.14462819045750719 0 -0.12070185579410091 -0.1431825863629223 0 -0.14845845790642179 -0.14462819045750719 0 -0.13204392770037571 -0.1634514615863005 0 -0.14845845790642179 -0.14462819045750719 0 -0.13204392770037571 -0.1634514615863005 0 -0.13204392770037571 -0.1634514615863005 0 -0.1475860696211248 -0.17640031700015249 0 -0.13505851963374399 -0.18906788910329131 0 -0.1156293974943295 -0.1822747327150937 0 -0.13204392770037571 -0.1634514615863005 0 -0.13505851963374399 -0.18906788910329131 0 -0.1475860696211248 -0.17640031700015249 0 -0.1655722477793394 -0.1670875310098065 0 -0.15496537504316019 -0.19429807729602311 0 -0.1475860696211248 -0.17640031700015249 0 -0.13505851963374399 -0.18906788910329131 0 -0.15496537504316019 -0.19429807729602311 0 -0.1475860696211248 -0.17640031700015249 0 -0.14862352044039201 -0.16347018067920821 0 -0.1655722477793394 -0.1670875310098065 0 -0.14845845790642179 -0.14462819045750719 0 -0.13204392770037571 -0.1634514615863005 0 -0.14862352044039201 -0.16347018067920821 0 -0.14845845790642179 -0.14462819045750719 0 -0.14862352044039201 -0.16347018067920821 0 -0.1655722477793394 -0.1670875310098065 0 -0.13204392770037571 -0.1634514615863005 0 -0.1475860696211248 -0.17640031700015249 0 -0.14862352044039201 -0.16347018067920821 0 -0.1655722477793394 -0.1670875310098065 0 -0.1716614177265566 -0.15146656102038991 0 -0.1655722477793394 -0.1670875310098065 0 -0.15894149653025619 -0.15184230729274609 0 -0.1716614177265566 -0.15146656102038991 0 -0.1655722477793394 -0.1670875310098065 0 -0.17557921295501691 -0.18022020591375351 0 -0.1689483943248192 -0.19264195369377959 0 -0.1655722477793394 -0.1670875310098065 0 -0.15496537504316019 -0.19429807729602311 0 -0.1689483943248192 -0.19264195369377959 0 -0.1655722477793394 -0.1670875310098065 0 -0.15496537504316019 -0.19429807729602311 0 -0.1655722477793394 -0.1670875310098065 0 -0.17557921295501691 -0.18022020591375351 0 -0.17557921295501691 -0.18022020591375351 0 -0.18239484980351819 -0.16464781923938721 0 -0.1907059301477185 -0.18468107337543721 0 -0.1655722477793394 -0.1670875310098065 0 -0.17557921295501691 -0.18022020591375351 0 -0.18239484980351819 -0.16464781923938721 0 -0.1655722477793394 -0.1670875310098065 0 -0.18239484980351819 -0.16464781923938721 0 -0.1716614177265566 -0.15146656102038991 0 -0.18239484980351819 -0.16464781923938721 0 -0.1716614177265566 -0.15146656102038991 0 -0.1894311146879058 -0.1465309504005988 0 -0.17775058767377289 -0.13584559103097291 0 -0.1716614177265566 -0.15146656102038991 0 -0.1894311146879058 -0.1465309504005988 0 -0.17775058767377289 -0.13584559103097291 0 -0.1716614177265566 -0.15146656102038991 0 -0.17775058767377289 -0.13584559103097291 0 -0.1894311146879058 -0.1465309504005988 0 -0.17775058767377289 -0.13584559103097291 0 -0.19823449762692411 -0.13229999761030051 0 -0.18534812722118199 -0.1163550958908785 0 -0.17775058767377289 -0.13584559103097291 0 -0.18534812722118199 -0.1163550958908785 0 -0.15406265534163929 -0.1294064941378926 0 -0.16394560233522651 -0.1386698702264933 0 -0.15606779039194271 -0.1160101434681408 0 -0.17775058767377289 -0.13584559103097291 0 -0.16394560233522651 -0.1386698702264933 0 -0.15606779039194271 -0.1160101434681408 0 -0.17775058767377289 -0.13584559103097291 0 -0.15606779039194271 -0.1160101434681408 0 -0.15406265534163929 -0.1294064941378926 0 -0.16394560233522651 -0.1386698702264933 0 -0.1564494690737798 -0.13971242061594299 0 -0.16394560233522651 -0.1386698702264933 0 -0.1564494690737798 -0.13971242061594299 0 -0.15962849525536979 -0.1448502401790808 0 -0.14845845790642179 -0.14462819045750719 0 -0.1655722477793394 -0.1670875310098065 0 -0.14845845790642179 -0.14462819045750719 0 -0.1655722477793394 -0.1670875310098065 0 -0.15894149653025619 -0.15184230729274609 0 -0.15519343748037609 -0.14309809199123349 0 -0.1564494690737798 -0.13971242061594299 0 -0.15962849525536979 -0.1448502401790808 0 -0.1543278084257422 -0.1453912472931165 0 -0.15519343748037609 -0.14309809199123349 0 -0.15962849525536979 -0.1448502401790808 0 -0.1543278084257422 -0.1453912472931165 0 -0.15962849525536979 -0.1448502401790808 0 -0.15894149653025619 -0.15184230729274609 0 -0.15962849525536979 -0.1448502401790808 0 -0.15894149653025619 -0.15184230729274609 0 -0.1716614177265566 -0.15146656102038991 0 -0.17775058767377289 -0.13584559103097291 0 -0.16394560233522651 -0.1386698702264933 0 -0.1716614177265566 -0.15146656102038991 0 -0.16394560233522651 -0.1386698702264933 0 -0.15962849525536979 -0.1448502401790808 0 -0.1716614177265566 -0.15146656102038991 0 -0.1534429259631987 -0.25724555178864622 0 -0.15289321433053751 -0.246830478479277 0 -0.1378886282313006 -0.2381062402767252 0 -0.1534429259631987 -0.25724555178864622 0 -0.1378886282313006 -0.2381062402767252 0 -0.15348527020851541 -0.23913552791147211 0 -0.1378886282313006 -0.2381062402767252 0 -0.15430752157141919 -0.22794821467022949 0 -0.15289321433053751 -0.246830478479277 0 -0.15348527020851541 -0.23913552791147211 0 -0.1601832428566283 -0.24550858739866141 0 -0.15289321433053751 -0.246830478479277 0 -0.15348527020851541 -0.23913552791147211 0 -0.1378886282313006 -0.2381062402767252 0 -0.1459019403517107 -0.25564217047089421 0 -0.13375162957080131 -0.24871916986845621 0 -0.1378886282313006 -0.2381062402767252 0 -0.13375162957080131 -0.24871916986845621 0 -0.1378886282313006 -0.2381062402767252 0 -0.127825895831608 -0.22987551408160201 0 -0.13375162957080131 -0.24871916986845621 0 -0.1378886282313006 -0.2381062402767252 0 -0.13218950310710981 -0.25272660122947088 0 -0.1218823470606431 -0.24640061544388489 0 -0.13375162957080131 -0.24871916986845621 0 -0.127825895831608 -0.22987551408160201 0 -0.14435850230698141 -0.22150862358223991 0 -0.13086176299679239 -0.21746526838305219 0 -0.1378886282313006 -0.2381062402767252 0 -0.127825895831608 -0.22987551408160201 0 -0.14435850230698141 -0.22150862358223991 0 -0.11989889803527461 -0.22145143588075511 0 -0.127825895831608 -0.22987551408160201 0 -0.13086176299679239 -0.21746526838305219 0 -0.1378886282313006 -0.2381062402767252 0 -0.14435850230698141 -0.22150862358223991 0 -0.14435850230698141 -0.22150862358223991 0 -0.15430752157141919 -0.22794821467022949 0 -0.16410544360365359 -0.21493654602220469 0 -0.1378886282313006 -0.2381062402767252 0 -0.14435850230698141 -0.22150862358223991 0 -0.15430752157141919 -0.22794821467022949 0 -0.14435850230698141 -0.22150862358223991 0 -0.15496537504316019 -0.19429807729602311 0 -0.14435850230698141 -0.22150862358223991 0 -0.1373527607074172 -0.20563907323320921 0 -0.15496537504316019 -0.19429807729602311 0 -0.14435850230698141 -0.22150862358223991 0 -0.15496537504316019 -0.19429807729602311 0 -0.16410544360365359 -0.21493654602220469 0 -0.14435850230698141 -0.22150862358223991 0 -0.1373527607074172 -0.20563907323320921 0 -0.13086176299679239 -0.21746526838305219 0 -0.1210853022939376 -0.205467400633562 0 -0.1373527607074172 -0.20563907323320921 0 -0.13086176299679239 -0.21746526838305219 0 -0.1210853022939376 -0.205467400633562 0 -0.1373527607074172 -0.20563907323320921 0 -0.13505851963374399 -0.18906788910329131 0 -0.1373527607074172 -0.20563907323320921 0 -0.13505851963374399 -0.18906788910329131 0 -0.15496537504316019 -0.19429807729602311 0 -0.1689483943248192 -0.19264195369377959 0 -0.17994482166635981 -0.2014366202218163 0 -0.16410544360365359 -0.21493654602220469 0 -0.15496537504316019 -0.19429807729602311 0 -0.1689483943248192 -0.19264195369377959 0 -0.16410544360365359 -0.21493654602220469 0 -0.17557921295501691 -0.18022020591375351 0 -0.1689483943248192 -0.19264195369377959 0 -0.17994482166635981 -0.2014366202218163 0 -0.17557921295501691 -0.18022020591375351 0 -0.17994482166635981 -0.2014366202218163 0 -0.1907059301477185 -0.18468107337543721 0 -0.17994482166635981 -0.2014366202218163 0 -0.1784102433228649 -0.21681777692650089 0 -0.16410544360365359 -0.21493654602220469 0 -0.17994482166635981 -0.2014366202218163 0 -0.18904495760185211 -0.20873870471059999 0 -0.19252771524915421 -0.19930647688205899 0 -0.17994482166635981 -0.2014366202218163 0 -0.1784102433228649 -0.21681777692650089 0 -0.18904495760185211 -0.20873870471059999 0 -0.1784102433228649 -0.21681777692650089 0 -0.19175951728552271 -0.21959172261586679 0 -0.18904495760185211 -0.20873870471059999 0 -0.15430752157141919 -0.22794821467022949 0 -0.16410544360365359 -0.21493654602220469 0 -0.16877954452522659 -0.2255120540677526 0 -0.15430752157141919 -0.22794821467022949 0 -0.16877954452522659 -0.2255120540677526 0 -0.16324537569009509 -0.2357306359809743 0 -0.15348527020851541 -0.23913552791147211 0 -0.15430752157141919 -0.22794821467022949 0 -0.16324537569009509 -0.2357306359809743 0 -0.16877954452522659 -0.2255120540677526 0 -0.17781387366555559 -0.23090770197000129 0 -0.16324537569009509 -0.2357306359809743 0 -0.1784102433228649 -0.21681777692650089 0 -0.16410544360365359 -0.21493654602220469 0 -0.16877954452522659 -0.2255120540677526 0 -0.1784102433228649 -0.21681777692650089 0 -0.16877954452522659 -0.2255120540677526 0 -0.17781387366555559 -0.23090770197000129 0 -0.1784102433228649 -0.21681777692650089 0 -0.17781387366555559 -0.23090770197000129 0 -0.19175951728552271 -0.21959172261586679 0 -0.17781387366555559 -0.23090770197000129 0 -0.1805311654956796 -0.2411950136452527 0 -0.19410287643929239 -0.23312434657521411 0 -0.17781387366555559 -0.23090770197000129 0 -0.1805311654956796 -0.2411950136452527 0 -0.16955513552828311 -0.24305067226283769 0 -0.17679077873490559 -0.25046109420941731 0 -0.1805311654956796 -0.2411950136452527 0 -0.18863044441395099 -0.24733650333174401 0 -0.17679077873490559 -0.25046109420941731 0 -0.1805311654956796 -0.2411950136452527 0 -0.16955513552828311 -0.24305067226283769 0 -0.16709258238786229 -0.25188408856254202 0 -0.17679077873490559 -0.25046109420941731 0 -0.16955513552828311 -0.24305067226283769 0 -0.16709258238786229 -0.25188408856254202 0 -0.16955513552828311 -0.24305067226283769 0 -0.1601832428566283 -0.24550858739866141 0 -0.17781387366555559 -0.23090770197000129 0 -0.16955513552828311 -0.24305067226283769 0 -0.16324537569009509 -0.2357306359809743 0 -0.16955513552828311 -0.24305067226283769 0 -0.16324537569009509 -0.2357306359809743 0 -0.1601832428566283 -0.24550858739866141 0 -0.15348527020851541 -0.23913552791147211 0 -0.16324537569009509 -0.2357306359809743 0 -0.1601832428566283 -0.24550858739866141 0 -0.1593809120407062 -0.25278805690175971 0 -0.15289321433053751 -0.246830478479277 0 -0.1601832428566283 -0.24550858739866141 0 -0.20565562739327201 -0.24334207984173631 0 -0.19410287643929239 -0.23312434657521411 0 -0.21201774175915139 -0.2290986139018284 0 -0.21472073189145299 -0.25725591714607071 0 -0.20565562739327201 -0.24334207984173631 0 -0.22837296648480071 -0.23789375384220129 0 -0.20565562739327201 -0.24334207984173631 0 -0.21201774175915139 -0.2290986139018284 0 -0.22837296648480071 -0.23789375384220129 0 -0.20565562739327201 -0.24334207984173631 0 -0.18863044441395099 -0.24733650333174401 0 -0.19410287643929239 -0.23312434657521411 0 -0.1805311654956796 -0.2411950136452527 0 -0.18863044441395099 -0.24733650333174401 0 -0.19410287643929239 -0.23312434657521411 0 -0.17781387366555559 -0.23090770197000129 0 -0.19410287643929239 -0.23312434657521411 0 -0.19175951728552271 -0.21959172261586679 0 -0.19410287643929239 -0.23312434657521411 0 -0.19175951728552271 -0.21959172261586679 0 -0.20443040571370949 -0.21985141578154491 0 -0.21201774175915139 -0.2290986139018284 0 -0.20443040571370949 -0.21985141578154491 0 -0.22630383013383959 -0.21240708539258099 0 -0.19410287643929239 -0.23312434657521411 0 -0.21201774175915139 -0.2290986139018284 0 -0.20443040571370949 -0.21985141578154491 0 -0.20157622681128409 -0.2075672839719423 0 -0.21557055542943429 -0.1904257004922347 0 -0.22630383013383959 -0.21240708539258099 0 -0.20157622681128409 -0.2075672839719423 0 -0.22630383013383959 -0.21240708539258099 0 -0.20443040571370949 -0.21985141578154491 0 -0.20157622681128409 -0.2075672839719423 0 -0.22630383013383959 -0.21240708539258099 0 -0.19175951728552271 -0.21959172261586679 0 -0.20443040571370949 -0.21985141578154491 0 -0.20157622681128409 -0.2075672839719423 0 -0.19175951728552271 -0.21959172261586679 0 -0.20157622681128409 -0.2075672839719423 0 -0.19175951728552271 -0.21959172261586679 0 -0.18904495760185211 -0.20873870471059999 0 -0.20157622681128409 -0.2075672839719423 0 -0.18904495760185211 -0.20873870471059999 0 -0.20157622681128409 -0.2075672839719423 0 -0.19252771524915421 -0.19930647688205899 0 -0.17994482166635981 -0.2014366202218163 0 -0.19252771524915421 -0.19930647688205899 0 -0.1907059301477185 -0.18468107337543721 0 -0.20157622681128409 -0.2075672839719423 0 -0.19252771524915421 -0.19930647688205899 0 -0.20187756758401409 -0.19506767240709361 0 -0.19252771524915421 -0.19930647688205899 0 -0.20187756758401409 -0.19506767240709361 0 -0.1907059301477185 -0.18468107337543721 0 -0.20157622681128409 -0.2075672839719423 0 -0.21557055542943429 -0.1904257004922347 0 -0.20187756758401409 -0.19506767240709361 0 -0.21557055542943429 -0.1904257004922347 0 -0.2038146335316797 -0.1820121315948606 0 -0.20157622681128409 -0.2075672839719423 0 -0.20187756758401409 -0.19506767240709361 0 -0.21557055542943429 -0.1904257004922347 0 -0.21557055542943429 -0.1904257004922347 0 -0.23533053747689989 -0.1962925907305976 0 -0.22630383013383959 -0.21240708539258099 0 -0.23533053747689989 -0.1962925907305976 0 -0.25103143345639523 -0.21724688681321891 0 -0.25418198431724581 -0.18809916394242601 0 -0.22630383013383959 -0.21240708539258099 0 -0.25103143345639523 -0.21724688681321891 0 -0.23533053747689989 -0.1962925907305976 0 -0.22630383013383959 -0.21240708539258099 0 -0.25103143345639523 -0.21724688681321891 0 -0.21201774175915139 -0.2290986139018284 0 -0.22630383013383959 -0.21240708539258099 0 -0.22837296648480071 -0.23789375384220129 0 -0.22630383013383959 -0.21240708539258099 0 -0.22837296648480071 -0.23789375384220129 0 -0.25103143345639523 -0.21724688681321891 0 -0.22837296648480071 -0.23789375384220129 0 -0.25431856302814809 -0.24833495949118861 0 -0.25103143345639523 -0.21724688681321891 0 -0.2335542019388327 -0.26090262277066528 0 -0.22837296648480071 -0.23789375384220129 0 -0.25431856302814809 -0.24833495949118861 0 -0.20708483324238849 -0.15128624944667929 0 -0.22647357207813959 -0.15205360930679629 0 -0.2195633859389316 -0.1340578990397249 0 -0.20708483324238849 -0.15128624944667929 0 -0.19823449762692411 -0.13229999761030051 0 -0.2195633859389316 -0.1340578990397249 0 -0.19823449762692411 -0.13229999761030051 0 -0.2195633859389316 -0.1340578990397249 0 -0.21022893699736381 -0.1097241998529486 0 -0.17775058767377289 -0.13584559103097291 0 -0.19823449762692411 -0.13229999761030051 0 -0.1894311146879058 -0.1465309504005988 0 -0.20708483324238849 -0.15128624944667929 0 -0.1894311146879058 -0.1465309504005988 0 -0.19351686899232889 -0.15854259719770419 0 -0.20708483324238849 -0.15128624944667929 0 -0.19823449762692411 -0.13229999761030051 0 -0.1894311146879058 -0.1465309504005988 0 -0.20708483324238849 -0.15128624944667929 0 -0.19351686899232889 -0.15854259719770419 0 -0.19880271024428661 -0.17007658736909009 0 -0.18239484980351819 -0.16464781923938721 0 -0.1894311146879058 -0.1465309504005988 0 -0.19351686899232889 -0.15854259719770419 0 -0.18239484980351819 -0.16464781923938721 0 -0.19351686899232889 -0.15854259719770419 0 -0.19880271024428661 -0.17007658736909009 0 -0.18239484980351819 -0.16464781923938721 0 -0.19880271024428661 -0.17007658736909009 0 -0.1907059301477185 -0.18468107337543721 0 -0.19880271024428661 -0.17007658736909009 0 -0.1907059301477185 -0.18468107337543721 0 -0.2038146335316797 -0.1820121315948606 0 -0.20187756758401409 -0.19506767240709361 0 -0.1907059301477185 -0.18468107337543721 0 -0.2038146335316797 -0.1820121315948606 0 -0.21557055542943429 -0.1904257004922347 0 -0.2038146335316797 -0.1820121315948606 0 -0.21355186476225221 -0.16985639920369799 0 -0.19880271024428661 -0.17007658736909009 0 -0.2038146335316797 -0.1820121315948606 0 -0.21355186476225221 -0.16985639920369799 0 -0.20708483324238849 -0.15128624944667929 0 -0.21355186476225221 -0.16985639920369799 0 -0.22647357207813959 -0.15205360930679629 0 -0.20708483324238849 -0.15128624944667929 0 -0.19880271024428661 -0.17007658736909009 0 -0.21355186476225221 -0.16985639920369799 0 -0.22956488404758479 -0.1732841170125273 0 -0.2435592126657353 -0.1561425335328199 0 -0.22647357207813959 -0.15205360930679629 0 -0.21355186476225221 -0.16985639920369799 0 -0.22956488404758479 -0.1732841170125273 0 -0.22647357207813959 -0.15205360930679629 0 -0.21557055542943429 -0.1904257004922347 0 -0.21355186476225221 -0.16985639920369799 0 -0.22956488404758479 -0.1732841170125273 0 -0.21557055542943429 -0.1904257004922347 0 -0.22956488404758479 -0.1732841170125273 0 -0.21557055542943429 -0.1904257004922347 0 -0.23533053747689989 -0.1962925907305976 0 -0.22956488404758479 -0.1732841170125273 0 -0.23533053747689989 -0.1962925907305976 0 -0.22956488404758479 -0.1732841170125273 0 -0.25418198431724581 -0.18809916394242601 0 -0.22956488404758479 -0.1732841170125273 0 -0.25418198431724581 -0.18809916394242601 0 -0.2565438833259911 -0.1687602707777138 0 -0.22956488404758479 -0.1732841170125273 0 -0.2435592126657353 -0.1561425335328199 0 -0.22956488404758479 -0.1732841170125273 0 -0.2435592126657353 -0.1561425335328199 0 -0.2565438833259911 -0.1687602707777138 0 -0.2435592126657353 -0.1561425335328199 0 -0.22647357207813959 -0.15205360930679629 0 -0.2432602079730701 -0.13485583854350039 0 -0.22647357207813959 -0.15205360930679629 0 -0.2195633859389316 -0.1340578990397249 0 -0.2432602079730701 -0.13485583854350039 0 -0.2195633859389316 -0.1340578990397249 0 -0.2432602079730701 -0.13485583854350039 0 -0.23065476516460279 -0.11957242830579699 0 -0.2432602079730701 -0.13485583854350039 0 -0.2499653418643101 -0.1102460646797562 0 -0.23065476516460279 -0.11957242830579699 0 -0.2499653418643101 -0.1102460646797562 0 -0.2308399038819596 -0.1034577205422559 0 -0.23065476516460279 -0.11957242830579699 0 -0.2308399038819596 -0.1034577205422559 0 -0.25308440776240432 -0.086371671251396109 0 -0.2499653418643101 -0.1102460646797562 0 -0.2308399038819596 -0.1034577205422559 0 -0.25308440776240432 -0.086371671251396109 0 -0.2308399038819596 -0.1034577205422559 0 -0.21022893699736381 -0.1097241998529486 0 -0.21520721362926831 -0.098298511723915558 0 -0.2308399038819596 -0.1034577205422559 0 -0.22013457808717909 -0.089221868029860679 0 -0.21520721362926831 -0.098298511723915558 0 -0.2308399038819596 -0.1034577205422559 0 -0.23065476516460279 -0.11957242830579699 0 -0.21022893699736381 -0.1097241998529486 0 -0.2195633859389316 -0.1340578990397249 0 -0.23065476516460279 -0.11957242830579699 0 -0.21022893699736381 -0.1097241998529486 0 -0.2335598957907816 -0.079883889973887123 0 -0.24475965461883589 -0.059498385283178377 0 -0.2582325144520296 -0.070050845257802419 0 -0.2335598957907816 -0.079883889973887123 0 -0.2582325144520296 -0.070050845257802419 0 -0.25308440776240432 -0.086371671251396109 0 -0.2308399038819596 -0.1034577205422559 0 -0.2335598957907816 -0.079883889973887123 0 -0.25308440776240432 -0.086371671251396109 0 -0.2308399038819596 -0.1034577205422559 0 -0.22013457808717909 -0.089221868029860679 0 -0.2335598957907816 -0.079883889973887123 0 -0.22013457808717909 -0.089221868029860679 0 -0.2335598957907816 -0.079883889973887123 0 -0.21963876375789801 -0.077814354495200549 0 -0.2335598957907816 -0.079883889973887123 0 -0.21595644614104051 -0.065738508165203102 0 -0.24475965461883589 -0.059498385283178377 0 -0.21595644614104051 -0.065738508165203102 0 -0.24475965461883589 -0.059498385283178377 0 -0.2335598957907816 -0.079883889973887123 0 -0.21963876375789801 -0.077814354495200549 0 -0.21595644614104051 -0.065738508165203102 0 -0.20438945881064449 -0.068244458930106389 0 -0.21100771399754009 -0.086966924160961745 0 -0.21595644614104051 -0.065738508165203102 0 -0.21100771399754009 -0.086966924160961745 0 -0.20438945881064449 -0.068244458930106389 0 -0.21595644614104051 -0.065738508165203102 0 -0.21100771399754009 -0.086966924160961745 0 -0.21963876375789801 -0.077814354495200549 0 -0.21595644614104051 -0.065738508165203102 0 -0.21100771399754009 -0.086966924160961745 0 -0.20438945881064449 -0.068244458930106389 0 -0.21595644614104051 -0.065738508165203102 0 -0.20438945881064449 -0.068244458930106389 0 -0.21595644614104051 -0.065738508165203102 0 -0.20711132549122371 -0.057203435059411119 0 -0.20438945881064449 -0.068244458930106389 0 -0.21100771399754009 -0.086966924160961745 0 -0.19851231957361129 -0.085310821531315487 0 -0.22013457808717909 -0.089221868029860679 0 -0.21963876375789801 -0.077814354495200549 0 -0.21100771399754009 -0.086966924160961745 0 -0.22013457808717909 -0.089221868029860679 0 -0.21100771399754009 -0.086966924160961745 0 -0.21520721362926831 -0.098298511723915558 0 -0.21100771399754009 -0.086966924160961745 0 -0.19851231957361129 -0.085310821531315487 0 -0.20550431009004061 -0.095676697317907802 0 -0.21100771399754009 -0.086966924160961745 0 -0.21520721362926831 -0.098298511723915558 0 -0.20550431009004061 -0.095676697317907802 0 -0.19851231957361129 -0.085310821531315487 0 -0.18118326058104209 -0.08825419183970401 0 -0.18409944718507371 -0.07264022497537044 0 -0.19851231957361129 -0.085310821531315487 0 -0.19294566676858971 -0.096864600750783431 0 -0.18118326058104209 -0.08825419183970401 0 -0.19851231957361129 -0.085310821531315487 0 -0.20550431009004061 -0.095676697317907802 0 -0.19294566676858971 -0.096864600750783431 0 -0.20438945881064449 -0.068244458930106389 0 -0.19851231957361129 -0.085310821531315487 0 -0.18409944718507371 -0.07264022497537044 0 -0.20438945881064449 -0.068244458930106389 0 -0.18409944718507371 -0.07264022497537044 0 -0.18769526278089041 -0.057829612445021099 0 -0.20438945881064449 -0.068244458930106389 0 -0.18409944718507371 -0.07264022497537044 0 -0.21022893699736381 -0.1097241998529486 0 -0.21520721362926831 -0.098298511723915558 0 -0.20550431009004061 -0.095676697317907802 0 -0.21022893699736381 -0.1097241998529486 0 -0.20550431009004061 -0.095676697317907802 0 -0.19294566676858971 -0.096864600750783431 0 -0.19294566676858971 -0.096864600750783431 0 -0.18534812722118199 -0.1163550958908785 0 -0.21022893699736381 -0.1097241998529486 0 -0.19294566676858971 -0.096864600750783431 0 -0.18534812722118199 -0.1163550958908785 0 -0.19823449762692411 -0.13229999761030051 0 -0.21022893699736381 -0.1097241998529486 0 -0.18534812722118199 -0.1163550958908785 0 -0.18534812722118199 -0.1163550958908785 0 -0.17423934197139679 -0.1017815859784342 0 -0.15606779039194271 -0.1160101434681408 0 -0.17775058767377289 -0.13584559103097291 0 -0.18534812722118199 -0.1163550958908785 0 -0.15606779039194271 -0.1160101434681408 0 -0.16057304666404501 -0.10079887419961479 0 -0.17423934197139679 -0.1017815859784342 0 -0.15606779039194271 -0.1160101434681408 0 -0.16057304666404501 -0.10079887419961479 0 -0.16746185343044401 -0.091445336260546128 0 -0.1570966781871318 -0.090327755750333361 0 -0.16057304666404501 -0.10079887419961479 0 -0.17423934197139679 -0.1017815859784342 0 -0.16746185343044401 -0.091445336260546128 0 -0.17423934197139679 -0.1017815859784342 0 -0.18118326058104209 -0.08825419183970401 0 -0.16746185343044401 -0.091445336260546128 0 -0.19294566676858971 -0.096864600750783431 0 -0.18534812722118199 -0.1163550958908785 0 -0.17423934197139679 -0.1017815859784342 0 -0.19294566676858971 -0.096864600750783431 0 -0.17423934197139679 -0.1017815859784342 0 -0.18118326058104209 -0.08825419183970401 0 -0.18118326058104209 -0.08825419183970401 0 -0.18409944718507371 -0.07264022497537044 0 -0.16915717098214109 -0.081397787743409861 0 -0.18118326058104209 -0.08825419183970401 0 -0.16746185343044401 -0.091445336260546128 0 -0.16915717098214109 -0.081397787743409861 0 -0.18409944718507371 -0.07264022497537044 0 -0.1702117591297739 -0.06777753321031553 0 -0.16380943555950259 -0.077035991020633382 0 -0.18409944718507371 -0.07264022497537044 0 -0.16380943555950259 -0.077035991020633382 0 -0.16915717098214109 -0.081397787743409861 0 -0.18409944718507371 -0.07264022497537044 0 -0.17187825396406881 -0.057945450019426657 0 -0.18769526278089041 -0.057829612445021099 0 -0.18409944718507371 -0.07264022497537044 0 -0.16380943555950259 -0.077035991020633382 0 -0.18409944718507371 -0.07264022497537044 0 -0.1702117591297739 -0.06777753321031553 0 -0.17187825396406881 -0.057945450019426657 0 -0.16380943555950259 -0.077035991020633382 0 -0.16105989981045041 -0.063488466825831633 0 -0.14595160177326619 -0.062470528310013429 0 -0.1702117591297739 -0.06777753321031553 0 -0.16105989981045041 -0.063488466825831633 0 -0.17187825396406881 -0.057945450019426657 0 -0.1702117591297739 -0.06777753321031553 0 -0.16380943555950259 -0.077035991020633382 0 -0.16105989981045041 -0.063488466825831633 0 -0.16380943555950259 -0.077035991020633382 0 -0.16109871639751261 -0.084134952385501949 0 -0.14796844382834351 -0.080467891152587012 0 -0.16746185343044401 -0.091445336260546128 0 -0.16915717098214109 -0.081397787743409861 0 -0.16109871639751261 -0.084134952385501949 0 -0.16380943555950259 -0.077035991020633382 0 -0.16915717098214109 -0.081397787743409861 0 -0.16109871639751261 -0.084134952385501949 0 -0.16380943555950259 -0.077035991020633382 0 -0.16915717098214109 -0.081397787743409861 0 -0.16746185343044401 -0.091445336260546128 0 -0.16109871639751261 -0.084134952385501949 0 -0.1570966781871318 -0.090327755750333361 0 -0.16380943555950259 -0.077035991020633382 0 -0.14796844382834351 -0.080467891152587012 0 -0.14796844382834351 -0.080467891152587012 0 -0.13497135686491851 -0.078315161523928284 0 -0.1484932433812913 -0.094043062253026791 0 -0.1570966781871318 -0.090327755750333361 0 -0.14796844382834351 -0.080467891152587012 0 -0.1484932433812913 -0.094043062253026791 0 -0.16109871639751261 -0.084134952385501949 0 -0.1570966781871318 -0.090327755750333361 0 -0.14796844382834351 -0.080467891152587012 0 -0.16380943555950259 -0.077035991020633382 0 -0.14796844382834351 -0.080467891152587012 0 -0.14595160177326619 -0.062470528310013429 0 -0.16380943555950259 -0.077035991020633382 0 -0.14595160177326619 -0.062470528310013429 0 -0.14796844382834351 -0.080467891152587012 0 -0.13497135686491851 -0.078315161523928284 0 -0.14595160177326619 -0.062470528310013429 0 -0.1158705629695205 -0.060236298698018297 0 -0.13497135686491851 -0.078315161523928284 0 -0.1158705629695205 -0.060236298698018297 0 -0.13497135686491851 -0.078315161523928284 0 -0.13122182239868371 -0.062231763532838429 0 -0.13497135686491851 -0.078315161523928284 0 -0.13122182239868371 -0.062231763532838429 0 -0.14595160177326619 -0.062470528310013429 0 -0.112702195828283 -0.076339248342475546 0 -0.13497135686491851 -0.078315161523928284 0 -0.13438499311011279 -0.096174695905308166 0 -0.13497135686491851 -0.078315161523928284 0 -0.13438499311011279 -0.096174695905308166 0 -0.1484932433812913 -0.094043062253026791 0 -0.11276894493928399 -0.097790936300085646 0 -0.13438499311011279 -0.096174695905308166 0 -0.1306137014228527 -0.1212095633787966 0 -0.13438499311011279 -0.096174695905308166 0 -0.1306137014228527 -0.1212095633787966 0 -0.15606779039194271 -0.1160101434681408 0 -0.15406265534163929 -0.1294064941378926 0 -0.1306137014228527 -0.1212095633787966 0 -0.15606779039194271 -0.1160101434681408 0 -0.13438499311011279 -0.096174695905308166 0 -0.15606779039194271 -0.1160101434681408 0 -0.1484932433812913 -0.094043062253026791 0 -0.16057304666404501 -0.10079887419961479 0 -0.15606779039194271 -0.1160101434681408 0 -0.1484932433812913 -0.094043062253026791 0 -0.13438499311011279 -0.096174695905308166 0 -0.15606779039194271 -0.1160101434681408 0 -0.16057304666404501 -0.10079887419961479 0 -0.1570966781871318 -0.090327755750333361 0 -0.1484932433812913 -0.094043062253026791 0 -0.14513665439653431 -0.02122229521611602 0 -0.15148395360685291 -0.031475856168514699 0 -0.16129500549156001 -0.024264335985147129 0 -0.14513665439653431 -0.02122229521611602 0 -0.1346415055917565 -0.031432898451717602 0 -0.15148395360685291 -0.031475856168514699 0 -0.14513665439653431 -0.02122229521611602 0 -0.15327979458335059 -0.01391829646419882 0 -0.16129500549156001 -0.024264335985147129 0 -0.1412848112475209 -0.008091449167619497 0 -0.15773416148281841 -0.0035868741371463562 0 -0.14801408494475049 0.0031182785745780331 0 -0.15327979458335059 -0.01391829646419882 0 -0.1412848112475209 -0.008091449167619497 0 -0.15773416148281841 -0.0035868741371463562 0 -0.14513665439653431 -0.02122229521611602 0 -0.15327979458335059 -0.01391829646419882 0 -0.1412848112475209 -0.008091449167619497 0 -0.1236693299605585 -0.0137973575501921 0 -0.1412848112475209 -0.008091449167619497 0 -0.12735709500343681 0.004015926865657337 0 -0.1412848112475209 -0.008091449167619497 0 -0.12735709500343681 0.004015926865657337 0 -0.14801408494475049 0.0031182785745780331 0 -0.1236693299605585 -0.0137973575501921 0 -0.1412848112475209 -0.008091449167619497 0 -0.13426109495296229 -0.02049569832685658 0 -0.1236693299605585 -0.0137973575501921 0 -0.1221370268088495 -0.025998648103035 0 -0.13426109495296229 -0.02049569832685658 0 -0.14513665439653431 -0.02122229521611602 0 -0.1412848112475209 -0.008091449167619497 0 -0.13426109495296229 -0.02049569832685658 0 -0.14513665439653431 -0.02122229521611602 0 -0.13426109495296229 -0.02049569832685658 0 -0.1346415055917565 -0.031432898451717602 0 -0.1221370268088495 -0.025998648103035 0 -0.12530131535501859 -0.034952786400489197 0 -0.1346415055917565 -0.031432898451717602 0 -0.1221370268088495 -0.025998648103035 0 -0.13426109495296229 -0.02049569832685658 0 -0.1346415055917565 -0.031432898451717602 0 -0.12530131535501859 -0.034952786400489197 0 -0.1346415055917565 -0.031432898451717602 0 -0.12809376798702951 -0.047905065599393698 0 -0.1346415055917565 -0.031432898451717602 0 -0.12809376798702951 -0.047905065599393698 0 -0.14629371500633531 -0.042796653234188263 0 -0.12809376798702951 -0.047905065599393698 0 -0.14595160177326619 -0.062470528310013429 0 -0.12809376798702951 -0.047905065599393698 0 -0.14595160177326619 -0.062470528310013429 0 -0.14629371500633531 -0.042796653234188263 0 -0.13122182239868371 -0.062231763532838429 0 -0.12809376798702951 -0.047905065599393698 0 -0.14595160177326619 -0.062470528310013429 0 -0.1158705629695205 -0.060236298698018297 0 -0.13122182239868371 -0.062231763532838429 0 -0.12809376798702951 -0.047905065599393698 0 -0.14595160177326619 -0.062470528310013429 0 -0.14629371500633531 -0.042796653234188263 0 -0.15696853651444401 -0.052603520026387289 0 -0.16105989981045041 -0.063488466825831633 0 -0.14595160177326619 -0.062470528310013429 0 -0.15696853651444401 -0.052603520026387289 0 -0.15148395360685291 -0.031475856168514699 0 -0.14629371500633531 -0.042796653234188263 0 -0.16402488563849801 -0.041062174760887443 0 -0.1346415055917565 -0.031432898451717602 0 -0.15148395360685291 -0.031475856168514699 0 -0.14629371500633531 -0.042796653234188263 0 -0.14629371500633531 -0.042796653234188263 0 -0.16402488563849801 -0.041062174760887443 0 -0.15696853651444401 -0.052603520026387289 0 -0.15148395360685291 -0.031475856168514699 0 -0.16402488563849801 -0.041062174760887443 0 -0.16129500549156001 -0.024264335985147129 0 -0.16402488563849801 -0.041062174760887443 0 -0.17409393016306191 -0.030370879776367592 0 -0.16129500549156001 -0.024264335985147129 0 -0.16402488563849801 -0.041062174760887443 0 -0.15696853651444401 -0.052603520026387289 0 -0.17187825396406881 -0.057945450019426657 0 -0.16105989981045041 -0.063488466825831633 0 -0.15696853651444401 -0.052603520026387289 0 -0.17187825396406881 -0.057945450019426657 0 -0.16402488563849801 -0.041062174760887443 0 -0.17187825396406881 -0.057945450019426657 0 -0.18133558272394029 -0.043618149437272283 0 -0.17187825396406881 -0.057945450019426657 0 -0.18133558272394029 -0.043618149437272283 0 -0.18769526278089041 -0.057829612445021099 0 -0.18133558272394029 -0.043618149437272283 0 -0.17409393016306191 -0.030370879776367592 0 -0.18915768363079971 -0.025155098795753519 0 -0.16402488563849801 -0.041062174760887443 0 -0.18133558272394029 -0.043618149437272283 0 -0.17409393016306191 -0.030370879776367592 0 -0.17409393016306191 -0.030370879776367592 0 -0.17549551533112251 -0.014893414490097231 0 -0.18915768363079971 -0.025155098795753519 0 -0.16129500549156001 -0.024264335985147129 0 -0.16350931143073591 -0.01273440345064396 0 -0.17549551533112251 -0.014893414490097231 0 -0.17409393016306191 -0.030370879776367592 0 -0.16129500549156001 -0.024264335985147129 0 -0.17549551533112251 -0.014893414490097231 0 -0.15327979458335059 -0.01391829646419882 0 -0.16129500549156001 -0.024264335985147129 0 -0.16350931143073591 -0.01273440345064396 0 -0.15773416148281841 -0.0035868741371463562 0 -0.16716832075785379 -0.0032078365625175 0 -0.1619193683370386 0.0066468078375689294 0 -0.15773416148281841 -0.0035868741371463562 0 -0.16350931143073591 -0.01273440345064396 0 -0.16716832075785379 -0.0032078365625175 0 -0.15327979458335059 -0.01391829646419882 0 -0.15773416148281841 -0.0035868741371463562 0 -0.16350931143073591 -0.01273440345064396 0 -0.16350931143073591 -0.01273440345064396 0 -0.16716832075785379 -0.0032078365625175 0 -0.17549551533112251 -0.014893414490097231 0 -0.17549551533112251 -0.014893414490097231 0 -0.18154179604087481 -0.0036104187285780349 0 -0.18915768363079971 -0.025155098795753519 0 -0.18154179604087481 -0.0036104187285780349 0 -0.18915768363079971 -0.025155098795753519 0 -0.17549551533112251 -0.014893414490097231 0 -0.17584419881677341 0.0071523107965592754 0 -0.17549551533112251 -0.014893414490097231 0 -0.18154179604087481 -0.0036104187285780349 0 -0.17584419881677341 0.0071523107965592754 0 -0.16716832075785379 -0.0032078365625175 0 -0.17549551533112251 -0.014893414490097231 0 -0.17584419881677341 0.0071523107965592754 0 -0.18154179604087481 -0.0036104187285780349 0 -0.19066530249761049 -0.0041303576494283751 0 -0.18915768363079971 -0.025155098795753519 0 -0.18154179604087481 -0.0036104187285780349 0 -0.19066530249761049 -0.0041303576494283751 0 -0.18717715497560061 0.0062623078557712403 0 -0.19066530249761049 -0.0041303576494283751 0 -0.1989264366345522 -0.0080023544535597537 0 -0.18915768363079971 -0.025155098795753519 0 -0.19066530249761049 -0.0041303576494283751 0 -0.1989264366345522 -0.0080023544535597537 0 -0.1965234412062255 0.0098537758749781944 0 -0.1989264366345522 -0.0080023544535597537 0 -0.2007918169376324 -0.0191738513677071 0 -0.20680177871376751 -0.0119671669755851 0 -0.18915768363079971 -0.025155098795753519 0 -0.2007918169376324 -0.0191738513677071 0 -0.21013076049929519 -0.028334228638799381 0 -0.1989264366345522 -0.0080023544535597537 0 -0.18915768363079971 -0.025155098795753519 0 -0.2007918169376324 -0.0191738513677071 0 -0.2007918169376324 -0.0191738513677071 0 -0.21013076049929519 -0.028334228638799381 0 -0.20680177871376751 -0.0119671669755851 0 -0.21013076049929519 -0.028334228638799381 0 -0.21702438745170211 -0.0043907958627755336 0 -0.21921501925093501 -0.017985606360015789 0 -0.21013076049929519 -0.028334228638799381 0 -0.21702438745170211 -0.0043907958627755336 0 -0.21013076049929519 -0.028334228638799381 0 -0.22271521407306469 -0.037269361340154371 0 -0.21921501925093501 -0.017985606360015789 0 -0.21013076049929519 -0.028334228638799381 0 -0.21702438745170211 -0.0043907958627755336 0 -0.20680177871376751 -0.0119671669755851 0 -0.1989264366345522 -0.0080023544535597537 0 -0.20680177871376751 -0.0119671669755851 0 -0.20713549204565579 6.5395444916274768e-05 0 -0.21702438745170211 -0.0043907958627755336 0 -0.20680177871376751 -0.0119671669755851 0 -0.20713549204565579 6.5395444916274768e-05 0 -0.20438945881064449 -0.068244458930106389 0 -0.1967735712207245 -0.046699778862929052 0 -0.20438945881064449 -0.068244458930106389 0 -0.18769526278089041 -0.057829612445021099 0 -0.1967735712207245 -0.046699778862929052 0 -0.20438945881064449 -0.068244458930106389 0 -0.1967735712207245 -0.046699778862929052 0 -0.20711132549122371 -0.057203435059411119 0 -0.18133558272394029 -0.043618149437272283 0 -0.18769526278089041 -0.057829612445021099 0 -0.1967735712207245 -0.046699778862929052 0 -0.18133558272394029 -0.043618149437272283 0 -0.18915768363079971 -0.025155098795753519 0 -0.1967735712207245 -0.046699778862929052 0 -0.18915768363079971 -0.025155098795753519 0 -0.1967735712207245 -0.046699778862929052 0 -0.18915768363079971 -0.025155098795753519 0 -0.21013076049929519 -0.028334228638799381 0 -0.1967735712207245 -0.046699778862929052 0 -0.21013076049929519 -0.028334228638799381 0 -0.21132582579248671 -0.048130994279405613 0 -0.22271521407306469 -0.037269361340154371 0 -0.21013076049929519 -0.028334228638799381 0 -0.1967735712207245 -0.046699778862929052 0 -0.21132582579248671 -0.048130994279405613 0 -0.21595644614104051 -0.065738508165203102 0 -0.21132582579248671 -0.048130994279405613 0 -0.22271521407306469 -0.037269361340154371 0 -0.21595644614104051 -0.065738508165203102 0 -0.21132582579248671 -0.048130994279405613 0 -0.20711132549122371 -0.057203435059411119 0 -0.1967735712207245 -0.046699778862929052 0 -0.21132582579248671 -0.048130994279405613 0 -0.20711132549122371 -0.057203435059411119 0 -0.21595644614104051 -0.065738508165203102 0 -0.2284172135094342 -0.053659916570315727 0 -0.24475965461883589 -0.059498385283178377 0 -0.21595644614104051 -0.065738508165203102 0 -0.2284172135094342 -0.053659916570315727 0 -0.22271521407306469 -0.037269361340154371 0 -0.21595644614104051 -0.065738508165203102 0 -0.22271521407306469 -0.037269361340154371 0 -0.2284172135094342 -0.053659916570315727 0 -0.22271521407306469 -0.037269361340154371 0 -0.23903543051913109 -0.043198085603962481 0 -0.22271521407306469 -0.037269361340154371 0 -0.23903543051913109 -0.043198085603962481 0 -0.24161885061771041 -0.026720350447010301 0 -0.23903543051913109 -0.043198085603962481 0 -0.24161885061771041 -0.026720350447010301 0 -0.25766621977661042 -0.038842414379153638 0 -0.23903543051913109 -0.043198085603962481 0 -0.24475965461883589 -0.059498385283178377 0 -0.25766621977661042 -0.038842414379153638 0 -0.2284172135094342 -0.053659916570315727 0 -0.23903543051913109 -0.043198085603962481 0 -0.24475965461883589 -0.059498385283178377 0 -0.22947398200509031 -0.0088002145151058891 0 -0.22867745033346079 0.0038692188645070222 0 -0.2401015516947359 0.00075261550232862703 0 -0.21702438745170211 -0.0043907958627755336 0 -0.22947398200509031 -0.0088002145151058891 0 -0.22867745033346079 0.0038692188645070222 0 -0.21702438745170211 -0.0043907958627755336 0 -0.22947398200509031 -0.0088002145151058891 0 -0.21921501925093501 -0.017985606360015789 0 -0.22271521407306469 -0.037269361340154371 0 -0.22947398200509031 -0.0088002145151058891 0 -0.21921501925093501 -0.017985606360015789 0 -0.22271521407306469 -0.037269361340154371 0 -0.22947398200509031 -0.0088002145151058891 0 -0.22271521407306469 -0.037269361340154371 0 -0.22947398200509031 -0.0088002145151058891 0 -0.24161885061771041 -0.026720350447010301 0 -0.22947398200509031 -0.0088002145151058891 0 -0.24161885061771041 -0.026720350447010301 0 -0.2437457614006571 -0.011962382738850049 0 -0.24161885061771041 -0.026720350447010301 0 -0.2437457614006571 -0.011962382738850049 0 -0.2598032925822476 -0.0188915667982569 0 -0.22947398200509031 -0.0088002145151058891 0 -0.2437457614006571 -0.011962382738850049 0 -0.2401015516947359 0.00075261550232862703 0 -0.2437457614006571 -0.011962382738850049 0 -0.25267499080189931 -0.0034516002120552492 0 -0.2401015516947359 0.00075261550232862703 0 -0.25267499080189931 -0.0034516002120552492 0 -0.2598032925822476 -0.0188915667982569 0 -0.26909988492935111 -0.0018655285383734981 0 -0.2437457614006571 -0.011962382738850049 0 -0.25267499080189931 -0.0034516002120552492 0 -0.2598032925822476 -0.0188915667982569 0 -0.2598032925822476 -0.0188915667982569 0 -0.27267419604841259 -0.026924212746328481 0 -0.25766621977661042 -0.038842414379153638 0 -0.24161885061771041 -0.026720350447010301 0 -0.2598032925822476 -0.0188915667982569 0 -0.25766621977661042 -0.038842414379153638 0 -0.2598032925822476 -0.0188915667982569 0 -0.27267419604841259 -0.026924212746328481 0 -0.27804425228895369 -0.016131696666228459 0 -0.27267419604841259 -0.026924212746328481 0 -0.27804425228895369 -0.016131696666228459 0 -0.28378415359151371 -0.031280105512012511 0 -0.27804425228895369 -0.016131696666228459 0 -0.26909988492935111 -0.0018655285383734981 0 -0.2917254884257266 -0.0017566381736345419 0 -0.2598032925822476 -0.0188915667982569 0 -0.27804425228895369 -0.016131696666228459 0 -0.26909988492935111 -0.0018655285383734981 0 -0.27804425228895369 -0.016131696666228459 0 -0.2917254884257266 -0.0017566381736345419 0 -0.2928870998243559 -0.020527937726781 0 -0.27804425228895369 -0.016131696666228459 0 -0.2928870998243559 -0.020527937726781 0 -0.28378415359151371 -0.031280105512012511 0 -0.2928870998243559 -0.020527937726781 0 -0.29943422057661201 -0.032203920876667472 0 -0.28378415359151371 -0.031280105512012511 0 -0.2928870998243559 -0.020527937726781 0 -0.31144738423897378 -0.02126732740536201 0 -0.29943422057661201 -0.032203920876667472 0 -0.31144738423897378 -0.02126732740536201 0 -0.31110423911055801 -0.035316851109560482 0 -0.29943422057661201 -0.032203920876667472 0 -0.2917254884257266 -0.0017566381736345419 0 -0.31144738423897378 -0.02126732740536201 0 -0.31177688145040278 0.0050359958776742568 0 -0.2917254884257266 -0.0017566381736345419 0 -0.2928870998243559 -0.020527937726781 0 -0.31144738423897378 -0.02126732740536201 0 -0.2917254884257266 -0.0017566381736345419 0 -0.31144738423897378 -0.02126732740536201 0 -0.30323190850646392 -0.052883144282766713 0 -0.3023660715744253 -0.047018139519123002 0 -0.29757341552329353 -0.05219957266967655 0 -0.29931176789370939 -0.061629941742321552 0 -0.30659897303184058 -0.057135789817405573 0 -0.30728911182784302 -0.064893595009923935 0 -0.30323190850646392 -0.052883144282766713 0 -0.29931176789370939 -0.061629941742321552 0 -0.30659897303184058 -0.057135789817405573 0 -0.30323190850646392 -0.052883144282766713 0 -0.29757341552329353 -0.05219957266967655 0 -0.29931176789370939 -0.061629941742321552 0 -0.30659897303184058 -0.057135789817405573 0 -0.30728911182784302 -0.064893595009923935 0 -0.31405483352543062 -0.056831087900065053 0 -0.30323190850646392 -0.052883144282766713 0 -0.3023660715744253 -0.047018139519123002 0 -0.31025625293594222 -0.050033124508212908 0 -0.30659897303184058 -0.057135789817405573 0 -0.31025625293594222 -0.050033124508212908 0 -0.31405483352543062 -0.056831087900065053 0 -0.30323190850646392 -0.052883144282766713 0 -0.30659897303184058 -0.057135789817405573 0 -0.31025625293594222 -0.050033124508212908 0 -0.3023660715744253 -0.047018139519123002 0 -0.31110423911055801 -0.035316851109560482 0 -0.29943422057661201 -0.032203920876667472 0 -0.3023660715744253 -0.047018139519123002 0 -0.29943422057661201 -0.032203920876667472 0 -0.29166722635019171 -0.038853801873014321 0 -0.29943422057661201 -0.032203920876667472 0 -0.29166722635019171 -0.038853801873014321 0 -0.28378415359151371 -0.031280105512012511 0 -0.3023660715744253 -0.047018139519123002 0 -0.29166722635019171 -0.038853801873014321 0 -0.28390051605192418 -0.042754285685484159 0 -0.29166722635019171 -0.038853801873014321 0 -0.28378415359151371 -0.031280105512012511 0 -0.28390051605192418 -0.042754285685484159 0 -0.3023660715744253 -0.047018139519123002 0 -0.28390051605192418 -0.042754285685484159 0 -0.27356286309663053 -0.053258262401150697 0 -0.3023660715744253 -0.047018139519123002 0 -0.27356286309663053 -0.053258262401150697 0 -0.29757341552329353 -0.05219957266967655 0 -0.27356286309663053 -0.053258262401150697 0 -0.27532891164284878 -0.069285621960536392 0 -0.29757341552329353 -0.05219957266967655 0 -0.27532891164284878 -0.069285621960536392 0 -0.3023660715744253 -0.047018139519123002 0 -0.29757341552329353 -0.05219957266967655 0 -0.27356286309663053 -0.053258262401150697 0 -0.29757341552329353 -0.05219957266967655 0 -0.29931176789370939 -0.061629941742321552 0 -0.27532891164284878 -0.069285621960536392 0 -0.27267419604841259 -0.026924212746328481 0 -0.27375437843427658 -0.039043607324579933 0 -0.25766621977661042 -0.038842414379153638 0 -0.27356286309663053 -0.053258262401150697 0 -0.27375437843427658 -0.039043607324579933 0 -0.25766621977661042 -0.038842414379153638 0 -0.28378415359151371 -0.031280105512012511 0 -0.28390051605192418 -0.042754285685484159 0 -0.27375437843427658 -0.039043607324579933 0 -0.27267419604841259 -0.026924212746328481 0 -0.28378415359151371 -0.031280105512012511 0 -0.27375437843427658 -0.039043607324579933 0 -0.28390051605192418 -0.042754285685484159 0 -0.27356286309663053 -0.053258262401150697 0 -0.27375437843427658 -0.039043607324579933 0 -0.24475965461883589 -0.059498385283178377 0 -0.27356286309663053 -0.053258262401150697 0 -0.2582325144520296 -0.070050845257802419 0 -0.24475965461883589 -0.059498385283178377 0 -0.27356286309663053 -0.053258262401150697 0 -0.24475965461883589 -0.059498385283178377 0 -0.27356286309663053 -0.053258262401150697 0 -0.25766621977661042 -0.038842414379153638 0 -0.2582325144520296 -0.070050845257802419 0 -0.25308440776240432 -0.086371671251396109 0 -0.27532891164284878 -0.069285621960536392 0 -0.25308440776240432 -0.086371671251396109 0 -0.27532891164284878 -0.069285621960536392 0 -0.25308440776240432 -0.086371671251396109 0 -0.27361062541114611 -0.085405998149086934 0 -0.26907394573302829 -0.10103393024372311 0 -0.27361062541114611 -0.085405998149086934 0 -0.26907394573302829 -0.10103393024372311 0 -0.28494676303449051 -0.09097811142482605 0 -0.25308440776240432 -0.086371671251396109 0 -0.27361062541114611 -0.085405998149086934 0 -0.27532891164284878 -0.069285621960536392 0 -0.27356286309663053 -0.053258262401150697 0 -0.2582325144520296 -0.070050845257802419 0 -0.27532891164284878 -0.069285621960536392 0 -0.27361062541114611 -0.085405998149086934 0 -0.27532891164284878 -0.069285621960536392 0 -0.28561909888295839 -0.079360655864953042 0 -0.2432602079730701 -0.13485583854350039 0 -0.2499653418643101 -0.1102460646797562 0 -0.26490928006600228 -0.12397715003998409 0 -0.2499653418643101 -0.1102460646797562 0 -0.26490928006600228 -0.12397715003998409 0 -0.26907394573302829 -0.10103393024372311 0 -0.2499653418643101 -0.1102460646797562 0 -0.25308440776240432 -0.086371671251396109 0 -0.26907394573302829 -0.10103393024372311 0 -0.26907394573302829 -0.10103393024372311 0 -0.28789548083438649 -0.11161882002010511 0 -0.28494676303449051 -0.09097811142482605 0 -0.26490928006600228 -0.12397715003998409 0 -0.28789548083438649 -0.11161882002010511 0 -0.28428672055728371 -0.13281235115180859 0 -0.26490928006600228 -0.12397715003998409 0 -0.26907394573302829 -0.10103393024372311 0 -0.28789548083438649 -0.11161882002010511 0 -0.28789548083438649 -0.11161882002010511 0 -0.28428672055728371 -0.13281235115180859 0 -0.30877835781368662 -0.12931532841693749 0 -0.28789548083438649 -0.11161882002010511 0 -0.29765529442092259 -0.094840601490837839 0 -0.28494676303449051 -0.09097811142482605 0 -0.30761934067920371 -0.1042503242997595 0 -0.29765529442092259 -0.094840601490837839 0 -0.30832877355579341 -0.086934752854072747 0 -0.30761934067920371 -0.1042503242997595 0 -0.30832877355579341 -0.086934752854072747 0 -0.31968159473222052 -0.091584555267719248 0 -0.28789548083438649 -0.11161882002010511 0 -0.30761934067920371 -0.1042503242997595 0 -0.29765529442092259 -0.094840601490837839 0 -0.28789548083438649 -0.11161882002010511 0 -0.30761934067920371 -0.1042503242997595 0 -0.30877835781368662 -0.12931532841693749 0 -0.29931176789370939 -0.061629941742321552 0 -0.27532891164284878 -0.069285621960536392 0 -0.29568251685582603 -0.071589435967753134 0 -0.27532891164284878 -0.069285621960536392 0 -0.29568251685582603 -0.071589435967753134 0 -0.28561909888295839 -0.079360655864953042 0 -0.29568251685582603 -0.071589435967753134 0 -0.28561909888295839 -0.079360655864953042 0 -0.29849490204505058 -0.081938345925378783 0 -0.27361062541114611 -0.085405998149086934 0 -0.28561909888295839 -0.079360655864953042 0 -0.28494676303449051 -0.09097811142482605 0 -0.29765529442092259 -0.094840601490837839 0 -0.28494676303449051 -0.09097811142482605 0 -0.29849490204505058 -0.081938345925378783 0 -0.28561909888295839 -0.079360655864953042 0 -0.28494676303449051 -0.09097811142482605 0 -0.29849490204505058 -0.081938345925378783 0 -0.29849490204505058 -0.081938345925378783 0 -0.30832877355579341 -0.086934752854072747 0 -0.3066986514807607 -0.074546990101646726 0 -0.29765529442092259 -0.094840601490837839 0 -0.29849490204505058 -0.081938345925378783 0 -0.30832877355579341 -0.086934752854072747 0 -0.30832877355579341 -0.086934752854072747 0 -0.3066986514807607 -0.074546990101646726 0 -0.31636087034116728 -0.076704125898778439 0 -0.3066986514807607 -0.074546990101646726 0 -0.31411021802290889 -0.069356746280106005 0 -0.31636087034116728 -0.076704125898778439 0 -0.29568251685582603 -0.071589435967753134 0 -0.29849490204505058 -0.081938345925378783 0 -0.3066986514807607 -0.074546990101646726 0 -0.29568251685582603 -0.071589435967753134 0 -0.3066986514807607 -0.074546990101646726 0 -0.30728911182784302 -0.064893595009923935 0 -0.29931176789370939 -0.061629941742321552 0 -0.29568251685582603 -0.071589435967753134 0 -0.30728911182784302 -0.064893595009923935 0 -0.3066986514807607 -0.074546990101646726 0 -0.30728911182784302 -0.064893595009923935 0 -0.31411021802290889 -0.069356746280106005 0 -0.30728911182784302 -0.064893595009923935 0 -0.31630436981946819 -0.062936971351065629 0 -0.31411021802290889 -0.069356746280106005 0 -0.31630436981946819 -0.062936971351065629 0 -0.31411021802290889 -0.069356746280106005 0 -0.32389808664530562 -0.067702049039115322 0 -0.31630436981946819 -0.062936971351065629 0 -0.32389808664530562 -0.067702049039115322 0 -0.32481687078849097 -0.058022226865728103 0 -0.32389808664530562 -0.067702049039115322 0 -0.3259684841043719 -0.075020057435826168 0 -0.31636087034116728 -0.076704125898778439 0 -0.31411021802290889 -0.069356746280106005 0 -0.32389808664530562 -0.067702049039115322 0 -0.31636087034116728 -0.076704125898778439 0 -0.30832877355579341 -0.086934752854072747 0 -0.32608803180755441 -0.084321365842938284 0 -0.30832877355579341 -0.086934752854072747 0 -0.31968159473222052 -0.091584555267719248 0 -0.32608803180755441 -0.084321365842938284 0 -0.30832877355579341 -0.086934752854072747 0 -0.31636087034116728 -0.076704125898778439 0 -0.32608803180755441 -0.084321365842938284 0 -0.31968159473222052 -0.091584555267719248 0 -0.32608803180755441 -0.084321365842938284 0 -0.3259684841043719 -0.075020057435826168 0 -0.31636087034116728 -0.076704125898778439 0 -0.32608803180755441 -0.084321365842938284 0 -0.31968159473222052 -0.091584555267719248 0 -0.32608803180755441 -0.084321365842938284 0 -0.34030971713070318 -0.087052614945596102 0 -0.32608803180755441 -0.084321365842938284 0 -0.34030971713070318 -0.087052614945596102 0 -0.34745734249292459 -0.081176736816750444 0 -0.32608803180755441 -0.084321365842938284 0 -0.33752694762346008 -0.07135268896247253 0 -0.34745734249292459 -0.081176736816750444 0 -0.32608803180755441 -0.084321365842938284 0 -0.34745734249292459 -0.081176736816750444 0 -0.33752694762346008 -0.07135268896247253 0 -0.3489658634393657 -0.058384012082006782 0 -0.33645864726091979 -0.05858208772264157 0 -0.33752694762346008 -0.07135268896247253 0 -0.3489658634393657 -0.058384012082006782 0 -0.32389808664530562 -0.067702049039115322 0 -0.33752694762346008 -0.07135268896247253 0 -0.33645864726091979 -0.05858208772264157 0 -0.3259684841043719 -0.075020057435826168 0 -0.32608803180755441 -0.084321365842938284 0 -0.33752694762346008 -0.07135268896247253 0 -0.32608803180755441 -0.084321365842938284 0 -0.33752694762346008 -0.07135268896247253 0 -0.32389808664530562 -0.067702049039115322 0 -0.3259684841043719 -0.075020057435826168 0 -0.33752694762346008 -0.07135268896247253 0 -0.32454403747219479 -0.1081839716812668 0 -0.30877835781368662 -0.12931532841693749 0 -0.30761934067920371 -0.1042503242997595 0 -0.32454403747219479 -0.1081839716812668 0 -0.30877835781368662 -0.12931532841693749 0 -0.32454403747219479 -0.1081839716812668 0 -0.33570809008837621 -0.11845594114356341 0 -0.30877835781368662 -0.12931532841693749 0 -0.30761934067920371 -0.1042503242997595 0 -0.31968159473222052 -0.091584555267719248 0 -0.32454403747219479 -0.1081839716812668 0 -0.34030971713070318 -0.087052614945596102 0 -0.32454403747219479 -0.1081839716812668 0 -0.34278855512837281 -0.1049294584887832 0 -0.31968159473222052 -0.091584555267719248 0 -0.34030971713070318 -0.087052614945596102 0 -0.32454403747219479 -0.1081839716812668 0 -0.34030971713070318 -0.087052614945596102 0 -0.32454403747219479 -0.1081839716812668 0 -0.32454403747219479 -0.1081839716812668 0 -0.34278855512837281 -0.1049294584887832 0 -0.33570809008837621 -0.11845594114356341 0 -0.33570809008837621 -0.11845594114356341 0 -0.35404294059136687 -0.1217835462641018 0 -0.33688620478323589 -0.13358080389391511 0 -0.34278855512837281 -0.1049294584887832 0 -0.35404294059136687 -0.1217835462641018 0 -0.35932798989652742 -0.1047455147758234 0 -0.34278855512837281 -0.1049294584887832 0 -0.33570809008837621 -0.11845594114356341 0 -0.35404294059136687 -0.1217835462641018 0 -0.34278855512837281 -0.1049294584887832 0 -0.35932798989652742 -0.1047455147758234 0 -0.35079718399447979 -0.093651592615473511 0 -0.34030971713070318 -0.087052614945596102 0 -0.34278855512837281 -0.1049294584887832 0 -0.35079718399447979 -0.093651592615473511 0 -0.35932798989652742 -0.1047455147758234 0 -0.35079718399447979 -0.093651592615473511 0 -0.36132419909701757 -0.091459041133748031 0 -0.35932798989652742 -0.1047455147758234 0 -0.37367929427193591 -0.1014825750548952 0 -0.37212838853434238 -0.11808059788504249 0 -0.35932798989652742 -0.1047455147758234 0 -0.37367929427193591 -0.1014825750548952 0 -0.36132419909701757 -0.091459041133748031 0 -0.35404294059136687 -0.1217835462641018 0 -0.37212838853434238 -0.11808059788504249 0 -0.37028068739271691 -0.13083580994494901 0 -0.35404294059136687 -0.1217835462641018 0 -0.35932798989652742 -0.1047455147758234 0 -0.37212838853434238 -0.11808059788504249 0 -0.35069420168351129 -0.07223638641294812 0 -0.34745734249292459 -0.081176736816750444 0 -0.36882665317829499 -0.078032107790563188 0 -0.36882665317829499 -0.078032107790563188 0 -0.3489658634393657 -0.058384012082006782 0 -0.35069420168351129 -0.07223638641294812 0 -0.36882665317829499 -0.078032107790563188 0 -0.3489658634393657 -0.058384012082006782 0 -0.33752694762346008 -0.07135268896247253 0 -0.35069420168351129 -0.07223638641294812 0 -0.3489658634393657 -0.058384012082006782 0 -0.33752694762346008 -0.07135268896247253 0 -0.35069420168351129 -0.07223638641294812 0 -0.34745734249292459 -0.081176736816750444 0 -0.34745734249292459 -0.081176736816750444 0 -0.36882665317829499 -0.078032107790563188 0 -0.34745734249292459 -0.081176736816750444 0 -0.36132419909701757 -0.091459041133748031 0 -0.36882665317829499 -0.078032107790563188 0 -0.34030971713070318 -0.087052614945596102 0 -0.34745734249292459 -0.081176736816750444 0 -0.35079718399447979 -0.093651592615473511 0 -0.34745734249292459 -0.081176736816750444 0 -0.35079718399447979 -0.093651592615473511 0 -0.36132419909701757 -0.091459041133748031 0 -0.37367929427193591 -0.1014825750548952 0 -0.36132419909701757 -0.091459041133748031 0 -0.36882665317829499 -0.078032107790563188 0 -0.36882665317829499 -0.078032107790563188 0 -0.36862349457690058 -0.057461967220355487 0 -0.3489658634393657 -0.058384012082006782 0 -0.36882665317829499 -0.078032107790563188 0 -0.36862349457690058 -0.057461967220355487 0 -0.37947166312044489 -0.067272628224985004 0 -0.36862349457690058 -0.057461967220355487 0 -0.3489658634393657 -0.058384012082006782 0 -0.36066681755822472 -0.045118253717945672 0 -0.36862349457690058 -0.057461967220355487 0 -0.37355784227175309 -0.045246792894939887 0 -0.3815482533063424 -0.052412606119804542 0 -0.36862349457690058 -0.057461967220355487 0 -0.36066681755822472 -0.045118253717945672 0 -0.37355784227175309 -0.045246792894939887 0 -0.3489658634393657 -0.058384012082006782 0 -0.36066681755822472 -0.045118253717945672 0 -0.3489658634393657 -0.058384012082006782 0 -0.34511111307690212 -0.046137334811030092 0 -0.36066681755822472 -0.045118253717945672 0 -0.35304062521722218 -0.036039659744318157 0 -0.3553139768507978 -0.023567241021099371 0 -0.33371347875736079 -0.040226824134751989 0 -0.34511111307690212 -0.046137334811030092 0 -0.35304062521722218 -0.036039659744318157 0 -0.33371347875736079 -0.040226824134751989 0 -0.34511111307690212 -0.046137334811030092 0 -0.35304062521722218 -0.036039659744318157 0 -0.36066681755822472 -0.045118253717945672 0 -0.36066681755822472 -0.045118253717945672 0 -0.37236777167708351 -0.031852495353884333 0 -0.35304062521722218 -0.036039659744318157 0 -0.37236777167708351 -0.031852495353884333 0 -0.35304062521722218 -0.036039659744318157 0 -0.36066681755822472 -0.045118253717945672 0 -0.37236777167708351 -0.031852495353884333 0 -0.36066681755822472 -0.045118253717945672 0 -0.37355784227175309 -0.045246792894939887 0 -0.37236777167708351 -0.031852495353884333 0 -0.37236777167708351 -0.031852495353884333 0 -0.3739022591900184 -0.02415390189740213 0 -0.36770044175442279 -0.02036669541201027 0 -0.37236777167708351 -0.031852495353884333 0 -0.36770044175442279 -0.02036669541201027 0 -0.3553139768507978 -0.023567241021099371 0 -0.36770044175442279 -0.02036669541201027 0 -0.35847393927256738 -0.010652033510738681 0 -0.38297625517291389 -0.017448943304264108 0 -0.35304062521722218 -0.036039659744318157 0 -0.37236777167708351 -0.031852495353884333 0 -0.3553139768507978 -0.023567241021099371 0 -0.3739022591900184 -0.02415390189740213 0 -0.36770044175442279 -0.02036669541201027 0 -0.38297625517291389 -0.017448943304264108 0 -0.36770044175442279 -0.02036669541201027 0 -0.35847393927256738 -0.010652033510738681 0 -0.3553139768507978 -0.023567241021099371 0 -0.35847393927256738 -0.010652033510738681 0 -0.38297625517291389 -0.017448943304264108 0 -0.37278444596104371 -0.0079457960458173115 0 -0.35847393927256738 -0.010652033510738681 0 -0.38297625517291389 -0.017448943304264108 0 -0.37474494217865062 -0.0022388935110706832 0 -0.37278444596104371 -0.0079457960458173115 0 -0.36307869926690151 -0.00068504054922277494 0 -0.37278444596104371 -0.0079457960458173115 0 -0.36307869926690151 -0.00068504054922277494 0 -0.35847393927256738 -0.010652033510738681 0 -0.36307869926690151 -0.00068504054922277494 0 -0.34718119132474479 -0.01384164818341615 0 -0.36064890389212972 0.0125435277679194 0 -0.36307869926690151 -0.00068504054922277494 0 -0.35847393927256738 -0.010652033510738681 0 -0.34718119132474479 -0.01384164818341615 0 -0.34718119132474479 -0.01384164818341615 0 -0.36064890389212972 0.0125435277679194 0 -0.34718119132474479 -0.01384164818341615 0 -0.3553139768507978 -0.023567241021099371 0 -0.33371347875736079 -0.040226824134751989 0 -0.35847393927256738 -0.010652033510738681 0 -0.34718119132474479 -0.01384164818341615 0 -0.3553139768507978 -0.023567241021099371 0 -0.34718119132474479 -0.01384164818341615 0 -0.33035884889608558 -0.02420969997450095 0 -0.33371347875736079 -0.040226824134751989 0 -0.34718119132474479 -0.01384164818341615 0 -0.33371347875736079 -0.040226824134751989 0 -0.34718119132474479 -0.01384164818341615 0 -0.32828291010712762 -0.0049346835118845543 0 -0.34055428987364128 0.0059527955302196532 0 -0.34718119132474479 -0.01384164818341615 0 -0.33035884889608558 -0.02420969997450095 0 -0.32828291010712762 -0.0049346835118845543 0 -0.31144738423897378 -0.02126732740536201 0 -0.32828291010712762 -0.0049346835118845543 0 -0.31177688145040278 0.0050359958776742568 0 -0.31144738423897378 -0.02126732740536201 0 -0.33116928005221918 -0.040778016637091109 0 -0.31144738423897378 -0.02126732740536201 0 -0.33035884889608558 -0.02420969997450095 0 -0.32828291010712762 -0.0049346835118845543 0 -0.31144738423897378 -0.02126732740536201 0 -0.33035884889608558 -0.02420969997450095 0 -0.33116928005221918 -0.040778016637091109 0 -0.3023660715744253 -0.047018139519123002 0 -0.31110423911055801 -0.035316851109560482 0 -0.33116928005221918 -0.040778016637091109 0 -0.3023660715744253 -0.047018139519123002 0 -0.31025625293594222 -0.050033124508212908 0 -0.33116928005221918 -0.040778016637091109 0 -0.3023660715744253 -0.047018139519123002 0 -0.33116928005221918 -0.040778016637091109 0 -0.31144738423897378 -0.02126732740536201 0 -0.31110423911055801 -0.035316851109560482 0 -0.33116928005221918 -0.040778016637091109 0 -0.31025625293594222 -0.050033124508212908 0 -0.31770057673851387 -0.05020147555903863 0 -0.33116928005221918 -0.040778016637091109 0 -0.31025625293594222 -0.050033124508212908 0 -0.31770057673851387 -0.05020147555903863 0 -0.31405483352543062 -0.056831087900065053 0 -0.31770057673851387 -0.05020147555903863 0 -0.31405483352543062 -0.056831087900065053 0 -0.31936567051967829 -0.054711673150449433 0 -0.31630436981946819 -0.062936971351065629 0 -0.31936567051967829 -0.054711673150449433 0 -0.32481687078849097 -0.058022226865728103 0 -0.30728911182784302 -0.064893595009923935 0 -0.31630436981946819 -0.062936971351065629 0 -0.31405483352543062 -0.056831087900065053 0 -0.31630436981946819 -0.062936971351065629 0 -0.31405483352543062 -0.056831087900065053 0 -0.31936567051967829 -0.054711673150449433 0 -0.31770057673851387 -0.05020147555903863 0 -0.32448711316898249 -0.050622394842538963 0 -0.33116928005221918 -0.040778016637091109 0 -0.31936567051967829 -0.054711673150449433 0 -0.32481687078849097 -0.058022226865728103 0 -0.32448711316898249 -0.050622394842538963 0 -0.31770057673851387 -0.05020147555903863 0 -0.31936567051967829 -0.054711673150449433 0 -0.32448711316898249 -0.050622394842538963 0 -0.32481687078849097 -0.058022226865728103 0 -0.32770904195502032 -0.053173566283506987 0 -0.32448711316898249 -0.050622394842538963 0 -0.32770904195502032 -0.053173566283506987 0 -0.32448711316898249 -0.050622394842538963 0 -0.32972533979495861 -0.048040159006195682 0 -0.3489658634393657 -0.058384012082006782 0 -0.34511111307690212 -0.046137334811030092 0 -0.3326728772282519 -0.042265511425067279 0 -0.32972533979495861 -0.048040159006195682 0 -0.33645864726091979 -0.05858208772264157 0 -0.3326728772282519 -0.042265511425067279 0 -0.3489658634393657 -0.058384012082006782 0 -0.3326728772282519 -0.042265511425067279 0 -0.32770904195502032 -0.053173566283506987 0 -0.32972533979495861 -0.048040159006195682 0 -0.33645864726091979 -0.05858208772264157 0 -0.3489658634393657 -0.058384012082006782 0 -0.33645864726091979 -0.05858208772264157 0 -0.3326728772282519 -0.042265511425067279 0 -0.32389808664530562 -0.067702049039115322 0 -0.32481687078849097 -0.058022226865728103 0 -0.33645864726091979 -0.05858208772264157 0 -0.32481687078849097 -0.058022226865728103 0 -0.32770904195502032 -0.053173566283506987 0 -0.33645864726091979 -0.05858208772264157 0 -0.34511111307690212 -0.046137334811030092 0 -0.33371347875736079 -0.040226824134751989 0 -0.3326728772282519 -0.042265511425067279 0 -0.33035884889608558 -0.02420969997450095 0 -0.33116928005221918 -0.040778016637091109 0 -0.33371347875736079 -0.040226824134751989 0 -0.35304062521722218 -0.036039659744318157 0 -0.33371347875736079 -0.040226824134751989 0 -0.32448711316898249 -0.050622394842538963 0 -0.32972533979495861 -0.048040159006195682 0 -0.33116928005221918 -0.040778016637091109 0 -0.33116928005221918 -0.040778016637091109 0 -0.3326728772282519 -0.042265511425067279 0 -0.32972533979495861 -0.048040159006195682 0 -0.3326728772282519 -0.042265511425067279 0 -0.32972533979495861 -0.048040159006195682 0 -0.33116928005221918 -0.040778016637091109 0 -0.3326728772282519 -0.042265511425067279 0 -0.33116928005221918 -0.040778016637091109 0 -0.33371347875736079 -0.040226824134751989 0 -0.33116928005221918 -0.040778016637091109 0 -0.33371347875736079 -0.040226824134751989 0 -0.3326728772282519 -0.042265511425067279 0 -0.33371347875736079 -0.040226824134751989 0 -0.3326728772282519 -0.042265511425067279 0 -0.2907170577323625 -0.25177677077710309 0 -0.30853150187083839 -0.25429835417001312 0 -0.30748271917561598 -0.2431056607245809 0 -0.30748271917561598 -0.2431056607245809 0 -0.3004866401015065 -0.2269264896544945 0 -0.32066485276457768 -0.2334308190911655 0 -0.2907170577323625 -0.25177677077710309 0 -0.30748271917561598 -0.2431056607245809 0 -0.3004866401015065 -0.2269264896544945 0 -0.30853150187083839 -0.25429835417001312 0 -0.30748271917561598 -0.2431056607245809 0 -0.32023222063025569 -0.2489608815952247 0 -0.3004866401015065 -0.2269264896544945 0 -0.27575903677895092 -0.22208668823385669 0 -0.3004866401015065 -0.2269264896544945 0 -0.27309361240676189 -0.24179026653703889 0 -0.27575903677895092 -0.22208668823385669 0 -0.3004866401015065 -0.2269264896544945 0 -0.27575903677895092 -0.22208668823385669 0 -0.29482007196541532 -0.2089319155152673 0 -0.2907170577323625 -0.25177677077710309 0 -0.3004866401015065 -0.2269264896544945 0 -0.27309361240676189 -0.24179026653703889 0 -0.27309361240676189 -0.24179026653703889 0 -0.25431856302814809 -0.24833495949118861 0 -0.25103143345639523 -0.21724688681321891 0 -0.27575903677895092 -0.22208668823385669 0 -0.25103143345639523 -0.21724688681321891 0 -0.27309361240676189 -0.24179026653703889 0 -0.27575903677895092 -0.22208668823385669 0 -0.25103143345639523 -0.21724688681321891 0 -0.27575903677895092 -0.22208668823385669 0 -0.25103143345639523 -0.21724688681321891 0 -0.27708552823660842 -0.19790031786117671 0 -0.25103143345639523 -0.21724688681321891 0 -0.25418198431724581 -0.18809916394242601 0 -0.27708552823660842 -0.19790031786117671 0 -0.27708552823660842 -0.19790031786117671 0 -0.29482007196541532 -0.2089319155152673 0 -0.30195969341908391 -0.19078830755985379 0 -0.29482007196541532 -0.2089319155152673 0 -0.30195969341908391 -0.19078830755985379 0 -0.32674672588845421 -0.2120308859258328 0 -0.3004866401015065 -0.2269264896544945 0 -0.29482007196541532 -0.2089319155152673 0 -0.32674672588845421 -0.2120308859258328 0 -0.27575903677895092 -0.22208668823385669 0 -0.27708552823660842 -0.19790031786117671 0 -0.29482007196541532 -0.2089319155152673 0 -0.30195969341908391 -0.19078830755985379 0 -0.30674796742087651 -0.1684647150882764 0 -0.32123008678095788 -0.18729232698745699 0 -0.30674796742087651 -0.1684647150882764 0 -0.2930126781551784 -0.15044668515260809 0 -0.3206808779707625 -0.15110047818677941 0 -0.27724699849667023 -0.17157804188827869 0 -0.2930126781551784 -0.15044668515260809 0 -0.30674796742087651 -0.1684647150882764 0 -0.27724699849667023 -0.17157804188827869 0 -0.2930126781551784 -0.15044668515260809 0 -0.27708552823660842 -0.19790031786117671 0 -0.30195969341908391 -0.19078830755985379 0 -0.27724699849667023 -0.17157804188827869 0 -0.30195969341908391 -0.19078830755985379 0 -0.30674796742087651 -0.1684647150882764 0 -0.27724699849667023 -0.17157804188827869 0 -0.25418198431724581 -0.18809916394242601 0 -0.27708552823660842 -0.19790031786117671 0 -0.27724699849667023 -0.17157804188827869 0 -0.25418198431724581 -0.18809916394242601 0 -0.2565438833259911 -0.1687602707777138 0 -0.27724699849667023 -0.17157804188827869 0 -0.2435592126657353 -0.1561425335328199 0 -0.2565438833259911 -0.1687602707777138 0 -0.26683780591716472 -0.14870377212940841 0 -0.27724699849667023 -0.17157804188827869 0 -0.26683780591716472 -0.14870377212940841 0 -0.2930126781551784 -0.15044668515260809 0 -0.2565438833259911 -0.1687602707777138 0 -0.27724699849667023 -0.17157804188827869 0 -0.26683780591716472 -0.14870377212940841 0 -0.2435592126657353 -0.1561425335328199 0 -0.2432602079730701 -0.13485583854350039 0 -0.26683780591716472 -0.14870377212940841 0 -0.2432602079730701 -0.13485583854350039 0 -0.26490928006600228 -0.12397715003998409 0 -0.26683780591716472 -0.14870377212940841 0 -0.26490928006600228 -0.12397715003998409 0 -0.26683780591716472 -0.14870377212940841 0 -0.28428672055728371 -0.13281235115180859 0 -0.28428672055728371 -0.13281235115180859 0 -0.2930126781551784 -0.15044668515260809 0 -0.30877835781368662 -0.12931532841693749 0 -0.26683780591716472 -0.14870377212940841 0 -0.28428672055728371 -0.13281235115180859 0 -0.2930126781551784 -0.15044668515260809 0 -0.2930126781551784 -0.15044668515260809 0 -0.30877835781368662 -0.12931532841693749 0 -0.3206808779707625 -0.15110047818677941 0 -0.2930126781551784 -0.15044668515260809 0 -0.30877835781368662 -0.12931532841693749 0 -0.33570809008837621 -0.11845594114356341 0 -0.30877835781368662 -0.12931532841693749 0 -0.33688620478323589 -0.13358080389391511 0 -0.30877835781368662 -0.12931532841693749 0 -0.3206808779707625 -0.15110047818677941 0 -0.33688620478323589 -0.13358080389391511 0 -0.3206808779707625 -0.15110047818677941 0 -0.33688620478323589 -0.13358080389391511 0 -0.34399943231138669 -0.15408109000358611 0 -0.33688620478323589 -0.13358080389391511 0 -0.35929992868189681 -0.1386942596847188 0 -0.35404294059136687 -0.1217835462641018 0 -0.33688620478323589 -0.13358080389391511 0 -0.35929992868189681 -0.1386942596847188 0 -0.35404294059136687 -0.1217835462641018 0 -0.35929992868189681 -0.1386942596847188 0 -0.37028068739271691 -0.13083580994494901 0 -0.35929992868189681 -0.1386942596847188 0 -0.37028068739271691 -0.13083580994494901 0 -0.3804539816512269 -0.14482329966991631 0 -0.35929992868189681 -0.1386942596847188 0 -0.3804539816512269 -0.14482329966991631 0 -0.35929992868189681 -0.1386942596847188 0 -0.3655172116091886 -0.15688196674787641 0 -0.3804539816512269 -0.14482329966991631 0 -0.3655172116091886 -0.15688196674787641 0 -0.3804539816512269 -0.14482329966991631 0 -0.3655172116091886 -0.15688196674787641 0 -0.37839901512320262 -0.15996290040625341 0 -0.3804539816512269 -0.14482329966991631 0 -0.33688620478323589 -0.13358080389391511 0 -0.35929992868189681 -0.1386942596847188 0 -0.34399943231138669 -0.15408109000358611 0 -0.35929992868189681 -0.1386942596847188 0 -0.34399943231138669 -0.15408109000358611 0 -0.3655172116091886 -0.15688196674787641 0 -0.34399943231138669 -0.15408109000358611 0 -0.35323542112630057 -0.1671812377988513 0 -0.3655172116091886 -0.15688196674787641 0 -0.3655172116091886 -0.15688196674787641 0 -0.37378547386561772 -0.17392500984250869 0 -0.37839901512320262 -0.15996290040625341 0 -0.35323542112630057 -0.1671812377988513 0 -0.3655172116091886 -0.15688196674787641 0 -0.37378547386561772 -0.17392500984250869 0 -0.37378547386561772 -0.17392500984250869 0 -0.35240556330307887 -0.18479875362473361 0 -0.36895563931783232 -0.19259611207654981 0 -0.35323542112630057 -0.1671812377988513 0 -0.37378547386561772 -0.17392500984250869 0 -0.35240556330307887 -0.18479875362473361 0 -0.35323542112630057 -0.1671812377988513 0 -0.35240556330307887 -0.18479875362473361 0 -0.33400288196205857 -0.17193246321376471 0 -0.35240556330307887 -0.18479875362473361 0 -0.33400288196205857 -0.17193246321376471 0 -0.33669316521431608 -0.19324526314955739 0 -0.33400288196205857 -0.17193246321376471 0 -0.32123008678095788 -0.18729232698745699 0 -0.33669316521431608 -0.19324526314955739 0 -0.3206808779707625 -0.15110047818677941 0 -0.34399943231138669 -0.15408109000358611 0 -0.33400288196205857 -0.17193246321376471 0 -0.34399943231138669 -0.15408109000358611 0 -0.35323542112630057 -0.1671812377988513 0 -0.33400288196205857 -0.17193246321376471 0 -0.30674796742087651 -0.1684647150882764 0 -0.3206808779707625 -0.15110047818677941 0 -0.33400288196205857 -0.17193246321376471 0 -0.30674796742087651 -0.1684647150882764 0 -0.33400288196205857 -0.17193246321376471 0 -0.32123008678095788 -0.18729232698745699 0 -0.30195969341908391 -0.19078830755985379 0 -0.32123008678095788 -0.18729232698745699 0 -0.32674672588845421 -0.2120308859258328 0 -0.32674672588845421 -0.2120308859258328 0 -0.35024140450074381 -0.20994798342056251 0 -0.32674672588845421 -0.2120308859258328 0 -0.33669316521431608 -0.19324526314955739 0 -0.35024140450074381 -0.20994798342056251 0 -0.32674672588845421 -0.2120308859258328 0 -0.35024140450074381 -0.20994798342056251 0 -0.3377174746324717 -0.2284461722996495 0 -0.32123008678095788 -0.18729232698745699 0 -0.32674672588845421 -0.2120308859258328 0 -0.33669316521431608 -0.19324526314955739 0 -0.35240556330307887 -0.18479875362473361 0 -0.36895563931783232 -0.19259611207654981 0 -0.35024140450074381 -0.20994798342056251 0 -0.35240556330307887 -0.18479875362473361 0 -0.33669316521431608 -0.19324526314955739 0 -0.35024140450074381 -0.20994798342056251 0 -0.36895563931783232 -0.19259611207654981 0 -0.37373608311303341 -0.20786508091529229 0 -0.35024140450074381 -0.20994798342056251 0 -0.37373608311303341 -0.20786508091529229 0 -0.35024140450074381 -0.20994798342056251 0 -0.37373608311303341 -0.20786508091529229 0 -0.35024140450074381 -0.20994798342056251 0 -0.36602803805366552 -0.21914337572849349 0 -0.37373608311303341 -0.20786508091529229 0 -0.36602803805366552 -0.21914337572849349 0 -0.37785639846487218 -0.21906994256996459 0 -0.35024140450074381 -0.20994798342056251 0 -0.357966965356528 -0.23170644806675769 0 -0.3377174746324717 -0.2284461722996495 0 -0.35024140450074381 -0.20994798342056251 0 -0.357966965356528 -0.23170644806675769 0 -0.36602803805366552 -0.21914337572849349 0 -0.357966965356528 -0.23170644806675769 0 -0.36602803805366552 -0.21914337572849349 0 -0.36983275924353248 -0.22875232439276311 0 -0.36602803805366552 -0.21914337572849349 0 -0.36983275924353248 -0.22875232439276311 0 -0.37785639846487218 -0.21906994256996459 0 -0.357966965356528 -0.23170644806675769 0 -0.36983275924353248 -0.22875232439276311 0 -0.37747963509906429 -0.24508953120583671 0 -0.35872453044413888 -0.25078889886649508 0 -0.357966965356528 -0.23170644806675769 0 -0.37747963509906429 -0.24508953120583671 0 -0.357966965356528 -0.23170644806675769 0 -0.34395992200845399 -0.24382677409400949 0 -0.3377174746324717 -0.2284461722996495 0 -0.35872453044413888 -0.25078889886649508 0 -0.357966965356528 -0.23170644806675769 0 -0.34395992200845399 -0.24382677409400949 0 -0.33345250408021371 -0.25331871279766999 0 -0.34395992200845399 -0.24382677409400949 0 -0.33132333615916232 -0.2411148243472106 0 -0.33345250408021371 -0.25331871279766999 0 -0.33132333615916232 -0.2411148243472106 0 -0.32023222063025569 -0.2489608815952247 0 -0.34395992200845399 -0.24382677409400949 0 -0.33132333615916232 -0.2411148243472106 0 -0.3377174746324717 -0.2284461722996495 0 -0.32674672588845421 -0.2120308859258328 0 -0.3377174746324717 -0.2284461722996495 0 -0.32066485276457768 -0.2334308190911655 0 -0.33132333615916232 -0.2411148243472106 0 -0.3377174746324717 -0.2284461722996495 0 -0.32066485276457768 -0.2334308190911655 0 -0.3004866401015065 -0.2269264896544945 0 -0.32674672588845421 -0.2120308859258328 0 -0.32066485276457768 -0.2334308190911655 0 -0.30748271917561598 -0.2431056607245809 0 -0.32066485276457768 -0.2334308190911655 0 -0.32023222063025569 -0.2489608815952247 0 -0.33132333615916232 -0.2411148243472106 0 -0.32066485276457768 -0.2334308190911655 0 -0.32023222063025569 -0.2489608815952247 0 -0.43445882011373449 -0.25478651907497341 0 -0.43806130733353449 -0.23541812032183559 0 -0.43445882011373449 -0.25478651907497341 0 -0.4258852610480256 -0.24284815888716721 0 -0.43806130733353449 -0.23541812032183559 0 -0.4258852610480256 -0.24284815888716721 0 -0.42538833238501789 -0.2333934851751748 0 -0.41698539980062188 -0.23875950084572559 0 -0.43445882011373449 -0.25478651907497341 0 -0.4258852610480256 -0.24284815888716721 0 -0.42335340856967768 -0.24893549408922019 0 -0.4258852610480256 -0.24284815888716721 0 -0.42538833238501789 -0.2333934851751748 0 -0.43806130733353449 -0.23541812032183559 0 -0.43091611572645672 -0.22699763907763329 0 -0.42538833238501789 -0.2333934851751748 0 -0.43806130733353449 -0.23541812032183559 0 -0.43091611572645672 -0.22699763907763329 0 -0.44166379455333399 -0.21604972156869759 0 -0.43806130733353449 -0.23541812032183559 0 -0.43091611572645672 -0.22699763907763329 0 -0.43133498143110582 -0.21921018883561361 0 -0.44166379455333399 -0.21604972156869759 0 -0.43133498143110582 -0.21921018883561361 0 -0.4232485836513401 -0.22477446532261011 0 -0.4232102070061276 -0.21869015764887889 0 -0.43091611572645672 -0.22699763907763329 0 -0.43133498143110582 -0.21921018883561361 0 -0.4232485836513401 -0.22477446532261011 0 -0.43091611572645672 -0.22699763907763329 0 -0.4232485836513401 -0.22477446532261011 0 -0.42538833238501789 -0.2333934851751748 0 -0.4232485836513401 -0.22477446532261011 0 -0.42538833238501789 -0.2333934851751748 0 -0.41731365953457839 -0.2310953018814938 0 -0.4232485836513401 -0.22477446532261011 0 -0.41731365953457839 -0.2310953018814938 0 -0.4121948509493269 -0.2247325638453028 0 -0.41731365953457839 -0.2310953018814938 0 -0.4080561583250083 -0.23272886934204159 0 -0.41698539980062188 -0.23875950084572559 0 -0.4232485836513401 -0.22477446532261011 0 -0.4121948509493269 -0.2247325638453028 0 -0.41685681033243982 -0.21746512418924929 0 -0.4232485836513401 -0.22477446532261011 0 -0.41685681033243982 -0.21746512418924929 0 -0.4232102070061276 -0.21869015764887889 0 -0.4121948509493269 -0.2247325638453028 0 -0.4080561583250083 -0.23272886934204159 0 -0.39971520205611372 -0.2221352637332015 0 -0.4121948509493269 -0.2247325638453028 0 -0.40807454407470489 -0.21592977391801271 0 -0.41685681033243982 -0.21746512418924929 0 -0.4121948509493269 -0.2247325638453028 0 -0.39971520205611372 -0.2221352637332015 0 -0.40807454407470489 -0.21592977391801271 0 -0.41731365953457839 -0.2310953018814938 0 -0.4121948509493269 -0.2247325638453028 0 -0.4080561583250083 -0.23272886934204159 0 -0.4080561583250083 -0.23272886934204159 0 -0.40983148527785651 -0.24118391776602099 0 -0.41698539980062188 -0.23875950084572559 0 -0.42538833238501789 -0.2333934851751748 0 -0.41731365953457839 -0.2310953018814938 0 -0.41698539980062188 -0.23875950084572559 0 -0.40983148527785651 -0.24118391776602099 0 -0.41698539980062188 -0.23875950084572559 0 -0.41627810448972868 -0.24641300060905449 0 -0.4258852610480256 -0.24284815888716721 0 -0.42335340856967768 -0.24893549408922019 0 -0.41627810448972868 -0.24641300060905449 0 -0.4258852610480256 -0.24284815888716721 0 -0.41698539980062188 -0.23875950084572559 0 -0.41627810448972868 -0.24641300060905449 0 -0.41679144862722167 -0.25169429778568547 0 -0.42335340856967768 -0.24893549408922019 0 -0.41627810448972868 -0.24641300060905449 0 -0.41385673751816382 -0.25312989710486528 0 -0.41627810448972868 -0.24641300060905449 0 -0.4086566941719203 -0.24778871483445111 0 -0.40983148527785651 -0.24118391776602099 0 -0.41627810448972868 -0.24641300060905449 0 -0.4086566941719203 -0.24778871483445111 0 -0.40282532782868952 -0.25224285689579767 0 -0.4086566941719203 -0.24778871483445111 0 -0.40022281387448849 -0.24084313907701979 0 -0.40983148527785651 -0.24118391776602099 0 -0.4086566941719203 -0.24778871483445111 0 -0.40022281387448849 -0.24084313907701979 0 -0.4080561583250083 -0.23272886934204159 0 -0.40983148527785651 -0.24118391776602099 0 -0.40022281387448849 -0.24084313907701979 0 -0.40022281387448849 -0.24084313907701979 0 -0.3903832871219331 -0.2411545733314838 0 -0.38772777019650018 -0.2315142496456449 0 -0.3938256931015453 -0.25037754026629511 0 -0.40022281387448849 -0.24084313907701979 0 -0.3903832871219331 -0.2411545733314838 0 -0.3938256931015453 -0.25037754026629511 0 -0.3903832871219331 -0.2411545733314838 0 -0.37747963509906429 -0.24508953120583671 0 -0.3903832871219331 -0.2411545733314838 0 -0.37747963509906429 -0.24508953120583671 0 -0.38772777019650018 -0.2315142496456449 0 -0.37747963509906429 -0.24508953120583671 0 -0.37785639846487218 -0.21906994256996459 0 -0.37747963509906429 -0.24508953120583671 0 -0.37785639846487218 -0.21906994256996459 0 -0.38772777019650018 -0.2315142496456449 0 -0.36983275924353248 -0.22875232439276311 0 -0.37747963509906429 -0.24508953120583671 0 -0.37785639846487218 -0.21906994256996459 0 -0.37785639846487218 -0.21906994256996459 0 -0.38772777019650018 -0.2315142496456449 0 -0.38790285805175961 -0.2167146319195192 0 -0.4080561583250083 -0.23272886934204159 0 -0.40022281387448849 -0.24084313907701979 0 -0.39971520205611372 -0.2221352637332015 0 -0.40022281387448849 -0.24084313907701979 0 -0.39971520205611372 -0.2221352637332015 0 -0.38772777019650018 -0.2315142496456449 0 -0.39971520205611372 -0.2221352637332015 0 -0.38790285805175961 -0.2167146319195192 0 -0.40022281387448849 -0.24084313907701979 0 -0.38772777019650018 -0.2315142496456449 0 -0.39971520205611372 -0.2221352637332015 0 -0.39971520205611372 -0.2221352637332015 0 -0.39723076172532301 -0.205782178410022 0 -0.40807454407470489 -0.21592977391801271 0 -0.39971520205611372 -0.2221352637332015 0 -0.39723076172532301 -0.205782178410022 0 -0.38790285805175961 -0.2167146319195192 0 -0.39723076172532301 -0.205782178410022 0 -0.41303892827123678 -0.21093405469715851 0 -0.40807454407470489 -0.21592977391801271 0 -0.37373608311303341 -0.20786508091529229 0 -0.39723076172532301 -0.205782178410022 0 -0.38370630256805799 -0.1971119561512929 0 -0.37373608311303341 -0.20786508091529229 0 -0.39723076172532301 -0.205782178410022 0 -0.38790285805175961 -0.2167146319195192 0 -0.37373608311303341 -0.20786508091529229 0 -0.39723076172532301 -0.205782178410022 0 -0.37373608311303341 -0.20786508091529229 0 -0.37785639846487218 -0.21906994256996459 0 -0.38790285805175961 -0.2167146319195192 0 -0.36895563931783232 -0.19259611207654981 0 -0.38370630256805799 -0.1971119561512929 0 -0.3831693110633177 -0.1873742460103984 0 -0.36895563931783232 -0.19259611207654981 0 -0.37373608311303341 -0.20786508091529229 0 -0.38370630256805799 -0.1971119561512929 0 -0.38370630256805799 -0.1971119561512929 0 -0.39543971762078378 -0.19194216334420211 0 -0.3831693110633177 -0.1873742460103984 0 -0.39723076172532301 -0.205782178410022 0 -0.38370630256805799 -0.1971119561512929 0 -0.39543971762078378 -0.19194216334420211 0 -0.39723076172532301 -0.205782178410022 0 -0.39543971762078378 -0.19194216334420211 0 -0.40534117689708921 -0.19634387975323889 0 -0.39543971762078378 -0.19194216334420211 0 -0.40534117689708921 -0.19634387975323889 0 -0.40730162077548249 -0.18407395049314179 0 -0.39723076172532301 -0.205782178410022 0 -0.40534117689708921 -0.19634387975323889 0 -0.42072544033761272 -0.20369927590475301 0 -0.42032122747045741 -0.1927313373696285 0 -0.42072544033761272 -0.20369927590475301 0 -0.40730162077548249 -0.18407395049314179 0 -0.42072544033761272 -0.20369927590475301 0 -0.40730162077548249 -0.18407395049314179 0 -0.40534117689708921 -0.19634387975323889 0 -0.42072544033761272 -0.20369927590475301 0 -0.40730162077548249 -0.18407395049314179 0 -0.39723076172532301 -0.205782178410022 0 -0.41303892827123678 -0.21093405469715851 0 -0.42072544033761272 -0.20369927590475301 0 -0.39723076172532301 -0.205782178410022 0 -0.42072544033761272 -0.20369927590475301 0 -0.41303892827123678 -0.21093405469715851 0 -0.40807454407470489 -0.21592977391801271 0 -0.41685681033243982 -0.21746512418924929 0 -0.41303892827123678 -0.21093405469715851 0 -0.41685681033243982 -0.21746512418924929 0 -0.42140045260962489 -0.21331085224804261 0 -0.41685681033243982 -0.21746512418924929 0 -0.42140045260962489 -0.21331085224804261 0 -0.4232102070061276 -0.21869015764887889 0 -0.41303892827123678 -0.21093405469715851 0 -0.42140045260962489 -0.21331085224804261 0 -0.42072544033761272 -0.20369927590475301 0 -0.42512182626149492 -0.2033095177213731 0 -0.43378961613155448 -0.20908682079381441 0 -0.44184138868315109 -0.20247798044170351 0 -0.42072544033761272 -0.20369927590475301 0 -0.42512182626149492 -0.2033095177213731 0 -0.43133498143110582 -0.21921018883561361 0 -0.42072544033761272 -0.20369927590475301 0 -0.42512182626149492 -0.2033095177213731 0 -0.43133498143110582 -0.21921018883561361 0 -0.42512182626149492 -0.2033095177213731 0 -0.43378961613155448 -0.20908682079381441 0 -0.43133498143110582 -0.21921018883561361 0 -0.42140045260962489 -0.21331085224804261 0 -0.4232102070061276 -0.21869015764887889 0 -0.43133498143110582 -0.21921018883561361 0 -0.42072544033761272 -0.20369927590475301 0 -0.43133498143110582 -0.21921018883561361 0 -0.42140045260962489 -0.21331085224804261 0 -0.42072544033761272 -0.20369927590475301 0 -0.43133498143110582 -0.21921018883561361 0 -0.43378961613155448 -0.20908682079381441 0 -0.44166379455333399 -0.21604972156869759 0 -0.42032122747045741 -0.1927313373696285 0 -0.44184138868315109 -0.20247798044170351 0 -0.42032122747045741 -0.1927313373696285 0 -0.43099962817645188 -0.18319011649723049 0 -0.43833565968517207 -0.19112957676178299 0 -0.42032122747045741 -0.1927313373696285 0 -0.42512182626149492 -0.2033095177213731 0 -0.44184138868315109 -0.20247798044170351 0 -0.42032122747045741 -0.1927313373696285 0 -0.43833565968517207 -0.19112957676178299 0 -0.44184138868315109 -0.20247798044170351 0 -0.42032122747045741 -0.1927313373696285 0 -0.42072544033761272 -0.20369927590475301 0 -0.42512182626149492 -0.2033095177213731 0 -0.42549584187692119 -0.17333418479170171 0 -0.43099962817645188 -0.18319011649723049 0 -0.41834400919125792 -0.18158621355319651 0 -0.42032122747045741 -0.1927313373696285 0 -0.43099962817645188 -0.18319011649723049 0 -0.41834400919125792 -0.18158621355319651 0 -0.43099962817645188 -0.18319011649723049 0 -0.43495901877196291 -0.17485617288990979 0 -0.44455133712372419 -0.18300714728765441 0 -0.42549584187692119 -0.17333418479170171 0 -0.43099962817645188 -0.18319011649723049 0 -0.43495901877196291 -0.17485617288990979 0 -0.42549584187692119 -0.17333418479170171 0 -0.43495901877196291 -0.17485617288990979 0 -0.43155613508544272 -0.1669321437644439 0 -0.43495901877196291 -0.17485617288990979 0 -0.43155613508544272 -0.1669321437644439 0 -0.44219215159727421 -0.16781727210851849 0 -0.43155613508544272 -0.1669321437644439 0 -0.43166640735559808 -0.1552039120346444 0 -0.44219215159727421 -0.16781727210851849 0 -0.43155613508544272 -0.1669321437644439 0 -0.4214232379976206 -0.16216052115063159 0 -0.43166640735559808 -0.1552039120346444 0 -0.42549584187692119 -0.17333418479170171 0 -0.43155613508544272 -0.1669321437644439 0 -0.4214232379976206 -0.16216052115063159 0 -0.42549584187692119 -0.17333418479170171 0 -0.4214232379976206 -0.16216052115063159 0 -0.41110577652129249 -0.1670682470007229 0 -0.4214232379976206 -0.16216052115063159 0 -0.41110577652129249 -0.1670682470007229 0 -0.40669002996807779 -0.1495058137550834 0 -0.41110577652129249 -0.1670682470007229 0 -0.41834400919125792 -0.18158621355319651 0 -0.40730162077548249 -0.18407395049314179 0 -0.42549584187692119 -0.17333418479170171 0 -0.41110577652129249 -0.1670682470007229 0 -0.41834400919125792 -0.18158621355319651 0 -0.42032122747045741 -0.1927313373696285 0 -0.41834400919125792 -0.18158621355319651 0 -0.40730162077548249 -0.18407395049314179 0 -0.39543971762078378 -0.19194216334420211 0 -0.40730162077548249 -0.18407395049314179 0 -0.39267839793348491 -0.17927693187167279 0 -0.40730162077548249 -0.18407395049314179 0 -0.39267839793348491 -0.17927693187167279 0 -0.39387780121335469 -0.16444862508152899 0 -0.40730162077548249 -0.18407395049314179 0 -0.39387780121335469 -0.16444862508152899 0 -0.37378547386561772 -0.17392500984250869 0 -0.36895563931783232 -0.19259611207654981 0 -0.3831693110633177 -0.1873742460103984 0 -0.37378547386561772 -0.17392500984250869 0 -0.39267839793348491 -0.17927693187167279 0 -0.3831693110633177 -0.1873742460103984 0 -0.37378547386561772 -0.17392500984250869 0 -0.39267839793348491 -0.17927693187167279 0 -0.39387780121335469 -0.16444862508152899 0 -0.39543971762078378 -0.19194216334420211 0 -0.39267839793348491 -0.17927693187167279 0 -0.3831693110633177 -0.1873742460103984 0 -0.37378547386561772 -0.17392500984250869 0 -0.37839901512320262 -0.15996290040625341 0 -0.39387780121335469 -0.16444862508152899 0 -0.37839901512320262 -0.15996290040625341 0 -0.39387780121335469 -0.16444862508152899 0 -0.3804539816512269 -0.14482329966991631 0 -0.41110577652129249 -0.1670682470007229 0 -0.39387780121335469 -0.16444862508152899 0 -0.40669002996807779 -0.1495058137550834 0 -0.41110577652129249 -0.1670682470007229 0 -0.40730162077548249 -0.18407395049314179 0 -0.39387780121335469 -0.16444862508152899 0 -0.39387780121335469 -0.16444862508152899 0 -0.3804539816512269 -0.14482329966991631 0 -0.40669002996807779 -0.1495058137550834 0 -0.3804539816512269 -0.14482329966991631 0 -0.39647179587780151 -0.13189450107720049 0 -0.40669002996807779 -0.1495058137550834 0 -0.3804539816512269 -0.14482329966991631 0 -0.40669002996807779 -0.1495058137550834 0 -0.39387780121335469 -0.16444862508152899 0 -0.3804539816512269 -0.14482329966991631 0 -0.3804539816512269 -0.14482329966991631 0 -0.38278168804071749 -0.12940228238898679 0 -0.39647179587780151 -0.13189450107720049 0 -0.3804539816512269 -0.14482329966991631 0 -0.39647179587780151 -0.13189450107720049 0 -0.37212838853434238 -0.11808059788504249 0 -0.37028068739271691 -0.13083580994494901 0 -0.38278168804071749 -0.12940228238898679 0 -0.37028068739271691 -0.13083580994494901 0 -0.3804539816512269 -0.14482329966991631 0 -0.38278168804071749 -0.12940228238898679 0 -0.38278168804071749 -0.12940228238898679 0 -0.39647179587780151 -0.13189450107720049 0 -0.39044023874876249 -0.11757149150947201 0 -0.39647179587780151 -0.13189450107720049 0 -0.40828286160401828 -0.1310364195873514 0 -0.40669002996807779 -0.1495058137550834 0 -0.39647179587780151 -0.13189450107720049 0 -0.40828286160401828 -0.1310364195873514 0 -0.41122993917504558 -0.1199812866788818 0 -0.39647179587780151 -0.13189450107720049 0 -0.41122993917504558 -0.1199812866788818 0 -0.40828286160401828 -0.1310364195873514 0 -0.41930562378398423 -0.12797048681614909 0 -0.41122993917504558 -0.1199812866788818 0 -0.41930562378398423 -0.12797048681614909 0 -0.41533589961201212 -0.13938201891822019 0 -0.4273858072007774 -0.14414008567558009 0 -0.40828286160401828 -0.1310364195873514 0 -0.41533589961201212 -0.13938201891822019 0 -0.40669002996807779 -0.1495058137550834 0 -0.40828286160401828 -0.1310364195873514 0 -0.41930562378398423 -0.12797048681614909 0 -0.41533589961201212 -0.13938201891822019 0 -0.40669002996807779 -0.1495058137550834 0 -0.43166640735559808 -0.1552039120346444 0 -0.4214232379976206 -0.16216052115063159 0 -0.40669002996807779 -0.1495058137550834 0 -0.43166640735559808 -0.1552039120346444 0 -0.41533589961201212 -0.13938201891822019 0 -0.40669002996807779 -0.1495058137550834 0 -0.4273858072007774 -0.14414008567558009 0 -0.40669002996807779 -0.1495058137550834 0 -0.4273858072007774 -0.14414008567558009 0 -0.43166640735559808 -0.1552039120346444 0 -0.43166640735559808 -0.1552039120346444 0 -0.43525592456887258 -0.14374997194848471 0 -0.44410307239699631 -0.15282998285397989 0 -0.4273858072007774 -0.14414008567558009 0 -0.43166640735559808 -0.1552039120346444 0 -0.43525592456887258 -0.14374997194848471 0 -0.41930562378398423 -0.12797048681614909 0 -0.43525592456887258 -0.14374997194848471 0 -0.41930562378398423 -0.12797048681614909 0 -0.4273858072007774 -0.14414008567558009 0 -0.43525592456887258 -0.14374997194848471 0 -0.41930562378398423 -0.12797048681614909 0 -0.4273858072007774 -0.14414008567558009 0 -0.41930562378398423 -0.12797048681614909 0 -0.43525592456887258 -0.14374997194848471 0 -0.43389101300267191 -0.13422730327376839 0 -0.41930562378398423 -0.12797048681614909 0 -0.43389101300267191 -0.13422730327376839 0 -0.4149348530849476 -0.1169905694289516 0 -0.43389101300267191 -0.13422730327376839 0 -0.4149348530849476 -0.1169905694289516 0 -0.43389101300267191 -0.13422730327376839 0 -0.43160182387889101 -0.1187955019330571 0 -0.44085253015216358 -0.1237950587173612 0 -0.43389101300267191 -0.13422730327376839 0 -0.44872577578551592 -0.13320174295465559 0 -0.452847172920396 -0.1514640371185853 0 -0.44872577578551592 -0.13320174295465559 0 -0.45896755277767909 -0.12575633132281341 0 -0.45000974795797011 -0.119430952696417 0 -0.44872577578551592 -0.13320174295465559 0 -0.45000974795797011 -0.119430952696417 0 -0.44085253015216358 -0.1237950587173612 0 -0.43389101300267191 -0.13422730327376839 0 -0.44872577578551592 -0.13320174295465559 0 -0.44085253015216358 -0.1237950587173612 0 -0.43525592456887258 -0.14374997194848471 0 -0.43389101300267191 -0.13422730327376839 0 -0.452847172920396 -0.1514640371185853 0 -0.43525592456887258 -0.14374997194848471 0 -0.44410307239699631 -0.15282998285397989 0 -0.452847172920396 -0.1514640371185853 0 -0.44872577578551592 -0.13320174295465559 0 -0.452847172920396 -0.1514640371185853 0 -0.456386085566235 -0.14096643446963419 0 -0.43389101300267191 -0.13422730327376839 0 -0.452847172920396 -0.1514640371185853 0 -0.44410307239699631 -0.15282998285397989 0 -0.452847172920396 -0.1514640371185853 0 -0.45664278474311831 -0.16090201031420531 0 -0.452847172920396 -0.1514640371185853 0 -0.456386085566235 -0.14096643446963419 0 -0.46738274896045578 -0.15003021006820461 0 -0.452847172920396 -0.1514640371185853 0 -0.46738274896045578 -0.15003021006820461 0 -0.45664278474311831 -0.16090201031420531 0 -0.456386085566235 -0.14096643446963419 0 -0.46738274896045578 -0.15003021006820461 0 -0.47200539146090159 -0.13839174763128981 0 -0.456386085566235 -0.14096643446963419 0 -0.47200539146090159 -0.13839174763128981 0 -0.47750202174635031 -0.1215216316744509 0 -0.456386085566235 -0.14096643446963419 0 -0.45896755277767909 -0.12575633132281341 0 -0.47750202174635031 -0.1215216316744509 0 -0.456386085566235 -0.14096643446963419 0 -0.47750202174635031 -0.1215216316744509 0 -0.44872577578551592 -0.13320174295465559 0 -0.456386085566235 -0.14096643446963419 0 -0.45896755277767909 -0.12575633132281341 0 -0.47200539146090159 -0.13839174763128981 0 -0.48675070957056549 -0.14104871431286931 0 -0.47750202174635031 -0.1215216316744509 0 -0.50000000000000011 -0.12648838757554831 0 -0.48675070957056549 -0.14104871431286931 0 -0.5 -0.15043640832747529 0 -0.50000000000000011 -0.12648838757554831 0 -0.48675070957056549 -0.14104871431286931 0 -0.47750202174635031 -0.1215216316744509 0 -0.48675070957056549 -0.14104871431286931 0 -0.5 -0.15043640832747529 0 -0.48062174440056549 -0.15969986187448909 0 -0.46738274896045578 -0.15003021006820461 0 -0.47200539146090159 -0.13839174763128981 0 -0.48675070957056549 -0.14104871431286931 0 -0.48675070957056549 -0.14104871431286931 0 -0.48062174440056549 -0.15969986187448909 0 -0.46738274896045578 -0.15003021006820461 0 -0.48675070957056549 -0.14104871431286931 0 -0.48062174440056549 -0.15969986187448909 0 -0.48062174440056549 -0.15969986187448909 0 -0.46548313673471758 -0.16971310035941381 0 -0.46753260370971428 -0.1600862956540782 0 -0.46738274896045578 -0.15003021006820461 0 -0.48062174440056549 -0.15969986187448909 0 -0.46753260370971428 -0.1600862956540782 0 -0.48062174440056549 -0.15969986187448909 0 -0.47449277923056221 -0.17835100943610771 0 -0.46548313673471758 -0.16971310035941381 0 -0.48062174440056549 -0.15969986187448909 0 -0.47449277923056221 -0.17835100943610771 0 -0.5 -0.15043640832747529 0 -0.48062174440056549 -0.15969986187448909 0 -0.49999999999999828 -0.17438442907940241 0 -0.48062174440056549 -0.15969986187448909 0 -0.49999999999999828 -0.17438442907940241 0 -0.47449277923056221 -0.17835100943610771 0 -0.49999999999999828 -0.17438442907940241 0 -0.47449277923056221 -0.17835100943610771 0 -0.49999999999999828 -0.17438442907940241 0 -0.47449277923056221 -0.17835100943610771 0 -0.48549376880548989 -0.19132810400505559 0 -0.47449277923056221 -0.17835100943610771 0 -0.46892716456320649 -0.19528781647494389 0 -0.47449277923056221 -0.17835100943610771 0 -0.45952205817714309 -0.18067907836188021 0 -0.46892716456320649 -0.19528781647494389 0 -0.45952205817714309 -0.18067907836188021 0 -0.46548313673471758 -0.16971310035941381 0 -0.45289664290439807 -0.17180374819378549 0 -0.47449277923056221 -0.17835100943610771 0 -0.45952205817714309 -0.18067907836188021 0 -0.47449277923056221 -0.17835100943610771 0 -0.45952205817714309 -0.18067907836188021 0 -0.46548313673471758 -0.16971310035941381 0 -0.46548313673471758 -0.16971310035941381 0 -0.46753260370971428 -0.1600862956540782 0 -0.45664278474311831 -0.16090201031420531 0 -0.46738274896045578 -0.15003021006820461 0 -0.46753260370971428 -0.1600862956540782 0 -0.45664278474311831 -0.16090201031420531 0 -0.46548313673471758 -0.16971310035941381 0 -0.45664278474311831 -0.16090201031420531 0 -0.45289664290439807 -0.17180374819378549 0 -0.45664278474311831 -0.16090201031420531 0 -0.45289664290439807 -0.17180374819378549 0 -0.44219215159727421 -0.16781727210851849 0 -0.43166640735559808 -0.1552039120346444 0 -0.45664278474311831 -0.16090201031420531 0 -0.44219215159727421 -0.16781727210851849 0 -0.43166640735559808 -0.1552039120346444 0 -0.45664278474311831 -0.16090201031420531 0 -0.43166640735559808 -0.1552039120346444 0 -0.44410307239699631 -0.15282998285397989 0 -0.45664278474311831 -0.16090201031420531 0 -0.43495901877196291 -0.17485617288990979 0 -0.44219215159727421 -0.16781727210851849 0 -0.44455133712372419 -0.18300714728765441 0 -0.43099962817645188 -0.18319011649723049 0 -0.44455133712372419 -0.18300714728765441 0 -0.43833565968517207 -0.19112957676178299 0 -0.45952205817714309 -0.18067907836188021 0 -0.44455133712372419 -0.18300714728765441 0 -0.45396471697207569 -0.194241302212698 0 -0.45952205817714309 -0.18067907836188021 0 -0.44455133712372419 -0.18300714728765441 0 -0.45952205817714309 -0.18067907836188021 0 -0.45289664290439807 -0.17180374819378549 0 -0.44455133712372419 -0.18300714728765441 0 -0.45289664290439807 -0.17180374819378549 0 -0.44219215159727421 -0.16781727210851849 0 -0.44455133712372419 -0.18300714728765441 0 -0.44455133712372419 -0.18300714728765441 0 -0.43833565968517207 -0.19112957676178299 0 -0.45396471697207569 -0.194241302212698 0 -0.43833565968517207 -0.19112957676178299 0 -0.44184138868315109 -0.20247798044170351 0 -0.45396471697207569 -0.194241302212698 0 -0.44184138868315109 -0.20247798044170351 0 -0.46336154989584488 -0.2122246235137781 0 -0.45396471697207569 -0.194241302212698 0 -0.44184138868315109 -0.20247798044170351 0 -0.46336154989584488 -0.2122246235137781 0 -0.45338394269579491 -0.2190794284651259 0 -0.43378961613155448 -0.20908682079381441 0 -0.44184138868315109 -0.20247798044170351 0 -0.44166379455333399 -0.21604972156869759 0 -0.44184138868315109 -0.20247798044170351 0 -0.44166379455333399 -0.21604972156869759 0 -0.45338394269579491 -0.2190794284651259 0 -0.44184138868315109 -0.20247798044170351 0 -0.46336154989584488 -0.2122246235137781 0 -0.46336154989584488 -0.2122246235137781 0 -0.46892716456320649 -0.19528781647494389 0 -0.46336154989584488 -0.2122246235137781 0 -0.45396471697207569 -0.194241302212698 0 -0.46892716456320649 -0.19528781647494389 0 -0.45952205817714309 -0.18067907836188021 0 -0.45396471697207569 -0.194241302212698 0 -0.46892716456320649 -0.19528781647494389 0 -0.47449277923056221 -0.17835100943610771 0 -0.46892716456320649 -0.19528781647494389 0 -0.48549376880548989 -0.19132810400505559 0 -0.46892716456320649 -0.19528781647494389 0 -0.48549376880548989 -0.19132810400505559 0 -0.47978640147694102 -0.20418872613165631 0 -0.5 -0.20182215567114031 0 -0.48549376880548989 -0.19132810400505559 0 -0.47978640147694102 -0.20418872613165631 0 -0.49999999999999828 -0.17438442907940241 0 -0.5 -0.20182215567114031 0 -0.48549376880548989 -0.19132810400505559 0 -0.5 -0.20182215567114031 0 -0.48114952412016337 -0.22028093099336349 0 -0.49893749834448198 -0.22833723847294871 0 -0.5 -0.20182215567114031 0 -0.47978640147694102 -0.20418872613165631 0 -0.48114952412016337 -0.22028093099336349 0 -0.46336154989584488 -0.2122246235137781 0 -0.48114952412016337 -0.22028093099336349 0 -0.46336154989584488 -0.2122246235137781 0 -0.47978640147694102 -0.20418872613165631 0 -0.48114952412016337 -0.22028093099336349 0 -0.46336154989584488 -0.2122246235137781 0 -0.46892716456320649 -0.19528781647494389 0 -0.47978640147694102 -0.20418872613165631 0 -0.46336154989584488 -0.2122246235137781 0 -0.48114952412016337 -0.22028093099336349 0 -0.46857810181099829 -0.22486784275082261 0 -0.48114952412016337 -0.22028093099336349 0 -0.48798868478634799 -0.231470988200419 0 -0.47142395938804471 -0.23802335247430181 0 -0.48114952412016337 -0.22028093099336349 0 -0.47142395938804471 -0.23802335247430181 0 -0.46857810181099829 -0.22486784275082261 0 -0.48114952412016337 -0.22028093099336349 0 -0.48798868478634799 -0.231470988200419 0 -0.49893749834448198 -0.22833723847294871 0 -0.48114952412016337 -0.22028093099336349 0 -0.49893749834448198 -0.22833723847294871 0 -0.48798868478634799 -0.231470988200419 0 -0.49893749834448198 -0.22833723847294871 0 -0.4875835208682564 -0.24248539692068891 0 -0.5 -0.25669760885461612 0 -0.49893749834448198 -0.22833723847294871 0 -0.4875835208682564 -0.24248539692068891 0 -0.48798868478634799 -0.231470988200419 0 -0.4875835208682564 -0.24248539692068891 0 -0.47142395938804471 -0.23802335247430181 0 -0.47878778985378329 -0.25835102983948688 0 -0.4875835208682564 -0.24248539692068891 0 -0.47142395938804471 -0.23802335247430181 0 -0.45662330498375908 -0.25656877445722759 0 -0.47142395938804471 -0.23802335247430181 0 -0.45034617445999431 -0.24335722649563979 0 -0.47142395938804471 -0.23802335247430181 0 -0.45735065046854989 -0.23051648340969341 0 -0.45034617445999431 -0.24335722649563979 0 -0.46336154989584488 -0.2122246235137781 0 -0.46857810181099829 -0.22486784275082261 0 -0.45735065046854989 -0.23051648340969341 0 -0.46336154989584488 -0.2122246235137781 0 -0.45735065046854989 -0.23051648340969341 0 -0.47142395938804471 -0.23802335247430181 0 -0.46857810181099829 -0.22486784275082261 0 -0.45735065046854989 -0.23051648340969341 0 -0.46336154989584488 -0.2122246235137781 0 -0.45338394269579491 -0.2190794284651259 0 -0.45735065046854989 -0.23051648340969341 0 -0.45338394269579491 -0.2190794284651259 0 -0.45735065046854989 -0.23051648340969341 0 -0.43806130733353449 -0.23541812032183559 0 -0.44166379455333399 -0.21604972156869759 0 -0.43806130733353449 -0.23541812032183559 0 -0.44166379455333399 -0.21604972156869759 0 -0.45338394269579491 -0.2190794284651259 0 -0.43806130733353449 -0.23541812032183559 0 -0.45735065046854989 -0.23051648340969341 0 -0.45034617445999431 -0.24335722649563979 0 -0.43806130733353449 -0.23541812032183559 0 -0.43445882011373449 -0.25478651907497341 0 -0.45034617445999431 -0.24335722649563979 0 -0.43806130733353449 -0.23541812032183559 0 -0.41324955929443102 -0.038374170610562031 0 -0.41005136228565903 -0.05540387285823338 0 -0.42435348212729052 -0.04457483879584373 0 -0.41324955929443102 -0.038374170610562031 0 -0.41005136228565903 -0.05540387285823338 0 -0.39900851660089293 -0.046429079601448257 0 -0.41324955929443102 -0.038374170610562031 0 -0.40747857107326091 -0.02424585309778798 0 -0.40045416304880688 -0.034240371911693122 0 -0.41005136228565903 -0.05540387285823338 0 -0.4246600563061857 -0.059067830999859447 0 -0.41422906440869389 -0.068128229862373102 0 -0.41005136228565903 -0.05540387285823338 0 -0.4246600563061857 -0.059067830999859447 0 -0.42435348212729052 -0.04457483879584373 0 -0.4246600563061857 -0.059067830999859447 0 -0.42435348212729052 -0.04457483879584373 0 -0.43957367317472601 -0.045089571971719818 0 -0.4246600563061857 -0.059067830999859447 0 -0.43957367317472601 -0.045089571971719818 0 -0.44544580640037118 -0.056213229689383748 0 -0.41324955929443102 -0.038374170610562031 0 -0.42435348212729052 -0.04457483879584373 0 -0.42981912379901888 -0.030443092666165631 0 -0.42435348212729052 -0.04457483879584373 0 -0.42981912379901888 -0.030443092666165631 0 -0.43957367317472601 -0.045089571971719818 0 -0.41302196833726168 -0.01226972299954816 0 -0.4392085005598273 -0.024676348383282701 0 -0.42659341977192161 -0.010103830507352861 0 -0.41302196833726168 -0.01226972299954816 0 -0.4392085005598273 -0.024676348383282701 0 -0.42981912379901888 -0.030443092666165631 0 -0.41673372021425997 -0.022240754673565791 0 -0.4392085005598273 -0.024676348383282701 0 -0.41302196833726168 -0.01226972299954816 0 -0.41673372021425997 -0.022240754673565791 0 -0.4392085005598273 -0.024676348383282701 0 -0.43741768347029059 -0.01288367903972009 0 -0.42659341977192161 -0.010103830507352861 0 -0.4392085005598273 -0.024676348383282701 0 -0.4441818909265971 -0.00998157505946092 0 -0.42578104856505677 0.0031949168855625672 0 -0.43741768347029059 -0.01288367903972009 0 -0.4441818909265971 -0.00998157505946092 0 -0.42578104856505677 0.0031949168855625672 0 -0.43741768347029059 -0.01288367903972009 0 -0.42659341977192161 -0.010103830507352861 0 -0.42578104856505677 0.0031949168855625672 0 -0.43741768347029059 -0.01288367903972009 0 -0.42578104856505677 0.0031949168855625672 0 -0.42659341977192161 -0.010103830507352861 0 -0.41753789792717189 -0.0038843189997757009 0 -0.42578104856505677 0.0031949168855625672 0 -0.42659341977192161 -0.010103830507352861 0 -0.41753789792717189 -0.0038843189997757009 0 -0.41302196833726168 -0.01226972299954816 0 -0.41753789792717189 -0.0038843189997757009 0 -0.41302196833726168 -0.01226972299954816 0 -0.40771050441737638 -0.0035262849216432719 0 -0.41753789792717189 -0.0038843189997757009 0 -0.40771050441737638 -0.0035262849216432719 0 -0.41105156913745711 0.0034129409419674369 0 -0.42981912379901888 -0.030443092666165631 0 -0.40747857107326091 -0.02424585309778798 0 -0.41324955929443102 -0.038374170610562031 0 -0.42981912379901888 -0.030443092666165631 0 -0.40747857107326091 -0.02424585309778798 0 -0.42981912379901888 -0.030443092666165631 0 -0.41673372021425997 -0.022240754673565791 0 -0.40747857107326091 -0.02424585309778798 0 -0.41302196833726168 -0.01226972299954816 0 -0.41673372021425997 -0.022240754673565791 0 -0.40747857107326091 -0.02424585309778798 0 -0.41673372021425997 -0.022240754673565791 0 -0.40747857107326091 -0.02424585309778798 0 -0.40747857107326091 -0.02424585309778798 0 -0.38992317137517202 -0.02804917422583518 0 -0.40747857107326091 -0.02424585309778798 0 -0.38992317137517202 -0.02804917422583518 0 -0.38297625517291389 -0.017448943304264108 0 -0.40747857107326091 -0.02424585309778798 0 -0.38992317137517202 -0.02804917422583518 0 -0.40045416304880688 -0.034240371911693122 0 -0.40747857107326091 -0.02424585309778798 0 -0.39567459441968961 -0.012635194689989219 0 -0.38297625517291389 -0.017448943304264108 0 -0.40747857107326091 -0.02424585309778798 0 -0.38297625517291389 -0.017448943304264108 0 -0.41302196833726168 -0.01226972299954816 0 -0.40747857107326091 -0.02424585309778798 0 -0.39567459441968961 -0.012635194689989219 0 -0.41302196833726168 -0.01226972299954816 0 -0.40771050441737638 -0.0035262849216432719 0 -0.38683543611469601 0.0001369023841863784 0 -0.41302196833726168 -0.01226972299954816 0 -0.39567459441968961 -0.012635194689989219 0 -0.38683543611469601 0.0001369023841863784 0 -0.41302196833726168 -0.01226972299954816 0 -0.38683543611469601 0.0001369023841863784 0 -0.40771050441737638 -0.0035262849216432719 0 -0.38683543611469601 0.0001369023841863784 0 -0.40226596945639398 0.0014711925349297271 0 -0.39567459441968961 -0.012635194689989219 0 -0.38502252263107412 -0.0084426060797158468 0 -0.38683543611469601 0.0001369023841863784 0 -0.39567459441968961 -0.012635194689989219 0 -0.38502252263107412 -0.0084426060797158468 0 -0.38297625517291389 -0.017448943304264108 0 -0.38502252263107412 -0.0084426060797158468 0 -0.38009964520605882 -0.0090403485437739461 0 -0.38297625517291389 -0.017448943304264108 0 -0.37278444596104371 -0.0079457960458173115 0 -0.38009964520605882 -0.0090403485437739461 0 -0.38297625517291389 -0.017448943304264108 0 -0.37474494217865062 -0.0022388935110706832 0 -0.38502252263107412 -0.0084426060797158468 0 -0.38683543611469601 0.0001369023841863784 0 -0.37474494217865062 -0.0022388935110706832 0 -0.38502252263107412 -0.0084426060797158468 0 -0.38009964520605882 -0.0090403485437739461 0 -0.37474494217865062 -0.0022388935110706832 0 -0.37278444596104371 -0.0079457960458173115 0 -0.38009964520605882 -0.0090403485437739461 0 -0.37236777167708351 -0.031852495353884333 0 -0.38992317137517202 -0.02804917422583518 0 -0.37990921189048049 -0.023302515363219579 0 -0.37236777167708351 -0.031852495353884333 0 -0.38992317137517202 -0.02804917422583518 0 -0.38992317137517202 -0.02804917422583518 0 -0.38297625517291389 -0.017448943304264108 0 -0.37990921189048049 -0.023302515363219579 0 -0.3739022591900184 -0.02415390189740213 0 -0.38297625517291389 -0.017448943304264108 0 -0.37990921189048049 -0.023302515363219579 0 -0.37236777167708351 -0.031852495353884333 0 -0.3739022591900184 -0.02415390189740213 0 -0.37990921189048049 -0.023302515363219579 0 -0.37236777167708351 -0.031852495353884333 0 -0.37990921189048049 -0.023302515363219579 0 -0.38458287424021398 -0.039388642062709187 0 -0.39900851660089293 -0.046429079601448257 0 -0.3815482533063424 -0.052412606119804542 0 -0.37355784227175309 -0.045246792894939887 0 -0.37236777167708351 -0.031852495353884333 0 -0.38458287424021398 -0.039388642062709187 0 -0.37236777167708351 -0.031852495353884333 0 -0.38992317137517202 -0.02804917422583518 0 -0.38458287424021398 -0.039388642062709187 0 -0.37355784227175309 -0.045246792894939887 0 -0.38458287424021398 -0.039388642062709187 0 -0.3815482533063424 -0.052412606119804542 0 -0.38458287424021398 -0.039388642062709187 0 -0.39900851660089293 -0.046429079601448257 0 -0.40045416304880688 -0.034240371911693122 0 -0.38992317137517202 -0.02804917422583518 0 -0.38458287424021398 -0.039388642062709187 0 -0.40045416304880688 -0.034240371911693122 0 -0.41324955929443102 -0.038374170610562031 0 -0.39900851660089293 -0.046429079601448257 0 -0.40045416304880688 -0.034240371911693122 0 -0.39900851660089293 -0.046429079601448257 0 -0.39626447370361728 -0.06091275685647668 0 -0.3815482533063424 -0.052412606119804542 0 -0.41005136228565903 -0.05540387285823338 0 -0.39626447370361728 -0.06091275685647668 0 -0.40517181862379281 -0.066558370858305557 0 -0.41005136228565903 -0.05540387285823338 0 -0.39900851660089293 -0.046429079601448257 0 -0.39626447370361728 -0.06091275685647668 0 -0.36862349457690058 -0.057461967220355487 0 -0.3815482533063424 -0.052412606119804542 0 -0.37947166312044489 -0.067272628224985004 0 -0.3815482533063424 -0.052412606119804542 0 -0.37947166312044489 -0.067272628224985004 0 -0.39260231949431601 -0.074533368335879327 0 -0.36882665317829499 -0.078032107790563188 0 -0.39260231949431601 -0.074533368335879327 0 -0.39626447370361728 -0.06091275685647668 0 -0.3815482533063424 -0.052412606119804542 0 -0.39260231949431601 -0.074533368335879327 0 -0.3815482533063424 -0.052412606119804542 0 -0.39260231949431601 -0.074533368335879327 0 -0.36882665317829499 -0.078032107790563188 0 -0.37947166312044489 -0.067272628224985004 0 -0.39260231949431601 -0.074533368335879327 0 -0.36882665317829499 -0.078032107790563188 0 -0.39260231949431601 -0.074533368335879327 0 -0.39002829617667018 -0.099006697234722524 0 -0.36882665317829499 -0.078032107790563188 0 -0.39002829617667018 -0.099006697234722524 0 -0.37367929427193591 -0.1014825750548952 0 -0.36882665317829499 -0.078032107790563188 0 -0.39002829617667018 -0.099006697234722524 0 -0.39260231949431601 -0.074533368335879327 0 -0.39002829617667018 -0.099006697234722524 0 -0.39510370691593599 -0.098958215311000047 0 -0.39260231949431601 -0.074533368335879327 0 -0.40274583300482147 -0.094831984843681591 0 -0.39260231949431601 -0.074533368335879327 0 -0.39510370691593599 -0.098958215311000047 0 -0.40274583300482147 -0.094831984843681591 0 -0.40361170428446441 -0.083317353290434007 0 -0.39260231949431601 -0.074533368335879327 0 -0.40274583300482147 -0.094831984843681591 0 -0.40361170428446441 -0.083317353290434007 0 -0.39867569396630093 -0.073639632925658519 0 -0.40696916935602839 -0.074517235882718885 0 -0.39867569396630093 -0.073639632925658519 0 -0.40517181862379281 -0.066558370858305557 0 -0.40696916935602839 -0.074517235882718885 0 -0.39626447370361728 -0.06091275685647668 0 -0.39867569396630093 -0.073639632925658519 0 -0.40517181862379281 -0.066558370858305557 0 -0.39626447370361728 -0.06091275685647668 0 -0.39867569396630093 -0.073639632925658519 0 -0.39260231949431601 -0.074533368335879327 0 -0.40361170428446441 -0.083317353290434007 0 -0.39867569396630093 -0.073639632925658519 0 -0.39260231949431601 -0.074533368335879327 0 -0.39867569396630093 -0.073639632925658519 0 -0.39260231949431601 -0.074533368335879327 0 -0.37212838853434238 -0.11808059788504249 0 -0.38278168804071749 -0.12940228238898679 0 -0.39044023874876249 -0.11757149150947201 0 -0.37367929427193591 -0.1014825750548952 0 -0.37212838853434238 -0.11808059788504249 0 -0.39044023874876249 -0.11757149150947201 0 -0.37367929427193591 -0.1014825750548952 0 -0.39044023874876249 -0.11757149150947201 0 -0.39002829617667018 -0.099006697234722524 0 -0.39510370691593599 -0.098958215311000047 0 -0.40274583300482147 -0.094831984843681591 0 -0.41288934651532883 -0.11513060135148299 0 -0.39002829617667018 -0.099006697234722524 0 -0.39510370691593599 -0.098958215311000047 0 -0.41122993917504558 -0.1199812866788818 0 -0.39510370691593599 -0.098958215311000047 0 -0.41288934651532883 -0.11513060135148299 0 -0.39647179587780151 -0.13189450107720049 0 -0.39044023874876249 -0.11757149150947201 0 -0.41122993917504558 -0.1199812866788818 0 -0.39002829617667018 -0.099006697234722524 0 -0.41122993917504558 -0.1199812866788818 0 -0.39044023874876249 -0.11757149150947201 0 -0.39002829617667018 -0.099006697234722524 0 -0.41122993917504558 -0.1199812866788818 0 -0.39510370691593599 -0.098958215311000047 0 -0.41122993917504558 -0.1199812866788818 0 -0.41288934651532883 -0.11513060135148299 0 -0.41930562378398423 -0.12797048681614909 0 -0.41122993917504558 -0.1199812866788818 0 -0.4149348530849476 -0.1169905694289516 0 -0.41930562378398423 -0.12797048681614909 0 -0.41122993917504558 -0.1199812866788818 0 -0.41930562378398423 -0.12797048681614909 0 -0.4149348530849476 -0.1169905694289516 0 -0.41122993917504558 -0.1199812866788818 0 -0.41288934651532883 -0.11513060135148299 0 -0.4149348530849476 -0.1169905694289516 0 -0.41122993917504558 -0.1199812866788818 0 -0.4149348530849476 -0.1169905694289516 0 -0.41288934651532883 -0.11513060135148299 0 -0.4149348530849476 -0.1169905694289516 0 -0.41288934651532883 -0.11513060135148299 0 -0.4149348530849476 -0.1169905694289516 0 -0.41458672172207622 -0.10427776634057311 0 -0.40274583300482147 -0.094831984843681591 0 -0.41288934651532883 -0.11513060135148299 0 -0.4149348530849476 -0.1169905694289516 0 -0.41458672172207622 -0.10427776634057311 0 -0.43059848591229039 -0.1043464168163742 0 -0.40274583300482147 -0.094831984843681591 0 -0.41288934651532883 -0.11513060135148299 0 -0.41458672172207622 -0.10427776634057311 0 -0.41458672172207622 -0.10427776634057311 0 -0.41348552386521947 -0.090840815536544176 0 -0.43025813067654672 -0.08737754853092726 0 -0.40274583300482147 -0.094831984843681591 0 -0.41458672172207622 -0.10427776634057311 0 -0.41348552386521947 -0.090840815536544176 0 -0.43059848591229039 -0.1043464168163742 0 -0.43025813067654672 -0.08737754853092726 0 -0.44626211873963212 -0.091702264203795431 0 -0.41458672172207622 -0.10427776634057311 0 -0.43059848591229039 -0.1043464168163742 0 -0.43025813067654672 -0.08737754853092726 0 -0.41458672172207622 -0.10427776634057311 0 -0.43025813067654672 -0.08737754853092726 0 -0.4149348530849476 -0.1169905694289516 0 -0.43059848591229039 -0.1043464168163742 0 -0.43160182387889101 -0.1187955019330571 0 -0.4149348530849476 -0.1169905694289516 0 -0.43059848591229039 -0.1043464168163742 0 -0.43389101300267191 -0.13422730327376839 0 -0.4149348530849476 -0.1169905694289516 0 -0.43160182387889101 -0.1187955019330571 0 -0.43059848591229039 -0.1043464168163742 0 -0.43160182387889101 -0.1187955019330571 0 -0.44003429013576911 -0.11331979272890801 0 -0.43160182387889101 -0.1187955019330571 0 -0.44085253015216358 -0.1237950587173612 0 -0.44003429013576911 -0.11331979272890801 0 -0.41422906440869389 -0.068128229862373102 0 -0.41539885585273961 -0.080089681603359497 0 -0.42594434486026628 -0.073522222089585226 0 -0.4246600563061857 -0.059067830999859447 0 -0.41422906440869389 -0.068128229862373102 0 -0.42594434486026628 -0.073522222089585226 0 -0.41005136228565903 -0.05540387285823338 0 -0.40517181862379281 -0.066558370858305557 0 -0.41422906440869389 -0.068128229862373102 0 -0.40517181862379281 -0.066558370858305557 0 -0.41422906440869389 -0.068128229862373102 0 -0.40696916935602839 -0.074517235882718885 0 -0.41422906440869389 -0.068128229862373102 0 -0.40696916935602839 -0.074517235882718885 0 -0.41539885585273961 -0.080089681603359497 0 -0.41348552386521947 -0.090840815536544176 0 -0.41539885585273961 -0.080089681603359497 0 -0.43025813067654672 -0.08737754853092726 0 -0.40361170428446441 -0.083317353290434007 0 -0.41348552386521947 -0.090840815536544176 0 -0.41539885585273961 -0.080089681603359497 0 -0.40361170428446441 -0.083317353290434007 0 -0.40696916935602839 -0.074517235882718885 0 -0.41539885585273961 -0.080089681603359497 0 -0.40361170428446441 -0.083317353290434007 0 -0.40274583300482147 -0.094831984843681591 0 -0.41348552386521947 -0.090840815536544176 0 -0.41539885585273961 -0.080089681603359497 0 -0.43025813067654672 -0.08737754853092726 0 -0.42594434486026628 -0.073522222089585226 0 -0.4246600563061857 -0.059067830999859447 0 -0.44592953963101739 -0.07047733072128165 0 -0.43025813067654672 -0.08737754853092726 0 -0.42594434486026628 -0.073522222089585226 0 -0.44592953963101739 -0.07047733072128165 0 -0.4246600563061857 -0.059067830999859447 0 -0.42594434486026628 -0.073522222089585226 0 -0.44592953963101739 -0.07047733072128165 0 -0.44592953963101739 -0.07047733072128165 0 -0.45893666683642192 -0.056450303318209168 0 -0.44592953963101739 -0.07047733072128165 0 -0.44626211873963212 -0.091702264203795431 0 -0.46192575156697407 -0.079058111591217034 0 -0.43025813067654672 -0.08737754853092726 0 -0.44592953963101739 -0.07047733072128165 0 -0.43025813067654672 -0.08737754853092726 0 -0.44592953963101739 -0.07047733072128165 0 -0.44626211873963212 -0.091702264203795431 0 -0.44626211873963212 -0.091702264203795431 0 -0.46631049206888459 -0.091444160656324658 0 -0.46192575156697407 -0.079058111591217034 0 -0.44626211873963212 -0.091702264203795431 0 -0.46192575156697407 -0.079058111591217034 0 -0.46631049206888459 -0.091444160656324658 0 -0.46192575156697407 -0.079058111591217034 0 -0.47702460168979111 -0.087157524427869615 0 -0.44592953963101739 -0.07047733072128165 0 -0.46192575156697407 -0.079058111591217034 0 -0.45893666683642192 -0.056450303318209168 0 -0.46192575156697407 -0.079058111591217034 0 -0.47491389520024407 -0.068573693827893439 0 -0.45893666683642192 -0.056450303318209168 0 -0.46192575156697407 -0.079058111591217034 0 -0.47491389520024407 -0.068573693827893439 0 -0.44592953963101739 -0.07047733072128165 0 -0.46192575156697407 -0.079058111591217034 0 -0.45000974795797011 -0.119430952696417 0 -0.44085253015216358 -0.1237950587173612 0 -0.44003429013576911 -0.11331979272890801 0 -0.45000974795797011 -0.119430952696417 0 -0.44003429013576911 -0.11331979272890801 0 -0.44926481423485548 -0.10476542824413421 0 -0.43059848591229039 -0.1043464168163742 0 -0.44626211873963212 -0.091702264203795431 0 -0.43059848591229039 -0.1043464168163742 0 -0.44626211873963212 -0.091702264203795431 0 -0.44926481423485548 -0.10476542824413421 0 -0.43059848591229039 -0.1043464168163742 0 -0.44003429013576911 -0.11331979272890801 0 -0.44926481423485548 -0.10476542824413421 0 -0.44626211873963212 -0.091702264203795431 0 -0.44926481423485548 -0.10476542824413421 0 -0.46153012095291662 -0.1019472767233552 0 -0.44626211873963212 -0.091702264203795431 0 -0.46631049206888459 -0.091444160656324658 0 -0.46153012095291662 -0.1019472767233552 0 -0.46631049206888459 -0.091444160656324658 0 -0.46153012095291662 -0.1019472767233552 0 -0.4710589232177344 -0.098453604121520433 0 -0.46153012095291662 -0.1019472767233552 0 -0.46221413283232399 -0.11366089481890911 0 -0.47430793409480421 -0.10627177682285049 0 -0.44926481423485548 -0.10476542824413421 0 -0.46153012095291662 -0.1019472767233552 0 -0.46221413283232399 -0.11366089481890911 0 -0.45896755277767909 -0.12575633132281341 0 -0.46221413283232399 -0.11366089481890911 0 -0.47750202174635031 -0.1215216316744509 0 -0.45000974795797011 -0.119430952696417 0 -0.44926481423485548 -0.10476542824413421 0 -0.46221413283232399 -0.11366089481890911 0 -0.45896755277767909 -0.12575633132281341 0 -0.45000974795797011 -0.119430952696417 0 -0.46221413283232399 -0.11366089481890911 0 -0.47750202174635031 -0.1215216316744509 0 -0.47430793409480421 -0.10627177682285049 0 -0.48673501487359588 -0.1010237797652184 0 -0.46221413283232399 -0.11366089481890911 0 -0.47750202174635031 -0.1215216316744509 0 -0.47430793409480421 -0.10627177682285049 0 -0.47430793409480421 -0.10627177682285049 0 -0.47745372589702628 -0.099742000537211661 0 -0.48673501487359588 -0.1010237797652184 0 -0.46153012095291662 -0.1019472767233552 0 -0.47430793409480421 -0.10627177682285049 0 -0.4710589232177344 -0.098453604121520433 0 -0.46631049206888459 -0.091444160656324658 0 -0.4710589232177344 -0.098453604121520433 0 -0.47771303140197108 -0.093218841439257433 0 -0.47430793409480421 -0.10627177682285049 0 -0.4710589232177344 -0.098453604121520433 0 -0.47745372589702628 -0.099742000537211661 0 -0.4710589232177344 -0.098453604121520433 0 -0.47745372589702628 -0.099742000537211661 0 -0.47771303140197108 -0.093218841439257433 0 -0.47745372589702628 -0.099742000537211661 0 -0.48673501487359588 -0.1010237797652184 0 -0.47771303140197108 -0.093218841439257433 0 -0.48673501487359588 -0.1010237797652184 0 -0.47771303140197108 -0.093218841439257433 0 -0.47702460168979111 -0.087157524427869615 0 -0.47750202174635031 -0.1215216316744509 0 -0.48673501487359588 -0.1010237797652184 0 -0.4986179579264654 -0.1020768288792674 0 -0.48673501487359588 -0.1010237797652184 0 -0.49842317329231273 -0.098636270432611556 0 -0.47702460168979111 -0.087157524427869615 0 -0.48673501487359588 -0.1010237797652184 0 -0.49842317329231273 -0.098636270432611556 0 -0.4986179579264654 -0.1020768288792674 0 -0.49999999999999939 -0.099482120969144883 0 -0.49842317329231273 -0.098636270432611556 0 -0.4986179579264654 -0.1020768288792674 0 -0.49842317329231273 -0.098636270432611556 0 -0.4986179579264654 -0.1020768288792674 0 -0.49999999999999939 -0.099482120969144883 0 -0.49842317329231273 -0.098636270432611556 0 -0.50000000000000011 -0.12648838757554831 0 -0.47750202174635031 -0.1215216316744509 0 -0.4986179579264654 -0.1020768288792674 0 -0.47750202174635031 -0.1215216316744509 0 -0.4986179579264654 -0.1020768288792674 0 -0.47491389520024407 -0.068573693827893439 0 -0.47702460168979111 -0.087157524427869615 0 -0.4847984782487687 -0.075944598732494498 0 -0.47491389520024407 -0.068573693827893439 0 -0.47702460168979111 -0.087157524427869615 0 -0.47967839073812912 -0.064727650616396362 0 -0.4847984782487687 -0.075944598732494498 0 -0.48794163871831331 -0.064119883023254248 0 -0.47967839073812912 -0.064727650616396362 0 -0.47491389520024407 -0.068573693827893439 0 -0.4847984782487687 -0.075944598732494498 0 -0.47967839073812912 -0.064727650616396362 0 -0.47491389520024407 -0.068573693827893439 0 -0.46192575156697407 -0.079058111591217034 0 -0.47702460168979111 -0.087157524427869615 0 -0.46192575156697407 -0.079058111591217034 0 -0.47491389520024407 -0.068573693827893439 0 -0.47702460168979111 -0.087157524427869615 0 -0.46631049206888459 -0.091444160656324658 0 -0.47771303140197108 -0.093218841439257433 0 -0.47702460168979111 -0.087157524427869615 0 -0.47771303140197108 -0.093218841439257433 0 -0.47702460168979111 -0.087157524427869615 0 -0.49842317329231273 -0.098636270432611556 0 -0.49712708577170861 -0.075742961183477536 0 -0.4847984782487687 -0.075944598732494498 0 -0.49999999999999939 -0.099482120969144883 0 -0.49842317329231273 -0.098636270432611556 0 -0.5 -0.078030389970551228 0 -0.49842317329231273 -0.098636270432611556 0 -0.49712708577170861 -0.075742961183477536 0 -0.49842317329231273 -0.098636270432611556 0 -0.5 -0.078030389970551228 0 -0.49712708577170861 -0.075742961183477536 0 -0.49842317329231273 -0.098636270432611556 0 -0.47702460168979111 -0.087157524427869615 0 -0.4847984782487687 -0.075944598732494498 0 -0.49842317329231273 -0.098636270432611556 0 -0.47702460168979111 -0.087157524427869615 0 -0.5 -0.078030389970551228 0 -0.49712708577170861 -0.075742961183477536 0 -0.49999999999999928 -0.056578658971957581 0 -0.49712708577170861 -0.075742961183477536 0 -0.49583099825110311 -0.052849651934343489 0 -0.49712708577170861 -0.075742961183477536 0 -0.48794163871831331 -0.064119883023254248 0 -0.49583099825110311 -0.052849651934343489 0 -0.49712708577170861 -0.075742961183477536 0 -0.4847984782487687 -0.075944598732494498 0 -0.48794163871831331 -0.064119883023254248 0 -0.49712708577170861 -0.075742961183477536 0 -0.49999999999999928 -0.056578658971957581 0 -0.49583099825110311 -0.052849651934343489 0 -0.49583099825110311 -0.052849651934343489 0 -0.47748890114140963 -0.036443372127734748 0 -0.48227324058185622 -0.051334552649559453 0 -0.49999999999999928 -0.056578658971957581 0 -0.49583099825110311 -0.052849651934343489 0 -0.49999999999999928 -0.056578658971957581 0 -0.50000000000000144 -0.053559852644015388 0 -0.49583099825110311 -0.052849651934343489 0 -0.48794163871831331 -0.064119883023254248 0 -0.49583099825110311 -0.052849651934343489 0 -0.48227324058185622 -0.051334552649559453 0 -0.50000000000000144 -0.053559852644015388 0 -0.49583099825110311 -0.052849651934343489 0 -0.48598145264485831 -0.02728491224803695 0 -0.49583099825110311 -0.052849651934343489 0 -0.47748890114140963 -0.036443372127734748 0 -0.48598145264485831 -0.02728491224803695 0 -0.50000000000000144 -0.053559852644015388 0 -0.48598145264485831 -0.02728491224803695 0 -0.50000000000000144 -0.053559852644015388 0 -0.48598145264485831 -0.02728491224803695 0 -0.5 -0.025161366008633609 0 -0.49583099825110311 -0.052849651934343489 0 -0.47748890114140963 -0.036443372127734748 0 -0.47748890114140963 -0.036443372127734748 0 -0.48598145264485831 -0.02728491224803695 0 -0.47748890114140963 -0.036443372127734748 0 -0.47194379404182718 -0.042423275915137587 0 -0.48227324058185622 -0.051334552649559453 0 -0.47748890114140963 -0.036443372127734748 0 -0.47194379404182718 -0.042423275915137587 0 -0.47748890114140963 -0.036443372127734748 0 -0.47194379404182718 -0.042423275915137587 0 -0.47056077858213702 -0.03024644074295027 0 -0.47194379404182718 -0.042423275915137587 0 -0.46539503278239303 -0.037082973767017267 0 -0.47056077858213702 -0.03024644074295027 0 -0.47194379404182718 -0.042423275915137587 0 -0.47056077858213702 -0.03024644074295027 0 -0.47748890114140963 -0.036443372127734748 0 -0.47056077858213702 -0.03024644074295027 0 -0.47748890114140963 -0.036443372127734748 0 -0.47056077858213702 -0.03024644074295027 0 -0.47745882259212458 -0.028728106929589409 0 -0.47967839073812912 -0.064727650616396362 0 -0.47491389520024407 -0.068573693827893439 0 -0.47194379404182718 -0.042423275915137587 0 -0.47967839073812912 -0.064727650616396362 0 -0.47194379404182718 -0.042423275915137587 0 -0.48227324058185622 -0.051334552649559453 0 -0.47491389520024407 -0.068573693827893439 0 -0.47194379404182718 -0.042423275915137587 0 -0.47967839073812912 -0.064727650616396362 0 -0.48794163871831331 -0.064119883023254248 0 -0.48227324058185622 -0.051334552649559453 0 -0.47491389520024407 -0.068573693827893439 0 -0.47194379404182718 -0.042423275915137587 0 -0.45893666683642192 -0.056450303318209168 0 -0.45893666683642192 -0.056450303318209168 0 -0.45743491846808387 -0.04563500224908737 0 -0.44544580640037118 -0.056213229689383748 0 -0.47194379404182718 -0.042423275915137587 0 -0.45893666683642192 -0.056450303318209168 0 -0.45743491846808387 -0.04563500224908737 0 -0.47194379404182718 -0.042423275915137587 0 -0.45893666683642192 -0.056450303318209168 0 -0.46539503278239303 -0.037082973767017267 0 -0.44890774518284438 -0.02927164544362729 0 -0.46539503278239303 -0.037082973767017267 0 -0.45215967652477718 -0.036640332234541717 0 -0.44890774518284438 -0.02927164544362729 0 -0.46539503278239303 -0.037082973767017267 0 -0.44890774518284438 -0.02927164544362729 0 -0.46189821575704781 -0.02986243911986371 0 -0.47194379404182718 -0.042423275915137587 0 -0.46539503278239303 -0.037082973767017267 0 -0.45743491846808387 -0.04563500224908737 0 -0.46539503278239303 -0.037082973767017267 0 -0.46189821575704781 -0.02986243911986371 0 -0.47056077858213702 -0.03024644074295027 0 -0.46539503278239303 -0.037082973767017267 0 -0.45743491846808387 -0.04563500224908737 0 -0.45215967652477718 -0.036640332234541717 0 -0.42981912379901888 -0.030443092666165631 0 -0.45215967652477718 -0.036640332234541717 0 -0.45743491846808387 -0.04563500224908737 0 -0.45215967652477718 -0.036640332234541717 0 -0.43957367317472601 -0.045089571971719818 0 -0.42981912379901888 -0.030443092666165631 0 -0.45215967652477718 -0.036640332234541717 0 -0.43957367317472601 -0.045089571971719818 0 -0.45743491846808387 -0.04563500224908737 0 -0.43957367317472601 -0.045089571971719818 0 -0.44544580640037118 -0.056213229689383748 0 -0.4246600563061857 -0.059067830999859447 0 -0.44592953963101739 -0.07047733072128165 0 -0.44544580640037118 -0.056213229689383748 0 -0.44592953963101739 -0.07047733072128165 0 -0.45893666683642192 -0.056450303318209168 0 -0.44544580640037118 -0.056213229689383748 0 -0.4441818909265971 -0.00998157505946092 0 -0.45588653083934588 0.00041698580085632909 0 -0.44737850259376799 0.0077656591989471307 0 -0.4441818909265971 -0.00998157505946092 0 -0.4570262928383732 -0.018140378997512391 0 -0.45633913854906122 -0.0094275687658610888 0 -0.4441818909265971 -0.00998157505946092 0 -0.45633913854906122 -0.0094275687658610888 0 -0.45588653083934588 0.00041698580085632909 0 -0.43741768347029059 -0.01288367903972009 0 -0.4441818909265971 -0.00998157505946092 0 -0.44890774518284438 -0.02927164544362729 0 -0.42981912379901888 -0.030443092666165631 0 -0.45215967652477718 -0.036640332234541717 0 -0.4392085005598273 -0.024676348383282701 0 -0.4441818909265971 -0.00998157505946092 0 -0.44890774518284438 -0.02927164544362729 0 -0.46258273328813732 -0.023158067004484729 0 -0.43741768347029059 -0.01288367903972009 0 -0.44890774518284438 -0.02927164544362729 0 -0.43741768347029059 -0.01288367903972009 0 -0.4392085005598273 -0.024676348383282701 0 -0.44890774518284438 -0.02927164544362729 0 -0.4392085005598273 -0.024676348383282701 0 -0.44890774518284438 -0.02927164544362729 0 -0.45215967652477718 -0.036640332234541717 0 -0.4392085005598273 -0.024676348383282701 0 -0.44890774518284438 -0.02927164544362729 0 -0.4441818909265971 -0.00998157505946092 0 -0.46258273328813732 -0.023158067004484729 0 -0.46258273328813732 -0.023158067004484729 0 -0.46826183959192841 -0.01000530680732737 0 -0.47056077858213702 -0.03024644074295027 0 -0.4441818909265971 -0.00998157505946092 0 -0.4570262928383732 -0.018140378997512391 0 -0.46258273328813732 -0.023158067004484729 0 -0.4570262928383732 -0.018140378997512391 0 -0.46258273328813732 -0.023158067004484729 0 -0.44890774518284438 -0.02927164544362729 0 -0.46189821575704781 -0.02986243911986371 0 -0.46258273328813732 -0.023158067004484729 0 -0.46258273328813732 -0.023158067004484729 0 -0.47056077858213702 -0.03024644074295027 0 -0.46189821575704781 -0.02986243911986371 0 -0.46258273328813732 -0.023158067004484729 0 -0.47056077858213702 -0.03024644074295027 0 -0.4570262928383732 -0.018140378997512391 0 -0.46258273328813732 -0.023158067004484729 0 -0.46826183959192841 -0.01000530680732737 0 -0.4570262928383732 -0.018140378997512391 0 -0.46826183959192841 -0.01000530680732737 0 -0.45633913854906122 -0.0094275687658610888 0 -0.46826183959192841 -0.01000530680732737 0 -0.45633913854906122 -0.0094275687658610888 0 -0.45588653083934588 0.00041698580085632909 0 -0.46826183959192841 -0.01000530680732737 0 -0.47597217662329228 -0.0085245425598697612 0 -0.4659629006017233 0.010235827128295859 0 -0.46826183959192841 -0.01000530680732737 0 -0.47597217662329228 -0.0085245425598697612 0 -0.47580415800009379 -0.02093770259963601 0 -0.47597217662329228 -0.0085245425598697612 0 -0.48922725890134677 -0.010453537226696331 0 -0.48082517856277007 0.001845263919603602 0 -0.47597217662329228 -0.0085245425598697612 0 -0.47580415800009379 -0.02093770259963601 0 -0.48598145264485831 -0.02728491224803695 0 -0.47597217662329228 -0.0085245425598697612 0 -0.48598145264485831 -0.02728491224803695 0 -0.46826183959192841 -0.01000530680732737 0 -0.47056077858213702 -0.03024644074295027 0 -0.47580415800009379 -0.02093770259963601 0 -0.47597217662329228 -0.0085245425598697612 0 -0.48598145264485831 -0.02728491224803695 0 -0.4893389393206713 -0.02366416211133009 0 -0.46826183959192841 -0.01000530680732737 0 -0.47056077858213702 -0.03024644074295027 0 -0.47056077858213702 -0.03024644074295027 0 -0.47580415800009379 -0.02093770259963601 0 -0.47745882259212458 -0.028728106929589409 0 -0.47580415800009379 -0.02093770259963601 0 -0.47745882259212458 -0.028728106929589409 0 -0.48598145264485831 -0.02728491224803695 0 -0.47748890114140963 -0.036443372127734748 0 -0.47745882259212458 -0.028728106929589409 0 -0.48598145264485831 -0.02728491224803695 0 -0.48598145264485831 -0.02728491224803695 0 -0.4893389393206713 -0.02366416211133009 0 -0.5 -0.025161366008633609 0 -0.48598145264485831 -0.02728491224803695 0 -0.4893389393206713 -0.02366416211133009 0 -0.4893389393206713 -0.02366416211133009 0 -0.5 -0.025161366008633609 0 -0.48922725890134677 -0.010453537226696331 0 -0.48922725890134677 -0.010453537226696331 0 -0.5 0.0032371206267481911 0 -0.48082517856277007 0.001845263919603602 0 -0.5 -0.025161366008633609 0 -0.48922725890134677 -0.010453537226696331 0 -0.5 0.0032371206267481911 0 -0.47597217662329228 -0.0085245425598697612 0 -0.4893389393206713 -0.02366416211133009 0 -0.48922725890134677 -0.010453537226696331 0 -0.5 0.0032371206267481911 0 -0.48596576445654982 0.01457961489688041 0 -0.48082517856277007 0.001845263919603602 0 -0.48596576445654982 0.01457961489688041 0 -0.47541999506787802 0.025418180444172121 0 -0.5 0.031635607262129987 0 -0.5 0.0032371206267481911 0 -0.48596576445654982 0.01457961489688041 0 -0.5 0.031635607262129987 0 -0.48596576445654982 0.01457961489688041 0 -0.47541999506787802 0.025418180444172121 0 -0.47401658579892991 0.013489912392399149 0 -0.47541999506787802 0.025418180444172121 0 -0.46963945276383978 0.01793989872667965 0 -0.47401658579892991 0.013489912392399149 0 -0.47597217662329228 -0.0085245425598697612 0 -0.48082517856277007 0.001845263919603602 0 -0.4659629006017233 0.010235827128295859 0 -0.47401658579892991 0.013489912392399149 0 -0.48082517856277007 0.001845263919603602 0 -0.4659629006017233 0.010235827128295859 0 -0.46963945276383978 0.01793989872667965 0 -0.47401658579892991 0.013489912392399149 0 -0.4659629006017233 0.010235827128295859 0 -0.47597217662329228 -0.0085245425598697612 0 -0.4659629006017233 0.010235827128295859 0 -0.48596576445654982 0.01457961489688041 0 -0.47401658579892991 0.013489912392399149 0 -0.48082517856277007 0.001845263919603602 0 -0.5 0.060034093897511798 0 -0.47816362815030861 0.043832779932641487 0 -0.48068047186290208 0.063626500276227002 0 -0.47541999506787802 0.025418180444172121 0 -0.5 0.031635607262129987 0 -0.47816362815030861 0.043832779932641487 0 -0.5 0.060034093897511798 0 -0.5 0.031635607262129987 0 -0.47816362815030861 0.043832779932641487 0 -0.47541999506787802 0.025418180444172121 0 -0.47816362815030861 0.043832779932641487 0 -0.46442391639916691 0.036471327701905212 0 -0.47816362815030861 0.043832779932641487 0 -0.46119618507356652 0.049359273152949731 0 -0.48068047186290208 0.063626500276227002 0 -0.46119618507356652 0.049359273152949731 0 -0.46103932749027238 0.064238871702306077 0 -0.48068047186290208 0.063626500276227002 0 -0.46119618507356652 0.049359273152949731 0 -0.44286953411296898 0.045255716157198693 0 -0.46103932749027238 0.064238871702306077 0 -0.47816362815030861 0.043832779932641487 0 -0.46119618507356652 0.049359273152949731 0 -0.46442391639916691 0.036471327701905212 0 -0.46119618507356652 0.049359273152949731 0 -0.46442391639916691 0.036471327701905212 0 -0.45082509298125129 0.038608595210277222 0 -0.46442391639916691 0.036471327701905212 0 -0.45082509298125129 0.038608595210277222 0 -0.4583939967914884 0.024422211169287101 0 -0.45082509298125129 0.038608595210277222 0 -0.4583939967914884 0.024422211169287101 0 -0.46119618507356652 0.049359273152949731 0 -0.45082509298125129 0.038608595210277222 0 -0.44286953411296898 0.045255716157198693 0 -0.45082509298125129 0.038608595210277222 0 -0.4405409619944019 0.035432846457562263 0 -0.4458839614772655 0.023387518650519249 0 -0.45082509298125129 0.038608595210277222 0 -0.4405409619944019 0.035432846457562263 0 -0.44286953411296898 0.045255716157198693 0 -0.4405409619944019 0.035432846457562263 0 -0.44286953411296898 0.045255716157198693 0 -0.43229092530358848 0.04451632412921195 0 -0.44286953411296898 0.045255716157198693 0 -0.44282721760043869 0.062046251170956107 0 -0.46103932749027238 0.064238871702306077 0 -0.44286953411296898 0.045255716157198693 0 -0.44282721760043869 0.062046251170956107 0 -0.43188097302969042 0.056955122555226501 0 -0.44286953411296898 0.045255716157198693 0 -0.46103932749027238 0.064238871702306077 0 -0.46826183959192841 -0.01000530680732737 0 -0.45588653083934588 0.00041698580085632909 0 -0.4659629006017233 0.010235827128295859 0 -0.46826183959192841 -0.01000530680732737 0 -0.4659629006017233 0.010235827128295859 0 -0.45609316173783881 0.014082317838893479 0 -0.45588653083934588 0.00041698580085632909 0 -0.4659629006017233 0.010235827128295859 0 -0.46963945276383978 0.01793989872667965 0 -0.4659629006017233 0.010235827128295859 0 -0.4583939967914884 0.024422211169287101 0 -0.4659629006017233 0.010235827128295859 0 -0.4583939967914884 0.024422211169287101 0 -0.47541999506787802 0.025418180444172121 0 -0.46963945276383978 0.01793989872667965 0 -0.4583939967914884 0.024422211169287101 0 -0.47541999506787802 0.025418180444172121 0 -0.46442391639916691 0.036471327701905212 0 -0.4583939967914884 0.024422211169287101 0 -0.45609316173783881 0.014082317838893479 0 -0.4659629006017233 0.010235827128295859 0 -0.4583939967914884 0.024422211169287101 0 -0.45609316173783881 0.014082317838893479 0 -0.4583939967914884 0.024422211169287101 0 -0.4458839614772655 0.023387518650519249 0 -0.45082509298125129 0.038608595210277222 0 -0.4583939967914884 0.024422211169287101 0 -0.4458839614772655 0.023387518650519249 0 -0.4405409619944019 0.035432846457562263 0 -0.4458839614772655 0.023387518650519249 0 -0.43566193494816191 0.02574822372494872 0 -0.4458839614772655 0.023387518650519249 0 -0.4359559447540089 0.01018896392150693 0 -0.43566193494816191 0.02574822372494872 0 -0.4441818909265971 -0.00998157505946092 0 -0.44737850259376799 0.0077656591989471307 0 -0.4359559447540089 0.01018896392150693 0 -0.4458839614772655 0.023387518650519249 0 -0.44737850259376799 0.0077656591989471307 0 -0.4359559447540089 0.01018896392150693 0 -0.45609316173783881 0.014082317838893479 0 -0.4458839614772655 0.023387518650519249 0 -0.44737850259376799 0.0077656591989471307 0 -0.45609316173783881 0.014082317838893479 0 -0.45588653083934588 0.00041698580085632909 0 -0.44737850259376799 0.0077656591989471307 0 -0.4441818909265971 -0.00998157505946092 0 -0.4359559447540089 0.01018896392150693 0 -0.42578104856505677 0.0031949168855625672 0 -0.42578104856505677 0.0031949168855625672 0 -0.41622595309658328 0.016397403714119251 0 -0.42870406893849561 0.019163111370922251 0 -0.4359559447540089 0.01018896392150693 0 -0.42578104856505677 0.0031949168855625672 0 -0.42870406893849561 0.019163111370922251 0 -0.41753789792717189 -0.0038843189997757009 0 -0.42578104856505677 0.0031949168855625672 0 -0.41105156913745711 0.0034129409419674369 0 -0.42578104856505677 0.0031949168855625672 0 -0.40852807671777941 0.0155494406680463 0 -0.41622595309658328 0.016397403714119251 0 -0.42578104856505677 0.0031949168855625672 0 -0.40852807671777941 0.0155494406680463 0 -0.41105156913745711 0.0034129409419674369 0 -0.42578104856505677 0.0031949168855625672 0 -0.40852807671777941 0.0155494406680463 0 -0.42578104856505677 0.0031949168855625672 0 -0.41622595309658328 0.016397403714119251 0 -0.40852807671777941 0.0155494406680463 0 -0.41105156913745711 0.0034129409419674369 0 -0.40262572535869262 0.0089097845909437267 0 -0.40771050441737638 -0.0035262849216432719 0 -0.41105156913745711 0.0034129409419674369 0 -0.40226596945639398 0.0014711925349297271 0 -0.40667085762811028 0.029599890542676258 0 -0.41622595309658328 0.016397403714119251 0 -0.42870406893849561 0.019163111370922251 0 -0.40667085762811028 0.029599890542676258 0 -0.42870406893849561 0.019163111370922251 0 -0.40667085762811028 0.029599890542676258 0 -0.41990433555607742 0.03061685230769556 0 -0.42870406893849561 0.019163111370922251 0 -0.40852807671777941 0.0155494406680463 0 -0.40667085762811028 0.029599890542676258 0 -0.41622595309658328 0.016397403714119251 0 -0.40667085762811028 0.029599890542676258 0 -0.41622595309658328 0.016397403714119251 0 -0.41990433555607742 0.03061685230769556 0 -0.4284463216954002 0.029357354603554459 0 -0.42870406893849561 0.019163111370922251 0 -0.4359559447540089 0.01018896392150693 0 -0.42870406893849561 0.019163111370922251 0 -0.43566193494816191 0.02574822372494872 0 -0.4284463216954002 0.029357354603554459 0 -0.42870406893849561 0.019163111370922251 0 -0.43566193494816191 0.02574822372494872 0 -0.4284463216954002 0.029357354603554459 0 -0.43566193494816191 0.02574822372494872 0 -0.43264023121812112 0.033917661463996759 0 -0.4405409619944019 0.035432846457562263 0 -0.43264023121812112 0.033917661463996759 0 -0.43229092530358848 0.04451632412921195 0 -0.43264023121812112 0.033917661463996759 0 -0.43229092530358848 0.04451632412921195 0 -0.42532103781614489 0.037340924150209003 0 -0.4405409619944019 0.035432846457562263 0 -0.43566193494816191 0.02574822372494872 0 -0.43264023121812112 0.033917661463996759 0 -0.43229092530358848 0.04451632412921195 0 -0.42532103781614489 0.037340924150209003 0 -0.42042490988599091 0.046091327469671317 0 -0.4284463216954002 0.029357354603554459 0 -0.43264023121812112 0.033917661463996759 0 -0.42532103781614489 0.037340924150209003 0 -0.41990433555607742 0.03061685230769556 0 -0.4284463216954002 0.029357354603554459 0 -0.42532103781614489 0.037340924150209003 0 -0.43229092530358848 0.04451632412921195 0 -0.43188097302969042 0.056955122555226501 0 -0.42585725303016408 0.051510102087770737 0 -0.44286953411296898 0.045255716157198693 0 -0.43229092530358848 0.04451632412921195 0 -0.43188097302969042 0.056955122555226501 0 -0.43229092530358848 0.04451632412921195 0 -0.42585725303016408 0.051510102087770737 0 -0.42042490988599091 0.046091327469671317 0 -0.43188097302969042 0.056955122555226501 0 -0.41883220390138681 0.058477634196973202 0 -0.43131469147834472 0.070632617455275076 0 -0.43188097302969042 0.056955122555226501 0 -0.42585725303016408 0.051510102087770737 0 -0.41883220390138681 0.058477634196973202 0 -0.41883220390138681 0.058477634196973202 0 -0.40840220717331749 0.048304634434869917 0 -0.39985653820026013 0.060860810446949978 0 -0.42585725303016408 0.051510102087770737 0 -0.41883220390138681 0.058477634196973202 0 -0.42042490988599091 0.046091327469671317 0 -0.41883220390138681 0.058477634196973202 0 -0.40840220717331749 0.048304634434869917 0 -0.42042490988599091 0.046091327469671317 0 -0.41990433555607742 0.03061685230769556 0 -0.42532103781614489 0.037340924150209003 0 -0.4122967326089878 0.037821593301397609 0 -0.42532103781614489 0.037340924150209003 0 -0.42042490988599091 0.046091327469671317 0 -0.4122967326089878 0.037821593301397609 0 -0.40840220717331749 0.048304634434869917 0 -0.4122967326089878 0.037821593301397609 0 -0.40579981868685489 0.041495006097714962 0 -0.40840220717331749 0.048304634434869917 0 -0.42042490988599091 0.046091327469671317 0 -0.4122967326089878 0.037821593301397609 0 -0.4122967326089878 0.037821593301397609 0 -0.40278544391907911 0.034968452634622761 0 -0.40579981868685489 0.041495006097714962 0 -0.40667085762811028 0.029599890542676258 0 -0.4122967326089878 0.037821593301397609 0 -0.40278544391907911 0.034968452634622761 0 -0.40667085762811028 0.029599890542676258 0 -0.41990433555607742 0.03061685230769556 0 -0.4122967326089878 0.037821593301397609 0 -0.40667085762811028 0.029599890542676258 0 -0.40278544391907911 0.034968452634622761 0 -0.40667085762811028 0.029599890542676258 0 -0.38856614517843069 0.038175802748282091 0 -0.40667085762811028 0.029599890542676258 0 -0.38856614517843069 0.038175802748282091 0 -0.39127510487050182 0.027903964450529759 0 -0.40667085762811028 0.029599890542676258 0 -0.40278544391907911 0.034968452634622761 0 -0.38856614517843069 0.038175802748282091 0 -0.40278544391907911 0.034968452634622761 0 -0.40579981868685489 0.041495006097714962 0 -0.3977250587697031 0.045015474274426849 0 -0.40840220717331749 0.048304634434869917 0 -0.40579981868685489 0.041495006097714962 0 -0.3977250587697031 0.045015474274426849 0 -0.40278544391907911 0.034968452634622761 0 -0.3977250587697031 0.045015474274426849 0 -0.38856614517843069 0.038175802748282091 0 -0.40840220717331749 0.048304634434869917 0 -0.3977250587697031 0.045015474274426849 0 -0.39985653820026013 0.060860810446949978 0 -0.3977250587697031 0.045015474274426849 0 -0.39985653820026013 0.060860810446949978 0 -0.38472691017257071 0.052921849058569698 0 -0.39985653820026013 0.060860810446949978 0 -0.38472691017257071 0.052921849058569698 0 -0.38510762700538009 0.066428587654483159 0 -0.38472691017257071 0.052921849058569698 0 -0.37046143272875132 0.04675171495388801 0 -0.37000681959492809 0.05831264468359916 0 -0.38472691017257071 0.052921849058569698 0 -0.38510762700538009 0.066428587654483159 0 -0.37000681959492809 0.05831264468359916 0 -0.38856614517843069 0.038175802748282091 0 -0.37871402691879819 0.03757115751491092 0 -0.37046143272875132 0.04675171495388801 0 -0.38856614517843069 0.038175802748282091 0 -0.37046143272875132 0.04675171495388801 0 -0.38472691017257071 0.052921849058569698 0 -0.38856614517843069 0.038175802748282091 0 -0.37046143272875132 0.04675171495388801 0 -0.38856614517843069 0.038175802748282091 0 -0.38315308642314733 0.033917821982192238 0 -0.39127510487050182 0.027903964450529759 0 -0.38856614517843069 0.038175802748282091 0 -0.38315308642314733 0.033917821982192238 0 -0.37871402691879819 0.03757115751491092 0 -0.3977250587697031 0.045015474274426849 0 -0.38472691017257071 0.052921849058569698 0 -0.38856614517843069 0.038175802748282091 0 -0.37871402691879819 0.03757115751491092 0 -0.3764786745208083 0.032098692741998169 0 -0.37046143272875132 0.04675171495388801 0 -0.38315308642314733 0.033917821982192238 0 -0.3764786745208083 0.032098692741998169 0 -0.38155727091044611 0.028316364585127811 0 -0.38315308642314733 0.033917821982192238 0 -0.37871402691879819 0.03757115751491092 0 -0.3764786745208083 0.032098692741998169 0 -0.3764786745208083 0.032098692741998169 0 -0.38155727091044611 0.028316364585127811 0 -0.37960108001976323 0.022263106047543741 0 -0.37960108001976323 0.022263106047543741 0 -0.37998819155715241 0.0057865511937031933 0 -0.37123175334181557 0.027162262264614271 0 -0.3764786745208083 0.032098692741998169 0 -0.37960108001976323 0.022263106047543741 0 -0.37123175334181557 0.027162262264614271 0 -0.38155727091044611 0.028316364585127811 0 -0.38533699425949169 0.022674384769296389 0 -0.37960108001976323 0.022263106047543741 0 -0.38155727091044611 0.028316364585127811 0 -0.38533699425949169 0.022674384769296389 0 -0.39127510487050182 0.027903964450529759 0 -0.38315308642314733 0.033917821982192238 0 -0.38155727091044611 0.028316364585127811 0 -0.39127510487050182 0.027903964450529759 0 -0.39054146691731162 0.018060194648231769 0 -0.38533699425949169 0.022674384769296389 0 -0.39127510487050182 0.027903964450529759 0 -0.38533699425949169 0.022674384769296389 0 -0.3837100485794358 0.01682829411504885 0 -0.37960108001976323 0.022263106047543741 0 -0.39054146691731162 0.018060194648231769 0 -0.38533699425949169 0.022674384769296389 0 -0.3837100485794358 0.01682829411504885 0 -0.3837100485794358 0.01682829411504885 0 -0.37960108001976323 0.022263106047543741 0 -0.37998819155715241 0.0057865511937031933 0 -0.37998819155715241 0.0057865511937031933 0 -0.38683543611469601 0.0001369023841863784 0 -0.36064890389212972 0.0125435277679194 0 -0.37998819155715241 0.0057865511937031933 0 -0.38683543611469601 0.0001369023841863784 0 -0.38901012294298121 0.0062908016400105649 0 -0.38683543611469601 0.0001369023841863784 0 -0.38901012294298121 0.0062908016400105649 0 -0.39501457079486157 0.0055715078560810288 0 -0.37998819155715241 0.0057865511937031933 0 -0.38901012294298121 0.0062908016400105649 0 -0.38744744785130802 0.01185902438546781 0 -0.3837100485794358 0.01682829411504885 0 -0.37998819155715241 0.0057865511937031933 0 -0.38744744785130802 0.01185902438546781 0 -0.38901012294298121 0.0062908016400105649 0 -0.38744744785130802 0.01185902438546781 0 -0.39422738021243581 0.01127211946813913 0 -0.39054146691731162 0.018060194648231769 0 -0.3837100485794358 0.01682829411504885 0 -0.38744744785130802 0.01185902438546781 0 -0.39054146691731162 0.018060194648231769 0 -0.39422738021243581 0.01127211946813913 0 -0.39743955081534421 0.016339100765178138 0 -0.39054146691731162 0.018060194648231769 0 -0.38744744785130802 0.01185902438546781 0 -0.39422738021243581 0.01127211946813913 0 -0.39422738021243581 0.01127211946813913 0 -0.39501457079486157 0.0055715078560810288 0 -0.40262572535869262 0.0089097845909437267 0 -0.39422738021243581 0.01127211946813913 0 -0.40262572535869262 0.0089097845909437267 0 -0.39743955081534421 0.016339100765178138 0 -0.38683543611469601 0.0001369023841863784 0 -0.39501457079486157 0.0055715078560810288 0 -0.40226596945639398 0.0014711925349297271 0 -0.38901012294298121 0.0062908016400105649 0 -0.39422738021243581 0.01127211946813913 0 -0.39501457079486157 0.0055715078560810288 0 -0.41105156913745711 0.0034129409419674369 0 -0.40226596945639398 0.0014711925349297271 0 -0.40262572535869262 0.0089097845909437267 0 -0.39501457079486157 0.0055715078560810288 0 -0.40226596945639398 0.0014711925349297271 0 -0.40262572535869262 0.0089097845909437267 0 -0.40852807671777941 0.0155494406680463 0 -0.40262572535869262 0.0089097845909437267 0 -0.39743955081534421 0.016339100765178138 0 -0.40852807671777941 0.0155494406680463 0 -0.39127510487050182 0.027903964450529759 0 -0.40852807671777941 0.0155494406680463 0 -0.40667085762811028 0.029599890542676258 0 -0.39127510487050182 0.027903964450529759 0 -0.40852807671777941 0.0155494406680463 0 -0.39127510487050182 0.027903964450529759 0 -0.39743955081534421 0.016339100765178138 0 -0.39054146691731162 0.018060194648231769 0 -0.39127510487050182 0.027903964450529759 0 -0.39743955081534421 0.016339100765178138 0 -0.39792088922733271 0.1160922105611595 0 -0.40104213778508202 0.092866093853817611 0 -0.41467909406405851 0.1139188519362445 0 -0.39792088922733271 0.1160922105611595 0 -0.3782625711058698 0.101617738696854 0 -0.40104213778508202 0.092866093853817611 0 -0.3782625711058698 0.101617738696854 0 -0.38372255811484618 0.13025780258704611 0 -0.3782625711058698 0.101617738696854 0 -0.38372255811484618 0.13025780258704611 0 -0.36747352968705388 0.12273486311700831 0 -0.39792088922733271 0.1160922105611595 0 -0.3782625711058698 0.101617738696854 0 -0.38372255811484618 0.13025780258704611 0 -0.39792088922733271 0.1160922105611595 0 -0.3782625711058698 0.101617738696854 0 -0.3782625711058698 0.101617738696854 0 -0.40104213778508202 0.092866093853817611 0 -0.37470600383380392 0.082961959162170973 0 -0.39520328107527708 0.075997639864115257 0 -0.40104213778508202 0.092866093853817611 0 -0.37470600383380392 0.082961959162170973 0 -0.3782625711058698 0.101617738696854 0 -0.37470600383380392 0.082961959162170973 0 -0.40104213778508202 0.092866093853817611 0 -0.37470600383380392 0.082961959162170973 0 -0.38510762700538009 0.066428587654483159 0 -0.37000681959492809 0.05831264468359916 0 -0.37470600383380392 0.082961959162170973 0 -0.38510762700538009 0.066428587654483159 0 -0.39520328107527708 0.075997639864115257 0 -0.37470600383380392 0.082961959162170973 0 -0.39985653820026013 0.060860810446949978 0 -0.39520328107527708 0.075997639864115257 0 -0.41322693425173768 0.074694678089132868 0 -0.39985653820026013 0.060860810446949978 0 -0.38510762700538009 0.066428587654483159 0 -0.39520328107527708 0.075997639864115257 0 -0.39520328107527708 0.075997639864115257 0 -0.40104213778508202 0.092866093853817611 0 -0.41322693425173768 0.074694678089132868 0 -0.40104213778508202 0.092866093853817611 0 -0.41322693425173768 0.074694678089132868 0 -0.42957324029363853 0.085693113452461764 0 -0.41883220390138681 0.058477634196973202 0 -0.41322693425173768 0.074694678089132868 0 -0.43131469147834472 0.070632617455275076 0 -0.41883220390138681 0.058477634196973202 0 -0.39985653820026013 0.060860810446949978 0 -0.41322693425173768 0.074694678089132868 0 -0.43131469147834472 0.070632617455275076 0 -0.42957324029363853 0.085693113452461764 0 -0.4470315618909167 0.073148927984774167 0 -0.41322693425173768 0.074694678089132868 0 -0.43131469147834472 0.070632617455275076 0 -0.42957324029363853 0.085693113452461764 0 -0.44282721760043869 0.062046251170956107 0 -0.43188097302969042 0.056955122555226501 0 -0.43131469147834472 0.070632617455275076 0 -0.42957324029363853 0.085693113452461764 0 -0.42737827173636012 0.1027702285454639 0 -0.44343173260412461 0.097571970950778963 0 -0.40104213778508202 0.092866093853817611 0 -0.42737827173636012 0.1027702285454639 0 -0.41467909406405851 0.1139188519362445 0 -0.40104213778508202 0.092866093853817611 0 -0.42737827173636012 0.1027702285454639 0 -0.40104213778508202 0.092866093853817611 0 -0.42957324029363853 0.085693113452461764 0 -0.42737827173636012 0.1027702285454639 0 -0.39792088922733271 0.1160922105611595 0 -0.41467909406405851 0.1139188519362445 0 -0.417579207348795 0.13056668242546571 0 -0.39792088922733271 0.1160922105611595 0 -0.417579207348795 0.13056668242546571 0 -0.41467909406405851 0.1139188519362445 0 -0.42608096723388439 0.1205091241492761 0 -0.417579207348795 0.13056668242546571 0 -0.42737827173636012 0.1027702285454639 0 -0.41467909406405851 0.1139188519362445 0 -0.42608096723388439 0.1205091241492761 0 -0.42737827173636012 0.1027702285454639 0 -0.42608096723388439 0.1205091241492761 0 -0.43826405507869293 0.1195835460605416 0 -0.42608096723388439 0.1205091241492761 0 -0.43826405507869293 0.1195835460605416 0 -0.43293323699752101 0.1317554923945817 0 -0.43826405507869293 0.1195835460605416 0 -0.45371440568763749 0.1126743632371118 0 -0.44901593584904892 0.12912088192892021 0 -0.42737827173636012 0.1027702285454639 0 -0.43826405507869293 0.1195835460605416 0 -0.45371440568763749 0.1126743632371118 0 -0.4523882543875366 0.10983005993361 0 -0.45371440568763749 0.1126743632371118 0 -0.42737827173636012 0.1027702285454639 0 -0.4523882543875366 0.10983005993361 0 -0.44343173260412461 0.097571970950778963 0 -0.42737827173636012 0.1027702285454639 0 -0.4523882543875366 0.10983005993361 0 -0.45371440568763749 0.1126743632371118 0 -0.42737827173636012 0.1027702285454639 0 -0.45371440568763749 0.1126743632371118 0 -0.44343173260412461 0.097571970950778963 0 -0.45084974973894648 0.096020795281878568 0 -0.45306155814551219 0.1028275296158008 0 -0.44343173260412461 0.097571970950778963 0 -0.45084974973894648 0.096020795281878568 0 -0.44733932132275389 0.088290098875458828 0 -0.4523882543875366 0.10983005993361 0 -0.44343173260412461 0.097571970950778963 0 -0.45306155814551219 0.1028275296158008 0 -0.4523882543875366 0.10983005993361 0 -0.45306155814551219 0.1028275296158008 0 -0.45661100561120399 0.109540819014999 0 -0.45306155814551219 0.1028275296158008 0 -0.46084618436187341 0.10490351706993729 0 -0.45661100561120399 0.109540819014999 0 -0.45306155814551219 0.1028275296158008 0 -0.46084618436187341 0.10490351706993729 0 -0.45799439118323759 0.099220837031069903 0 -0.46084618436187341 0.10490351706993729 0 -0.4635407771028337 0.1124237257980706 0 -0.45661100561120399 0.109540819014999 0 -0.45799439118323759 0.099220837031069903 0 -0.46723244863383712 0.097971273043108306 0 -0.45594156200913483 0.091684632610025046 0 -0.45084974973894648 0.096020795281878568 0 -0.45799439118323759 0.099220837031069903 0 -0.45594156200913483 0.091684632610025046 0 -0.45084974973894648 0.096020795281878568 0 -0.45306155814551219 0.1028275296158008 0 -0.45799439118323759 0.099220837031069903 0 -0.46084618436187341 0.10490351706993729 0 -0.45799439118323759 0.099220837031069903 0 -0.46723244863383712 0.097971273043108306 0 -0.46084618436187341 0.10490351706993729 0 -0.46723244863383712 0.097971273043108306 0 -0.46686982756835349 0.1074114054382402 0 -0.46084618436187341 0.10490351706993729 0 -0.46686982756835349 0.1074114054382402 0 -0.4635407771028337 0.1124237257980706 0 -0.45371440568763749 0.1126743632371118 0 -0.46425598871103851 0.13528374379222011 0 -0.4635407771028337 0.1124237257980706 0 -0.45674497769142258 0.1138140594952527 0 -0.46958882025875243 0.12035793204680111 0 -0.46686982756835349 0.1074114054382402 0 -0.4635407771028337 0.1124237257980706 0 -0.47044075898603932 0.11380610730348489 0 -0.4635407771028337 0.1124237257980706 0 -0.46958882025875243 0.12035793204680111 0 -0.47044075898603932 0.11380610730348489 0 -0.45674497769142258 0.1138140594952527 0 -0.45371440568763749 0.1126743632371118 0 -0.46425598871103851 0.13528374379222011 0 -0.45674497769142258 0.1138140594952527 0 -0.46958882025875243 0.12035793204680111 0 -0.46425598871103851 0.13528374379222011 0 -0.4523882543875366 0.10983005993361 0 -0.45661100561120399 0.109540819014999 0 -0.45371440568763749 0.1126743632371118 0 -0.45674497769142258 0.1138140594952527 0 -0.45661100561120399 0.109540819014999 0 -0.45371440568763749 0.1126743632371118 0 -0.45674497769142258 0.1138140594952527 0 -0.45371440568763749 0.1126743632371118 0 -0.4635407771028337 0.1124237257980706 0 -0.45674497769142258 0.1138140594952527 0 -0.45661100561120399 0.109540819014999 0 -0.44282721760043869 0.062046251170956107 0 -0.4470315618909167 0.073148927984774167 0 -0.46103932749027238 0.064238871702306077 0 -0.44282721760043869 0.062046251170956107 0 -0.43131469147834472 0.070632617455275076 0 -0.4470315618909167 0.073148927984774167 0 -0.42957324029363853 0.085693113452461764 0 -0.44343173260412461 0.097571970950778963 0 -0.44733932132275389 0.088290098875458828 0 -0.42957324029363853 0.085693113452461764 0 -0.4470315618909167 0.073148927984774167 0 -0.44733932132275389 0.088290098875458828 0 -0.4470315618909167 0.073148927984774167 0 -0.44733932132275389 0.088290098875458828 0 -0.46047789149500767 0.082617330138573752 0 -0.45084974973894648 0.096020795281878568 0 -0.44733932132275389 0.088290098875458828 0 -0.45594156200913483 0.091684632610025046 0 -0.44733932132275389 0.088290098875458828 0 -0.45594156200913483 0.091684632610025046 0 -0.46047789149500767 0.082617330138573752 0 -0.46723244863383712 0.097971273043108306 0 -0.45594156200913483 0.091684632610025046 0 -0.46047789149500767 0.082617330138573752 0 -0.46047789149500767 0.082617330138573752 0 -0.46103932749027238 0.064238871702306077 0 -0.47920912086757578 0.083222027247413538 0 -0.4470315618909167 0.073148927984774167 0 -0.46047789149500767 0.082617330138573752 0 -0.46103932749027238 0.064238871702306077 0 -0.46103932749027238 0.064238871702306077 0 -0.48068047186290208 0.063626500276227002 0 -0.47920912086757578 0.083222027247413538 0 -0.46103932749027238 0.064238871702306077 0 -0.47920912086757578 0.083222027247413538 0 -0.46723244863383712 0.097971273043108306 0 -0.46047789149500767 0.082617330138573752 0 -0.47920912086757578 0.083222027247413538 0 -0.48068047186290208 0.063626500276227002 0 -0.47920912086757578 0.083222027247413538 0 -0.5 0.088432580532893601 0 -0.47920912086757578 0.083222027247413538 0 -0.49737891424487929 0.102205182792521 0 -0.47920912086757578 0.083222027247413538 0 -0.5 0.088432580532893601 0 -0.49737891424487929 0.102205182792521 0 -0.5 0.060034093897511798 0 -0.48068047186290208 0.063626500276227002 0 -0.5 0.088432580532893601 0 -0.47827810320487629 0.116675775998883 0 -0.48837893466537508 0.1117690854599766 0 -0.4842723158563047 0.1301441798928954 0 -0.47827810320487629 0.116675775998883 0 -0.47512549980118862 0.10796659812409699 0 -0.48837893466537508 0.1117690854599766 0 -0.47827810320487629 0.116675775998883 0 -0.46958882025875243 0.12035793204680111 0 -0.4842723158563047 0.1301441798928954 0 -0.47827810320487629 0.116675775998883 0 -0.47044075898603932 0.11380610730348489 0 -0.47512549980118862 0.10796659812409699 0 -0.46686982756835349 0.1074114054382402 0 -0.47044075898603932 0.11380610730348489 0 -0.47512549980118862 0.10796659812409699 0 -0.47827810320487629 0.116675775998883 0 -0.46958882025875243 0.12035793204680111 0 -0.47044075898603932 0.11380610730348489 0 -0.46723244863383712 0.097971273043108306 0 -0.47512549980118862 0.10796659812409699 0 -0.48162445158666772 0.1005823670901454 0 -0.46723244863383712 0.097971273043108306 0 -0.47920912086757578 0.083222027247413538 0 -0.48162445158666772 0.1005823670901454 0 -0.46723244863383712 0.097971273043108306 0 -0.46686982756835349 0.1074114054382402 0 -0.47512549980118862 0.10796659812409699 0 -0.47512549980118862 0.10796659812409699 0 -0.48162445158666772 0.1005823670901454 0 -0.48837893466537508 0.1117690854599766 0 -0.48162445158666772 0.1005823670901454 0 -0.49737891424487929 0.102205182792521 0 -0.48837893466537508 0.1117690854599766 0 -0.47920912086757578 0.083222027247413538 0 -0.48162445158666772 0.1005823670901454 0 -0.49737891424487929 0.102205182792521 0 -0.5 0.088432580532893601 0 -0.49737891424487929 0.102205182792521 0 -0.5 0.1168310671682755 0 -0.49737891424487929 0.102205182792521 0 -0.5 0.1168310671682755 0 -0.48837893466537508 0.1117690854599766 0 -0.5 0.1168310671682755 0 -0.48837893466537508 0.1117690854599766 0 -0.4842723158563047 0.1301441798928954 0 -0.5 0.1168310671682755 0 -0.4842723158563047 0.1301441798928954 0 -0.5 0.14522955380365729 0 -0.46958882025875243 0.12035793204680111 0 -0.4842723158563047 0.1301441798928954 0 -0.46425598871103851 0.13528374379222011 0 -0.4842723158563047 0.1301441798928954 0 -0.47479757173443998 0.15789312434732811 0 -0.46425598871103851 0.13528374379222011 0 -0.47479757173443998 0.15789312434732811 0 -0.46425598871103851 0.13528374379222011 0 -0.4842723158563047 0.1301441798928954 0 -0.5 0.14522955380365729 0 -0.47479757173443998 0.15789312434732811 0 -0.5 0.14522955380365729 0 -0.49999999999999972 0.17362804043903909 0 -0.47479757173443998 0.15789312434732811 0 -0.49999999999999972 0.17362804043903909 0 -0.47479757173443998 0.15789312434732811 0 -0.49999999999999972 0.17362804043903909 0 -0.49200992699072321 0.1743962810239672 0 -0.47479757173443998 0.15789312434732811 0 -0.48341269367675271 0.17637066895233999 0 -0.49170634683837577 0.1941587336203292 0 -0.49368671912131301 0.1828531969182482 0 -0.49999999999999972 0.17362804043903909 0 -0.5 0.19278741936367841 0 -0.49368671912131301 0.1828531969182482 0 -0.48341269367675271 0.17637066895233999 0 -0.49170634683837577 0.1941587336203292 0 -0.49368671912131301 0.1828531969182482 0 -0.49999999999999972 0.17362804043903909 0 -0.49200992699072321 0.1743962810239672 0 -0.49200992699072321 0.1743962810239672 0 -0.48341269367675271 0.17637066895233999 0 -0.49368671912131301 0.1828531969182482 0 -0.49200992699072321 0.1743962810239672 0 -0.48341269367675271 0.17637066895233999 0 -0.48341269367675271 0.17637066895233999 0 -0.45591042926964898 0.18268667049205081 0 -0.47274380268756999 0.19288508587190861 0 -0.48341269367675271 0.17637066895233999 0 -0.45591042926964898 0.18268667049205081 0 -0.49200992699072321 0.1743962810239672 0 -0.48341269367675271 0.17637066895233999 0 -0.47479757173443998 0.15789312434732811 0 -0.48341269367675271 0.17637066895233999 0 -0.47479757173443998 0.15789312434732811 0 -0.48341269367675271 0.17637066895233999 0 -0.47479757173443998 0.15789312434732811 0 -0.45723956394668003 0.16387676974864759 0 -0.48341269367675271 0.17637066895233999 0 -0.45723956394668003 0.16387676974864759 0 -0.45591042926964898 0.18268667049205081 0 -0.45591042926964898 0.18268667049205081 0 -0.43992511097516529 0.17411109905454999 0 -0.4284081648625454 0.1890026720317621 0 -0.45591042926964898 0.18268667049205081 0 -0.4284081648625454 0.1890026720317621 0 -0.45723956394668003 0.16387676974864759 0 -0.45591042926964898 0.18268667049205081 0 -0.43992511097516529 0.17411109905454999 0 -0.45723956394668003 0.16387676974864759 0 -0.43992511097516529 0.17411109905454999 0 -0.43892522612619872 0.15930650560997939 0 -0.43892522612619872 0.15930650560997939 0 -0.43796764784210812 0.14528805014891141 0 -0.45386540436598038 0.14482430837095511 0 -0.45723956394668003 0.16387676974864759 0 -0.43892522612619872 0.15930650560997939 0 -0.45386540436598038 0.14482430837095511 0 -0.45386540436598038 0.14482430837095511 0 -0.43293323699752101 0.1317554923945817 0 -0.43826405507869293 0.1195835460605416 0 -0.44901593584904892 0.12912088192892021 0 -0.43293323699752101 0.1317554923945817 0 -0.43796764784210812 0.14528805014891141 0 -0.45386540436598038 0.14482430837095511 0 -0.43293323699752101 0.1317554923945817 0 -0.44901593584904892 0.12912088192892021 0 -0.45386540436598038 0.14482430837095511 0 -0.43293323699752101 0.1317554923945817 0 -0.45371440568763749 0.1126743632371118 0 -0.44901593584904892 0.12912088192892021 0 -0.46425598871103851 0.13528374379222011 0 -0.44901593584904892 0.12912088192892021 0 -0.46425598871103851 0.13528374379222011 0 -0.45386540436598038 0.14482430837095511 0 -0.47479757173443998 0.15789312434732811 0 -0.45723956394668003 0.16387676974864759 0 -0.45386540436598038 0.14482430837095511 0 -0.47479757173443998 0.15789312434732811 0 -0.46425598871103851 0.13528374379222011 0 -0.45386540436598038 0.14482430837095511 0 -0.47479757173443998 0.15789312434732811 0 -0.45386540436598038 0.14482430837095511 0 -0.48226153920099157 0.23766317590200001 0 -0.47864167104372218 0.246590621409366 0 -0.48932095354102823 0.25454658797793611 0 -0.47315400564016008 0.2364435414805684 0 -0.47864167104372218 0.246590621409366 0 -0.46938038244821267 0.25133041049185839 0 -0.47315400564016008 0.2364435414805684 0 -0.48226153920099157 0.23766317590200001 0 -0.47864167104372218 0.246590621409366 0 -0.49106398183666961 0.22759324404760359 0 -0.48932095354102823 0.25454658797793611 0 -0.5 0.23810140997737081 0 -0.49106398183666961 0.22759324404760359 0 -0.48932095354102823 0.25454658797793611 0 -0.48226153920099157 0.23766317590200001 0 -0.49106398183666961 0.22759324404760359 0 -0.48932095354102823 0.25454658797793611 0 -0.5 0.23810140997737081 0 -0.49106398183666961 0.22759324404760359 0 -0.50000000000000022 0.21194679828831781 0 -0.49106398183666961 0.22759324404760359 0 -0.47912708394337772 0.2231418845945258 0 -0.48726644121087642 0.21298690825741631 0 -0.48226153920099157 0.23766317590200001 0 -0.49106398183666961 0.22759324404760359 0 -0.47912708394337772 0.2231418845945258 0 -0.47315400564016008 0.2364435414805684 0 -0.48226153920099157 0.23766317590200001 0 -0.47912708394337772 0.2231418845945258 0 -0.47315400564016008 0.2364435414805684 0 -0.47912708394337772 0.2231418845945258 0 -0.46764368341616458 0.22415830119077751 0 -0.47912708394337772 0.2231418845945258 0 -0.47360767850491831 0.20951316246361981 0 -0.46764368341616458 0.22415830119077751 0 -0.47360767850491831 0.20951316246361981 0 -0.48726644121087642 0.21298690825741631 0 -0.49170634683837577 0.1941587336203292 0 -0.47912708394337772 0.2231418845945258 0 -0.47360767850491831 0.20951316246361981 0 -0.48726644121087642 0.21298690825741631 0 -0.49106398183666961 0.22759324404760359 0 -0.50000000000000022 0.21194679828831781 0 -0.48726644121087642 0.21298690825741631 0 -0.50000000000000022 0.21194679828831781 0 -0.48726644121087642 0.21298690825741631 0 -0.49170634683837577 0.1941587336203292 0 -0.50000000000000022 0.21194679828831781 0 -0.49170634683837577 0.1941587336203292 0 -0.50000000000000022 0.21194679828831781 0 -0.5 0.19278741936367841 0 -0.49170634683837577 0.1941587336203292 0 -0.49368671912131301 0.1828531969182482 0 -0.5 0.19278741936367841 0 -0.49170634683837577 0.1941587336203292 0 -0.48341269367675271 0.17637066895233999 0 -0.49170634683837577 0.1941587336203292 0 -0.47274380268756999 0.19288508587190861 0 -0.47360767850491831 0.20951316246361981 0 -0.49170634683837577 0.1941587336203292 0 -0.47274380268756999 0.19288508587190861 0 -0.47360767850491831 0.20951316246361981 0 -0.47274380268756999 0.19288508587190861 0 -0.45820261548712909 0.20353130823034371 0 -0.45591042926964898 0.18268667049205081 0 -0.47274380268756999 0.19288508587190861 0 -0.45820261548712909 0.20353130823034371 0 -0.45591042926964898 0.18268667049205081 0 -0.43516662619925378 0.20614333559983469 0 -0.4284081648625454 0.1890026720317621 0 -0.45591042926964898 0.18268667049205081 0 -0.45820261548712909 0.20353130823034371 0 -0.43516662619925378 0.20614333559983469 0 -0.44192508753596349 0.22328399916790689 0 -0.43516662619925378 0.20614333559983469 0 -0.45032248765871591 0.2151961798839368 0 -0.44192508753596349 0.22328399916790689 0 -0.43516662619925378 0.20614333559983469 0 -0.45032248765871591 0.2151961798839368 0 -0.45820261548712909 0.20353130823034371 0 -0.43516662619925378 0.20614333559983469 0 -0.45032248765871591 0.2151961798839368 0 -0.46109406183397039 0.21551848415653921 0 -0.45620465585954723 0.2251951411450015 0 -0.45032248765871591 0.2151961798839368 0 -0.45820261548712909 0.20353130823034371 0 -0.46109406183397039 0.21551848415653921 0 -0.47360767850491831 0.20951316246361981 0 -0.45820261548712909 0.20353130823034371 0 -0.46109406183397039 0.21551848415653921 0 -0.47360767850491831 0.20951316246361981 0 -0.46109406183397039 0.21551848415653921 0 -0.46764368341616458 0.22415830119077751 0 -0.47315400564016008 0.2364435414805684 0 -0.46764368341616458 0.22415830119077751 0 -0.45925329591452863 0.2407771106774913 0 -0.46764368341616458 0.22415830119077751 0 -0.45620465585954723 0.2251951411450015 0 -0.45925329591452863 0.2407771106774913 0 -0.46109406183397039 0.21551848415653921 0 -0.46764368341616458 0.22415830119077751 0 -0.45620465585954723 0.2251951411450015 0 -0.45032248765871591 0.2151961798839368 0 -0.45620465585954723 0.2251951411450015 0 -0.44192508753596349 0.22328399916790689 0 -0.44192508753596349 0.22328399916790689 0 -0.44062222049055039 0.24203477259657111 0 -0.43146145522804691 0.2313120115293863 0 -0.45620465585954723 0.2251951411450015 0 -0.44062222049055039 0.24203477259657111 0 -0.45620465585954723 0.2251951411450015 0 -0.44192508753596349 0.22328399916790689 0 -0.44062222049055039 0.24203477259657111 0 -0.44062222049055039 0.24203477259657111 0 -0.45046339488490522 0.249057113070103 0 -0.44442574262614493 0.25832327296872359 0 -0.44062222049055039 0.24203477259657111 0 -0.45046339488490522 0.249057113070103 0 -0.45925329591452863 0.2407771106774913 0 -0.45620465585954723 0.2251951411450015 0 -0.44062222049055039 0.24203477259657111 0 -0.45925329591452863 0.2407771106774913 0 -0.45046339488490522 0.249057113070103 0 -0.45925329591452863 0.2407771106774913 0 -0.45807104112411212 0.25534721177055669 0 -0.45925329591452863 0.2407771106774913 0 -0.46938038244821267 0.25133041049185839 0 -0.45807104112411212 0.25534721177055669 0 -0.47315400564016008 0.2364435414805684 0 -0.45925329591452863 0.2407771106774913 0 -0.46938038244821267 0.25133041049185839 0 -0.4198454647722451 0.23985190764030939 0 -0.40081965837488509 0.24074316727492401 0 -0.40585136056822319 0.25674789398696107 0 -0.4198454647722451 0.23985190764030939 0 -0.405480724964072 0.22581663549259839 0 -0.40081965837488509 0.24074316727492401 0 -0.44062222049055039 0.24203477259657111 0 -0.4198454647722451 0.23985190764030939 0 -0.42503978512155383 0.25887440404814072 0 -0.44062222049055039 0.24203477259657111 0 -0.4198454647722451 0.23985190764030939 0 -0.43146145522804691 0.2313120115293863 0 -0.4198454647722451 0.23985190764030939 0 -0.43146145522804691 0.2313120115293863 0 -0.42370673975344808 0.22056464269113771 0 -0.44192508753596349 0.22328399916790689 0 -0.43146145522804691 0.2313120115293863 0 -0.42370673975344808 0.22056464269113771 0 -0.4198454647722451 0.23985190764030939 0 -0.42370673975344808 0.22056464269113771 0 -0.405480724964072 0.22581663549259839 0 -0.42370673975344808 0.22056464269113771 0 -0.40708390191205951 0.20882890034131879 0 -0.405480724964072 0.22581663549259839 0 -0.42370673975344808 0.22056464269113771 0 -0.40708390191205951 0.20882890034131879 0 -0.42107335870595469 0.2022269477122331 0 -0.44192508753596349 0.22328399916790689 0 -0.42370673975344808 0.22056464269113771 0 -0.43516662619925378 0.20614333559983469 0 -0.42370673975344808 0.22056464269113771 0 -0.43516662619925378 0.20614333559983469 0 -0.42107335870595469 0.2022269477122331 0 -0.43516662619925378 0.20614333559983469 0 -0.4284081648625454 0.1890026720317621 0 -0.42107335870595469 0.2022269477122331 0 -0.43516662619925378 0.20614333559983469 0 -0.4284081648625454 0.1890026720317621 0 -0.4284081648625454 0.1890026720317621 0 -0.40915969581062839 0.19342315750049971 0 -0.4284081648625454 0.1890026720317621 0 -0.42107335870595469 0.2022269477122331 0 -0.40915969581062839 0.19342315750049971 0 -0.40708390191205951 0.20882890034131879 0 -0.42107335870595469 0.2022269477122331 0 -0.40915969581062839 0.19342315750049971 0 -0.40708390191205951 0.20882890034131879 0 -0.40915969581062839 0.19342315750049971 0 -0.38991122675871148 0.19784364296923759 0 -0.40915969581062839 0.19342315750049971 0 -0.38991122675871148 0.19784364296923759 0 -0.40915969581062839 0.19342315750049971 0 -0.38991122675871148 0.19784364296923759 0 -0.39569501158598158 0.17813944679546001 0 -0.39158905321283283 0.2136173787495643 0 -0.38435338999826391 0.22831720607051781 0 -0.36414166766971379 0.2074649771098355 0 -0.38991122675871148 0.19784364296923759 0 -0.39158905321283283 0.2136173787495643 0 -0.36414166766971379 0.2074649771098355 0 -0.40708390191205951 0.20882890034131879 0 -0.39158905321283283 0.2136173787495643 0 -0.405480724964072 0.22581663549259839 0 -0.40708390191205951 0.20882890034131879 0 -0.38991122675871148 0.19784364296923759 0 -0.39158905321283283 0.2136173787495643 0 -0.405480724964072 0.22581663549259839 0 -0.38435338999826391 0.22831720607051781 0 -0.40081965837488509 0.24074316727492401 0 -0.39158905321283283 0.2136173787495643 0 -0.405480724964072 0.22581663549259839 0 -0.38435338999826391 0.22831720607051781 0 -0.37619177155740557 0.24036243622333081 0 -0.38790582398472923 0.24962922847932231 0 -0.36318679658289171 0.25196182354824148 0 -0.38435338999826391 0.22831720607051781 0 -0.37619177155740557 0.24036243622333081 0 -0.38790582398472923 0.24962922847932231 0 -0.38435338999826391 0.22831720607051781 0 -0.38790582398472923 0.24962922847932231 0 -0.40081965837488509 0.24074316727492401 0 -0.38790582398472923 0.24962922847932231 0 -0.40081965837488509 0.24074316727492401 0 -0.40585136056822319 0.25674789398696107 0 -0.40926453963391513 0.14045102348790381 0 -0.42614672387873248 0.14526589422012931 0 -0.41883635224822963 0.16472684775983329 0 -0.40926453963391513 0.14045102348790381 0 -0.41883635224822963 0.16472684775983329 0 -0.40926453963391513 0.14045102348790381 0 -0.41883635224822963 0.16472684775983329 0 -0.40029434983296169 0.15790366282291429 0 -0.40926453963391513 0.14045102348790381 0 -0.417579207348795 0.13056668242546571 0 -0.40026410281127539 0.13237877311027449 0 -0.40926453963391513 0.14045102348790381 0 -0.417579207348795 0.13056668242546571 0 -0.42614672387873248 0.14526589422012931 0 -0.417579207348795 0.13056668242546571 0 -0.43293323699752101 0.1317554923945817 0 -0.42614672387873248 0.14526589422012931 0 -0.42608096723388439 0.1205091241492761 0 -0.417579207348795 0.13056668242546571 0 -0.43293323699752101 0.1317554923945817 0 -0.43796764784210812 0.14528805014891141 0 -0.43293323699752101 0.1317554923945817 0 -0.42614672387873248 0.14526589422012931 0 -0.43892522612619872 0.15930650560997939 0 -0.43796764784210812 0.14528805014891141 0 -0.42614672387873248 0.14526589422012931 0 -0.43892522612619872 0.15930650560997939 0 -0.42614672387873248 0.14526589422012931 0 -0.41883635224822963 0.16472684775983329 0 -0.43992511097516529 0.17411109905454999 0 -0.43892522612619872 0.15930650560997939 0 -0.41883635224822963 0.16472684775983329 0 -0.4284081648625454 0.1890026720317621 0 -0.41883635224822963 0.16472684775983329 0 -0.43992511097516529 0.17411109905454999 0 -0.4284081648625454 0.1890026720317621 0 -0.41883635224822963 0.16472684775983329 0 -0.40915969581062839 0.19342315750049971 0 -0.41883635224822963 0.16472684775983329 0 -0.39569501158598158 0.17813944679546001 0 -0.4284081648625454 0.1890026720317621 0 -0.40915969581062839 0.19342315750049971 0 -0.41883635224822963 0.16472684775983329 0 -0.40029434983296169 0.15790366282291429 0 -0.39569501158598158 0.17813944679546001 0 -0.38484252596519369 0.16167484958157691 0 -0.41883635224822963 0.16472684775983329 0 -0.40029434983296169 0.15790366282291429 0 -0.39569501158598158 0.17813944679546001 0 -0.39569501158598158 0.17813944679546001 0 -0.38484252596519369 0.16167484958157691 0 -0.36525228834216061 0.17922160577889321 0 -0.38991122675871148 0.19784364296923759 0 -0.39569501158598158 0.17813944679546001 0 -0.36525228834216061 0.17922160577889321 0 -0.39283331973148827 0.14452614648979731 0 -0.38372255811484618 0.13025780258704611 0 -0.36636290901460722 0.1509782344479508 0 -0.38484252596519369 0.16167484958157691 0 -0.39283331973148827 0.14452614648979731 0 -0.36636290901460722 0.1509782344479508 0 -0.40029434983296169 0.15790366282291429 0 -0.38484252596519369 0.16167484958157691 0 -0.39283331973148827 0.14452614648979731 0 -0.40926453963391513 0.14045102348790381 0 -0.40029434983296169 0.15790366282291429 0 -0.39283331973148827 0.14452614648979731 0 -0.39283331973148827 0.14452614648979731 0 -0.40026410281127539 0.13237877311027449 0 -0.38372255811484618 0.13025780258704611 0 -0.39792088922733271 0.1160922105611595 0 -0.417579207348795 0.13056668242546571 0 -0.40026410281127539 0.13237877311027449 0 -0.39792088922733271 0.1160922105611595 0 -0.40026410281127539 0.13237877311027449 0 -0.38372255811484618 0.13025780258704611 0 -0.40926453963391513 0.14045102348790381 0 -0.39283331973148827 0.14452614648979731 0 -0.40026410281127539 0.13237877311027449 0 -0.38372255811484618 0.13025780258704611 0 -0.36636290901460722 0.1509782344479508 0 -0.36747352968705388 0.12273486311700831 0 -0.36636290901460722 0.1509782344479508 0 -0.36747352968705388 0.12273486311700831 0 -0.35528769071996391 0.12689780186549679 0 -0.36636290901460722 0.1509782344479508 0 -0.36747352968705388 0.12273486311700831 0 -0.35528769071996391 0.12689780186549679 0 -0.33512599087492562 0.1447950320020088 0 -0.35528769071996391 0.12689780186549679 0 -0.35168351666373848 0.14314256241625531 0 -0.33512599087492562 0.1447950320020088 0 -0.35528769071996391 0.12689780186549679 0 -0.33512599087492562 0.1447950320020088 0 -0.34115039425197219 0.12498493974687711 0 -0.35528769071996391 0.12689780186549679 0 -0.35168351666373848 0.14314256241625531 0 -0.36636290901460722 0.1509782344479508 0 -0.35168351666373848 0.14314256241625531 0 -0.36636290901460722 0.1509782344479508 0 -0.34333519974196419 0.16612441953572921 0 -0.38484252596519369 0.16167484958157691 0 -0.36636290901460722 0.1509782344479508 0 -0.36525228834216061 0.17922160577889321 0 -0.36636290901460722 0.1509782344479508 0 -0.36525228834216061 0.17922160577889321 0 -0.36525228834216061 0.17922160577889321 0 -0.34333519974196419 0.16612441953572921 0 -0.34654591437965571 0.19533490523866279 0 -0.36636290901460722 0.1509782344479508 0 -0.36525228834216061 0.17922160577889321 0 -0.34333519974196419 0.16612441953572921 0 -0.34333519974196419 0.16612441953572921 0 -0.31496429102988749 0.16269226213852109 0 -0.33512599087492562 0.1447950320020088 0 -0.34333519974196419 0.16612441953572921 0 -0.34654591437965571 0.19533490523866279 0 -0.32412519241006588 0.1878495682783011 0 -0.31496429102988749 0.16269226213852109 0 -0.32412519241006588 0.1878495682783011 0 -0.34333519974196419 0.16612441953572921 0 -0.31496429102988749 0.16269226213852109 0 -0.32412519241006588 0.1878495682783011 0 -0.31303823693556859 0.17707572181323081 0 -0.31496429102988749 0.16269226213852109 0 -0.32412519241006588 0.1878495682783011 0 -0.31303823693556859 0.17707572181323081 0 -0.32412519241006588 0.1878495682783011 0 -0.3108046026399135 0.18379038091696129 0 -0.31496429102988749 0.16269226213852109 0 -0.31353256245119709 0.1587605055712967 0 -0.31354631638020197 0.13395604467094269 0 -0.33512599087492562 0.1447950320020088 0 -0.3122891553291075 0.14635758184588041 0 -0.31353256245119709 0.1587605055712967 0 -0.33512599087492562 0.1447950320020088 0 -0.3122891553291075 0.14635758184588041 0 -0.31496429102988749 0.16269226213852109 0 -0.31353256245119709 0.1587605055712967 0 -0.33512599087492562 0.1447950320020088 0 -0.31496429102988749 0.16269226213852109 0 -0.33512599087492562 0.1447950320020088 0 -0.31354631638020197 0.13395604467094269 0 -0.32917568526667751 0.12578156900391591 0 -0.33512599087492562 0.1447950320020088 0 -0.31354631638020197 0.13395604467094269 0 -0.32917568526667751 0.12578156900391591 0 -0.32114709127587232 0.11611322513389059 0 -0.32917568526667751 0.12578156900391591 0 -0.33512599087492562 0.1447950320020088 0 -0.34115039425197219 0.12498493974687711 0 -0.35168351666373848 0.14314256241625531 0 -0.34333519974196419 0.16612441953572921 0 -0.33512599087492562 0.1447950320020088 0 -0.36303104699726713 0.23570834844077809 0 -0.34244699517042121 0.23816418055786151 0 -0.36318679658289171 0.25196182354824148 0 -0.34244699517042121 0.23816418055786151 0 -0.36318679658289171 0.25196182354824148 0 -0.33952374355129727 0.25899057541505788 0 -0.37619177155740557 0.24036243622333081 0 -0.36303104699726713 0.23570834844077809 0 -0.36318679658289171 0.25196182354824148 0 -0.38435338999826391 0.22831720607051781 0 -0.37619177155740557 0.24036243622333081 0 -0.36303104699726713 0.23570834844077809 0 -0.38435338999826391 0.22831720607051781 0 -0.36303104699726713 0.23570834844077809 0 -0.36414166766971379 0.2074649771098355 0 -0.36303104699726713 0.23570834844077809 0 -0.36414166766971379 0.2074649771098355 0 -0.36303104699726713 0.23570834844077809 0 -0.35084793517488477 0.2210857468323085 0 -0.34244699517042121 0.23816418055786151 0 -0.36303104699726713 0.23570834844077809 0 -0.35084793517488477 0.2210857468323085 0 -0.36414166766971379 0.2074649771098355 0 -0.35084793517488477 0.2210857468323085 0 -0.36414166766971379 0.2074649771098355 0 -0.34654591437965571 0.19533490523866279 0 -0.36525228834216061 0.17922160577889321 0 -0.36414166766971379 0.2074649771098355 0 -0.38991122675871148 0.19784364296923759 0 -0.36525228834216061 0.17922160577889321 0 -0.36414166766971379 0.2074649771098355 0 -0.36525228834216061 0.17922160577889321 0 -0.36414166766971379 0.2074649771098355 0 -0.34654591437965571 0.19533490523866279 0 -0.32412519241006588 0.1878495682783011 0 -0.33328609379024349 0.2130068744180813 0 -0.34654591437965571 0.19533490523866279 0 -0.32412519241006588 0.1878495682783011 0 -0.33328609379024349 0.2130068744180813 0 -0.32412519241006588 0.1878495682783011 0 -0.33328609379024349 0.2130068744180813 0 -0.31080006153106382 0.20197173666100501 0 -0.32412519241006588 0.1878495682783011 0 -0.31080006153106382 0.20197173666100501 0 -0.3108046026399135 0.18379038091696129 0 -0.33328609379024349 0.2130068744180813 0 -0.31873218963182409 0.22654972870499029 0 -0.31080006153106382 0.20197173666100501 0 -0.35084793517488477 0.2210857468323085 0 -0.34654591437965571 0.19533490523866279 0 -0.33328609379024349 0.2130068744180813 0 -0.35084793517488477 0.2210857468323085 0 -0.33328609379024349 0.2130068744180813 0 -0.34244699517042121 0.23816418055786151 0 -0.33328609379024349 0.2130068744180813 0 -0.34244699517042121 0.23816418055786151 0 -0.33328609379024349 0.2130068744180813 0 -0.31873218963182409 0.22654972870499029 0 -0.34244699517042121 0.23816418055786151 0 -0.31873218963182409 0.22654972870499029 0 -0.32200613725511351 0.24850726385495631 0 -0.34244699517042121 0.23816418055786151 0 -0.31873218963182409 0.22654972870499029 0 -0.32200613725511351 0.24850726385495631 0 -0.30672251365844311 0.23743048015470111 0 -0.32200613725511351 0.24850726385495631 0 -0.34244699517042121 0.23816418055786151 0 -0.33952374355129727 0.25899057541505788 0 -0.29125564533142001 0.24067530578368901 0 -0.30672251365844311 0.23743048015470111 0 -0.30640548876467488 0.25787073169030861 0 -0.32200613725511351 0.24850726385495631 0 -0.30672251365844311 0.23743048015470111 0 -0.30640548876467488 0.25787073169030861 0 -0.29125564533142001 0.24067530578368901 0 -0.30672251365844311 0.23743048015470111 0 -0.29521310730918271 0.21354937073956171 0 -0.31873218963182409 0.22654972870499029 0 -0.30672251365844311 0.23743048015470111 0 -0.29521310730918271 0.21354937073956171 0 -0.29125564533142001 0.24067530578368901 0 -0.29521310730918271 0.21354937073956171 0 -0.29125564533142001 0.24067530578368901 0 -0.29521310730918271 0.21354937073956171 0 -0.27258595833473342 0.22149207507906341 0 -0.29521310730918271 0.21354937073956171 0 -0.28878760701375322 0.1984352968903606 0 -0.27490594785389072 0.20112241201531189 0 -0.31873218963182409 0.22654972870499029 0 -0.29521310730918271 0.21354937073956171 0 -0.31080006153106382 0.20197173666100501 0 -0.29521310730918271 0.21354937073956171 0 -0.29917056928694541 0.1864234356954344 0 -0.29521310730918271 0.21354937073956171 0 -0.31080006153106382 0.20197173666100501 0 -0.29917056928694541 0.1864234356954344 0 -0.31080006153106382 0.20197173666100501 0 -0.3108046026399135 0.18379038091696129 0 -0.29917056928694541 0.1864234356954344 0 -0.28878760701375322 0.1984352968903606 0 -0.29917056928694541 0.1864234356954344 0 -0.28955343229492791 0.1852490896997587 0 -0.29521310730918271 0.21354937073956171 0 -0.28878760701375322 0.1984352968903606 0 -0.29917056928694541 0.1864234356954344 0 -0.28878760701375322 0.1984352968903606 0 -0.27938784373491388 0.18917199981814359 0 -0.28955343229492791 0.1852490896997587 0 -0.27938784373491388 0.18917199981814359 0 -0.27490594785389072 0.20112241201531189 0 -0.26439180367967152 0.18225540552070321 0 -0.28878760701375322 0.1984352968903606 0 -0.27938784373491388 0.18917199981814359 0 -0.27490594785389072 0.20112241201531189 0 -0.27490594785389072 0.20112241201531189 0 -0.25370102580463139 0.2052288024824625 0 -0.26439180367967152 0.18225540552070321 0 -0.25370102580463139 0.2052288024824625 0 -0.26439180367967152 0.18225540552070321 0 -0.23359887481107691 0.1809086922627815 0 -0.27490594785389072 0.20112241201531189 0 -0.25370102580463139 0.2052288024824625 0 -0.27258595833473342 0.22149207507906341 0 -0.29521310730918271 0.21354937073956171 0 -0.27490594785389072 0.20112241201531189 0 -0.27258595833473342 0.22149207507906341 0 -0.29125564533142001 0.24067530578368901 0 -0.27258595833473342 0.22149207507906341 0 -0.26834113505385238 0.23837358332174549 0 -0.27258595833473342 0.22149207507906341 0 -0.25272375818517617 0.22994970808158929 0 -0.26834113505385238 0.23837358332174549 0 -0.25370102580463139 0.2052288024824625 0 -0.27258595833473342 0.22149207507906341 0 -0.25272375818517617 0.22994970808158929 0 -0.25272375818517617 0.22994970808158929 0 -0.25621817608628389 0.2460965770837312 0 -0.26834113505385238 0.23837358332174549 0 -0.25621817608628389 0.2460965770837312 0 -0.26834113505385238 0.23837358332174549 0 -0.26892213733164849 0.25365425058065472 0 -0.29125564533142001 0.24067530578368901 0 -0.26834113505385238 0.23837358332174549 0 -0.26892213733164849 0.25365425058065472 0 -0.29370567785695612 0.15770531643225719 0 -0.28412418886142132 0.16518528890623771 0 -0.28065913062351988 0.14575155473079041 0 -0.30159211447790629 0.14759241864651959 0 -0.29370567785695612 0.15770531643225719 0 -0.28065913062351988 0.14575155473079041 0 -0.29682817834931757 0.13068013418198679 0 -0.30159211447790629 0.14759241864651959 0 -0.28065913062351988 0.14575155473079041 0 -0.29682817834931757 0.13068013418198679 0 -0.28065913062351988 0.14575155473079041 0 -0.28285123447775751 0.1183560919224374 0 -0.31354631638020197 0.13395604467094269 0 -0.29682817834931757 0.13068013418198679 0 -0.30159211447790629 0.14759241864651959 0 -0.31354631638020197 0.13395604467094269 0 -0.3122891553291075 0.14635758184588041 0 -0.30159211447790629 0.14759241864651959 0 -0.31353256245119709 0.1587605055712967 0 -0.3122891553291075 0.14635758184588041 0 -0.30159211447790629 0.14759241864651959 0 -0.31496429102988749 0.16269226213852109 0 -0.31353256245119709 0.1587605055712967 0 -0.30488677357152572 0.1641353808659653 0 -0.30159211447790629 0.14759241864651959 0 -0.30488677357152572 0.1641353808659653 0 -0.29370567785695612 0.15770531643225719 0 -0.31353256245119709 0.1587605055712967 0 -0.30159211447790629 0.14759241864651959 0 -0.30488677357152572 0.1641353808659653 0 -0.31496429102988749 0.16269226213852109 0 -0.30225886166240762 0.17397067591913981 0 -0.31303823693556859 0.17707572181323081 0 -0.31496429102988749 0.16269226213852109 0 -0.30225886166240762 0.17397067591913981 0 -0.31496429102988749 0.16269226213852109 0 -0.30488677357152572 0.1641353808659653 0 -0.30225886166240762 0.17397067591913981 0 -0.30488677357152572 0.1641353808659653 0 -0.30225886166240762 0.17397067591913981 0 -0.29597535979189887 0.1670989905046398 0 -0.30488677357152572 0.1641353808659653 0 -0.29370567785695612 0.15770531643225719 0 -0.29597535979189887 0.1670989905046398 0 -0.31303823693556859 0.17707572181323081 0 -0.3108046026399135 0.18379038091696129 0 -0.30225886166240762 0.17397067591913981 0 -0.30225886166240762 0.17397067591913981 0 -0.29917056928694541 0.1864234356954344 0 -0.28955343229492791 0.1852490896997587 0 -0.3108046026399135 0.18379038091696129 0 -0.30225886166240762 0.17397067591913981 0 -0.29917056928694541 0.1864234356954344 0 -0.30225886166240762 0.17397067591913981 0 -0.28955343229492791 0.1852490896997587 0 -0.30225886166240762 0.17397067591913981 0 -0.28955343229492791 0.1852490896997587 0 -0.29024545837739651 0.173916500811098 0 -0.28955343229492791 0.1852490896997587 0 -0.29024545837739651 0.173916500811098 0 -0.27889874324695868 0.17762520371433099 0 -0.29024545837739651 0.173916500811098 0 -0.28412418886142132 0.16518528890623771 0 -0.27889874324695868 0.17762520371433099 0 -0.27938784373491388 0.18917199981814359 0 -0.28955343229492791 0.1852490896997587 0 -0.27889874324695868 0.17762520371433099 0 -0.29370567785695612 0.15770531643225719 0 -0.29597535979189887 0.1670989905046398 0 -0.28412418886142132 0.16518528890623771 0 -0.30225886166240762 0.17397067591913981 0 -0.29024545837739651 0.173916500811098 0 -0.29597535979189887 0.1670989905046398 0 -0.29024545837739651 0.173916500811098 0 -0.29597535979189887 0.1670989905046398 0 -0.28412418886142132 0.16518528890623771 0 -0.28412418886142132 0.16518528890623771 0 -0.26844272787379447 0.16268744982768751 0 -0.27889874324695868 0.17762520371433099 0 -0.28412418886142132 0.16518528890623771 0 -0.26844272787379447 0.16268744982768751 0 -0.28065913062351988 0.14575155473079041 0 -0.26844272787379447 0.16268744982768751 0 -0.27889874324695868 0.17762520371433099 0 -0.26439180367967152 0.18225540552070321 0 -0.27938784373491388 0.18917199981814359 0 -0.27889874324695868 0.17762520371433099 0 -0.26439180367967152 0.18225540552070321 0 -0.26844272787379447 0.16268744982768751 0 -0.26439180367967152 0.18225540552070321 0 -0.247018622616726 0.15992587597476091 0 -0.26844272787379447 0.16268744982768751 0 -0.25846103874104392 0.14702121199507179 0 -0.247018622616726 0.15992587597476091 0 -0.26844272787379447 0.16268744982768751 0 -0.25846103874104392 0.14702121199507179 0 -0.28065913062351988 0.14575155473079041 0 -0.25846103874104392 0.14702121199507179 0 -0.28065913062351988 0.14575155473079041 0 -0.25922316449870308 0.12628093809151891 0 -0.28065913062351988 0.14575155473079041 0 -0.25922316449870308 0.12628093809151891 0 -0.28285123447775751 0.1183560919224374 0 -0.25846103874104392 0.14702121199507179 0 -0.25922316449870308 0.12628093809151891 0 -0.2369615480924761 0.1404602413506009 0 -0.25922316449870308 0.12628093809151891 0 -0.25136603029008331 0.1103208693098497 0 -0.26687835675477128 0.1014348965859585 0 -0.25136603029008331 0.1103208693098497 0 -0.26687835675477128 0.1014348965859585 0 -0.24377998071086901 0.096378574065869249 0 -0.26687835675477128 0.1014348965859585 0 -0.28737892951993471 0.098967158637655914 0 -0.27569457229827071 0.081243623470509244 0 -0.26687835675477128 0.1014348965859585 0 -0.28285123447775751 0.1183560919224374 0 -0.28737892951993471 0.098967158637655914 0 -0.25922316449870308 0.12628093809151891 0 -0.26687835675477128 0.1014348965859585 0 -0.28285123447775751 0.1183560919224374 0 -0.29682817834931757 0.13068013418198679 0 -0.28285123447775751 0.1183560919224374 0 -0.30549209578720232 0.10774456093924389 0 -0.28285123447775751 0.1183560919224374 0 -0.28737892951993471 0.098967158637655914 0 -0.30549209578720232 0.10774456093924389 0 -0.28737892951993471 0.098967158637655914 0 -0.30549209578720232 0.10774456093924389 0 -0.29743787519420251 0.08153307720754506 0 -0.30549209578720232 0.10774456093924389 0 -0.29743787519420251 0.08153307720754506 0 -0.31354631638020197 0.13395604467094269 0 -0.29682817834931757 0.13068013418198679 0 -0.30549209578720232 0.10774456093924389 0 -0.31354631638020197 0.13395604467094269 0 -0.30549209578720232 0.10774456093924389 0 -0.29926204670725021 0.066629363318123747 0 -0.30931237829482389 0.073252958087475881 0 -0.31697319293959142 0.061410437985649477 0 -0.29926204670725021 0.066629363318123747 0 -0.30931237829482389 0.073252958087475881 0 -0.29743787519420251 0.08153307720754506 0 -0.30549209578720232 0.10774456093924389 0 -0.29743787519420251 0.08153307720754506 0 -0.31312795334666071 0.083579729522452809 0 -0.30931237829482389 0.073252958087475881 0 -0.29743787519420251 0.08153307720754506 0 -0.31312795334666071 0.083579729522452809 0 -0.28737892951993471 0.098967158637655914 0 -0.29743787519420251 0.08153307720754506 0 -0.27569457229827071 0.081243623470509244 0 -0.29743787519420251 0.08153307720754506 0 -0.28743776060402371 0.060458689408765323 0 -0.28938365460120269 0.05532159347584624 0 -0.29743787519420251 0.08153307720754506 0 -0.28938365460120269 0.05532159347584624 0 -0.29926204670725021 0.066629363318123747 0 -0.29743787519420251 0.08153307720754506 0 -0.28938365460120269 0.05532159347584624 0 -0.29743787519420251 0.08153307720754506 0 -0.27569457229827071 0.081243623470509244 0 -0.28743776060402371 0.060458689408765323 0 -0.27569457229827071 0.081243623470509244 0 -0.26257114212692878 0.06573449919026883 0 -0.28743776060402371 0.060458689408765323 0 -0.26257114212692878 0.06573449919026883 0 -0.28743776060402371 0.060458689408765323 0 -0.26687835675477128 0.1014348965859585 0 -0.25261226255175379 0.080423606239198905 0 -0.24377998071086901 0.096378574065869249 0 -0.26687835675477128 0.1014348965859585 0 -0.27569457229827071 0.081243623470509244 0 -0.25261226255175379 0.080423606239198905 0 -0.26257114212692878 0.06573449919026883 0 -0.23770452364983391 0.071010308971772351 0 -0.25261226255175379 0.080423606239198905 0 -0.26257114212692878 0.06573449919026883 0 -0.23770452364983391 0.071010308971772351 0 -0.27569457229827071 0.081243623470509244 0 -0.25261226255175379 0.080423606239198905 0 -0.26257114212692878 0.06573449919026883 0 -0.2522816967992324 0.037264740289820159 0 -0.27263172987273521 0.051913181220590639 0 -0.24906194248509719 0.058488871325365822 0 -0.26257114212692878 0.06573449919026883 0 -0.27263172987273521 0.051913181220590639 0 -0.24906194248509719 0.058488871325365822 0 -0.2522816967992324 0.037264740289820159 0 -0.2684979789729644 0.03593820420606865 0 -0.27263172987273521 0.051913181220590639 0 -0.2684979789729644 0.03593820420606865 0 -0.27263172987273521 0.051913181220590639 0 -0.28132943400820298 0.02911010974414751 0 -0.27263172987273521 0.051913181220590639 0 -0.28132943400820298 0.02911010974414751 0 -0.28938365460120269 0.05532159347584624 0 -0.26257114212692878 0.06573449919026883 0 -0.27263172987273521 0.051913181220590639 0 -0.28743776060402371 0.060458689408765323 0 -0.25267499080189931 -0.0034516002120552492 0 -0.26909988492935111 -0.0018655285383734981 0 -0.25157722050270093 0.012682655753942951 0 -0.26909988492935111 -0.0018655285383734981 0 -0.25157722050270093 0.012682655753942951 0 -0.27200359261247947 0.017754051058092819 0 -0.2522816967992324 0.037264740289820159 0 -0.25157722050270093 0.012682655753942951 0 -0.27200359261247947 0.017754051058092819 0 -0.2522816967992324 0.037264740289820159 0 -0.2684979789729644 0.03593820420606865 0 -0.27200359261247947 0.017754051058092819 0 -0.2522816967992324 0.037264740289820159 0 -0.27200359261247947 0.017754051058092819 0 -0.27200359261247947 0.017754051058092819 0 -0.28831373269731447 0.017122983851404761 0 -0.28132943400820298 0.02911010974414751 0 -0.2684979789729644 0.03593820420606865 0 -0.27200359261247947 0.017754051058092819 0 -0.28132943400820298 0.02911010974414751 0 -0.26909988492935111 -0.0018655285383734981 0 -0.2917254884257266 -0.0017566381736345419 0 -0.27200359261247947 0.017754051058092819 0 -0.2917254884257266 -0.0017566381736345419 0 -0.27200359261247947 0.017754051058092819 0 -0.28831373269731447 0.017122983851404761 0 -0.2917254884257266 -0.0017566381736345419 0 -0.28831373269731447 0.017122983851404761 0 -0.29997880334656019 0.01439552450637107 0 -0.2917254884257266 -0.0017566381736345419 0 -0.27200359261247947 0.017754051058092819 0 -0.28831373269731447 0.017122983851404761 0 -0.29656482898857922 0.02610767777843559 0 -0.29997880334656019 0.01439552450637107 0 -0.28831373269731447 0.017122983851404761 0 -0.28132943400820298 0.02911010974414751 0 -0.29656482898857922 0.02610767777843559 0 -0.28132943400820298 0.02911010974414751 0 -0.29656482898857922 0.02610767777843559 0 -0.29344050585463782 0.03493273697686209 0 -0.29656482898857922 0.02610767777843559 0 -0.31039051656375261 0.022327184027059441 0 -0.30541723396373921 0.038711125382435783 0 -0.31039051656375261 0.022327184027059441 0 -0.30541723396373921 0.038711125382435783 0 -0.32038394146944787 0.031620215762440292 0 -0.29656482898857922 0.02610767777843559 0 -0.31039051656375261 0.022327184027059441 0 -0.29997880334656019 0.01439552450637107 0 -0.31039051656375261 0.022327184027059441 0 -0.31177688145040278 0.0050359958776742568 0 -0.29997880334656019 0.01439552450637107 0 -0.2917254884257266 -0.0017566381736345419 0 -0.31177688145040278 0.0050359958776742568 0 -0.29997880334656019 0.01439552450637107 0 -0.27263172987273521 0.051913181220590639 0 -0.28743776060402371 0.060458689408765323 0 -0.28938365460120269 0.05532159347584624 0 -0.28938365460120269 0.05532159347584624 0 -0.29045052645802971 0.045802035002429492 0 -0.29738278035354182 0.050541329601553678 0 -0.28938365460120269 0.05532159347584624 0 -0.29738278035354182 0.050541329601553678 0 -0.29780899910201009 0.056562827273038227 0 -0.29926204670725021 0.066629363318123747 0 -0.28938365460120269 0.05532159347584624 0 -0.29780899910201009 0.056562827273038227 0 -0.28132943400820298 0.02911010974414751 0 -0.28938365460120269 0.05532159347584624 0 -0.29045052645802971 0.045802035002429492 0 -0.28132943400820298 0.02911010974414751 0 -0.28938365460120269 0.05532159347584624 0 -0.28132943400820298 0.02911010974414751 0 -0.29344050585463782 0.03493273697686209 0 -0.29045052645802971 0.045802035002429492 0 -0.29344050585463782 0.03493273697686209 0 -0.29045052645802971 0.045802035002429492 0 -0.30541723396373921 0.038711125382435783 0 -0.29045052645802971 0.045802035002429492 0 -0.30541723396373921 0.038711125382435783 0 -0.29738278035354182 0.050541329601553678 0 -0.29045052645802971 0.045802035002429492 0 -0.30541723396373921 0.038711125382435783 0 -0.29656482898857922 0.02610767777843559 0 -0.29344050585463782 0.03493273697686209 0 -0.30541723396373921 0.038711125382435783 0 -0.30541723396373921 0.038711125382435783 0 -0.30520751474604563 0.05375902269662923 0 -0.31780711793698518 0.045521831715634557 0 -0.29926204670725021 0.066629363318123747 0 -0.30520751474604563 0.05375902269662923 0 -0.31697319293959142 0.061410437985649477 0 -0.30541723396373921 0.038711125382435783 0 -0.30520751474604563 0.05375902269662923 0 -0.29738278035354182 0.050541329601553678 0 -0.30520751474604563 0.05375902269662923 0 -0.29738278035354182 0.050541329601553678 0 -0.29780899910201009 0.056562827273038227 0 -0.29926204670725021 0.066629363318123747 0 -0.30520751474604563 0.05375902269662923 0 -0.29780899910201009 0.056562827273038227 0 -0.32553678940662539 0.052415823907368687 0 -0.31780711793698518 0.045521831715634557 0 -0.33422422494732851 0.04449049745268327 0 -0.31697319293959142 0.061410437985649477 0 -0.32553678940662539 0.052415823907368687 0 -0.31780711793698518 0.045521831715634557 0 -0.30520751474604563 0.05375902269662923 0 -0.31697319293959142 0.061410437985649477 0 -0.31780711793698518 0.045521831715634557 0 -0.31697319293959142 0.061410437985649477 0 -0.32808937753058609 0.059947696530402161 0 -0.32553678940662539 0.052415823907368687 0 -0.31780711793698518 0.045521831715634557 0 -0.32038394146944787 0.031620215762440292 0 -0.33422422494732851 0.04449049745268327 0 -0.30541723396373921 0.038711125382435783 0 -0.31780711793698518 0.045521831715634557 0 -0.32038394146944787 0.031620215762440292 0 -0.30541723396373921 0.038711125382435783 0 -0.32038394146944787 0.031620215762440292 0 -0.32038394146944787 0.031620215762440292 0 -0.33422422494732851 0.04449049745268327 0 -0.33422422494732851 0.04449049745268327 0 -0.34051642268078958 0.02208187176518148 0 -0.34924074101412461 0.03711639968071382 0 -0.32038394146944787 0.031620215762440292 0 -0.33422422494732851 0.04449049745268327 0 -0.34051642268078958 0.02208187176518148 0 -0.33422422494732851 0.04449049745268327 0 -0.34715076893326918 0.04673829876922056 0 -0.34924074101412461 0.03711639968071382 0 -0.33422422494732851 0.04449049745268327 0 -0.34806450842520742 0.057360779142928031 0 -0.34715076893326918 0.04673829876922056 0 -0.33422422494732851 0.04449049745268327 0 -0.34806450842520742 0.057360779142928031 0 -0.33422422494732851 0.04449049745268327 0 -0.33482930480244999 0.055095026294593591 0 -0.34806450842520742 0.057360779142928031 0 -0.3407399656121517 0.06083029771636933 0 -0.33482930480244999 0.055095026294593591 0 -0.33440717105718593 0.063083878638897639 0 -0.3407399656121517 0.06083029771636933 0 -0.33482930480244999 0.055095026294593591 0 -0.34806450842520742 0.057360779142928031 0 -0.32808937753058609 0.059947696530402161 0 -0.33482930480244999 0.055095026294593591 0 -0.33440717105718593 0.063083878638897639 0 -0.32808937753058609 0.059947696530402161 0 -0.32553678940662539 0.052415823907368687 0 -0.33482930480244999 0.055095026294593591 0 -0.32553678940662539 0.052415823907368687 0 -0.33422422494732851 0.04449049745268327 0 -0.33482930480244999 0.055095026294593591 0 -0.31039051656375261 0.022327184027059441 0 -0.31177688145040278 0.0050359958776742568 0 -0.3261420213634148 0.01391490981329808 0 -0.32828291010712762 -0.0049346835118845543 0 -0.31177688145040278 0.0050359958776742568 0 -0.3261420213634148 0.01391490981329808 0 -0.31039051656375261 0.022327184027059441 0 -0.32038394146944787 0.031620215762440292 0 -0.3261420213634148 0.01391490981329808 0 -0.31039051656375261 0.022327184027059441 0 -0.32038394146944787 0.031620215762440292 0 -0.32038394146944787 0.031620215762440292 0 -0.34051642268078958 0.02208187176518148 0 -0.32038394146944787 0.031620215762440292 0 -0.3261420213634148 0.01391490981329808 0 -0.34051642268078958 0.02208187176518148 0 -0.3261420213634148 0.01391490981329808 0 -0.34051642268078958 0.02208187176518148 0 -0.34055428987364128 0.0059527955302196532 0 -0.32828291010712762 -0.0049346835118845543 0 -0.3261420213634148 0.01391490981329808 0 -0.34055428987364128 0.0059527955302196532 0 -0.34051642268078958 0.02208187176518148 0 -0.34055428987364128 0.0059527955302196532 0 -0.36064890389212972 0.0125435277679194 0 -0.34718119132474479 -0.01384164818341615 0 -0.34055428987364128 0.0059527955302196532 0 -0.36064890389212972 0.0125435277679194 0 -0.34051642268078958 0.02208187176518148 0 -0.36064890389212972 0.0125435277679194 0 -0.34051642268078958 0.02208187176518148 0 -0.35699945364537122 0.027147445145089769 0 -0.34924074101412461 0.03711639968071382 0 -0.34051642268078958 0.02208187176518148 0 -0.35699945364537122 0.027147445145089769 0 -0.36064890389212972 0.0125435277679194 0 -0.35699945364537122 0.027147445145089769 0 -0.36163302121541668 0.029781402687577421 0 -0.35940737946489582 0.035374977024224222 0 -0.37998819155715241 0.0057865511937031933 0 -0.36738966121720701 0.029980518529024301 0 -0.37123175334181557 0.027162262264614271 0 -0.37998819155715241 0.0057865511937031933 0 -0.36738966121720701 0.029980518529024301 0 -0.3645477689834325 0.020181962352102071 0 -0.37998819155715241 0.0057865511937031933 0 -0.36738966121720701 0.029980518529024301 0 -0.36273559053419291 0.026622670051971411 0 -0.36738966121720701 0.029980518529024301 0 -0.3645477689834325 0.020181962352102071 0 -0.35699945364537122 0.027147445145089769 0 -0.36163302121541668 0.029781402687577421 0 -0.36273559053419291 0.026622670051971411 0 -0.35699945364537122 0.027147445145089769 0 -0.36273559053419291 0.026622670051971411 0 -0.3645477689834325 0.020181962352102071 0 -0.36163302121541668 0.029781402687577421 0 -0.36273559053419291 0.026622670051971411 0 -0.36738966121720701 0.029980518529024301 0 -0.35699945364537122 0.027147445145089769 0 -0.3645477689834325 0.020181962352102071 0 -0.36064890389212972 0.0125435277679194 0 -0.3645477689834325 0.020181962352102071 0 -0.36064890389212972 0.0125435277679194 0 -0.37998819155715241 0.0057865511937031933 0 -0.3645477689834325 0.020181962352102071 0 -0.36064890389212972 0.0125435277679194 0 -0.38683543611469601 0.0001369023841863784 0 -0.36064890389212972 0.0125435277679194 0 -0.37474494217865062 -0.0022388935110706832 0 -0.38683543611469601 0.0001369023841863784 0 -0.36064890389212972 0.0125435277679194 0 -0.37474494217865062 -0.0022388935110706832 0 -0.36307869926690151 -0.00068504054922277494 0 -0.36064890389212972 0.0125435277679194 0 -0.35479113087726238 0.05417448586434577 0 -0.34715076893326918 0.04673829876922056 0 -0.35593663516940488 0.04278932274017315 0 -0.35479113087726238 0.05417448586434577 0 -0.35147867423579721 0.06053566178096708 0 -0.3622197730044176 0.060127746183944272 0 -0.35479113087726238 0.05417448586434577 0 -0.35147867423579721 0.06053566178096708 0 -0.35479113087726238 0.05417448586434577 0 -0.34806450842520742 0.057360779142928031 0 -0.35147867423579721 0.06053566178096708 0 -0.35479113087726238 0.05417448586434577 0 -0.34806450842520742 0.057360779142928031 0 -0.34806450842520742 0.057360779142928031 0 -0.35147867423579721 0.06053566178096708 0 -0.3447014191436914 0.063951910484466787 0 -0.34806450842520742 0.057360779142928031 0 -0.35147867423579721 0.06053566178096708 0 -0.3407399656121517 0.06083029771636933 0 -0.34806450842520742 0.057360779142928031 0 -0.3407399656121517 0.06083029771636933 0 -0.34806450842520742 0.057360779142928031 0 -0.3447014191436914 0.063951910484466787 0 -0.35479113087726238 0.05417448586434577 0 -0.34806450842520742 0.057360779142928031 0 -0.34715076893326918 0.04673829876922056 0 -0.34715076893326918 0.04673829876922056 0 -0.34924074101412461 0.03711639968071382 0 -0.35593663516940488 0.04278932274017315 0 -0.36738966121720701 0.029980518529024301 0 -0.35479113087726238 0.05417448586434577 0 -0.35593663516940488 0.04278932274017315 0 -0.35699945364537122 0.027147445145089769 0 -0.34924074101412461 0.03711639968071382 0 -0.35940737946489582 0.035374977024224222 0 -0.34924074101412461 0.03711639968071382 0 -0.35593663516940488 0.04278932274017315 0 -0.35940737946489582 0.035374977024224222 0 -0.36738966121720701 0.029980518529024301 0 -0.35479113087726238 0.05417448586434577 0 -0.36677646394688163 0.041367990420506082 0 -0.37123175334181557 0.027162262264614271 0 -0.37046143272875132 0.04675171495388801 0 -0.36738966121720701 0.029980518529024301 0 -0.35479113087726238 0.05417448586434577 0 -0.37123175334181557 0.027162262264614271 0 -0.36677646394688163 0.041367990420506082 0 -0.37046143272875132 0.04675171495388801 0 -0.3764786745208083 0.032098692741998169 0 -0.37123175334181557 0.027162262264614271 0 -0.37046143272875132 0.04675171495388801 0 -0.36163302121541668 0.029781402687577421 0 -0.36738966121720701 0.029980518529024301 0 -0.35940737946489582 0.035374977024224222 0 -0.36738966121720701 0.029980518529024301 0 -0.35593663516940488 0.04278932274017315 0 -0.35940737946489582 0.035374977024224222 0 -0.36738966121720701 0.029980518529024301 0 -0.37123175334181557 0.027162262264614271 0 -0.36677646394688163 0.041367990420506082 0 -0.36677646394688163 0.041367990420506082 0 -0.37046143272875132 0.04675171495388801 0 -0.36802302346639398 0.047906750352184523 0 -0.36677646394688163 0.041367990420506082 0 -0.36802302346639398 0.047906750352184523 0 -0.37046143272875132 0.04675171495388801 0 -0.37000681959492809 0.05831264468359916 0 -0.36802302346639398 0.047906750352184523 0 -0.37000681959492809 0.05831264468359916 0 -0.37046143272875132 0.04675171495388801 0 -0.36802302346639398 0.047906750352184523 0 -0.37000681959492809 0.05831264468359916 0 -0.37046143272875132 0.04675171495388801 0 -0.36802302346639398 0.047906750352184523 0 -0.35479113087726238 0.05417448586434577 0 -0.36802302346639398 0.047906750352184523 0 -0.35479113087726238 0.05417448586434577 0 -0.36802302346639398 0.047906750352184523 0 -0.3622197730044176 0.060127746183944272 0 -0.35479113087726238 0.05417448586434577 0 -0.36677646394688163 0.041367990420506082 0 -0.36802302346639398 0.047906750352184523 0 -0.36802302346639398 0.047906750352184523 0 -0.3622197730044176 0.060127746183944272 0 -0.37000681959492809 0.05831264468359916 0 -0.35147867423579721 0.06053566178096708 0 -0.36926886504626422 0.077079019973005369 0 -0.3622197730044176 0.060127746183944272 0 -0.37000681959492809 0.05831264468359916 0 -0.36926886504626422 0.077079019973005369 0 -0.37000681959492809 0.05831264468359916 0 -0.36926886504626422 0.077079019973005369 0 -0.37079498002478778 0.078498176574577722 0 -0.36926886504626422 0.077079019973005369 0 -0.34551673285671652 0.071984855543133663 0 -0.36912013352382872 0.080861301107253064 0 -0.37000681959492809 0.05831264468359916 0 -0.37079498002478778 0.078498176574577722 0 -0.37470600383380392 0.082961959162170973 0 -0.35147867423579721 0.06053566178096708 0 -0.3622197730044176 0.060127746183944272 0 -0.36926886504626422 0.077079019973005369 0 -0.37000681959492809 0.05831264468359916 0 -0.37470600383380392 0.082961959162170973 0 -0.37000681959492809 0.05831264468359916 0 -0.36926886504626422 0.077079019973005369 0 -0.36926886504626422 0.077079019973005369 0 -0.37079498002478778 0.078498176574577722 0 -0.34551673285671652 0.071984855543133663 0 -0.34763839367566191 0.079069075487607554 0 -0.36912013352382872 0.080861301107253064 0 -0.34551673285671652 0.071984855543133663 0 -0.36912013352382872 0.080861301107253064 0 -0.35147867423579721 0.06053566178096708 0 -0.36926886504626422 0.077079019973005369 0 -0.34551673285671652 0.071984855543133663 0 -0.34408269824063842 0.074738747125954852 0 -0.34763839367566191 0.079069075487607554 0 -0.34179116264722731 0.080399472229040897 0 -0.34408269824063842 0.074738747125954852 0 -0.34551673285671652 0.071984855543133663 0 -0.34763839367566191 0.079069075487607554 0 -0.34408269824063842 0.074738747125954852 0 -0.34551673285671652 0.071984855543133663 0 -0.35147867423579721 0.06053566178096708 0 -0.34551673285671652 0.071984855543133663 0 -0.3447014191436914 0.063951910484466787 0 -0.35147867423579721 0.06053566178096708 0 -0.34551673285671652 0.071984855543133663 0 -0.34763839367566191 0.079069075487607554 0 -0.36858415035949882 0.094491491786065696 0 -0.34763839367566191 0.079069075487607554 0 -0.36858415035949882 0.094491491786065696 0 -0.35198293914272999 0.094145145766245733 0 -0.34456144318064219 0.08667329674911145 0 -0.34763839367566191 0.079069075487607554 0 -0.35198293914272999 0.094145145766245733 0 -0.34456144318064219 0.08667329674911145 0 -0.35198293914272999 0.094145145766245733 0 -0.34431035454597703 0.093789606507308373 0 -0.34456144318064219 0.08667329674911145 0 -0.34763839367566191 0.079069075487607554 0 -0.34179116264722731 0.080399472229040897 0 -0.3782625711058698 0.101617738696854 0 -0.37470600383380392 0.082961959162170973 0 -0.36858415035949882 0.094491491786065696 0 -0.34763839367566191 0.079069075487607554 0 -0.36912013352382872 0.080861301107253064 0 -0.36858415035949882 0.094491491786065696 0 -0.36926886504626422 0.077079019973005369 0 -0.37079498002478778 0.078498176574577722 0 -0.36912013352382872 0.080861301107253064 0 -0.36926886504626422 0.077079019973005369 0 -0.36912013352382872 0.080861301107253064 0 -0.36912013352382872 0.080861301107253064 0 -0.37470600383380392 0.082961959162170973 0 -0.37079498002478778 0.078498176574577722 0 -0.36912013352382872 0.080861301107253064 0 -0.37470600383380392 0.082961959162170973 0 -0.36912013352382872 0.080861301107253064 0 -0.37470600383380392 0.082961959162170973 0 -0.36858415035949882 0.094491491786065696 0 -0.36912013352382872 0.080861301107253064 0 -0.36858415035949882 0.094491491786065696 0 -0.36858415035949882 0.094491491786065696 0 -0.36747352968705388 0.12273486311700831 0 -0.3782625711058698 0.101617738696854 0 -0.36858415035949882 0.094491491786065696 0 -0.36858415035949882 0.094491491786065696 0 -0.36006702585218792 0.10838608290929221 0 -0.35198293914272999 0.094145145766245733 0 -0.36858415035949882 0.094491491786065696 0 -0.36006702585218792 0.10838608290929221 0 -0.36747352968705388 0.12273486311700831 0 -0.3782625711058698 0.101617738696854 0 -0.36858415035949882 0.094491491786065696 0 -0.36747352968705388 0.12273486311700831 0 -0.36006702585218792 0.10838608290929221 0 -0.36747352968705388 0.12273486311700831 0 -0.35832203275528268 0.1183511860346923 0 -0.35528769071996391 0.12689780186549679 0 -0.36747352968705388 0.12273486311700831 0 -0.35832203275528268 0.1183511860346923 0 -0.35528769071996391 0.12689780186549679 0 -0.35832203275528268 0.1183511860346923 0 -0.35045988476192508 0.115385996246972 0 -0.36006702585218792 0.10838608290929221 0 -0.35832203275528268 0.1183511860346923 0 -0.35045988476192508 0.115385996246972 0 -0.35045988476192508 0.115385996246972 0 -0.34547580274860562 0.10394098399483009 0 -0.33570271963636877 0.11206429961599181 0 -0.35528769071996391 0.12689780186549679 0 -0.35045988476192508 0.115385996246972 0 -0.34115039425197219 0.12498493974687711 0 -0.36006702585218792 0.10838608290929221 0 -0.35198293914272999 0.094145145766245733 0 -0.34547580274860562 0.10394098399483009 0 -0.36006702585218792 0.10838608290929221 0 -0.35045988476192508 0.115385996246972 0 -0.34547580274860562 0.10394098399483009 0 -0.35198293914272999 0.094145145766245733 0 -0.34547580274860562 0.10394098399483009 0 -0.34431035454597703 0.093789606507308373 0 -0.34547580274860562 0.10394098399483009 0 -0.34431035454597703 0.093789606507308373 0 -0.335413749579693 0.097286071719103154 0 -0.34547580274860562 0.10394098399483009 0 -0.335413749579693 0.097286071719103154 0 -0.33570271963636877 0.11206429961599181 0 -0.335413749579693 0.097286071719103154 0 -0.33570271963636877 0.11206429961599181 0 -0.32444247844199348 0.1047035033472971 0 -0.35045988476192508 0.115385996246972 0 -0.34115039425197219 0.12498493974687711 0 -0.33570271963636877 0.11206429961599181 0 -0.32917568526667751 0.12578156900391591 0 -0.33570271963636877 0.11206429961599181 0 -0.32114709127587232 0.11611322513389059 0 -0.32917568526667751 0.12578156900391591 0 -0.34115039425197219 0.12498493974687711 0 -0.33570271963636877 0.11206429961599181 0 -0.31354631638020197 0.13395604467094269 0 -0.30549209578720232 0.10774456093924389 0 -0.32114709127587232 0.11611322513389059 0 -0.30549209578720232 0.10774456093924389 0 -0.32114709127587232 0.11611322513389059 0 -0.32444247844199348 0.1047035033472971 0 -0.33570271963636877 0.11206429961599181 0 -0.32114709127587232 0.11611322513389059 0 -0.32444247844199348 0.1047035033472971 0 -0.30549209578720232 0.10774456093924389 0 -0.32444247844199348 0.1047035033472971 0 -0.32445673593083119 0.090309359328255762 0 -0.30549209578720232 0.10774456093924389 0 -0.32445673593083119 0.090309359328255762 0 -0.31312795334666071 0.083579729522452809 0 -0.335413749579693 0.097286071719103154 0 -0.32444247844199348 0.1047035033472971 0 -0.32445673593083119 0.090309359328255762 0 -0.32445673593083119 0.090309359328255762 0 -0.3275606083710243 0.080211281293741998 0 -0.31312795334666071 0.083579729522452809 0 -0.3275606083710243 0.080211281293741998 0 -0.31312795334666071 0.083579729522452809 0 -0.31976082328641481 0.073112182403608325 0 -0.30931237829482389 0.073252958087475881 0 -0.31312795334666071 0.083579729522452809 0 -0.31976082328641481 0.073112182403608325 0 -0.30931237829482389 0.073252958087475881 0 -0.31697319293959142 0.061410437985649477 0 -0.31976082328641481 0.073112182403608325 0 -0.31697319293959142 0.061410437985649477 0 -0.31976082328641481 0.073112182403608325 0 -0.32886731949388731 0.069155273298144179 0 -0.31697319293959142 0.061410437985649477 0 -0.32808937753058609 0.059947696530402161 0 -0.32886731949388731 0.069155273298144179 0 -0.3275606083710243 0.080211281293741998 0 -0.31976082328641481 0.073112182403608325 0 -0.32886731949388731 0.069155273298144179 0 -0.32886731949388731 0.069155273298144179 0 -0.33770721458858299 0.069047958238937293 0 -0.336378655355973 0.076693290193422539 0 -0.3275606083710243 0.080211281293741998 0 -0.32886731949388731 0.069155273298144179 0 -0.336378655355973 0.076693290193422539 0 -0.33440717105718593 0.063083878638897639 0 -0.32886731949388731 0.069155273298144179 0 -0.33770721458858299 0.069047958238937293 0 -0.32808937753058609 0.059947696530402161 0 -0.33440717105718593 0.063083878638897639 0 -0.32886731949388731 0.069155273298144179 0 -0.3407399656121517 0.06083029771636933 0 -0.33440717105718593 0.063083878638897639 0 -0.33770721458858299 0.069047958238937293 0 -0.3407399656121517 0.06083029771636933 0 -0.3447014191436914 0.063951910484466787 0 -0.33770721458858299 0.069047958238937293 0 -0.34551673285671652 0.071984855543133663 0 -0.3447014191436914 0.063951910484466787 0 -0.33770721458858299 0.069047958238937293 0 -0.34408269824063842 0.074738747125954852 0 -0.33770721458858299 0.069047958238937293 0 -0.336378655355973 0.076693290193422539 0 -0.34408269824063842 0.074738747125954852 0 -0.34551673285671652 0.071984855543133663 0 -0.33770721458858299 0.069047958238937293 0 -0.34551673285671652 0.071984855543133663 0 -0.33770721458858299 0.069047958238937293 0 -0.34408269824063842 0.074738747125954852 0 -0.336378655355973 0.076693290193422539 0 -0.34179116264722731 0.080399472229040897 0 -0.336378655355973 0.076693290193422539 0 -0.34179116264722731 0.080399472229040897 0 -0.33708436589161489 0.085963183755354639 0 -0.34456144318064219 0.08667329674911145 0 -0.34179116264722731 0.080399472229040897 0 -0.33708436589161489 0.085963183755354639 0 -0.34456144318064219 0.08667329674911145 0 -0.34431035454597703 0.093789606507308373 0 -0.33708436589161489 0.085963183755354639 0 -0.34431035454597703 0.093789606507308373 0 -0.335413749579693 0.097286071719103154 0 -0.33708436589161489 0.085963183755354639 0 -0.335413749579693 0.097286071719103154 0 -0.32445673593083119 0.090309359328255762 0 -0.33708436589161489 0.085963183755354639 0 -0.32445673593083119 0.090309359328255762 0 -0.3275606083710243 0.080211281293741998 0 -0.33708436589161489 0.085963183755354639 0 -0.3275606083710243 0.080211281293741998 0 -0.336378655355973 0.076693290193422539 0 -0.33708436589161489 0.085963183755354639 0 -0.38891458820749281 0.47713565504117422 0 -0.42172655890518862 0.5 0 -0.3640375775585698 0.5 0 -0.38891458820749281 0.47713565504117422 0 -0.37103467036260362 0.45695891695805302 0 -0.36943712044780219 0.47475959506207249 0 -0.39694697642853649 0.45370639251272787 0 -0.37103467036260362 0.45695891695805302 0 -0.38891458820749281 0.47713565504117422 0 -0.39694697642853649 0.45370639251272787 0 -0.37103467036260362 0.45695891695805302 0 -0.38249991962136642 0.44345487931465249 0 -0.39694697642853649 0.45370639251272787 0 -0.37103467036260362 0.45695891695805302 0 -0.38249991962136642 0.44345487931465249 0 -0.39694697642853649 0.45370639251272787 0 -0.40464661760035381 0.43350824459614162 0 -0.38891458820749281 0.47713565504117422 0 -0.39694697642853649 0.45370639251272787 0 -0.41631826774707797 0.4711213942969617 0 -0.39694697642853649 0.45370639251272787 0 -0.42285928249446952 0.45045386806740279 0 -0.41631826774707797 0.4711213942969617 0 -0.42285928249446952 0.45045386806740279 0 -0.42501824733507809 0.43459816807542118 0 -0.40464661760035381 0.43350824459614162 0 -0.39694697642853649 0.45370639251272787 0 -0.42285928249446952 0.45045386806740279 0 -0.39694697642853649 0.45370639251272787 0 -0.42285928249446952 0.45045386806740279 0 -0.40464661760035381 0.43350824459614162 0 -0.42285928249446952 0.45045386806740279 0 -0.43521244088076849 0.46107148678855758 0 -0.44877158856040261 0.44720134362207808 0 -0.42285928249446952 0.45045386806740279 0 -0.44877158856040261 0.44720134362207808 0 -0.42285928249446952 0.45045386806740279 0 -0.43592409671607729 0.44045812782560079 0 -0.44877158856040261 0.44720134362207808 0 -0.42285928249446952 0.45045386806740279 0 -0.43592409671607729 0.44045812782560079 0 -0.42501824733507809 0.43459816807542118 0 -0.42285928249446952 0.45045386806740279 0 -0.43521244088076849 0.46107148678855758 0 -0.41631826774707797 0.4711213942969617 0 -0.41631826774707797 0.4711213942969617 0 -0.42172655890518862 0.5 0 -0.43935827984199688 0.47473889959161758 0 -0.43521244088076849 0.46107148678855758 0 -0.41631826774707797 0.4711213942969617 0 -0.43935827984199688 0.47473889959161758 0 -0.38891458820749281 0.47713565504117422 0 -0.41631826774707797 0.4711213942969617 0 -0.42172655890518862 0.5 0 -0.42172655890518862 0.5 0 -0.43935827984199688 0.47473889959161758 0 -0.47784082473980471 0.47626967285504462 0 -0.42172655890518862 0.5 0 -0.5 0.5 0 -0.47784082473980471 0.47626967285504462 0 -0.43935827984199688 0.47473889959161758 0 -0.47784082473980471 0.47626967285504462 0 -0.4487547857598953 0.46184192836472759 0 -0.5 0.5 0 -0.47784082473980471 0.47626967285504462 0 -0.49999999999999589 0.44077113011354369 0 -0.47784082473980471 0.47626967285504462 0 -0.47438579428019922 0.44398623686781052 0 -0.4627013265822788 0.4545376326069438 0 -0.47784082473980471 0.47626967285504462 0 -0.49999999999999589 0.44077113011354369 0 -0.47438579428019922 0.44398623686781052 0 -0.49999999999999589 0.44077113011354369 0 -0.47438579428019922 0.44398623686781052 0 -0.48180565015534738 0.42787197640755792 0 -0.49999999999999589 0.44077113011354369 0 -0.47438579428019922 0.44398623686781052 0 -0.47438579428019922 0.44398623686781052 0 -0.4627013265822788 0.4545376326069438 0 -0.44877158856040261 0.44720134362207808 0 -0.47438579428019922 0.44398623686781052 0 -0.44877158856040261 0.44720134362207808 0 -0.47438579428019922 0.44398623686781052 0 -0.44877158856040261 0.44720134362207808 0 -0.46289485375526918 0.43579199928955081 0 -0.44877158856040261 0.44720134362207808 0 -0.44878504691792248 0.43547483269414872 0 -0.46289485375526918 0.43579199928955081 0 -0.47784082473980471 0.47626967285504462 0 -0.4627013265822788 0.4545376326069438 0 -0.4487547857598953 0.46184192836472759 0 -0.4627013265822788 0.4545376326069438 0 -0.4487547857598953 0.46184192836472759 0 -0.44877158856040261 0.44720134362207808 0 -0.4487547857598953 0.46184192836472759 0 -0.44877158856040261 0.44720134362207808 0 -0.43521244088076849 0.46107148678855758 0 -0.4487547857598953 0.46184192836472759 0 -0.44877158856040261 0.44720134362207808 0 -0.43521244088076849 0.46107148678855758 0 -0.43935827984199688 0.47473889959161758 0 -0.4487547857598953 0.46184192836472759 0 -0.44877158856040261 0.44720134362207808 0 -0.44508566455651338 0.43839632914573512 0 -0.44878504691792248 0.43547483269414872 0 -0.44877158856040261 0.44720134362207808 0 -0.44878504691792248 0.43547483269414872 0 -0.43592409671607729 0.44045812782560079 0 -0.44877158856040261 0.44720134362207808 0 -0.44508566455651338 0.43839632914573512 0 -0.44531233658805403 0.42513554986162888 0 -0.44878504691792248 0.43547483269414872 0 -0.44880957839306629 0.41410011360809668 0 -0.44878504691792248 0.43547483269414872 0 -0.44880957839306629 0.41410011360809668 0 -0.43788570063392329 0.43164093021736671 0 -0.44531233658805403 0.42513554986162888 0 -0.44878504691792248 0.43547483269414872 0 -0.43592409671607729 0.44045812782560079 0 -0.44508566455651338 0.43839632914573512 0 -0.43788570063392329 0.43164093021736671 0 -0.44508566455651338 0.43839632914573512 0 -0.43788570063392329 0.43164093021736671 0 -0.44878504691792248 0.43547483269414872 0 -0.44508566455651338 0.43839632914573512 0 -0.44878504691792248 0.43547483269414872 0 -0.44531233658805403 0.42513554986162888 0 -0.44880957839306629 0.41410011360809668 0 -0.42391867717568832 0.41711337076656618 0 -0.44880957839306629 0.41410011360809668 0 -0.46585669794528167 0.42199291516666237 0 -0.4641229039382897 0.40091036417177778 0 -0.44878504691792248 0.43547483269414872 0 -0.46585669794528167 0.42199291516666237 0 -0.44878504691792248 0.43547483269414872 0 -0.44880957839306629 0.41410011360809668 0 -0.46585669794528167 0.42199291516666237 0 -0.44878504691792248 0.43547483269414872 0 -0.46585669794528167 0.42199291516666237 0 -0.46289485375526918 0.43579199928955081 0 -0.47438579428019922 0.44398623686781052 0 -0.46289485375526918 0.43579199928955081 0 -0.48180565015534738 0.42787197640755792 0 -0.46585669794528167 0.42199291516666237 0 -0.46289485375526918 0.43579199928955081 0 -0.48180565015534738 0.42787197640755792 0 -0.46585669794528167 0.42199291516666237 0 -0.48292834897264081 0.4085109976391762 0 -0.4641229039382897 0.40091036417177778 0 -0.46585669794528167 0.42199291516666237 0 -0.48292834897264081 0.4085109976391762 0 -0.46585669794528167 0.42199291516666237 0 -0.48180565015534738 0.42787197640755792 0 -0.48292834897264081 0.4085109976391762 0 -0.48292834897264081 0.4085109976391762 0 -0.5 0.41790010511261683 0 -0.5 0.39502908011169002 0 -0.48180565015534738 0.42787197640755792 0 -0.48292834897264081 0.4085109976391762 0 -0.5 0.41790010511261683 0 -0.49999999999999589 0.44077113011354369 0 -0.48180565015534738 0.42787197640755792 0 -0.5 0.41790010511261683 0 -0.48850556386005051 0.3766603246979251 0 -0.5 0.39502908011169002 0 -0.47832653283541199 0.38608194873200979 0 -0.48850556386005051 0.3766603246979251 0 -0.5 0.39502908011169002 0 -0.5 0.36887446842263683 0 -0.48292834897264081 0.4085109976391762 0 -0.5 0.39502908011169002 0 -0.47832653283541199 0.38608194873200979 0 -0.48292834897264081 0.4085109976391762 0 -0.5 0.39502908011169002 0 -0.48292834897264081 0.4085109976391762 0 -0.47832653283541199 0.38608194873200979 0 -0.4641229039382897 0.40091036417177778 0 -0.48850556386005051 0.3766603246979251 0 -0.47832653283541199 0.38608194873200979 0 -0.48259334700195489 0.36409898273387958 0 -0.47832653283541199 0.38608194873200979 0 -0.46059005399087027 0.38292215568240928 0 -0.4641229039382897 0.40091036417177778 0 -0.47832653283541199 0.38608194873200979 0 -0.46059005399087027 0.38292215568240928 0 -0.46572599417265398 0.36772482908493609 0 -0.44880957839306629 0.41410011360809668 0 -0.4641229039382897 0.40091036417177778 0 -0.44883410986820999 0.3927253945220448 0 -0.46059005399087027 0.38292215568240928 0 -0.4641229039382897 0.40091036417177778 0 -0.44883410986820999 0.3927253945220448 0 -0.44880957839306629 0.41410011360809668 0 -0.44883410986820999 0.3927253945220448 0 -0.43699833754743561 0.40294499431243458 0 -0.44880957839306629 0.41410011360809668 0 -0.44883410986820999 0.3927253945220448 0 -0.44883410986820999 0.3927253945220448 0 -0.43978391516082421 0.3912231797547942 0 -0.43699833754743561 0.40294499431243458 0 -0.44883410986820999 0.3927253945220448 0 -0.43978391516082421 0.3912231797547942 0 -0.44802713623065987 0.37645115623263098 0 -0.44883410986820999 0.3927253945220448 0 -0.44885864134335329 0.37135067543599282 0 -0.44883410986820999 0.3927253945220448 0 -0.44802713623065987 0.37645115623263098 0 -0.44885864134335329 0.37135067543599282 0 -0.43978391516082421 0.3912231797547942 0 -0.44802713623065987 0.37645115623263098 0 -0.42527607699699133 0.39277117395206662 0 -0.46059005399087027 0.38292215568240928 0 -0.44883410986820999 0.3927253945220448 0 -0.44885864134335329 0.37135067543599282 0 -0.44802713623065987 0.37645115623263098 0 -0.4250431626101242 0.37647010748543319 0 -0.42527607699699133 0.39277117395206662 0 -0.44802713623065987 0.37645115623263098 0 -0.42527607699699133 0.39277117395206662 0 -0.4250431626101242 0.37647010748543319 0 -0.4134887672477453 0.38574914578498593 0 -0.40122768387689522 0.38158953953487368 0 -0.4250431626101242 0.37647010748543319 0 -0.40122768387689522 0.38158953953487368 0 -0.4250431626101242 0.37647010748543319 0 -0.4134887672477453 0.38574914578498593 0 -0.42527607699699133 0.39277117395206662 0 -0.4250431626101242 0.37647010748543319 0 -0.40122768387689522 0.38158953953487368 0 -0.40086489287733429 0.37467411733839928 0 -0.4134887672477453 0.38574914578498593 0 -0.40798835104355652 0.39359067917546098 0 -0.40557429982823212 0.38794008425198068 0 -0.4134887672477453 0.38574914578498593 0 -0.40122768387689522 0.38158953953487368 0 -0.40557429982823212 0.38794008425198068 0 -0.40798835104355652 0.39359067917546098 0 -0.42527607699699133 0.39277117395206662 0 -0.40252501776332311 0.40909119167150271 0 -0.42527607699699133 0.39277117395206662 0 -0.40252501776332311 0.40909119167150271 0 -0.4134887672477453 0.38574914578498593 0 -0.40798835104355652 0.39359067917546098 0 -0.42527607699699133 0.39277117395206662 0 -0.42527607699699133 0.39277117395206662 0 -0.43699833754743561 0.40294499431243458 0 -0.42391867717568832 0.41711337076656618 0 -0.43978391516082421 0.3912231797547942 0 -0.42527607699699133 0.39277117395206662 0 -0.43699833754743561 0.40294499431243458 0 -0.44880957839306629 0.41410011360809668 0 -0.43699833754743561 0.40294499431243458 0 -0.42391867717568832 0.41711337076656618 0 -0.44531233658805403 0.42513554986162888 0 -0.42391867717568832 0.41711337076656618 0 -0.43788570063392329 0.43164093021736671 0 -0.44531233658805403 0.42513554986162888 0 -0.42391867717568832 0.41711337076656618 0 -0.43788570063392329 0.43164093021736671 0 -0.42391867717568832 0.41711337076656618 0 -0.42501824733507809 0.43459816807542118 0 -0.43592409671607729 0.44045812782560079 0 -0.43788570063392329 0.43164093021736671 0 -0.42501824733507809 0.43459816807542118 0 -0.42391867717568832 0.41711337076656618 0 -0.42501824733507809 0.43459816807542118 0 -0.40464661760035381 0.43350824459614162 0 -0.42527607699699133 0.39277117395206662 0 -0.42391867717568832 0.41711337076656618 0 -0.40252501776332311 0.40909119167150271 0 -0.42391867717568832 0.41711337076656618 0 -0.40252501776332311 0.40909119167150271 0 -0.40464661760035381 0.43350824459614162 0 -0.42391867717568832 0.41711337076656618 0 -0.40252501776332311 0.40909119167150271 0 -0.40252501776332311 0.40909119167150271 0 -0.37875820238401509 0.42613984176471847 0 -0.40252501776332311 0.40909119167150271 0 -0.40464661760035381 0.43350824459614162 0 -0.37875820238401509 0.42613984176471847 0 -0.38249991962136642 0.44345487931465249 0 -0.40464661760035381 0.43350824459614162 0 -0.37875820238401509 0.42613984176471847 0 -0.40252501776332311 0.40909119167150271 0 -0.37875820238401509 0.42613984176471847 0 -0.37769092578324193 0.39977892163450779 0 -0.37769092578324193 0.39977892163450779 0 -0.38963770449155072 0.39285491215608792 0 -0.37686086334024771 0.38257038446795849 0 -0.40252501776332311 0.40909119167150271 0 -0.37769092578324193 0.39977892163450779 0 -0.38963770449155072 0.39285491215608792 0 -0.40252501776332311 0.40909119167150271 0 -0.37769092578324193 0.39977892163450779 0 -0.37686086334024771 0.38257038446795849 0 -0.39363670834615189 0.38450398520198442 0 -0.40086489287733429 0.37467411733839928 0 -0.38963770449155072 0.39285491215608792 0 -0.37686086334024771 0.38257038446795849 0 -0.39363670834615189 0.38450398520198442 0 -0.37686086334024771 0.38257038446795849 0 -0.40086489287733429 0.37467411733839928 0 -0.37686086334024771 0.38257038446795849 0 -0.40086489287733429 0.37467411733839928 0 -0.39033592763893787 0.37070590072739279 0 -0.39363670834615189 0.38450398520198442 0 -0.40122768387689522 0.38158953953487368 0 -0.39959239714473138 0.39083097251260251 0 -0.38963770449155072 0.39285491215608792 0 -0.39363670834615189 0.38450398520198442 0 -0.39959239714473138 0.39083097251260251 0 -0.39363670834615189 0.38450398520198442 0 -0.40122768387689522 0.38158953953487368 0 -0.40086489287733429 0.37467411733839928 0 -0.40122768387689522 0.38158953953487368 0 -0.40557429982823212 0.38794008425198068 0 -0.39959239714473138 0.39083097251260251 0 -0.40798835104355652 0.39359067917546098 0 -0.40557429982823212 0.38794008425198068 0 -0.39959239714473138 0.39083097251260251 0 -0.40252501776332311 0.40909119167150271 0 -0.38963770449155072 0.39285491215608792 0 -0.39959239714473138 0.39083097251260251 0 -0.40798835104355652 0.39359067917546098 0 -0.40252501776332311 0.40909119167150271 0 -0.39959239714473138 0.39083097251260251 0 -0.3926828114571661 0.35541775914535301 0 -0.40105078960399698 0.34662517948293931 0 -0.40586906590548888 0.3393029225754271 0 -0.3926828114571661 0.35541775914535301 0 -0.39400561065841477 0.34382680172727831 0 -0.40586906590548888 0.3393029225754271 0 -0.3926828114571661 0.35541775914535301 0 -0.40586906590548888 0.3393029225754271 0 -0.3926828114571661 0.35541775914535301 0 -0.39969836615416421 0.35756427730283669 0 -0.39341808057325789 0.36431669671432632 0 -0.3926828114571661 0.35541775914535301 0 -0.40105078960399698 0.34662517948293931 0 -0.39969836615416421 0.35756427730283669 0 -0.3926828114571661 0.35541775914535301 0 -0.39400561065841477 0.34382680172727831 0 -0.38539473684528258 0.34837828204789067 0 -0.40105078960399698 0.34662517948293931 0 -0.40525205349158999 0.35429039595711992 0 -0.40888688292129022 0.34941903462410451 0 -0.40105078960399698 0.34662517948293931 0 -0.4080564418273247 0.34368885170405422 0 -0.40888688292129022 0.34941903462410451 0 -0.40105078960399698 0.34662517948293931 0 -0.40525205349158999 0.35429039595711992 0 -0.39969836615416421 0.35756427730283669 0 -0.40525205349158999 0.35429039595711992 0 -0.39969836615416421 0.35756427730283669 0 -0.40553625032349627 0.36037170931698131 0 -0.40553625032349627 0.36037170931698131 0 -0.40544017780568847 0.3661562974108753 0 -0.40025021147547779 0.36436392320030081 0 -0.40544017780568847 0.3661562974108753 0 -0.40025021147547779 0.36436392320030081 0 -0.397742957241214 0.36844985128713797 0 -0.39969836615416421 0.35756427730283669 0 -0.40553625032349627 0.36037170931698131 0 -0.40025021147547779 0.36436392320030081 0 -0.40544017780568847 0.3661562974108753 0 -0.40086489287733429 0.37467411733839928 0 -0.397742957241214 0.36844985128713797 0 -0.40086489287733429 0.37467411733839928 0 -0.397742957241214 0.36844985128713797 0 -0.39033592763893787 0.37070590072739279 0 -0.397742957241214 0.36844985128713797 0 -0.39341808057325789 0.36431669671432632 0 -0.39033592763893787 0.37070590072739279 0 -0.39969836615416421 0.35756427730283669 0 -0.40025021147547779 0.36436392320030081 0 -0.39341808057325789 0.36431669671432632 0 -0.40025021147547779 0.36436392320030081 0 -0.397742957241214 0.36844985128713797 0 -0.39341808057325789 0.36431669671432632 0 -0.3926828114571661 0.35541775914535301 0 -0.39341808057325789 0.36431669671432632 0 -0.37949655700884349 0.37153259571527891 0 -0.37949655700884349 0.37153259571527891 0 -0.37823932191431281 0.35548757599615399 0 -0.37024808467873749 0.36543132639488701 0 -0.3926828114571661 0.35541775914535301 0 -0.37949655700884349 0.37153259571527891 0 -0.37823932191431281 0.35548757599615399 0 -0.3926828114571661 0.35541775914535301 0 -0.37949655700884349 0.37153259571527891 0 -0.39341808057325789 0.36431669671432632 0 -0.39033592763893787 0.37070590072739279 0 -0.37949655700884349 0.37153259571527891 0 -0.37686086334024771 0.38257038446795849 0 -0.39033592763893787 0.37070590072739279 0 -0.37949655700884349 0.37153259571527891 0 -0.37823932191431281 0.35548757599615399 0 -0.38539473684528258 0.34837828204789067 0 -0.3787015959315434 0.33902802614693439 0 -0.3926828114571661 0.35541775914535301 0 -0.37823932191431281 0.35548757599615399 0 -0.38539473684528258 0.34837828204789067 0 -0.3787015959315434 0.33902802614693439 0 -0.37816355277066899 0.32985684687273281 0 -0.39158393304450312 0.32769252248945308 0 -0.39400561065841477 0.34382680172727831 0 -0.38539473684528258 0.34837828204789067 0 -0.3787015959315434 0.33902802614693439 0 -0.39158393304450312 0.32769252248945308 0 -0.37442838800096029 0.32044424157556423 0 -0.37816355277066899 0.32985684687273281 0 -0.39158393304450312 0.32769252248945308 0 -0.37442838800096029 0.32044424157556423 0 -0.38613629988198012 0.31665983269396758 0 -0.39158393304450312 0.32769252248945308 0 -0.37442838800096029 0.32044424157556423 0 -0.38613629988198012 0.31665983269396758 0 -0.37442838800096029 0.32044424157556423 0 -0.37415321332832258 0.31386652142517069 0 -0.39158393304450312 0.32769252248945308 0 -0.4039094095666334 0.320812311378052 0 -0.40925887999808552 0.33516025262174892 0 -0.38613629988198012 0.31665983269396758 0 -0.39830358576524327 0.31266849694114901 0 -0.39158393304450312 0.32769252248945308 0 -0.39830358576524327 0.31266849694114901 0 -0.39158393304450312 0.32769252248945308 0 -0.4039094095666334 0.320812311378052 0 -0.39830358576524327 0.31266849694114901 0 -0.4039094095666334 0.320812311378052 0 -0.40826549608127172 0.31275764886218971 0 -0.3787015959315434 0.33902802614693439 0 -0.40777024278950652 0.33697950655941222 0 -0.39158393304450312 0.32769252248945308 0 -0.40925887999808552 0.33516025262174892 0 -0.39158393304450312 0.32769252248945308 0 -0.40777024278950652 0.33697950655941222 0 -0.40925887999808552 0.33516025262174892 0 -0.3787015959315434 0.33902802614693439 0 -0.39158393304450312 0.32769252248945308 0 -0.40777024278950652 0.33697950655941222 0 -0.39400561065841477 0.34382680172727831 0 -0.3787015959315434 0.33902802614693439 0 -0.40777024278950652 0.33697950655941222 0 -0.39400561065841477 0.34382680172727831 0 -0.40586906590548888 0.3393029225754271 0 -0.40777024278950652 0.33697950655941222 0 -0.40105078960399698 0.34662517948293931 0 -0.40586906590548888 0.3393029225754271 0 -0.40105078960399698 0.34662517948293931 0 -0.40586906590548888 0.3393029225754271 0 -0.4080564418273247 0.34368885170405422 0 -0.4080564418273247 0.34368885170405422 0 -0.41125860555200922 0.34134685969384471 0 -0.40895905381070002 0.33957121871677393 0 -0.40586906590548888 0.3393029225754271 0 -0.4080564418273247 0.34368885170405422 0 -0.40895905381070002 0.33957121871677393 0 -0.4080564418273247 0.34368885170405422 0 -0.41125860555200922 0.34134685969384471 0 -0.41366919887348358 0.34576378073699821 0 -0.41125860555200922 0.34134685969384471 0 -0.41273643032526569 0.33662953043248711 0 -0.41433336845197538 0.3415594658204692 0 -0.41125860555200922 0.34134685969384471 0 -0.41433336845197538 0.3415594658204692 0 -0.41366919887348358 0.34576378073699821 0 -0.41125860555200922 0.34134685969384471 0 -0.41273643032526569 0.33662953043248711 0 -0.40895905381070002 0.33957121871677393 0 -0.41273643032526569 0.33662953043248711 0 -0.40777024278950652 0.33697950655941222 0 -0.41273643032526569 0.33662953043248711 0 -0.40895905381070002 0.33957121871677393 0 -0.40777024278950652 0.33697950655941222 0 -0.41273643032526569 0.33662953043248711 0 -0.40777024278950652 0.33697950655941222 0 -0.40925887999808552 0.33516025262174892 0 -0.40777024278950652 0.33697950655941222 0 -0.40925887999808552 0.33516025262174892 0 -0.40586906590548888 0.3393029225754271 0 -0.40895905381070002 0.33957121871677393 0 -0.40777024278950652 0.33697950655941222 0 -0.40586906590548888 0.3393029225754271 0 -0.40777024278950652 0.33697950655941222 0 -0.41273643032526569 0.33662953043248711 0 -0.40925887999808552 0.33516025262174892 0 -0.40925887999808552 0.33516025262174892 0 -0.42024067891477529 0.32173946694831868 0 -0.40925887999808552 0.33516025262174892 0 -0.42071708592719742 0.33131558094746122 0 -0.42024067891477529 0.32173946694831868 0 -0.41273643032526569 0.33662953043248711 0 -0.40925887999808552 0.33516025262174892 0 -0.42071708592719742 0.33131558094746122 0 -0.41273643032526569 0.33662953043248711 0 -0.4199209072431685 0.34318781838679219 0 -0.41433336845197538 0.3415594658204692 0 -0.4199209072431685 0.34318781838679219 0 -0.41433336845197538 0.3415594658204692 0 -0.41366919887348358 0.34576378073699821 0 -0.40925887999808552 0.33516025262174892 0 -0.41892768793075841 0.31754462100172592 0 -0.42141481873501418 0.31567829233095179 0 -0.40925887999808552 0.33516025262174892 0 -0.411263050936583 0.31954773430139438 0 -0.41892768793075841 0.31754462100172592 0 -0.40925887999808552 0.33516025262174892 0 -0.42141481873501418 0.31567829233095179 0 -0.40925887999808552 0.33516025262174892 0 -0.42024067891477529 0.32173946694831868 0 -0.42141481873501418 0.31567829233095179 0 -0.411263050936583 0.31954773430139438 0 -0.40826549608127172 0.31275764886218971 0 -0.41647318301620623 0.31168328686166002 0 -0.4039094095666334 0.320812311378052 0 -0.411263050936583 0.31954773430139438 0 -0.40826549608127172 0.31275764886218971 0 -0.4039094095666334 0.320812311378052 0 -0.40925887999808552 0.33516025262174892 0 -0.411263050936583 0.31954773430139438 0 -0.411263050936583 0.31954773430139438 0 -0.41892768793075841 0.31754462100172592 0 -0.41647318301620623 0.31168328686166002 0 -0.41892768793075841 0.31754462100172592 0 -0.42141481873501418 0.31567829233095179 0 -0.41892768793075841 0.31754462100172592 0 -0.42141481873501418 0.31567829233095179 0 -0.41647318301620623 0.31168328686166002 0 -0.42024067891477529 0.32173946694831868 0 -0.43790895006943947 0.32081412042189511 0 -0.43122247783146522 0.30831868127488848 0 -0.42024067891477529 0.32173946694831868 0 -0.42938605365092247 0.3272194948190838 0 -0.43790895006943947 0.32081412042189511 0 -0.42024067891477529 0.32173946694831868 0 -0.42141481873501418 0.31567829233095179 0 -0.43122247783146522 0.30831868127488848 0 -0.42024067891477529 0.32173946694831868 0 -0.43122247783146522 0.30831868127488848 0 -0.42071708592719742 0.33131558094746122 0 -0.42024067891477529 0.32173946694831868 0 -0.42938605365092247 0.3272194948190838 0 -0.42938605365092247 0.3272194948190838 0 -0.43674098495811231 0.33493788649063261 0 -0.43790895006943947 0.32081412042189511 0 -0.43790895006943947 0.32081412042189511 0 -0.4401847358662575 0.3127477530096977 0 -0.43122247783146522 0.30831868127488848 0 -0.41273643032526569 0.33662953043248711 0 -0.43674098495811231 0.33493788649063261 0 -0.42071708592719742 0.33131558094746122 0 -0.42938605365092247 0.3272194948190838 0 -0.43674098495811231 0.33493788649063261 0 -0.41273643032526569 0.33662953043248711 0 -0.4199209072431685 0.34318781838679219 0 -0.43385085243219867 0.34555045147446217 0 -0.41273643032526569 0.33662953043248711 0 -0.42071708592719742 0.33131558094746122 0 -0.43674098495811231 0.33493788649063261 0 -0.41273643032526569 0.33662953043248711 0 -0.43385085243219867 0.34555045147446217 0 -0.41273643032526569 0.33662953043248711 0 -0.43674098495811231 0.33493788649063261 0 -0.43385085243219867 0.34555045147446217 0 -0.43385085243219867 0.34555045147446217 0 -0.4302486007270056 0.35272204188882378 0 -0.42573384958437638 0.34916959158482058 0 -0.43385085243219867 0.34555045147446217 0 -0.43539550265875948 0.35741731211322858 0 -0.44110397924445488 0.35756373905142852 0 -0.43539550265875948 0.35741731211322858 0 -0.4302486007270056 0.35272204188882378 0 -0.42757171946388478 0.35850981688022993 0 -0.43385085243219867 0.34555045147446217 0 -0.43539550265875948 0.35741731211322858 0 -0.4302486007270056 0.35272204188882378 0 -0.4302486007270056 0.35272204188882378 0 -0.42480748600639012 0.35482075793933809 0 -0.42573384958437638 0.34916959158482058 0 -0.4302486007270056 0.35272204188882378 0 -0.42757171946388478 0.35850981688022993 0 -0.42480748600639012 0.35482075793933809 0 -0.42757171946388478 0.35850981688022993 0 -0.42480748600639012 0.35482075793933809 0 -0.42195212413097077 0.36043988011418487 0 -0.4199209072431685 0.34318781838679219 0 -0.43385085243219867 0.34555045147446217 0 -0.42573384958437638 0.34916959158482058 0 -0.42480748600639012 0.35482075793933809 0 -0.42573384958437638 0.34916959158482058 0 -0.41984140151311927 0.3495668882346864 0 -0.4199209072431685 0.34318781838679219 0 -0.42573384958437638 0.34916959158482058 0 -0.41984140151311927 0.3495668882346864 0 -0.4199209072431685 0.34318781838679219 0 -0.41984140151311927 0.3495668882346864 0 -0.41366919887348358 0.34576378073699821 0 -0.41984140151311927 0.3495668882346864 0 -0.41366919887348358 0.34576378073699821 0 -0.41404230344944593 0.35073751764187411 0 -0.42480748600639012 0.35482075793933809 0 -0.41984140151311927 0.3495668882346864 0 -0.41755863725870102 0.35684421707679032 0 -0.42480748600639012 0.35482075793933809 0 -0.41755863725870102 0.35684421707679032 0 -0.42195212413097077 0.36043988011418487 0 -0.41984140151311927 0.3495668882346864 0 -0.41755863725870102 0.35684421707679032 0 -0.41404230344944593 0.35073751764187411 0 -0.41755863725870102 0.35684421707679032 0 -0.41125051028190041 0.35540848222164118 0 -0.41404230344944593 0.35073751764187411 0 -0.41125051028190041 0.35540848222164118 0 -0.40888688292129022 0.34941903462410451 0 -0.41404230344944593 0.35073751764187411 0 -0.41755863725870102 0.35684421707679032 0 -0.41125051028190041 0.35540848222164118 0 -0.41142088061722581 0.36176204086772412 0 -0.40553625032349627 0.36037170931698131 0 -0.41125051028190041 0.35540848222164118 0 -0.41142088061722581 0.36176204086772412 0 -0.40525205349158999 0.35429039595711992 0 -0.40553625032349627 0.36037170931698131 0 -0.41125051028190041 0.35540848222164118 0 -0.40525205349158999 0.35429039595711992 0 -0.41125051028190041 0.35540848222164118 0 -0.40888688292129022 0.34941903462410451 0 -0.4080564418273247 0.34368885170405422 0 -0.40888688292129022 0.34941903462410451 0 -0.41366919887348358 0.34576378073699821 0 -0.40888688292129022 0.34941903462410451 0 -0.41366919887348358 0.34576378073699821 0 -0.41404230344944593 0.35073751764187411 0 -0.4250431626101242 0.37647010748543319 0 -0.40086489287733429 0.37467411733839928 0 -0.42486892241442098 0.36677785020884007 0 -0.40086489287733429 0.37467411733839928 0 -0.42486892241442098 0.36677785020884007 0 -0.40086489287733429 0.37467411733839928 0 -0.41378193274770297 0.36450427419225789 0 -0.42486892241442098 0.36677785020884007 0 -0.40544017780568847 0.3661562974108753 0 -0.40086489287733429 0.37467411733839928 0 -0.41378193274770297 0.36450427419225789 0 -0.40544017780568847 0.3661562974108753 0 -0.41142088061722581 0.36176204086772412 0 -0.41378193274770297 0.36450427419225789 0 -0.40553625032349627 0.36037170931698131 0 -0.40544017780568847 0.3661562974108753 0 -0.41142088061722581 0.36176204086772412 0 -0.41755863725870102 0.35684421707679032 0 -0.41378193274770297 0.36450427419225789 0 -0.42195212413097077 0.36043988011418487 0 -0.41378193274770297 0.36450427419225789 0 -0.42486892241442098 0.36677785020884007 0 -0.42195212413097077 0.36043988011418487 0 -0.41755863725870102 0.35684421707679032 0 -0.41142088061722581 0.36176204086772412 0 -0.41378193274770297 0.36450427419225789 0 -0.4250431626101242 0.37647010748543319 0 -0.44885864134335329 0.37135067543599282 0 -0.4250431626101242 0.37647010748543319 0 -0.42486892241442098 0.36677785020884007 0 -0.44885864134335329 0.37135067543599282 0 -0.42486892241442098 0.36677785020884007 0 -0.448872951951507 0.35888158307927881 0 -0.43539550265875948 0.35741731211322858 0 -0.42486892241442098 0.36677785020884007 0 -0.44110397924445488 0.35756373905142852 0 -0.43539550265875948 0.35741731211322858 0 -0.42757171946388478 0.35850981688022993 0 -0.42486892241442098 0.36677785020884007 0 -0.42757171946388478 0.35850981688022993 0 -0.42486892241442098 0.36677785020884007 0 -0.42195212413097077 0.36043988011418487 0 -0.42486892241442098 0.36677785020884007 0 -0.44885864134335329 0.37135067543599282 0 -0.448872951951507 0.35888158307927881 0 -0.44802713623065987 0.37645115623263098 0 -0.4250431626101242 0.37647010748543319 0 -0.44885864134335329 0.37135067543599282 0 -0.42486892241442098 0.36677785020884007 0 -0.44110397924445488 0.35756373905142852 0 -0.448872951951507 0.35888158307927881 0 -0.44885864134335329 0.37135067543599282 0 -0.448872951951507 0.35888158307927881 0 -0.44885864134335329 0.37135067543599282 0 -0.448872951951507 0.35888158307927881 0 -0.45634368000688869 0.36512471152292858 0 -0.43385085243219867 0.34555045147446217 0 -0.45496527453913199 0.35447137251643651 0 -0.44889299330712729 0.34242966823447613 0 -0.43385085243219867 0.34555045147446217 0 -0.45496527453913199 0.35447137251643651 0 -0.43385085243219867 0.34555045147446217 0 -0.44887533288597797 0.35680703170406669 0 -0.45496527453913199 0.35447137251643651 0 -0.43385085243219867 0.34555045147446217 0 -0.44110397924445488 0.35756373905142852 0 -0.44887533288597797 0.35680703170406669 0 -0.44110397924445488 0.35756373905142852 0 -0.44887533288597797 0.35680703170406669 0 -0.448872951951507 0.35888158307927881 0 -0.44887533288597797 0.35680703170406669 0 -0.448872951951507 0.35888158307927881 0 -0.44887533288597797 0.35680703170406669 0 -0.448872951951507 0.35888158307927881 0 -0.45496527453913199 0.35447137251643651 0 -0.448872951951507 0.35888158307927881 0 -0.45496527453913199 0.35447137251643651 0 -0.47186707529616939 0.3513175305497272 0 -0.448872951951507 0.35888158307927881 0 -0.47186707529616939 0.3513175305497272 0 -0.448872951951507 0.35888158307927881 0 -0.45634368000688869 0.36512471152292858 0 -0.47186707529616939 0.3513175305497272 0 -0.45911772068334677 0.34536620346235469 0 -0.45496527453913199 0.35447137251643651 0 -0.47186707529616939 0.3513175305497272 0 -0.45911772068334677 0.34536620346235469 0 -0.45496527453913199 0.35447137251643651 0 -0.44889299330712729 0.34242966823447613 0 -0.46572599417265398 0.36772482908493609 0 -0.45634368000688869 0.36512471152292858 0 -0.47186707529616939 0.3513175305497272 0 -0.46059005399087027 0.38292215568240928 0 -0.44885864134335329 0.37135067543599282 0 -0.46572599417265398 0.36772482908493609 0 -0.44885864134335329 0.37135067543599282 0 -0.46572599417265398 0.36772482908493609 0 -0.44885864134335329 0.37135067543599282 0 -0.46572599417265398 0.36772482908493609 0 -0.45634368000688869 0.36512471152292858 0 -0.47832653283541199 0.38608194873200979 0 -0.46572599417265398 0.36772482908493609 0 -0.48259334700195489 0.36409898273387958 0 -0.46572599417265398 0.36772482908493609 0 -0.48259334700195489 0.36409898273387958 0 -0.47186707529616939 0.3513175305497272 0 -0.46572599417265398 0.36772482908493609 0 -0.48259334700195489 0.36409898273387958 0 -0.47186707529616939 0.3513175305497272 0 -0.494861198640831 0.34375347802017348 0 -0.47186707529616939 0.3513175305497272 0 -0.48536711719674469 0.35339641184703091 0 -0.494861198640831 0.34375347802017348 0 -0.48259334700195489 0.36409898273387958 0 -0.47186707529616939 0.3513175305497272 0 -0.48536711719674469 0.35339641184703091 0 -0.48259334700195489 0.36409898273387958 0 -0.49214684784802371 0.35441565608434311 0 -0.48536711719674469 0.35339641184703091 0 -0.49214684784802371 0.35441565608434311 0 -0.5 0.36887446842263683 0 -0.5 0.34271985673358363 0 -0.49214684784802371 0.35441565608434311 0 -0.48536711719674469 0.35339641184703091 0 -0.494861198640831 0.34375347802017348 0 -0.49214684784802371 0.35441565608434311 0 -0.494861198640831 0.34375347802017348 0 -0.5 0.34271985673358363 0 -0.48850556386005051 0.3766603246979251 0 -0.48259334700195489 0.36409898273387958 0 -0.5 0.36887446842263683 0 -0.48259334700195489 0.36409898273387958 0 -0.49214684784802371 0.35441565608434311 0 -0.5 0.36887446842263683 0 -0.485708092488497 0.3189911195031831 0 -0.5 0.31656524504453032 0 -0.48475009422380527 0.3315545986069256 0 -0.485708092488497 0.3189911195031831 0 -0.5 0.31656524504453032 0 -0.48583489694974541 0.30845327583860088 0 -0.5 0.31656524504453032 0 -0.5 0.34271985673358363 0 -0.48475009422380527 0.3315545986069256 0 -0.494861198640831 0.34375347802017348 0 -0.5 0.34271985673358363 0 -0.48475009422380527 0.3315545986069256 0 -0.48475009422380527 0.3315545986069256 0 -0.46074553959095882 0.3332462425487791 0 -0.47186707529616939 0.3513175305497272 0 -0.494861198640831 0.34375347802017348 0 -0.48475009422380527 0.3315545986069256 0 -0.47186707529616939 0.3513175305497272 0 -0.48475009422380527 0.3315545986069256 0 -0.46074553959095882 0.3332462425487791 0 -0.48475009422380527 0.3315545986069256 0 -0.47224737878043732 0.31939135852267558 0 -0.46074553959095882 0.3332462425487791 0 -0.485708092488497 0.3189911195031831 0 -0.48475009422380527 0.3315545986069256 0 -0.47224737878043732 0.31939135852267558 0 -0.485708092488497 0.3189911195031831 0 -0.47224737878043732 0.31939135852267558 0 -0.48583489694974541 0.30845327583860088 0 -0.47224737878043732 0.31939135852267558 0 -0.46258830912673421 0.31343425170936878 0 -0.46074553959095882 0.3332462425487791 0 -0.46258830912673421 0.31343425170936878 0 -0.46074553959095882 0.3332462425487791 0 -0.45107709460752138 0.31557533431346357 0 -0.45911772068334677 0.34536620346235469 0 -0.47186707529616939 0.3513175305497272 0 -0.46074553959095882 0.3332462425487791 0 -0.45911772068334677 0.34536620346235469 0 -0.46074553959095882 0.3332462425487791 0 -0.44889299330712729 0.34242966823447613 0 -0.43674098495811231 0.33493788649063261 0 -0.46074553959095882 0.3332462425487791 0 -0.43674098495811231 0.33493788649063261 0 -0.46074553959095882 0.3332462425487791 0 -0.44889299330712729 0.34242966823447613 0 -0.43674098495811231 0.33493788649063261 0 -0.46074553959095882 0.3332462425487791 0 -0.43790895006943947 0.32081412042189511 0 -0.43674098495811231 0.33493788649063261 0 -0.43385085243219867 0.34555045147446217 0 -0.44889299330712729 0.34242966823447613 0 -0.46074553959095882 0.3332462425487791 0 -0.45107709460752138 0.31557533431346357 0 -0.43790895006943947 0.32081412042189511 0 -0.45107709460752138 0.31557533431346357 0 -0.43790895006943947 0.32081412042189511 0 -0.4401847358662575 0.3127477530096977 0 -0.44444415583193408 0.29216055381020578 0 -0.43122247783146522 0.30831868127488848 0 -0.44810052680614793 0.29565349026271098 0 -0.43122247783146522 0.30831868127488848 0 -0.44368336155109173 0.30649675881006838 0 -0.44810052680614793 0.29565349026271098 0 -0.43122247783146522 0.30831868127488848 0 -0.4401847358662575 0.3127477530096977 0 -0.44368336155109173 0.30649675881006838 0 -0.43122247783146522 0.30831868127488848 0 -0.44444415583193408 0.29216055381020578 0 -0.44810052680614793 0.29565349026271098 0 -0.43122247783146522 0.30831868127488848 0 -0.45107709460752138 0.31557533431346357 0 -0.4401847358662575 0.3127477530096977 0 -0.44368336155109173 0.30649675881006838 0 -0.44368336155109173 0.30649675881006838 0 -0.44996115485610377 0.3015940899144034 0 -0.4551770389262465 0.30483297142504889 0 -0.44368336155109173 0.30649675881006838 0 -0.44996115485610377 0.3015940899144034 0 -0.44810052680614793 0.29565349026271098 0 -0.45288369214092922 0.29939313915978533 0 -0.44996115485610377 0.3015940899144034 0 -0.44810052680614793 0.29565349026271098 0 -0.45288369214092922 0.29939313915978533 0 -0.44996115485610377 0.3015940899144034 0 -0.4551770389262465 0.30483297142504889 0 -0.45107709460752138 0.31557533431346357 0 -0.44368336155109173 0.30649675881006838 0 -0.4551770389262465 0.30483297142504889 0 -0.44702735364695217 0.27675533545947301 0 -0.43422108619098299 0.29621681389521232 0 -0.44444415583193408 0.29216055381020578 0 -0.44702735364695217 0.27675533545947301 0 -0.43422108619098299 0.29621681389521232 0 -0.44702735364695217 0.27675533545947301 0 -0.43274811138672559 0.28469846643612018 0 -0.43422108619098299 0.29621681389521232 0 -0.44810052680614793 0.29565349026271098 0 -0.4493542421043164 0.28919027156790111 0 -0.45395006383388498 0.28587005882998617 0 -0.44444415583193408 0.29216055381020578 0 -0.44810052680614793 0.29565349026271098 0 -0.4493542421043164 0.28919027156790111 0 -0.44444415583193408 0.29216055381020578 0 -0.4493542421043164 0.28919027156790111 0 -0.44702735364695217 0.27675533545947301 0 -0.4493542421043164 0.28919027156790111 0 -0.45395006383388498 0.28587005882998617 0 -0.44702735364695217 0.27675533545947301 0 -0.44810052680614793 0.29565349026271098 0 -0.45395006383388498 0.28587005882998617 0 -0.46497857578083068 0.28298829925053381 0 -0.44810052680614793 0.29565349026271098 0 -0.4593999708052337 0.29480301670676529 0 -0.46497857578083068 0.28298829925053381 0 -0.44810052680614793 0.29565349026271098 0 -0.46497857578083068 0.28298829925053381 0 -0.45288369214092922 0.29939313915978533 0 -0.44810052680614793 0.29565349026271098 0 -0.4593999708052337 0.29480301670676529 0 -0.4593999708052337 0.29480301670676529 0 -0.46827174088950307 0.29409138505043392 0 -0.46497857578083068 0.28298829925053381 0 -0.46258830912673421 0.31343425170936878 0 -0.45107709460752138 0.31557533431346357 0 -0.4551770389262465 0.30483297142504889 0 -0.45288369214092922 0.29939313915978533 0 -0.4593999708052337 0.29480301670676529 0 -0.4551770389262465 0.30483297142504889 0 -0.4593999708052337 0.29480301670676529 0 -0.4551770389262465 0.30483297142504889 0 -0.46625021185001803 0.30380681263807602 0 -0.4593999708052337 0.29480301670676529 0 -0.46827174088950307 0.29409138505043392 0 -0.46625021185001803 0.30380681263807602 0 -0.47224737878043732 0.31939135852267558 0 -0.46258830912673421 0.31343425170936878 0 -0.46625021185001803 0.30380681263807602 0 -0.46258830912673421 0.31343425170936878 0 -0.4551770389262465 0.30483297142504889 0 -0.46625021185001803 0.30380681263807602 0 -0.47551717359816043 0.30301602212345602 0 -0.4769183937012712 0.29196404103452073 0 -0.48583489694974541 0.30845327583860088 0 -0.47224737878043732 0.31939135852267558 0 -0.46625021185001803 0.30380681263807602 0 -0.47551717359816043 0.30301602212345602 0 -0.47224737878043732 0.31939135852267558 0 -0.47551717359816043 0.30301602212345602 0 -0.48583489694974541 0.30845327583860088 0 -0.46827174088950307 0.29409138505043392 0 -0.46625021185001803 0.30380681263807602 0 -0.47551717359816043 0.30301602212345602 0 -0.46827174088950307 0.29409138505043392 0 -0.46497857578083068 0.28298829925053381 0 -0.4769183937012712 0.29196404103452073 0 -0.4769183937012712 0.29196404103452073 0 -0.48757792524538679 0.2814999319082685 0 -0.48583489694974541 0.30845327583860088 0 -0.46827174088950307 0.29409138505043392 0 -0.47551717359816043 0.30301602212345602 0 -0.4769183937012712 0.29196404103452073 0 -0.46497857578083068 0.28298829925053381 0 -0.47783287987075052 0.28169384510791978 0 -0.4769183937012712 0.29196404103452073 0 -0.47783287987075052 0.28169384510791978 0 -0.4769183937012712 0.29196404103452073 0 -0.48757792524538679 0.2814999319082685 0 -0.5 0.29041063335547701 0 -0.48757792524538679 0.2814999319082685 0 -0.48583489694974541 0.30845327583860088 0 -0.48757792524538679 0.2814999319082685 0 -0.48583489694974541 0.30845327583860088 0 -0.5 0.31656524504453032 0 -0.5 0.29041063335547701 0 -0.48583489694974541 0.30845327583860088 0 -0.5 0.23810140997737081 0 -0.5 0.26425602166642381 0 -0.48932095354102823 0.25454658797793611 0 -0.48757792524538679 0.2814999319082685 0 -0.48932095354102823 0.25454658797793611 0 -0.48366697684514259 0.26703881783025729 0 -0.48757792524538679 0.2814999319082685 0 -0.5 0.26425602166642381 0 -0.48932095354102823 0.25454658797793611 0 -0.48757792524538679 0.2814999319082685 0 -0.48932095354102823 0.25454658797793611 0 -0.5 0.29041063335547701 0 -0.48757792524538679 0.2814999319082685 0 -0.5 0.26425602166642381 0 -0.46497857578083068 0.28298829925053381 0 -0.48185662475551339 0.27032310823835648 0 -0.46497857578083068 0.28298829925053381 0 -0.47783287987075052 0.28169384510791978 0 -0.48185662475551339 0.27032310823835648 0 -0.48366697684514259 0.26703881783025729 0 -0.45893043448094739 0.2699305570534084 0 -0.48757792524538679 0.2814999319082685 0 -0.48366697684514259 0.26703881783025729 0 -0.48185662475551339 0.27032310823835648 0 -0.48366697684514259 0.26703881783025729 0 -0.48185662475551339 0.27032310823835648 0 -0.47235815296560851 0.27257019559313889 0 -0.46497857578083068 0.28298829925053381 0 -0.48185662475551339 0.27032310823835648 0 -0.47235815296560851 0.27257019559313889 0 -0.48366697684514259 0.26703881783025729 0 -0.46959483388743167 0.25994315597580908 0 -0.45893043448094739 0.2699305570534084 0 -0.48366697684514259 0.26703881783025729 0 -0.47235815296560851 0.27257019559313889 0 -0.45893043448094739 0.2699305570534084 0 -0.47783287987075052 0.28169384510791978 0 -0.48757792524538679 0.2814999319082685 0 -0.48185662475551339 0.27032310823835648 0 -0.48932095354102823 0.25454658797793611 0 -0.48366697684514259 0.26703881783025729 0 -0.47792533453874358 0.25606878273296479 0 -0.48366697684514259 0.26703881783025729 0 -0.46959483388743167 0.25994315597580908 0 -0.47792533453874358 0.25606878273296479 0 -0.47864167104372218 0.246590621409366 0 -0.48932095354102823 0.25454658797793611 0 -0.47792533453874358 0.25606878273296479 0 -0.47864167104372218 0.246590621409366 0 -0.47792533453874358 0.25606878273296479 0 -0.46938038244821267 0.25133041049185839 0 -0.46959483388743167 0.25994315597580908 0 -0.47792533453874358 0.25606878273296479 0 -0.46938038244821267 0.25133041049185839 0 -0.46959483388743167 0.25994315597580908 0 -0.46938038244821267 0.25133041049185839 0 -0.45807104112411212 0.25534721177055669 0 -0.46959483388743167 0.25994315597580908 0 -0.45807104112411212 0.25534721177055669 0 -0.45893043448094739 0.2699305570534084 0 -0.45807104112411212 0.25534721177055669 0 -0.45893043448094739 0.2699305570534084 0 -0.44442574262614493 0.25832327296872359 0 -0.45395006383388498 0.28587005882998617 0 -0.46497857578083068 0.28298829925053381 0 -0.45893043448094739 0.2699305570534084 0 -0.45395006383388498 0.28587005882998617 0 -0.45893043448094739 0.2699305570534084 0 -0.44702735364695217 0.27675533545947301 0 -0.46497857578083068 0.28298829925053381 0 -0.47235815296560851 0.27257019559313889 0 -0.45893043448094739 0.2699305570534084 0 -0.45893043448094739 0.2699305570534084 0 -0.43419389211675241 0.27282229627655952 0 -0.45893043448094739 0.2699305570534084 0 -0.44442574262614493 0.25832327296872359 0 -0.43419389211675241 0.27282229627655952 0 -0.45893043448094739 0.2699305570534084 0 -0.44702735364695217 0.27675533545947301 0 -0.43419389211675241 0.27282229627655952 0 -0.44702735364695217 0.27675533545947301 0 -0.43419389211675241 0.27282229627655952 0 -0.43274811138672559 0.28469846643612018 0 -0.45046339488490522 0.249057113070103 0 -0.45807104112411212 0.25534721177055669 0 -0.44442574262614493 0.25832327296872359 0 -0.44062222049055039 0.24203477259657111 0 -0.44442574262614493 0.25832327296872359 0 -0.42503978512155383 0.25887440404814072 0 -0.44062222049055039 0.24203477259657111 0 -0.42503978512155383 0.25887440404814072 0 -0.44442574262614493 0.25832327296872359 0 -0.42503978512155383 0.25887440404814072 0 -0.43419389211675241 0.27282229627655952 0 -0.42503978512155383 0.25887440404814072 0 -0.40945734975255721 0.27571403549971041 0 -0.40585136056822319 0.25674789398696107 0 -0.4198454647722451 0.23985190764030939 0 -0.42503978512155383 0.25887440404814072 0 -0.40585136056822319 0.25674789398696107 0 -0.40945734975255721 0.27571403549971041 0 -0.43419389211675241 0.27282229627655952 0 -0.42503978512155383 0.25887440404814072 0 -0.40945734975255721 0.27571403549971041 0 -0.42503978512155383 0.25887440404814072 0 -0.40945734975255721 0.27571403549971041 0 -0.43419389211675241 0.27282229627655952 0 -0.40945734975255721 0.27571403549971041 0 -0.43419389211675241 0.27282229627655952 0 -0.4229835889384117 0.28415291652507912 0 -0.43419389211675241 0.27282229627655952 0 -0.43274811138672559 0.28469846643612018 0 -0.4229835889384117 0.28415291652507912 0 -0.43274811138672559 0.28469846643612018 0 -0.43422108619098299 0.29621681389521232 0 -0.42519236151645012 0.29288975242762622 0 -0.43274811138672559 0.28469846643612018 0 -0.42519236151645012 0.29288975242762622 0 -0.4229835889384117 0.28415291652507912 0 -0.42141481873501418 0.31567829233095179 0 -0.43422108619098299 0.29621681389521232 0 -0.42141481873501418 0.31567829233095179 0 -0.43422108619098299 0.29621681389521232 0 -0.42237726971740519 0.30236741203524931 0 -0.44444415583193408 0.29216055381020578 0 -0.43422108619098299 0.29621681389521232 0 -0.43122247783146522 0.30831868127488848 0 -0.42141481873501418 0.31567829233095179 0 -0.43422108619098299 0.29621681389521232 0 -0.43122247783146522 0.30831868127488848 0 -0.43422108619098299 0.29621681389521232 0 -0.42519236151645012 0.29288975242762622 0 -0.42237726971740519 0.30236741203524931 0 -0.42141481873501418 0.31567829233095179 0 -0.43122247783146522 0.30831868127488848 0 -0.42237726971740519 0.30236741203524931 0 -0.41647318301620623 0.31168328686166002 0 -0.40812109447663159 0.30329838776079099 0 -0.42141481873501418 0.31567829233095179 0 -0.42237726971740519 0.30236741203524931 0 -0.41647318301620623 0.31168328686166002 0 -0.42237726971740519 0.30236741203524931 0 -0.40812109447663159 0.30329838776079099 0 -0.41256551749876041 0.29129965580367562 0 -0.40826549608127172 0.31275764886218971 0 -0.41647318301620623 0.31168328686166002 0 -0.40812109447663159 0.30329838776079099 0 -0.40945734975255721 0.27571403549971041 0 -0.4229835889384117 0.28415291652507912 0 -0.41256551749876041 0.29129965580367562 0 -0.42519236151645012 0.29288975242762622 0 -0.4229835889384117 0.28415291652507912 0 -0.41256551749876041 0.29129965580367562 0 -0.42519236151645012 0.29288975242762622 0 -0.42237726971740519 0.30236741203524931 0 -0.41256551749876041 0.29129965580367562 0 -0.40945734975255721 0.27571403549971041 0 -0.39180528154043992 0.29479027846244049 0 -0.39350738277932218 0.27757861076756318 0 -0.40945734975255721 0.27571403549971041 0 -0.39180528154043992 0.29479027846244049 0 -0.40812109447663159 0.30329838776079099 0 -0.41256551749876041 0.29129965580367562 0 -0.39180528154043992 0.29479027846244049 0 -0.40945734975255721 0.27571403549971041 0 -0.41256551749876041 0.29129965580367562 0 -0.39180528154043992 0.29479027846244049 0 -0.38613629988198012 0.31665983269396758 0 -0.39830358576524327 0.31266849694114901 0 -0.39180528154043992 0.29479027846244049 0 -0.39830358576524327 0.31266849694114901 0 -0.40812109447663159 0.30329838776079099 0 -0.39180528154043992 0.29479027846244049 0 -0.39830358576524327 0.31266849694114901 0 -0.40826549608127172 0.31275764886218971 0 -0.40812109447663159 0.30329838776079099 0 -0.39180528154043992 0.29479027846244049 0 -0.37819889022761238 0.29924868842846319 0 -0.37415321332832258 0.31386652142517069 0 -0.38613629988198012 0.31665983269396758 0 -0.39180528154043992 0.29479027846244049 0 -0.37415321332832258 0.31386652142517069 0 -0.39180528154043992 0.29479027846244049 0 -0.37415321332832258 0.31386652142517069 0 -0.39180528154043992 0.29479027846244049 0 -0.37819889022761238 0.29924868842846319 0 -0.37870614451813112 0.28175948497688769 0 -0.39180528154043992 0.29479027846244049 0 -0.37870614451813112 0.28175948497688769 0 -0.39350738277932218 0.27757861076756318 0 -0.37870614451813112 0.28175948497688769 0 -0.37647038179830861 0.26645711442365799 0 -0.39350738277932218 0.27757861076756318 0 -0.37647038179830861 0.26645711442365799 0 -0.39336972403141229 0.26369738761855421 0 -0.39350738277932218 0.27757861076756318 0 -0.38790582398472923 0.24962922847932231 0 -0.37647038179830861 0.26645711442365799 0 -0.39336972403141229 0.26369738761855421 0 -0.38790582398472923 0.24962922847932231 0 -0.37647038179830861 0.26645711442365799 0 -0.36318679658289171 0.25196182354824148 0 -0.40945734975255721 0.27571403549971041 0 -0.40585136056822319 0.25674789398696107 0 -0.39336972403141229 0.26369738761855421 0 -0.38790582398472923 0.24962922847932231 0 -0.40585136056822319 0.25674789398696107 0 -0.39336972403141229 0.26369738761855421 0 -0.40945734975255721 0.27571403549971041 0 -0.39336972403141229 0.26369738761855421 0 -0.39350738277932218 0.27757861076756318 0 -0.40945734975255721 0.27571403549971041 0 -0.39350738277932218 0.27757861076756318 0 -0.35583614606747688 0.27501819518035592 0 -0.36318679658289171 0.25196182354824148 0 -0.33952374355129727 0.25899057541505788 0 -0.37647038179830861 0.26645711442365799 0 -0.35583614606747688 0.27501819518035592 0 -0.36318679658289171 0.25196182354824148 0 -0.37870614451813112 0.28175948497688769 0 -0.37647038179830861 0.26645711442365799 0 -0.35583614606747688 0.27501819518035592 0 -0.37819889022761238 0.29924868842846319 0 -0.37870614451813112 0.28175948497688769 0 -0.36775571630023218 0.2927315942663431 0 -0.37870614451813112 0.28175948497688769 0 -0.35583614606747688 0.27501819518035592 0 -0.36775571630023218 0.2927315942663431 0 -0.37819889022761238 0.29924868842846319 0 -0.36899777432263853 0.30469822459034263 0 -0.37415321332832258 0.31386652142517069 0 -0.36899777432263853 0.30469822459034263 0 -0.36272901898995358 0.31473918551029578 0 -0.37415321332832258 0.31386652142517069 0 -0.37819889022761238 0.29924868842846319 0 -0.36775571630023218 0.2927315942663431 0 -0.36899777432263853 0.30469822459034263 0 -0.36775571630023218 0.2927315942663431 0 -0.36899777432263853 0.30469822459034263 0 -0.35931620367806588 0.30475084950198522 0 -0.36775571630023218 0.2927315942663431 0 -0.35931620367806588 0.30475084950198522 0 -0.35261706249820868 0.29381533636168528 0 -0.36899777432263853 0.30469822459034263 0 -0.35931620367806588 0.30475084950198522 0 -0.36272901898995358 0.31473918551029578 0 -0.35931620367806588 0.30475084950198522 0 -0.35261706249820868 0.29381533636168528 0 -0.34344143829887858 0.30736403781452232 0 -0.35931620367806588 0.30475084950198522 0 -0.34344143829887858 0.30736403781452232 0 -0.35467675850453528 0.31743756764607989 0 -0.35931620367806588 0.30475084950198522 0 -0.35467675850453528 0.31743756764607989 0 -0.36272901898995358 0.31473918551029578 0 -0.35583614606747688 0.27501819518035592 0 -0.36775571630023218 0.2927315942663431 0 -0.35261706249820868 0.29381533636168528 0 -0.35583614606747688 0.27501819518035592 0 -0.35261706249820868 0.29381533636168528 0 -0.33673580814638959 0.28921200504521999 0 -0.35261706249820868 0.29381533636168528 0 -0.33673580814638959 0.28921200504521999 0 -0.34344143829887858 0.30736403781452232 0 -0.33673580814638959 0.28921200504521999 0 -0.32075162894010661 0.28280614760534989 0 -0.33379142081270979 0.2734424933293601 0 -0.34344143829887858 0.30736403781452232 0 -0.31699951866320542 0.30755322334125379 0 -0.34344143829887858 0.30736403781452232 0 -0.31699951866320542 0.30755322334125379 0 -0.33459812393413729 0.32207732583041709 0 -0.33673580814638959 0.28921200504521999 0 -0.34344143829887858 0.30736403781452232 0 -0.31699951866320542 0.30755322334125379 0 -0.33673580814638959 0.28921200504521999 0 -0.31699951866320542 0.30755322334125379 0 -0.32075162894010661 0.28280614760534989 0 -0.31699951866320542 0.30755322334125379 0 -0.32075162894010661 0.28280614760534989 0 -0.30493521127791462 0.28695781074044469 0 -0.32075162894010661 0.28280614760534989 0 -0.31931282352829687 0.26617321261290411 0 -0.33379142081270979 0.2734424933293601 0 -0.32075162894010661 0.28280614760534989 0 -0.31931282352829687 0.26617321261290411 0 -0.30493521127791462 0.28695781074044469 0 -0.35583614606747688 0.27501819518035592 0 -0.33673580814638959 0.28921200504521999 0 -0.33379142081270979 0.2734424933293601 0 -0.35583614606747688 0.27501819518035592 0 -0.33379142081270979 0.2734424933293601 0 -0.33952374355129727 0.25899057541505788 0 -0.31931282352829687 0.26617321261290411 0 -0.33379142081270979 0.2734424933293601 0 -0.33952374355129727 0.25899057541505788 0 -0.32200613725511351 0.24850726385495631 0 -0.31931282352829687 0.26617321261290411 0 -0.33952374355129727 0.25899057541505788 0 -0.32200613725511351 0.24850726385495631 0 -0.31931282352829687 0.26617321261290411 0 -0.30640548876467488 0.25787073169030861 0 -0.31931282352829687 0.26617321261290411 0 -0.30640548876467488 0.25787073169030861 0 -0.3010630097917536 0.27273037638764702 0 -0.31931282352829687 0.26617321261290411 0 -0.3010630097917536 0.27273037638764702 0 -0.30493521127791462 0.28695781074044469 0 -0.31931282352829687 0.26617321261290411 0 -0.30493521127791462 0.28695781074044469 0 -0.3010630097917536 0.27273037638764702 0 -0.29309283898050847 0.28048055459605348 0 -0.30493521127791462 0.28695781074044469 0 -0.3010630097917536 0.27273037638764702 0 -0.29309283898050847 0.28048055459605348 0 -0.28156868640737281 0.27216957229852412 0 -0.30640548876467488 0.25787073169030861 0 -0.3010630097917536 0.27273037638764702 0 -0.28156868640737281 0.27216957229852412 0 -0.30640548876467488 0.25787073169030861 0 -0.28156868640737281 0.27216957229852412 0 -0.28729818335365731 0.26780124082781631 0 -0.28156868640737281 0.27216957229852412 0 -0.28729818335365731 0.26780124082781631 0 -0.27880962639343299 0.26078065685839158 0 -0.29309283898050847 0.28048055459605348 0 -0.28156868640737281 0.27216957229852412 0 -0.28401529333418091 0.28255904946725641 0 -0.30640548876467488 0.25787073169030861 0 -0.28156868640737281 0.27216957229852412 0 -0.29125564533142001 0.24067530578368901 0 -0.30640548876467488 0.25787073169030861 0 -0.28729818335365731 0.26780124082781631 0 -0.29125564533142001 0.24067530578368901 0 -0.28729818335365731 0.26780124082781631 0 -0.27880962639343299 0.26078065685839158 0 -0.29125564533142001 0.24067530578368901 0 -0.28729818335365731 0.26780124082781631 0 -0.29125564533142001 0.24067530578368901 0 -0.26892213733164849 0.25365425058065472 0 -0.27880962639343299 0.26078065685839158 0 -0.26892213733164849 0.25365425058065472 0 -0.27880962639343299 0.26078065685839158 0 -0.26500347954306669 0.26960291480127369 0 -0.28156868640737281 0.27216957229852412 0 -0.25673188405007052 0.28646841290673969 0 -0.28156868640737281 0.27216957229852412 0 -0.26500347954306669 0.26960291480127369 0 -0.25673188405007052 0.28646841290673969 0 -0.28156868640737281 0.27216957229852412 0 -0.27880962639343299 0.26078065685839158 0 -0.26500347954306669 0.26960291480127369 0 -0.28156868640737281 0.27216957229852412 0 -0.27479408276187339 0.28687287199942368 0 -0.28401529333418091 0.28255904946725641 0 -0.26500347954306669 0.26960291480127369 0 -0.25265925142613249 0.26128234508680298 0 -0.25673188405007052 0.28646841290673969 0 -0.26892213733164849 0.25365425058065472 0 -0.26500347954306669 0.26960291480127369 0 -0.25265925142613249 0.26128234508680298 0 -0.25621817608628389 0.2460965770837312 0 -0.26892213733164849 0.25365425058065472 0 -0.25265925142613249 0.26128234508680298 0 -0.25505401324638421 0.30366623925853881 0 -0.26661761067819428 0.2958317928062858 0 -0.26721257633701828 0.30790943684761429 0 -0.25505401324638421 0.30366623925853881 0 -0.26721257633701828 0.30790943684761429 0 -0.25901197930261888 0.31383205914145501 0 -0.26721257633701828 0.30790943684761429 0 -0.25901197930261888 0.31383205914145501 0 -0.26528599585519008 0.31471464054907522 0 -0.25505401324638421 0.30366623925853881 0 -0.25901197930261888 0.31383205914145501 0 -0.24885494741763489 0.31718848033418301 0 -0.25505401324638421 0.30366623925853881 0 -0.25673188405007052 0.28646841290673969 0 -0.26661761067819428 0.2958317928062858 0 -0.26661761067819428 0.2958317928062858 0 -0.27573637841232751 0.29432500902679382 0 -0.27326763327687947 0.30016750757533939 0 -0.28156868640737281 0.27216957229852412 0 -0.25673188405007052 0.28646841290673969 0 -0.27479408276187339 0.28687287199942368 0 -0.26661761067819428 0.2958317928062858 0 -0.27479408276187339 0.28687287199942368 0 -0.27573637841232751 0.29432500902679382 0 -0.25673188405007052 0.28646841290673969 0 -0.26661761067819428 0.2958317928062858 0 -0.27479408276187339 0.28687287199942368 0 -0.27479408276187339 0.28687287199942368 0 -0.28401529333418091 0.28255904946725641 0 -0.28313816676434478 0.29069510378855717 0 -0.27479408276187339 0.28687287199942368 0 -0.27573637841232751 0.29432500902679382 0 -0.28313816676434478 0.29069510378855717 0 -0.27573637841232751 0.29432500902679382 0 -0.28086439858034518 0.29805776896436298 0 -0.28313816676434478 0.29069510378855717 0 -0.28086439858034518 0.29805776896436298 0 -0.27753065875984329 0.30327410754998058 0 -0.28274061889410179 0.30278083970340541 0 -0.27753065875984329 0.30327410754998058 0 -0.27514776209796898 0.30785266251660498 0 -0.28274061889410179 0.30278083970340541 0 -0.27753065875984329 0.30327410754998058 0 -0.27326763327687947 0.30016750757533939 0 -0.27348155140824082 0.30658246875079598 0 -0.28086439858034518 0.29805776896436298 0 -0.27753065875984329 0.30327410754998058 0 -0.27326763327687947 0.30016750757533939 0 -0.27573637841232751 0.29432500902679382 0 -0.28086439858034518 0.29805776896436298 0 -0.27326763327687947 0.30016750757533939 0 -0.26661761067819428 0.2958317928062858 0 -0.27326763327687947 0.30016750757533939 0 -0.26721257633701828 0.30790943684761429 0 -0.26721257633701828 0.30790943684761429 0 -0.27514776209796898 0.30785266251660498 0 -0.27123720609067609 0.3158529302113221 0 -0.26721257633701828 0.30790943684761429 0 -0.27348155140824082 0.30658246875079598 0 -0.27514776209796898 0.30785266251660498 0 -0.26721257633701828 0.30790943684761429 0 -0.27514776209796898 0.30785266251660498 0 -0.27326763327687947 0.30016750757533939 0 -0.26721257633701828 0.30790943684761429 0 -0.27348155140824082 0.30658246875079598 0 -0.27514776209796898 0.30785266251660498 0 -0.2851872012256097 0.31550597615259851 0 -0.27753065875984329 0.30327410754998058 0 -0.27348155140824082 0.30658246875079598 0 -0.27514776209796898 0.30785266251660498 0 -0.27348155140824082 0.30658246875079598 0 -0.27514776209796898 0.30785266251660498 0 -0.27514776209796898 0.30785266251660498 0 -0.2905575990275322 0.30774240886798532 0 -0.27514776209796898 0.30785266251660498 0 -0.2905575990275322 0.30774240886798532 0 -0.2851872012256097 0.31550597615259851 0 -0.2896026760048197 0.2969772506180926 0 -0.2905575990275322 0.30774240886798532 0 -0.30493521127791462 0.28695781074044469 0 -0.27514776209796898 0.30785266251660498 0 -0.28274061889410179 0.30278083970340541 0 -0.2905575990275322 0.30774240886798532 0 -0.2905575990275322 0.30774240886798532 0 -0.2851872012256097 0.31550597615259851 0 -0.28274061889410179 0.30278083970340541 0 -0.2896026760048197 0.2969772506180926 0 -0.2905575990275322 0.30774240886798532 0 -0.28086439858034518 0.29805776896436298 0 -0.28274061889410179 0.30278083970340541 0 -0.2896026760048197 0.2969772506180926 0 -0.28401529333418091 0.28255904946725641 0 -0.28313816676434478 0.29069510378855717 0 -0.29095683727235372 0.28753395384208091 0 -0.28086439858034518 0.29805776896436298 0 -0.2896026760048197 0.2969772506180926 0 -0.28313816676434478 0.29069510378855717 0 -0.2896026760048197 0.2969772506180926 0 -0.28313816676434478 0.29069510378855717 0 -0.29095683727235372 0.28753395384208091 0 -0.2896026760048197 0.2969772506180926 0 -0.29095683727235372 0.28753395384208091 0 -0.30493521127791462 0.28695781074044469 0 -0.29309283898050847 0.28048055459605348 0 -0.29095683727235372 0.28753395384208091 0 -0.30493521127791462 0.28695781074044469 0 -0.29309283898050847 0.28048055459605348 0 -0.28401529333418091 0.28255904946725641 0 -0.29095683727235372 0.28753395384208091 0 -0.31699951866320542 0.30755322334125379 0 -0.2905575990275322 0.30774240886798532 0 -0.30563014257680821 0.31779627416788381 0 -0.31699951866320542 0.30755322334125379 0 -0.2905575990275322 0.30774240886798532 0 -0.2905575990275322 0.30774240886798532 0 -0.30493521127791462 0.28695781074044469 0 -0.31699951866320542 0.30755322334125379 0 -0.2905575990275322 0.30774240886798532 0 -0.30493521127791462 0.28695781074044469 0 -0.30538608464820588 0.33090408634228141 0 -0.28942706780696309 0.31873813168532672 0 -0.30563014257680821 0.31779627416788381 0 -0.30538608464820588 0.33090408634228141 0 -0.31811651498789978 0.32488887006413791 0 -0.30563014257680821 0.31779627416788381 0 -0.30538608464820588 0.33090408634228141 0 -0.2937791937433501 0.31637108240395312 0 -0.30538608464820588 0.33090408634228141 0 -0.3017933608705089 0.344447887165377 0 -0.32134510148944728 0.34307004099923799 0 -0.30538608464820588 0.33090408634228141 0 -0.29093013722955491 0.33661105704622479 0 -0.3017933608705089 0.344447887165377 0 -0.30538608464820588 0.33090408634228141 0 -0.29093013722955491 0.33661105704622479 0 -0.2885751077852815 0.32830696870384862 0 -0.29093013722955491 0.33661105704622479 0 -0.28224162025157051 0.34582573333151501 0 -0.3017933608705089 0.344447887165377 0 -0.2885751077852815 0.32830696870384862 0 -0.28146834572906437 0.33465123959114113 0 -0.2790455690922089 0.3243844570517187 0 -0.29093013722955491 0.33661105704622479 0 -0.2885751077852815 0.32830696870384862 0 -0.28146834572906437 0.33465123959114113 0 -0.29093013722955491 0.33661105704622479 0 -0.28146834572906437 0.33465123959114113 0 -0.28224162025157051 0.34582573333151501 0 -0.30538608464820588 0.33090408634228141 0 -0.2885751077852815 0.32830696870384862 0 -0.28942706780696309 0.31873813168532672 0 -0.30538608464820588 0.33090408634228141 0 -0.28942706780696309 0.31873813168532672 0 -0.2937791937433501 0.31637108240395312 0 -0.28942706780696309 0.31873813168532672 0 -0.2937791937433501 0.31637108240395312 0 -0.2851872012256097 0.31550597615259851 0 -0.2905575990275322 0.30774240886798532 0 -0.30563014257680821 0.31779627416788381 0 -0.2937791937433501 0.31637108240395312 0 -0.2905575990275322 0.30774240886798532 0 -0.2937791937433501 0.31637108240395312 0 -0.2851872012256097 0.31550597615259851 0 -0.28942706780696309 0.31873813168532672 0 -0.2937791937433501 0.31637108240395312 0 -0.2885751077852815 0.32830696870384862 0 -0.28942706780696309 0.31873813168532672 0 -0.2790455690922089 0.3243844570517187 0 -0.28942706780696309 0.31873813168532672 0 -0.2790455690922089 0.3243844570517187 0 -0.2851872012256097 0.31550597615259851 0 -0.2790455690922089 0.3243844570517187 0 -0.28942706780696309 0.31873813168532672 0 -0.2851872012256097 0.31550597615259851 0 -0.2790455690922089 0.3243844570517187 0 -0.28942706780696309 0.31873813168532672 0 -0.2851872012256097 0.31550597615259851 0 -0.27514776209796898 0.30785266251660498 0 -0.2851872012256097 0.31550597615259851 0 -0.27699557949655113 0.31645322234696882 0 -0.2851872012256097 0.31550597615259851 0 -0.27699557949655113 0.31645322234696882 0 -0.2790455690922089 0.3243844570517187 0 -0.27514776209796898 0.30785266251660498 0 -0.27699557949655113 0.31645322234696882 0 -0.27123720609067609 0.3158529302113221 0 -0.27001263578126711 0.32263717043347712 0 -0.2790455690922089 0.3243844570517187 0 -0.25910260253645218 0.33523110656146687 0 -0.26721257633701828 0.30790943684761429 0 -0.27123720609067609 0.3158529302113221 0 -0.26528599585519008 0.31471464054907522 0 -0.27699557949655113 0.31645322234696882 0 -0.27123720609067609 0.3158529302113221 0 -0.27001263578126711 0.32263717043347712 0 -0.27123720609067609 0.3158529302113221 0 -0.26528599585519008 0.31471464054907522 0 -0.26368222169044719 0.32126413599590953 0 -0.27123720609067609 0.3158529302113221 0 -0.27001263578126711 0.32263717043347712 0 -0.26368222169044719 0.32126413599590953 0 -0.27699557949655113 0.31645322234696882 0 -0.27001263578126711 0.32263717043347712 0 -0.2790455690922089 0.3243844570517187 0 -0.2790455690922089 0.3243844570517187 0 -0.25910260253645218 0.33523110656146687 0 -0.2790455690922089 0.3243844570517187 0 -0.26824012707650141 0.34000504592112352 0 -0.28146834572906437 0.33465123959114113 0 -0.2790455690922089 0.3243844570517187 0 -0.26824012707650141 0.34000504592112352 0 -0.2790455690922089 0.3243844570517187 0 -0.26824012707650141 0.34000504592112352 0 -0.25910260253645218 0.33523110656146687 0 -0.28146834572906437 0.33465123959114113 0 -0.26824012707650141 0.34000504592112352 0 -0.28224162025157051 0.34582573333151501 0 -0.25910260253645218 0.33523110656146687 0 -0.25407523553642281 0.3497448278934856 0 -0.23915963598069589 0.34607775607121571 0 -0.25910260253645218 0.33523110656146687 0 -0.25407523553642281 0.3497448278934856 0 -0.26309588156361569 0.34576168367824162 0 -0.26824012707650141 0.34000504592112352 0 -0.25910260253645218 0.33523110656146687 0 -0.26309588156361569 0.34576168367824162 0 -0.25910260253645218 0.33523110656146687 0 -0.25451497659773847 0.32559442806853028 0 -0.24843663428782739 0.33758714710907461 0 -0.25451497659773847 0.32559442806853028 0 -0.25901197930261888 0.31383205914145501 0 -0.24885494741763489 0.31718848033418301 0 -0.25451497659773847 0.32559442806853028 0 -0.25901197930261888 0.31383205914145501 0 -0.26368222169044719 0.32126413599590953 0 -0.25901197930261888 0.31383205914145501 0 -0.26528599585519008 0.31471464054907522 0 -0.26368222169044719 0.32126413599590953 0 -0.27001263578126711 0.32263717043347712 0 -0.25910260253645218 0.33523110656146687 0 -0.26368222169044719 0.32126413599590953 0 -0.25910260253645218 0.33523110656146687 0 -0.25451497659773847 0.32559442806853028 0 -0.26368222169044719 0.32126413599590953 0 -0.26470209097228098 0.37140351159401941 0 -0.25562758441007077 0.36194187249828802 0 -0.266880351992417 0.3582272519812631 0 -0.26470209097228098 0.37140351159401941 0 -0.25213085833087667 0.37355178257669552 0 -0.25562758441007077 0.36194187249828802 0 -0.25213085833087667 0.37355178257669552 0 -0.25562758441007077 0.36194187249828802 0 -0.24329038266145239 0.36134909741814653 0 -0.25562758441007077 0.36194187249828802 0 -0.25407523553642281 0.3497448278934856 0 -0.24329038266145239 0.36134909741814653 0 -0.25407523553642281 0.3497448278934856 0 -0.26309588156361569 0.34576168367824162 0 -0.266880351992417 0.3582272519812631 0 -0.25562758441007077 0.36194187249828802 0 -0.25407523553642281 0.3497448278934856 0 -0.266880351992417 0.3582272519812631 0 -0.266880351992417 0.3582272519812631 0 -0.27640009279511962 0.35155878343443242 0 -0.28837447244510311 0.36628710188532532 0 -0.26309588156361569 0.34576168367824162 0 -0.266880351992417 0.3582272519812631 0 -0.27640009279511962 0.35155878343443242 0 -0.26824012707650141 0.34000504592112352 0 -0.26309588156361569 0.34576168367824162 0 -0.27640009279511962 0.35155878343443242 0 -0.26824012707650141 0.34000504592112352 0 -0.27640009279511962 0.35155878343443242 0 -0.28224162025157051 0.34582573333151501 0 -0.266880351992417 0.3582272519812631 0 -0.28837447244510311 0.36628710188532532 0 -0.266880351992417 0.3582272519812631 0 -0.28837447244510311 0.36628710188532532 0 -0.27747916353329311 0.37529003384729942 0 -0.26470209097228098 0.37140351159401941 0 -0.266880351992417 0.3582272519812631 0 -0.27747916353329311 0.37529003384729942 0 -0.28837447244510311 0.36628710188532532 0 -0.28714059247178902 0.37543321948423419 0 -0.27747916353329311 0.37529003384729942 0 -0.28837447244510311 0.36628710188532532 0 -0.28956810344150979 0.35324588380912608 0 -0.30292150033679799 0.36018321991941088 0 -0.28837447244510311 0.36628710188532532 0 -0.29874239202075642 0.37528196759933868 0 -0.28714059247178902 0.37543321948423419 0 -0.28224162025157051 0.34582573333151501 0 -0.3017933608705089 0.344447887165377 0 -0.28224162025157051 0.34582573333151501 0 -0.28956810344150979 0.35324588380912608 0 -0.3017933608705089 0.344447887165377 0 -0.27640009279511962 0.35155878343443242 0 -0.28224162025157051 0.34582573333151501 0 -0.28956810344150979 0.35324588380912608 0 -0.27640009279511962 0.35155878343443242 0 -0.28837447244510311 0.36628710188532532 0 -0.28956810344150979 0.35324588380912608 0 -0.3017933608705089 0.344447887165377 0 -0.31193410579265052 0.3536039280541286 0 -0.30292150033679799 0.36018321991941088 0 -0.28956810344150979 0.35324588380912608 0 -0.3017933608705089 0.344447887165377 0 -0.30292150033679799 0.36018321991941088 0 -0.3017933608705089 0.344447887165377 0 -0.32134510148944728 0.34307004099923799 0 -0.3017933608705089 0.344447887165377 0 -0.31193410579265052 0.3536039280541286 0 -0.32134510148944728 0.34307004099923799 0 -0.31193410579265052 0.3536039280541286 0 -0.30292150033679799 0.36018321991941088 0 -0.31340485972314069 0.36375751913665871 0 -0.28837447244510311 0.36628710188532532 0 -0.30292150033679799 0.36018321991941088 0 -0.30986859289778912 0.37434695178938759 0 -0.28837447244510311 0.36628710188532532 0 -0.30986859289778912 0.37434695178938759 0 -0.28837447244510311 0.36628710188532532 0 -0.30986859289778912 0.37434695178938759 0 -0.29874239202075642 0.37528196759933868 0 -0.30292150033679799 0.36018321991941088 0 -0.30986859289778912 0.37434695178938759 0 -0.31340485972314069 0.36375751913665871 0 -0.30986859289778912 0.37434695178938759 0 -0.31340485972314069 0.36375751913665871 0 -0.32167824364597858 0.36970754211250728 0 -0.31340485972314069 0.36375751913665871 0 -0.32243327870136801 0.35950699838777223 0 -0.32167824364597858 0.36970754211250728 0 -0.32243327870136801 0.35950699838777223 0 -0.32167824364597858 0.36970754211250728 0 -0.33132177355711989 0.36851943955526861 0 -0.32167824364597858 0.36970754211250728 0 -0.33132177355711989 0.36851943955526861 0 -0.33136271335047512 0.38240680169344993 0 -0.32243327870136801 0.35950699838777223 0 -0.33132177355711989 0.36851943955526861 0 -0.33989838930305449 0.35721367281084643 0 -0.33132177355711989 0.36851943955526861 0 -0.34304766554360439 0.37232322735168022 0 -0.33136271335047512 0.38240680169344993 0 -0.33132177355711989 0.36851943955526861 0 -0.34304766554360439 0.37232322735168022 0 -0.33989838930305449 0.35721367281084643 0 -0.33989838930305449 0.35721367281084643 0 -0.32134510148944728 0.34307004099923799 0 -0.33989838930305449 0.35721367281084643 0 -0.32134510148944728 0.34307004099923799 0 -0.3500233487104954 0.34104903357308669 0 -0.32243327870136801 0.35950699838777223 0 -0.33989838930305449 0.35721367281084643 0 -0.32134510148944728 0.34307004099923799 0 -0.31193410579265052 0.3536039280541286 0 -0.32243327870136801 0.35950699838777223 0 -0.32134510148944728 0.34307004099923799 0 -0.31193410579265052 0.3536039280541286 0 -0.31340485972314069 0.36375751913665871 0 -0.32243327870136801 0.35950699838777223 0 -0.30538608464820588 0.33090408634228141 0 -0.32134510148944728 0.34307004099923799 0 -0.30538608464820588 0.33090408634228141 0 -0.32134510148944728 0.34307004099923799 0 -0.31811651498789978 0.32488887006413791 0 -0.32134510148944728 0.34307004099923799 0 -0.31811651498789978 0.32488887006413791 0 -0.33459812393413729 0.32207732583041709 0 -0.31699951866320542 0.30755322334125379 0 -0.30563014257680821 0.31779627416788381 0 -0.31811651498789978 0.32488887006413791 0 -0.31699951866320542 0.30755322334125379 0 -0.31811651498789978 0.32488887006413791 0 -0.33459812393413729 0.32207732583041709 0 -0.32134510148944728 0.34307004099923799 0 -0.34342889555096417 0.33131534648734451 0 -0.3500233487104954 0.34104903357308669 0 -0.32134510148944728 0.34307004099923799 0 -0.33459812393413729 0.32207732583041709 0 -0.34342889555096417 0.33131534648734451 0 -0.32134510148944728 0.34307004099923799 0 -0.3500233487104954 0.34104903357308669 0 -0.3500233487104954 0.34104903357308669 0 -0.35650114511620551 0.33294276438790088 0 -0.36794029410566942 0.33226259727897972 0 -0.34342889555096417 0.33131534648734451 0 -0.3500233487104954 0.34104903357308669 0 -0.35650114511620551 0.33294276438790088 0 -0.33459812393413729 0.32207732583041709 0 -0.34342889555096417 0.33131534648734451 0 -0.35467675850453528 0.31743756764607989 0 -0.34344143829887858 0.30736403781452232 0 -0.33459812393413729 0.32207732583041709 0 -0.35467675850453528 0.31743756764607989 0 -0.35650114511620551 0.33294276438790088 0 -0.35467675850453528 0.31743756764607989 0 -0.36272901898995358 0.31473918551029578 0 -0.34342889555096417 0.33131534648734451 0 -0.35650114511620551 0.33294276438790088 0 -0.35467675850453528 0.31743756764607989 0 -0.35650114511620551 0.33294276438790088 0 -0.36272901898995358 0.31473918551029578 0 -0.37415321332832258 0.31386652142517069 0 -0.35650114511620551 0.33294276438790088 0 -0.37415321332832258 0.31386652142517069 0 -0.35650114511620551 0.33294276438790088 0 -0.37442838800096029 0.32044424157556423 0 -0.37415321332832258 0.31386652142517069 0 -0.37816355277066899 0.32985684687273281 0 -0.37442838800096029 0.32044424157556423 0 -0.36794029410566942 0.33226259727897972 0 -0.3787015959315434 0.33902802614693439 0 -0.3500233487104954 0.34104903357308669 0 -0.36794029410566942 0.33226259727897972 0 -0.35650114511620551 0.33294276438790088 0 -0.37442838800096029 0.32044424157556423 0 -0.36794029410566942 0.33226259727897972 0 -0.3787015959315434 0.33902802614693439 0 -0.3500233487104954 0.34104903357308669 0 -0.3787015959315434 0.33902802614693439 0 -0.37816355277066899 0.32985684687273281 0 -0.36794029410566942 0.33226259727897972 0 -0.3787015959315434 0.33902802614693439 0 -0.3500233487104954 0.34104903357308669 0 -0.36501658974902518 0.35367198233662939 0 -0.37823932191431281 0.35548757599615399 0 -0.3787015959315434 0.33902802614693439 0 -0.36501658974902518 0.35367198233662939 0 -0.37823932191431281 0.35548757599615399 0 -0.36501658974902518 0.35367198233662939 0 -0.37024808467873749 0.36543132639488701 0 -0.36501658974902518 0.35367198233662939 0 -0.37024808467873749 0.36543132639488701 0 -0.35845167711666143 0.37135730462245548 0 -0.37949655700884349 0.37153259571527891 0 -0.37024808467873749 0.36543132639488701 0 -0.36758280318953013 0.37627165255961892 0 -0.37024808467873749 0.36543132639488701 0 -0.35845167711666143 0.37135730462245548 0 -0.36758280318953013 0.37627165255961892 0 -0.36501658974902518 0.35367198233662939 0 -0.35845167711666143 0.37135730462245548 0 -0.35334750121980912 0.35582299833575448 0 -0.34304766554360439 0.37232322735168022 0 -0.33989838930305449 0.35721367281084643 0 -0.35845167711666143 0.37135730462245548 0 -0.33989838930305449 0.35721367281084643 0 -0.35845167711666143 0.37135730462245548 0 -0.35334750121980912 0.35582299833575448 0 -0.33989838930305449 0.35721367281084643 0 -0.35845167711666143 0.37135730462245548 0 -0.33989838930305449 0.35721367281084643 0 -0.3500233487104954 0.34104903357308669 0 -0.35334750121980912 0.35582299833575448 0 -0.3500233487104954 0.34104903357308669 0 -0.36501658974902518 0.35367198233662939 0 -0.35334750121980912 0.35582299833575448 0 -0.35285683380316007 0.39046665159751448 0 -0.36027192889352422 0.40897543894708011 0 -0.34270265381785459 0.40768080501023862 0 -0.34304766554360439 0.37232322735168022 0 -0.35845167711666143 0.37135730462245548 0 -0.35285683380316007 0.39046665159751448 0 -0.37686086334024771 0.38257038446795849 0 -0.35285683380316007 0.39046665159751448 0 -0.37686086334024771 0.38257038446795849 0 -0.35285683380316007 0.39046665159751448 0 -0.36758280318953013 0.37627165255961892 0 -0.35845167711666143 0.37135730462245548 0 -0.35285683380316007 0.39046665159751448 0 -0.36758280318953013 0.37627165255961892 0 -0.37686086334024771 0.38257038446795849 0 -0.37949655700884349 0.37153259571527891 0 -0.36758280318953013 0.37627165255961892 0 -0.37769092578324193 0.39977892163450779 0 -0.35285683380316007 0.39046665159751448 0 -0.37769092578324193 0.39977892163450779 0 -0.37686086334024771 0.38257038446795849 0 -0.35285683380316007 0.39046665159751448 0 -0.37769092578324193 0.39977892163450779 0 -0.35285683380316007 0.39046665159751448 0 -0.36027192889352422 0.40897543894708011 0 -0.37875820238401509 0.42613984176471847 0 -0.37769092578324193 0.39977892163450779 0 -0.36027192889352422 0.40897543894708011 0 -0.37875820238401509 0.42613984176471847 0 -0.36027192889352422 0.40897543894708011 0 -0.36048507512927641 0.42545129427310208 0 -0.37875820238401509 0.42613984176471847 0 -0.36048507512927641 0.42545129427310208 0 -0.35499138700470761 0.44318849185793469 0 -0.37875820238401509 0.42613984176471847 0 -0.35499138700470761 0.44318849185793469 0 -0.34691622899781399 0.42161541908905831 0 -0.33223168701086447 0.43660936806356893 0 -0.35499138700470761 0.44318849185793469 0 -0.36048507512927641 0.42545129427310208 0 -0.34691622899781399 0.42161541908905831 0 -0.35499138700470761 0.44318849185793469 0 -0.36027192889352422 0.40897543894708011 0 -0.34691622899781399 0.42161541908905831 0 -0.34270265381785459 0.40768080501023862 0 -0.36027192889352422 0.40897543894708011 0 -0.36048507512927641 0.42545129427310208 0 -0.34691622899781399 0.42161541908905831 0 -0.34270265381785459 0.40768080501023862 0 -0.32841174735063311 0.41773478988879181 0 -0.32505653004414181 0.39961172552874852 0 -0.34691622899781399 0.42161541908905831 0 -0.34270265381785459 0.40768080501023862 0 -0.32841174735063311 0.41773478988879181 0 -0.34691622899781399 0.42161541908905831 0 -0.32841174735063311 0.41773478988879181 0 -0.33223168701086447 0.43660936806356893 0 -0.32841174735063311 0.41773478988879181 0 -0.33223168701086447 0.43660936806356893 0 -0.31148998866141242 0.43181261152586448 0 -0.32841174735063311 0.41773478988879181 0 -0.31441363705571701 0.41408607272300291 0 -0.32505653004414181 0.39961172552874852 0 -0.32841174735063311 0.41773478988879181 0 -0.31441363705571701 0.41408607272300291 0 -0.31148998866141242 0.43181261152586448 0 -0.32505653004414181 0.39961172552874852 0 -0.31219235154091651 0.39185403334122892 0 -0.30619500853749271 0.39725637532293351 0 -0.32505653004414181 0.39961172552874852 0 -0.31778050989885959 0.38527433798844479 0 -0.31219235154091651 0.39185403334122892 0 -0.35285683380316007 0.39046665159751448 0 -0.32505653004414181 0.39961172552874852 0 -0.33136271335047512 0.38240680169344993 0 -0.35285683380316007 0.39046665159751448 0 -0.34270265381785459 0.40768080501023862 0 -0.32505653004414181 0.39961172552874852 0 -0.35285683380316007 0.39046665159751448 0 -0.32505653004414181 0.39961172552874852 0 -0.35285683380316007 0.39046665159751448 0 -0.33136271335047512 0.38240680169344993 0 -0.34304766554360439 0.37232322735168022 0 -0.35285683380316007 0.39046665159751448 0 -0.33136271335047512 0.38240680169344993 0 -0.30986859289778912 0.37434695178938759 0 -0.32167824364597858 0.36970754211250728 0 -0.33136271335047512 0.38240680169344993 0 -0.30986859289778912 0.37434695178938759 0 -0.33136271335047512 0.38240680169344993 0 -0.32505653004414181 0.39961172552874852 0 -0.33136271335047512 0.38240680169344993 0 -0.31778050989885959 0.38527433798844479 0 -0.30986859289778912 0.37434695178938759 0 -0.33136271335047512 0.38240680169344993 0 -0.31778050989885959 0.38527433798844479 0 -0.30986859289778912 0.37434695178938759 0 -0.31778050989885959 0.38527433798844479 0 -0.30574515252343709 0.38648905476423068 0 -0.30986859289778912 0.37434695178938759 0 -0.30574515252343709 0.38648905476423068 0 -0.29874239202075642 0.37528196759933868 0 -0.30574515252343709 0.38648905476423068 0 -0.29874239202075642 0.37528196759933868 0 -0.29146244090030071 0.40289140707507309 0 -0.31778050989885959 0.38527433798844479 0 -0.30574515252343709 0.38648905476423068 0 -0.31219235154091651 0.39185403334122892 0 -0.32505653004414181 0.39961172552874852 0 -0.30619500853749271 0.39725637532293351 0 -0.29725622628512233 0.40875679945997928 0 -0.32505653004414181 0.39961172552874852 0 -0.29725622628512233 0.40875679945997928 0 -0.30574515252343709 0.38648905476423068 0 -0.30619500853749271 0.39725637532293351 0 -0.29146244090030071 0.40289140707507309 0 -0.30574515252343709 0.38648905476423068 0 -0.31219235154091651 0.39185403334122892 0 -0.30619500853749271 0.39725637532293351 0 -0.30619500853749271 0.39725637532293351 0 -0.29146244090030071 0.40289140707507309 0 -0.29725622628512233 0.40875679945997928 0 -0.29146244090030071 0.40289140707507309 0 -0.2882496590958894 0.39023794275143442 0 -0.278827461574497 0.39790462172635238 0 -0.28396634188800352 0.38487377460497352 0 -0.2882496590958894 0.39023794275143442 0 -0.278827461574497 0.39790462172635238 0 -0.29146244090030071 0.40289140707507309 0 -0.278827461574497 0.39790462172635238 0 -0.27940045790464241 0.41220012044695847 0 -0.29874239202075642 0.37528196759933868 0 -0.29146244090030071 0.40289140707507309 0 -0.29874239202075642 0.37528196759933868 0 -0.29146244090030071 0.40289140707507309 0 -0.2882496590958894 0.39023794275143442 0 -0.29874239202075642 0.37528196759933868 0 -0.28396634188800352 0.38487377460497352 0 -0.28714059247178902 0.37543321948423419 0 -0.29874239202075642 0.37528196759933868 0 -0.28396634188800352 0.38487377460497352 0 -0.2882496590958894 0.39023794275143442 0 -0.28396634188800352 0.38487377460497352 0 -0.28714059247178902 0.37543321948423419 0 -0.27747916353329311 0.37529003384729942 0 -0.28396634188800352 0.38487377460497352 0 -0.27747916353329311 0.37529003384729942 0 -0.26775424033426293 0.38456849691175748 0 -0.28396634188800352 0.38487377460497352 0 -0.26775424033426293 0.38456849691175748 0 -0.278827461574497 0.39790462172635238 0 -0.26470209097228098 0.37140351159401941 0 -0.27747916353329311 0.37529003384729942 0 -0.26775424033426293 0.38456849691175748 0 -0.278827461574497 0.39790462172635238 0 -0.26298604578065232 0.3973558675440883 0 -0.2677584473194361 0.40899541659639099 0 -0.26775424033426293 0.38456849691175748 0 -0.278827461574497 0.39790462172635238 0 -0.26298604578065232 0.3973558675440883 0 -0.26298604578065232 0.3973558675440883 0 -0.25152819264859128 0.38883491631829081 0 -0.2490618870264745 0.40647588616764979 0 -0.26298604578065232 0.3973558675440883 0 -0.2677584473194361 0.40899541659639099 0 -0.2490618870264745 0.40647588616764979 0 -0.25213085833087667 0.37355178257669552 0 -0.26775424033426293 0.38456849691175748 0 -0.25152819264859128 0.38883491631829081 0 -0.26775424033426293 0.38456849691175748 0 -0.26298604578065232 0.3973558675440883 0 -0.25152819264859128 0.38883491631829081 0 -0.26470209097228098 0.37140351159401941 0 -0.25213085833087667 0.37355178257669552 0 -0.26775424033426293 0.38456849691175748 0 -0.2572482915111563 0.42152384209731297 0 -0.26330490497154813 0.43976041958731371 0 -0.24092688658692171 0.43286849171069308 0 -0.2572482915111563 0.42152384209731297 0 -0.27163392734069919 0.42205675226444578 0 -0.26330490497154813 0.43976041958731371 0 -0.2572482915111563 0.42152384209731297 0 -0.2677584473194361 0.40899541659639099 0 -0.2490618870264745 0.40647588616764979 0 -0.2572482915111563 0.42152384209731297 0 -0.2677584473194361 0.40899541659639099 0 -0.27163392734069919 0.42205675226444578 0 -0.27940045790464241 0.41220012044695847 0 -0.27163392734069919 0.42205675226444578 0 -0.28418248977984512 0.43050084655080739 0 -0.2677584473194361 0.40899541659639099 0 -0.27940045790464241 0.41220012044695847 0 -0.27163392734069919 0.42205675226444578 0 -0.278827461574497 0.39790462172635238 0 -0.2677584473194361 0.40899541659639099 0 -0.27940045790464241 0.41220012044695847 0 -0.27163392734069919 0.42205675226444578 0 -0.28418248977984512 0.43050084655080739 0 -0.26330490497154813 0.43976041958731371 0 -0.28418248977984512 0.43050084655080739 0 -0.29943060469912958 0.42576946359573847 0 -0.28981068171355151 0.44369098771903792 0 -0.29146244090030071 0.40289140707507309 0 -0.28418248977984512 0.43050084655080739 0 -0.29146244090030071 0.40289140707507309 0 -0.27940045790464241 0.41220012044695847 0 -0.28418248977984512 0.43050084655080739 0 -0.28418248977984512 0.43050084655080739 0 -0.29725622628512233 0.40875679945997928 0 -0.29943060469912958 0.42576946359573847 0 -0.29146244090030071 0.40289140707507309 0 -0.28418248977984512 0.43050084655080739 0 -0.29725622628512233 0.40875679945997928 0 -0.31441363705571701 0.41408607272300291 0 -0.32505653004414181 0.39961172552874852 0 -0.29725622628512233 0.40875679945997928 0 -0.31441363705571701 0.41408607272300291 0 -0.29725622628512233 0.40875679945997928 0 -0.29943060469912958 0.42576946359573847 0 -0.31441363705571701 0.41408607272300291 0 -0.29943060469912958 0.42576946359573847 0 -0.31148998866141242 0.43181261152586448 0 -0.29943060469912958 0.42576946359573847 0 -0.31148998866141242 0.43181261152586448 0 -0.28981068171355151 0.44369098771903792 0 -0.31148998866141242 0.43181261152586448 0 -0.30120616623050861 0.45239726712555162 0 -0.31718999816658727 0.45065056632578487 0 -0.31148998866141242 0.43181261152586448 0 -0.30120616623050861 0.45239726712555162 0 -0.31148998866141242 0.43181261152586448 0 -0.30120616623050861 0.45239726712555162 0 -0.28981068171355151 0.44369098771903792 0 -0.30120616623050861 0.45239726712555162 0 -0.29092234379960469 0.47298192272523881 0 -0.30745775624609217 0.47728579204436761 0 -0.30120616623050861 0.45239726712555162 0 -0.30745775624609217 0.47728579204436761 0 -0.31718999816658727 0.45065056632578487 0 -0.2852957606144535 0.45730244818253718 0 -0.28186649269177161 0.46567885888970018 0 -0.29092234379960469 0.47298192272523881 0 -0.30120616623050861 0.45239726712555162 0 -0.29092234379960469 0.47298192272523881 0 -0.30120616623050861 0.45239726712555162 0 -0.2852957606144535 0.45730244818253718 0 -0.29092234379960469 0.47298192272523881 0 -0.2852957606144535 0.45730244818253718 0 -0.28186649269177161 0.46567885888970018 0 -0.27690253865938408 0.45811028602654041 0 -0.28418248977984512 0.43050084655080739 0 -0.28981068171355151 0.44369098771903792 0 -0.27690253865938408 0.45811028602654041 0 -0.30120616623050861 0.45239726712555162 0 -0.2852957606144535 0.45730244818253718 0 -0.28981068171355151 0.44369098771903792 0 -0.2852957606144535 0.45730244818253718 0 -0.28981068171355151 0.44369098771903792 0 -0.27690253865938408 0.45811028602654041 0 -0.28418248977984512 0.43050084655080739 0 -0.27690253865938408 0.45811028602654041 0 -0.28418248977984512 0.43050084655080739 0 -0.27690253865938408 0.45811028602654041 0 -0.26330490497154813 0.43976041958731371 0 -0.2852957606144535 0.45730244818253718 0 -0.27690253865938408 0.45811028602654041 0 -0.28186649269177161 0.46567885888970018 0 -0.27690253865938408 0.45811028602654041 0 -0.27835780074514338 0.47366975871288508 0 -0.27690253865938408 0.45811028602654041 0 -0.25345677561811758 0.46036691342989022 0 -0.27690253865938408 0.45811028602654041 0 -0.25345677561811758 0.46036691342989022 0 -0.26590293397843329 0.47057525233348851 0 -0.25345677561811758 0.46036691342989022 0 -0.25315469521642581 0.4750486889203015 0 -0.26590293397843329 0.47057525233348851 0 -0.25345677561811758 0.46036691342989022 0 -0.26330490497154813 0.43976041958731371 0 -0.24129970279445639 0.44943490890582899 0 -0.27690253865938408 0.45811028602654041 0 -0.25345677561811758 0.46036691342989022 0 -0.26330490497154813 0.43976041958731371 0 -0.26169037092037989 0.4910190989046625 0 -0.25397816739109252 0.5 0 -0.27113802145370669 0.49283981386083792 0 -0.26169037092037989 0.4910190989046625 0 -0.25474868654415728 0.48692894813519849 0 -0.26689660829256312 0.48430763362261348 0 -0.26169037092037989 0.4910190989046625 0 -0.25397816739109252 0.5 0 -0.25474868654415728 0.48692894813519849 0 -0.25315469521642581 0.4750486889203015 0 -0.26689660829256312 0.48430763362261348 0 -0.25315469521642581 0.4750486889203015 0 -0.26689660829256312 0.48430763362261348 0 -0.26590293397843329 0.47057525233348851 0 -0.25474868654415728 0.48692894813519849 0 -0.25315469521642581 0.4750486889203015 0 -0.26689660829256312 0.48430763362261348 0 -0.27690253865938408 0.45811028602654041 0 -0.26590293397843329 0.47057525233348851 0 -0.26946370716205509 0.4860372782758946 0 -0.27690253865938408 0.45811028602654041 0 -0.26946370716205509 0.4860372782758946 0 -0.27690253865938408 0.45811028602654041 0 -0.27835780074514338 0.47366975871288508 0 -0.26946370716205509 0.4860372782758946 0 -0.26689660829256312 0.48430763362261348 0 -0.26590293397843329 0.47057525233348851 0 -0.26946370716205509 0.4860372782758946 0 -0.28186649269177161 0.46567885888970018 0 -0.27835780074514338 0.47366975871288508 0 -0.28298297564177088 0.4743823417855309 0 -0.27835780074514338 0.47366975871288508 0 -0.2798907507987049 0.48286402398659151 0 -0.28298297564177088 0.4743823417855309 0 -0.27835780074514338 0.47366975871288508 0 -0.2798907507987049 0.48286402398659151 0 -0.26946370716205509 0.4860372782758946 0 -0.26946370716205509 0.4860372782758946 0 -0.28063852136870049 0.49356657832492562 0 -0.26946370716205509 0.4860372782758946 0 -0.27113802145370669 0.49283981386083792 0 -0.28063852136870049 0.49356657832492562 0 -0.2798907507987049 0.48286402398659151 0 -0.26946370716205509 0.4860372782758946 0 -0.28063852136870049 0.49356657832492562 0 -0.25397816739109252 0.5 0 -0.27113802145370669 0.49283981386083792 0 -0.27742446875513049 0.50000000000000155 0 -0.26689660829256312 0.48430763362261348 0 -0.26946370716205509 0.4860372782758946 0 -0.27113802145370669 0.49283981386083792 0 -0.26169037092037989 0.4910190989046625 0 -0.26689660829256312 0.48430763362261348 0 -0.27113802145370669 0.49283981386083792 0 -0.26689660829256312 0.48430763362261348 0 -0.26946370716205509 0.4860372782758946 0 -0.27113802145370669 0.49283981386083792 0 -0.28063852136870049 0.49356657832492562 0 -0.27742446875513049 0.50000000000000155 0 -0.28063852136870049 0.49356657832492562 0 -0.27742446875513049 0.50000000000000155 0 -0.28063852136870049 0.49356657832492562 0 -0.27742446875513049 0.50000000000000155 0 -0.29018685806186229 0.50000000000000122 0 -0.28063852136870049 0.49356657832492562 0 -0.29018685806186229 0.50000000000000122 0 -0.29092234379960469 0.47298192272523881 0 -0.28063852136870049 0.49356657832492562 0 -0.29018685806186229 0.50000000000000122 0 -0.29018685806186229 0.50000000000000122 0 -0.29092234379960469 0.47298192272523881 0 -0.30745775624609217 0.47728579204436761 0 -0.28063852136870049 0.49356657832492562 0 -0.29092234379960469 0.47298192272523881 0 -0.2798907507987049 0.48286402398659151 0 -0.28063852136870049 0.49356657832492562 0 -0.29092234379960469 0.47298192272523881 0 -0.28186649269177161 0.46567885888970018 0 -0.28298297564177088 0.4743823417855309 0 -0.29092234379960469 0.47298192272523881 0 -0.2798907507987049 0.48286402398659151 0 -0.28298297564177088 0.4743823417855309 0 -0.29092234379960469 0.47298192272523881 0 -0.29018685806186229 0.50000000000000122 0 -0.30745775624609217 0.47728579204436761 0 -0.3640375775585698 0.5 0 -0.30745775624609217 0.47728579204436761 0 -0.33122457162539992 0.46023714195115112 0 -0.3640375775585698 0.5 0 -0.30745775624609217 0.47728579204436761 0 -0.33122457162539992 0.46023714195115112 0 -0.30745775624609217 0.47728579204436761 0 -0.31718999816658727 0.45065056632578487 0 -0.33122457162539992 0.46023714195115112 0 -0.33223168701086447 0.43660936806356893 0 -0.31148998866141242 0.43181261152586448 0 -0.31718999816658727 0.45065056632578487 0 -0.33223168701086447 0.43660936806356893 0 -0.31718999816658727 0.45065056632578487 0 -0.33122457162539992 0.46023714195115112 0 -0.33122457162539992 0.46023714195115112 0 -0.35499138700470761 0.44318849185793469 0 -0.33223168701086447 0.43660936806356893 0 -0.33122457162539992 0.46023714195115112 0 -0.35499138700470761 0.44318849185793469 0 -0.33122457162539992 0.46023714195115112 0 -0.35376164566254242 0.46494380824906301 0 -0.35499138700470761 0.44318849185793469 0 -0.38249991962136642 0.44345487931465249 0 -0.35499138700470761 0.44318849185793469 0 -0.37103467036260362 0.45695891695805302 0 -0.38249991962136642 0.44345487931465249 0 -0.37875820238401509 0.42613984176471847 0 -0.35499138700470761 0.44318849185793469 0 -0.35376164566254242 0.46494380824906301 0 -0.35499138700470761 0.44318849185793469 0 -0.37103467036260362 0.45695891695805302 0 -0.35376164566254242 0.46494380824906301 0 -0.37103467036260362 0.45695891695805302 0 -0.36943712044780219 0.47475959506207249 0 -0.33122457162539992 0.46023714195115112 0 -0.35376164566254242 0.46494380824906301 0 -0.3640375775585698 0.5 0 -0.38891458820749281 0.47713565504117422 0 -0.36943712044780219 0.47475959506207249 0 -0.3640375775585698 0.5 0 -0.35376164566254242 0.46494380824906301 0 -0.36943712044780219 0.47475959506207249 0 -0.3640375775585698 0.5 0 -0.1410608215807003 0.47118489318428192 0 -0.1506389915883973 0.47451242435581331 0 -0.15779819732271971 0.4695739402503486 0 -0.1410608215807003 0.47118489318428192 0 -0.15779819732271971 0.4695739402503486 0 -0.1455325599989582 0.47665965757352818 0 -0.14983465253105441 0.48099067897208148 0 -0.1405957742956809 0.47995063378193648 0 -0.14983465253105441 0.48099067897208148 0 -0.14427471349546869 0.48965289008050411 0 -0.1405957742956809 0.47995063378193648 0 -0.1455325599989582 0.47665965757352818 0 -0.1410608215807003 0.47118489318428192 0 -0.1506389915883973 0.47451242435581331 0 -0.1455325599989582 0.47665965757352818 0 -0.1410608215807003 0.47118489318428192 0 -0.1405957742956809 0.47995063378193648 0 -0.1506389915883973 0.47451242435581331 0 -0.15682389603308189 0.47748605108520858 0 -0.15779819732271971 0.4695739402503486 0 -0.1506389915883973 0.47451242435581331 0 -0.14983465253105441 0.48099067897208148 0 -0.15682389603308189 0.47748605108520858 0 -0.1455325599989582 0.47665965757352818 0 -0.1506389915883973 0.47451242435581331 0 -0.14983465253105441 0.48099067897208148 0 -0.14983465253105441 0.48099067897208148 0 -0.1558122254133027 0.48316327461493752 0 -0.15682389603308189 0.47748605108520858 0 -0.14983465253105441 0.48099067897208148 0 -0.1558122254133027 0.48316327461493752 0 -0.15140604362779489 0.486968875654338 0 -0.1558122254133027 0.48316327461493752 0 -0.15140604362779489 0.486968875654338 0 -0.15545271364459581 0.49281799385228547 0 -0.14983465253105441 0.48099067897208148 0 -0.15140604362779489 0.486968875654338 0 -0.14427471349546869 0.48965289008050411 0 -0.15140604362779489 0.486968875654338 0 -0.15545271364459581 0.49281799385228547 0 -0.14427471349546869 0.48965289008050411 0 -0.15453849507163009 0.5 0 -0.14427471349546869 0.48965289008050411 0 -0.12543772684428189 0.5 0 -0.15453849507163009 0.5 0 -0.15545271364459581 0.49281799385228547 0 -0.14427471349546869 0.48965289008050411 0 -0.14427471349546869 0.48965289008050411 0 -0.12543772684428189 0.5 0 -0.13178312884530541 0.48627570230508688 0 -0.14427471349546869 0.48965289008050411 0 -0.13178312884530541 0.48627570230508688 0 -0.1405957742956809 0.47995063378193648 0 -0.13178312884530541 0.48627570230508688 0 -0.1317912103042716 0.47600940211286807 0 -0.11642361318749669 0.48420448820259387 0 -0.1317912103042716 0.47600940211286807 0 -0.14083201439797821 0.46516349611765162 0 -0.12052644250191399 0.4682622397032008 0 -0.13178312884530541 0.48627570230508688 0 -0.1405957742956809 0.47995063378193648 0 -0.1317912103042716 0.47600940211286807 0 -0.1410608215807003 0.47118489318428192 0 -0.1405957742956809 0.47995063378193648 0 -0.1317912103042716 0.47600940211286807 0 -0.1410608215807003 0.47118489318428192 0 -0.1317912103042716 0.47600940211286807 0 -0.14083201439797821 0.46516349611765162 0 -0.12618187852634369 0.45882241462805679 0 -0.14083201439797821 0.46516349611765162 0 -0.12052644250191399 0.4682622397032008 0 -0.14083201439797821 0.46516349611765162 0 -0.12052644250191399 0.4682622397032008 0 -0.12618187852634369 0.45882241462805679 0 -0.13621980461969219 0.45775649261309698 0 -0.13482926781972801 0.45201676164804122 0 -0.13621980461969219 0.45775649261309698 0 -0.13482926781972801 0.45201676164804122 0 -0.1430360577347192 0.45502329805863873 0 -0.13621980461969219 0.45775649261309698 0 -0.14083201439797821 0.46516349611765162 0 -0.1430360577347192 0.45502329805863873 0 -0.12618187852634369 0.45882241462805679 0 -0.13621980461969219 0.45775649261309698 0 -0.14083201439797821 0.46516349611765162 0 -0.12618187852634369 0.45882241462805679 0 -0.13482926781972801 0.45201676164804122 0 -0.1248743097581413 0.44162978393037222 0 -0.13482926781972801 0.45201676164804122 0 -0.13973201497409549 0.44099892737807922 0 -0.1415241139788854 0.4488412036993919 0 -0.13482926781972801 0.45201676164804122 0 -0.1415241139788854 0.4488412036993919 0 -0.1430360577347192 0.45502329805863873 0 -0.13973201497409549 0.44099892737807922 0 -0.13491063247587859 0.43073185275000708 0 -0.1248743097581413 0.44162978393037222 0 -0.13482926781972801 0.45201676164804122 0 -0.13973201497409549 0.44099892737807922 0 -0.1248743097581413 0.44162978393037222 0 -0.13973201497409549 0.44099892737807922 0 -0.14849911538699881 0.44732582771280882 0 -0.14949031039727409 0.43903968606904947 0 -0.14849911538699881 0.44732582771280882 0 -0.1430360577347192 0.45502329805863873 0 -0.15230793746503779 0.45507497120342549 0 -0.13973201497409549 0.44099892737807922 0 -0.1415241139788854 0.4488412036993919 0 -0.14849911538699881 0.44732582771280882 0 -0.1415241139788854 0.4488412036993919 0 -0.14849911538699881 0.44732582771280882 0 -0.1430360577347192 0.45502329805863873 0 -0.14849911538699881 0.44732582771280882 0 -0.15230793746503779 0.45507497120342549 0 -0.15767924869329919 0.44641741059368378 0 -0.14949031039727409 0.43903968606904947 0 -0.15767924869329919 0.44641741059368378 0 -0.15912083936695831 0.4347249498771325 0 -0.14849911538699881 0.44732582771280882 0 -0.14949031039727409 0.43903968606904947 0 -0.15767924869329919 0.44641741059368378 0 -0.14083201439797821 0.46516349611765162 0 -0.16113758629404229 0.46206475253210239 0 -0.15779819732271971 0.4695739402503486 0 -0.1410608215807003 0.47118489318428192 0 -0.14083201439797821 0.46516349611765162 0 -0.15779819732271971 0.4695739402503486 0 -0.14083201439797821 0.46516349611765162 0 -0.16113758629404229 0.46206475253210239 0 -0.14083201439797821 0.46516349611765162 0 -0.15230793746503779 0.45507497120342549 0 -0.16113758629404229 0.46206475253210239 0 -0.14083201439797821 0.46516349611765162 0 -0.1430360577347192 0.45502329805863873 0 -0.15230793746503779 0.45507497120342549 0 -0.16113758629404229 0.46206475253210239 0 -0.16940388650370539 0.44815354093755089 0 -0.18144315819010631 0.45896600894655282 0 -0.16113758629404229 0.46206475253210239 0 -0.18144315819010631 0.45896600894655282 0 -0.16113758629404229 0.46206475253210239 0 -0.17453557306473899 0.46796298731641428 0 -0.15779819732271971 0.4695739402503486 0 -0.15230793746503779 0.45507497120342549 0 -0.16113758629404229 0.46206475253210239 0 -0.16013216473902109 0.45292766881669072 0 -0.16113758629404229 0.46206475253210239 0 -0.16013216473902109 0.45292766881669072 0 -0.16940388650370539 0.44815354093755089 0 -0.15767924869329919 0.44641741059368378 0 -0.16940388650370539 0.44815354093755089 0 -0.15912083936695831 0.4347249498771325 0 -0.15230793746503779 0.45507497120342549 0 -0.16013216473902109 0.45292766881669072 0 -0.15767924869329919 0.44641741059368378 0 -0.16013216473902109 0.45292766881669072 0 -0.15767924869329919 0.44641741059368378 0 -0.16940388650370539 0.44815354093755089 0 -0.1829590266345629 0.45699162349075462 0 -0.18255950863604661 0.43173185523385532 0 -0.1829590266345629 0.45699162349075462 0 -0.19557533522393281 0.44055915781337712 0 -0.18255950863604661 0.43173185523385532 0 -0.16940388650370539 0.44815354093755089 0 -0.1829590266345629 0.45699162349075462 0 -0.18255950863604661 0.43173185523385532 0 -0.16113758629404229 0.46206475253210239 0 -0.17453557306473899 0.46796298731641428 0 -0.18144315819010631 0.45896600894655282 0 -0.17453557306473899 0.46796298731641428 0 -0.18144315819010631 0.45896600894655282 0 -0.17453557306473899 0.46796298731641428 0 -0.18311948649431831 0.46713679563994498 0 -0.16940388650370539 0.44815354093755089 0 -0.18144315819010631 0.45896600894655282 0 -0.1829590266345629 0.45699162349075462 0 -0.18144315819010631 0.45896600894655282 0 -0.1829590266345629 0.45699162349075462 0 -0.18144315819010631 0.45896600894655282 0 -0.1829865290739871 0.45873048193697258 0 -0.1829590266345629 0.45699162349075462 0 -0.18144315819010631 0.45896600894655282 0 -0.1829865290739871 0.45873048193697258 0 -0.1829865290739871 0.45873048193697258 0 -0.1829590266345629 0.45699162349075462 0 -0.17453557306473899 0.46796298731641428 0 -0.18144315819010631 0.45896600894655282 0 -0.18311948649431831 0.46713679563994498 0 -0.1829865290739871 0.45873048193697258 0 -0.18311948649431831 0.46713679563994498 0 -0.18144315819010631 0.45896600894655282 0 -0.1829865290739871 0.45873048193697258 0 -0.18311948649431831 0.46713679563994498 0 -0.18311948649431831 0.46713679563994498 0 -0.18337937489664821 0.48356839781997168 0 -0.19511197543601369 0.47606725323690458 0 -0.18311948649431831 0.46713679563994498 0 -0.18337937489664821 0.48356839781997168 0 -0.18311948649431831 0.46713679563994498 0 -0.18337937489664821 0.48356839781997168 0 -0.17485937494801759 0.47808814193434568 0 -0.17453557306473899 0.46796298731641428 0 -0.18311948649431831 0.46713679563994498 0 -0.17485937494801759 0.47808814193434568 0 -0.17453557306473899 0.46796298731641428 0 -0.15779819732271971 0.4695739402503486 0 -0.17453557306473899 0.46796298731641428 0 -0.16499414335466689 0.48039049058434952 0 -0.17453557306473899 0.46796298731641428 0 -0.16499414335466689 0.48039049058434952 0 -0.15779819732271971 0.4695739402503486 0 -0.17453557306473899 0.46796298731641428 0 -0.17485937494801759 0.47808814193434568 0 -0.16499414335466689 0.48039049058434952 0 -0.17485937494801759 0.47808814193434568 0 -0.16499414335466689 0.48039049058434952 0 -0.1699453859209171 0.49288017845899518 0 -0.1558122254133027 0.48316327461493752 0 -0.16499414335466689 0.48039049058434952 0 -0.15682389603308189 0.47748605108520858 0 -0.16499414335466689 0.48039049058434952 0 -0.15682389603308189 0.47748605108520858 0 -0.15779819732271971 0.4695739402503486 0 -0.15453849507163009 0.5 0 -0.1699453859209171 0.49288017845899518 0 -0.18363926329897839 0.49999999999999828 0 -0.15453849507163009 0.5 0 -0.15545271364459581 0.49281799385228547 0 -0.1699453859209171 0.49288017845899518 0 -0.15545271364459581 0.49281799385228547 0 -0.16499414335466689 0.48039049058434952 0 -0.1699453859209171 0.49288017845899518 0 -0.15545271364459581 0.49281799385228547 0 -0.16499414335466689 0.48039049058434952 0 -0.1558122254133027 0.48316327461493752 0 -0.15545271364459581 0.49281799385228547 0 -0.16499414335466689 0.48039049058434952 0 -0.18337937489664821 0.48356839781997168 0 -0.18363926329897839 0.49999999999999828 0 -0.18337937489664821 0.48356839781997168 0 -0.1699453859209171 0.49288017845899518 0 -0.18363926329897839 0.49999999999999828 0 -0.18337937489664821 0.48356839781997168 0 -0.17485937494801759 0.47808814193434568 0 -0.1699453859209171 0.49288017845899518 0 -0.18337937489664821 0.48356839781997168 0 -0.18363926329897839 0.49999999999999828 0 -0.19848883175809501 0.48685236178056529 0 -0.18363926329897839 0.49999999999999828 0 -0.19848883175809501 0.48685236178056529 0 -0.20708556466301639 0.5 0 -0.18311948649431831 0.46713679563994498 0 -0.19511197543601369 0.47606725323690458 0 -0.20656524953558469 0.46488016823659339 0 -0.18337937489664821 0.48356839781997168 0 -0.19848883175809501 0.48685236178056529 0 -0.19511197543601369 0.47606725323690458 0 -0.19848883175809501 0.48685236178056529 0 -0.19511197543601369 0.47606725323690458 0 -0.206747867840962 0.47700509082497228 0 -0.19511197543601369 0.47606725323690458 0 -0.206747867840962 0.47700509082497228 0 -0.20656524953558469 0.46488016823659339 0 -0.19848883175809501 0.48685236178056529 0 -0.206747867840962 0.47700509082497228 0 -0.21585796601610141 0.48648558657266339 0 -0.206747867840962 0.47700509082497228 0 -0.21852396914967101 0.47285401242330122 0 -0.20656524953558469 0.46488016823659339 0 -0.206747867840962 0.47700509082497228 0 -0.21852396914967101 0.47285401242330122 0 -0.21585796601610141 0.48648558657266339 0 -0.20708556466301639 0.5 0 -0.21585796601610141 0.48648558657266339 0 -0.23053186602705439 0.5 0 -0.19848883175809501 0.48685236178056529 0 -0.20708556466301639 0.5 0 -0.21585796601610141 0.48648558657266339 0 -0.21585796601610141 0.48648558657266339 0 -0.23053186602705439 0.5 0 -0.2373192826940049 0.48342253064983348 0 -0.21852396914967101 0.47285401242330122 0 -0.2373192826940049 0.48342253064983348 0 -0.23001101257685119 0.46262354083324181 0 -0.21852396914967101 0.47285401242330122 0 -0.21585796601610141 0.48648558657266339 0 -0.2373192826940049 0.48342253064983348 0 -0.25474868654415728 0.48692894813519849 0 -0.25315469521642581 0.4750486889203015 0 -0.2373192826940049 0.48342253064983348 0 -0.25315469521642581 0.4750486889203015 0 -0.2373192826940049 0.48342253064983348 0 -0.23001101257685119 0.46262354083324181 0 -0.25397816739109252 0.5 0 -0.23053186602705439 0.5 0 -0.2373192826940049 0.48342253064983348 0 -0.25397816739109252 0.5 0 -0.25474868654415728 0.48692894813519849 0 -0.2373192826940049 0.48342253064983348 0 -0.26330490497154813 0.43976041958731371 0 -0.24129970279445639 0.44943490890582899 0 -0.24092688658692171 0.43286849171069308 0 -0.24129970279445639 0.44943490890582899 0 -0.2242493546558077 0.44235471361969553 0 -0.24092688658692171 0.43286849171069308 0 -0.25345677561811758 0.46036691342989022 0 -0.23001101257685119 0.46262354083324181 0 -0.25345677561811758 0.46036691342989022 0 -0.24129970279445639 0.44943490890582899 0 -0.23001101257685119 0.46262354083324181 0 -0.25345677561811758 0.46036691342989022 0 -0.25315469521642581 0.4750486889203015 0 -0.23001101257685119 0.46262354083324181 0 -0.24129970279445639 0.44943490890582899 0 -0.23001101257685119 0.46262354083324181 0 -0.2242493546558077 0.44235471361969553 0 -0.23001101257685119 0.46262354083324181 0 -0.2242493546558077 0.44235471361969553 0 -0.2144914677851314 0.45380351874251162 0 -0.2242493546558077 0.44235471361969553 0 -0.20880164963731279 0.443380440886459 0 -0.2144914677851314 0.45380351874251162 0 -0.20880164963731279 0.443380440886459 0 -0.2144914677851314 0.45380351874251162 0 -0.20415969833182021 0.45549933815243238 0 -0.23001101257685119 0.46262354083324181 0 -0.2144914677851314 0.45380351874251162 0 -0.20656524953558469 0.46488016823659339 0 -0.21852396914967101 0.47285401242330122 0 -0.23001101257685119 0.46262354083324181 0 -0.20656524953558469 0.46488016823659339 0 -0.23001101257685119 0.46262354083324181 0 -0.20656524953558469 0.46488016823659339 0 -0.2144914677851314 0.45380351874251162 0 -0.20415969833182021 0.45549933815243238 0 -0.20656524953558469 0.46488016823659339 0 -0.1829865290739871 0.45873048193697258 0 -0.1829590266345629 0.45699162349075462 0 -0.20415969833182021 0.45549933815243238 0 -0.1829865290739871 0.45873048193697258 0 -0.20415969833182021 0.45549933815243238 0 -0.18311948649431831 0.46713679563994498 0 -0.20415969833182021 0.45549933815243238 0 -0.20656524953558469 0.46488016823659339 0 -0.1829865290739871 0.45873048193697258 0 -0.18311948649431831 0.46713679563994498 0 -0.20415969833182021 0.45549933815243238 0 -0.18311948649431831 0.46713679563994498 0 -0.20656524953558469 0.46488016823659339 0 -0.1829590266345629 0.45699162349075462 0 -0.19557533522393281 0.44055915781337712 0 -0.1829590266345629 0.45699162349075462 0 -0.20415969833182021 0.45549933815243238 0 -0.19557533522393281 0.44055915781337712 0 -0.20880164963731279 0.443380440886459 0 -0.20415969833182021 0.45549933815243238 0 -0.19557533522393281 0.44055915781337712 0 -0.19557533522393281 0.44055915781337712 0 -0.20819164381331129 0.42412669213600601 0 -0.19557533522393281 0.44055915781337712 0 -0.19413142888046839 0.4217351031076268 0 -0.18255950863604661 0.43173185523385532 0 -0.19557533522393281 0.44055915781337712 0 -0.19413142888046839 0.4217351031076268 0 -0.20819164381331129 0.42412669213600601 0 -0.19413142888046839 0.4217351031076268 0 -0.20819164381331129 0.42412669213600601 0 -0.2021706660915297 0.40578572337793972 0 -0.19413142888046839 0.4217351031076268 0 -0.2021706660915297 0.40578572337793972 0 -0.18215999063752189 0.40647208697695608 0 -0.20819164381331129 0.42412669213600601 0 -0.22405449890785839 0.40643558214578251 0 -0.2021706660915297 0.40578572337793972 0 -0.20880164963731279 0.443380440886459 0 -0.19557533522393281 0.44055915781337712 0 -0.20819164381331129 0.42412669213600601 0 -0.2242493546558077 0.44235471361969553 0 -0.20880164963731279 0.443380440886459 0 -0.20819164381331129 0.42412669213600601 0 -0.2242493546558077 0.44235471361969553 0 -0.20819164381331129 0.42412669213600601 0 -0.22600929792909111 0.42518400498706249 0 -0.2242493546558077 0.44235471361969553 0 -0.22600929792909111 0.42518400498706249 0 -0.24092688658692171 0.43286849171069308 0 -0.20819164381331129 0.42412669213600601 0 -0.22600929792909111 0.42518400498706249 0 -0.22405449890785839 0.40643558214578251 0 -0.22600929792909111 0.42518400498706249 0 -0.22405449890785839 0.40643558214578251 0 -0.2382988550227183 0.41778448946306668 0 -0.2572482915111563 0.42152384209731297 0 -0.2382988550227183 0.41778448946306668 0 -0.2490618870264745 0.40647588616764979 0 -0.22405449890785839 0.40643558214578251 0 -0.2382988550227183 0.41778448946306668 0 -0.2490618870264745 0.40647588616764979 0 -0.2572482915111563 0.42152384209731297 0 -0.2382988550227183 0.41778448946306668 0 -0.24092688658692171 0.43286849171069308 0 -0.22600929792909111 0.42518400498706249 0 -0.2382988550227183 0.41778448946306668 0 -0.24092688658692171 0.43286849171069308 0 -0.24000210142933509 0.37809552861286783 0 -0.23801773827758249 0.39392053259368742 0 -0.22567210936962789 0.38582584627882549 0 -0.25152819264859128 0.38883491631829081 0 -0.24000210142933509 0.37809552861286783 0 -0.23801773827758249 0.39392053259368742 0 -0.25213085833087667 0.37355178257669552 0 -0.25152819264859128 0.38883491631829081 0 -0.24000210142933509 0.37809552861286783 0 -0.25152819264859128 0.38883491631829081 0 -0.2490618870264745 0.40647588616764979 0 -0.23801773827758249 0.39392053259368742 0 -0.22405449890785839 0.40643558214578251 0 -0.2490618870264745 0.40647588616764979 0 -0.23801773827758249 0.39392053259368742 0 -0.22405449890785839 0.40643558214578251 0 -0.22567210936962789 0.38582584627882549 0 -0.2099895612515065 0.38861519238670661 0 -0.22405449890785839 0.40643558214578251 0 -0.23801773827758249 0.39392053259368742 0 -0.22567210936962789 0.38582584627882549 0 -0.22567210936962789 0.38582584627882549 0 -0.21752164111765379 0.37637519474985792 0 -0.23054114355980421 0.3681661286558337 0 -0.24000210142933509 0.37809552861286783 0 -0.22567210936962789 0.38582584627882549 0 -0.23054114355980421 0.3681661286558337 0 -0.22567210936962789 0.38582584627882549 0 -0.21752164111765379 0.37637519474985792 0 -0.2099895612515065 0.38861519238670661 0 -0.21752164111765379 0.37637519474985792 0 -0.2099895612515065 0.38861519238670661 0 -0.20825127389149589 0.37038948781896619 0 -0.2099895612515065 0.38861519238670661 0 -0.1956253707180633 0.37355818799515828 0 -0.20825127389149589 0.37038948781896619 0 -0.22405449890785839 0.40643558214578251 0 -0.2099895612515065 0.38861519238670661 0 -0.2021706660915297 0.40578572337793972 0 -0.2021706660915297 0.40578572337793972 0 -0.19434121226752371 0.39112870189136351 0 -0.18215999063752189 0.40647208697695608 0 -0.2099895612515065 0.38861519238670661 0 -0.2021706660915297 0.40578572337793972 0 -0.19434121226752371 0.39112870189136351 0 -0.2099895612515065 0.38861519238670661 0 -0.19434121226752371 0.39112870189136351 0 -0.1956253707180633 0.37355818799515828 0 -0.19434121226752371 0.39112870189136351 0 -0.18176047263899719 0.38121231872005679 0 -0.1956253707180633 0.37355818799515828 0 -0.18176047263899719 0.38121231872005679 0 -0.16585623702428451 0.39107516703040651 0 -0.16689278400863089 0.37048631692620287 0 -0.16585623702428451 0.39107516703040651 0 -0.1532541744773912 0.375434017343177 0 -0.15169756500005979 0.38990146883471011 0 -0.16585623702428451 0.39107516703040651 0 -0.1532541744773912 0.375434017343177 0 -0.16689278400863089 0.37048631692620287 0 -0.16585623702428451 0.39107516703040651 0 -0.1665369108918931 0.40914444316194981 0 -0.1556916669008335 0.40278409093046019 0 -0.16585623702428451 0.39107516703040651 0 -0.18215999063752189 0.40647208697695608 0 -0.1665369108918931 0.40914444316194981 0 -0.16585623702428451 0.39107516703040651 0 -0.15169756500005979 0.38990146883471011 0 -0.1556916669008335 0.40278409093046019 0 -0.18176047263899719 0.38121231872005679 0 -0.16585623702428451 0.39107516703040651 0 -0.18215999063752189 0.40647208697695608 0 -0.18176047263899719 0.38121231872005679 0 -0.18215999063752189 0.40647208697695608 0 -0.19434121226752371 0.39112870189136351 0 -0.18176047263899719 0.38121231872005679 0 -0.18215999063752189 0.40647208697695608 0 -0.18215999063752189 0.40647208697695608 0 -0.18255950863604661 0.43173185523385532 0 -0.18215999063752189 0.40647208697695608 0 -0.16958367679162159 0.42493542776846188 0 -0.1665369108918931 0.40914444316194981 0 -0.19413142888046839 0.4217351031076268 0 -0.18215999063752189 0.40647208697695608 0 -0.18255950863604661 0.43173185523385532 0 -0.18215999063752189 0.40647208697695608 0 -0.18255950863604661 0.43173185523385532 0 -0.16958367679162159 0.42493542776846188 0 -0.16940388650370539 0.44815354093755089 0 -0.18255950863604661 0.43173185523385532 0 -0.16958367679162159 0.42493542776846188 0 -0.16940388650370539 0.44815354093755089 0 -0.16958367679162159 0.42493542776846188 0 -0.15912083936695831 0.4347249498771325 0 -0.16958367679162159 0.42493542776846188 0 -0.15912083936695831 0.4347249498771325 0 -0.15604886632200479 0.41831593774319042 0 -0.16958367679162159 0.42493542776846188 0 -0.1665369108918931 0.40914444316194981 0 -0.15604886632200479 0.41831593774319042 0 -0.1665369108918931 0.40914444316194981 0 -0.15604886632200479 0.41831593774319042 0 -0.1556916669008335 0.40278409093046019 0 -0.15604886632200479 0.41831593774319042 0 -0.14768726638806501 0.40958107086639878 0 -0.1556916669008335 0.40278409093046019 0 -0.15604886632200479 0.41831593774319042 0 -0.1455440964649429 0.41771164433310332 0 -0.14575226394851429 0.42876386523653243 0 -0.15604886632200479 0.41831593774319042 0 -0.1455440964649429 0.41771164433310332 0 -0.14768726638806501 0.40958107086639878 0 -0.1455440964649429 0.41771164433310332 0 -0.14768726638806501 0.40958107086639878 0 -0.13820848934052041 0.41088683445876423 0 -0.15912083936695831 0.4347249498771325 0 -0.15604886632200479 0.41831593774319042 0 -0.14575226394851429 0.42876386523653243 0 -0.14949031039727409 0.43903968606904947 0 -0.15912083936695831 0.4347249498771325 0 -0.14575226394851429 0.42876386523653243 0 -0.1455440964649429 0.41771164433310332 0 -0.14575226394851429 0.42876386523653243 0 -0.13557398954387551 0.42076075412316039 0 -0.13973201497409549 0.44099892737807922 0 -0.14949031039727409 0.43903968606904947 0 -0.14575226394851429 0.42876386523653243 0 -0.13491063247587859 0.43073185275000708 0 -0.1242188050129694 0.42501783294758849 0 -0.1248743097581413 0.44162978393037222 0 -0.13973201497409549 0.44099892737807922 0 -0.14575226394851429 0.42876386523653243 0 -0.13491063247587859 0.43073185275000708 0 -0.14575226394851429 0.42876386523653243 0 -0.13491063247587859 0.43073185275000708 0 -0.13557398954387551 0.42076075412316039 0 -0.13491063247587859 0.43073185275000708 0 -0.13557398954387551 0.42076075412316039 0 -0.1242188050129694 0.42501783294758849 0 -0.13820848934052041 0.41088683445876423 0 -0.13557398954387551 0.42076075412316039 0 -0.12623023605756489 0.41143854881348008 0 -0.1455440964649429 0.41771164433310332 0 -0.13820848934052041 0.41088683445876423 0 -0.13557398954387551 0.42076075412316039 0 -0.13557398954387551 0.42076075412316039 0 -0.12623023605756489 0.41143854881348008 0 -0.1242188050129694 0.42501783294758849 0 -0.13820848934052041 0.41088683445876423 0 -0.12623023605756489 0.41143854881348008 0 -0.13398515235888339 0.40371564514020769 0 -0.12997925716256209 0.39431640422262348 0 -0.14074253368576661 0.38200722200303072 0 -0.1429432129120235 0.39820684686647628 0 -0.12623023605756489 0.41143854881348008 0 -0.13398515235888339 0.40371564514020769 0 -0.12997925716256209 0.39431640422262348 0 -0.13398515235888339 0.40371564514020769 0 -0.12997925716256209 0.39431640422262348 0 -0.1429432129120235 0.39820684686647628 0 -0.13820848934052041 0.41088683445876423 0 -0.13398515235888339 0.40371564514020769 0 -0.1429432129120235 0.39820684686647628 0 -0.12997925716256209 0.39431640422262348 0 -0.14074253368576661 0.38200722200303072 0 -0.12523428666698541 0.37069662222368049 0 -0.12997925716256209 0.39431640422262348 0 -0.12523428666698541 0.37069662222368049 0 -0.12103247972044499 0.39311621374447298 0 -0.14074253368576661 0.38200722200303072 0 -0.15169756500005979 0.38990146883471011 0 -0.1429432129120235 0.39820684686647628 0 -0.14074253368576661 0.38200722200303072 0 -0.1532541744773912 0.375434017343177 0 -0.15169756500005979 0.38990146883471011 0 -0.15169756500005979 0.38990146883471011 0 -0.1556916669008335 0.40278409093046019 0 -0.1429432129120235 0.39820684686647628 0 -0.14768726638806501 0.40958107086639878 0 -0.1556916669008335 0.40278409093046019 0 -0.1429432129120235 0.39820684686647628 0 -0.14768726638806501 0.40958107086639878 0 -0.13820848934052041 0.41088683445876423 0 -0.1429432129120235 0.39820684686647628 0 -0.14407255521749979 0.34403263722221961 0 -0.15504053286571459 0.3545366000593369 0 -0.14129669608781389 0.36249735492572199 0 -0.14407255521749979 0.34403263722221961 0 -0.15504053286571459 0.3545366000593369 0 -0.1549481930100888 0.34056708499864929 0 -0.14074253368576661 0.38200722200303072 0 -0.1532541744773912 0.375434017343177 0 -0.14129669608781389 0.36249735492572199 0 -0.1532541744773912 0.375434017343177 0 -0.15504053286571459 0.3545366000593369 0 -0.14129669608781389 0.36249735492572199 0 -0.14129669608781389 0.36249735492572199 0 -0.12523428666698541 0.37069662222368049 0 -0.1294360936135257 0.3482770307028879 0 -0.12523428666698541 0.37069662222368049 0 -0.1294360936135257 0.3482770307028879 0 -0.14074253368576661 0.38200722200303072 0 -0.14129669608781389 0.36249735492572199 0 -0.12523428666698541 0.37069662222368049 0 -0.14407255521749979 0.34403263722221961 0 -0.14129669608781389 0.36249735492572199 0 -0.1294360936135257 0.3482770307028879 0 -0.1294360936135257 0.3482770307028879 0 -0.13363790056006589 0.32585743918209531 0 -0.14407255521749979 0.34403263722221961 0 -0.1294360936135257 0.3482770307028879 0 -0.13363790056006589 0.32585743918209531 0 -0.1294360936135257 0.3482770307028879 0 -0.13363790056006589 0.32585743918209531 0 -0.1154499742120704 0.34086754873962172 0 -0.12722248981549561 0.3181430308760943 0 -0.13363790056006589 0.32585743918209531 0 -0.1360408951285694 0.3130357752318072 0 -0.12722248981549561 0.3181430308760943 0 -0.1360408951285694 0.3130357752318072 0 -0.12136448477009221 0.30951812845445109 0 -0.12722248981549561 0.3181430308760943 0 -0.13363790056006589 0.32585743918209531 0 -0.12142985306419619 0.32461006626398298 0 -0.13363790056006589 0.32585743918209531 0 -0.12142985306419619 0.32461006626398298 0 -0.13363790056006589 0.32585743918209531 0 -0.1360408951285694 0.3130357752318072 0 -0.14290423209994971 0.32095809222069871 0 -0.13363790056006589 0.32585743918209531 0 -0.1360408951285694 0.3130357752318072 0 -0.14290423209994971 0.32095809222069871 0 -0.1532404752523272 0.32269894785805692 0 -0.1464174014568787 0.29836992735667278 0 -0.13363790056006589 0.32585743918209531 0 -0.14290423209994971 0.32095809222069871 0 -0.15729966860100811 0.32827511069417059 0 -0.13363790056006589 0.32585743918209531 0 -0.15729966860100811 0.32827511069417059 0 -0.14290423209994971 0.32095809222069871 0 -0.1532404752523272 0.32269894785805692 0 -0.15729966860100811 0.32827511069417059 0 -0.1532404752523272 0.32269894785805692 0 -0.15943794807189979 0.31595908059817063 0 -0.1547819877644892 0.3091453549012102 0 -0.14407255521749979 0.34403263722221961 0 -0.13363790056006589 0.32585743918209531 0 -0.14748957934716561 0.33468306802428371 0 -0.13363790056006589 0.32585743918209531 0 -0.14748957934716561 0.33468306802428371 0 -0.15729966860100811 0.32827511069417059 0 -0.14748957934716561 0.33468306802428371 0 -0.1549481930100888 0.34056708499864929 0 -0.15729966860100811 0.32827511069417059 0 -0.14407255521749979 0.34403263722221961 0 -0.14748957934716561 0.33468306802428371 0 -0.1549481930100888 0.34056708499864929 0 -0.15729966860100811 0.32827511069417059 0 -0.18096143664194889 0.33069278220625808 0 -0.1549481930100888 0.34056708499864929 0 -0.15729966860100811 0.32827511069417059 0 -0.16781010436956259 0.34240718275037813 0 -0.15729966860100811 0.32827511069417059 0 -0.16781010436956259 0.34240718275037813 0 -0.18096143664194889 0.33069278220625808 0 -0.15729966860100811 0.32827511069417059 0 -0.17028988351433311 0.32233995817617028 0 -0.18096143664194889 0.33069278220625808 0 -0.15943794807189979 0.31595908059817063 0 -0.16495134068588049 0.31685297469802859 0 -0.1638395481514221 0.30983277085387728 0 -0.1532404752523272 0.32269894785805692 0 -0.15943794807189979 0.31595908059817063 0 -0.16037638850537991 0.32126535467967993 0 -0.15943794807189979 0.31595908059817063 0 -0.16037638850537991 0.32126535467967993 0 -0.16495134068588049 0.31685297469802859 0 -0.15729966860100811 0.32827511069417059 0 -0.16037638850537991 0.32126535467967993 0 -0.17028988351433311 0.32233995817617028 0 -0.1532404752523272 0.32269894785805692 0 -0.15729966860100811 0.32827511069417059 0 -0.16037638850537991 0.32126535467967993 0 -0.16495134068588049 0.31685297469802859 0 -0.17285953122972289 0.31090601179704258 0 -0.1638395481514221 0.30983277085387728 0 -0.17028988351433311 0.32233995817617028 0 -0.16495134068588049 0.31685297469802859 0 -0.17285953122972289 0.31090601179704258 0 -0.16037638850537991 0.32126535467967993 0 -0.17028988351433311 0.32233995817617028 0 -0.16495134068588049 0.31685297469802859 0 -0.18077272512400111 0.31876138179813301 0 -0.17285953122972289 0.31090601179704258 0 -0.17028988351433311 0.32233995817617028 0 -0.18077272512400111 0.31876138179813301 0 -0.17285953122972289 0.31090601179704258 0 -0.17028988351433311 0.32233995817617028 0 -0.18077272512400111 0.31876138179813301 0 -0.18096143664194889 0.33069278220625808 0 -0.18077272512400111 0.31876138179813301 0 -0.19386790912735871 0.33176087567547108 0 -0.18077272512400111 0.31876138179813301 0 -0.18096143664194889 0.33069278220625808 0 -0.18077272512400111 0.31876138179813301 0 -0.18096143664194889 0.33069278220625808 0 -0.19386790912735871 0.33176087567547108 0 -0.18096143664194889 0.33069278220625808 0 -0.1813609546404725 0.35595255046315749 0 -0.18096143664194889 0.33069278220625808 0 -0.1813609546404725 0.35595255046315749 0 -0.19258948339875709 0.33633707034479371 0 -0.16781010436956259 0.34240718275037813 0 -0.18096143664194889 0.33069278220625808 0 -0.1813609546404725 0.35595255046315749 0 -0.18096143664194889 0.33069278220625808 0 -0.19386790912735871 0.33176087567547108 0 -0.15504053286571459 0.3545366000593369 0 -0.16781010436956259 0.34240718275037813 0 -0.1813609546404725 0.35595255046315749 0 -0.15504053286571459 0.3545366000593369 0 -0.1549481930100888 0.34056708499864929 0 -0.16781010436956259 0.34240718275037813 0 -0.1532541744773912 0.375434017343177 0 -0.15504053286571459 0.3545366000593369 0 -0.16689278400863089 0.37048631692620287 0 -0.15504053286571459 0.3545366000593369 0 -0.1813609546404725 0.35595255046315749 0 -0.16689278400863089 0.37048631692620287 0 -0.18176047263899719 0.38121231872005679 0 -0.1813609546404725 0.35595255046315749 0 -0.18176047263899719 0.38121231872005679 0 -0.1813609546404725 0.35595255046315749 0 -0.1956253707180633 0.37355818799515828 0 -0.18176047263899719 0.38121231872005679 0 -0.1813609546404725 0.35595255046315749 0 -0.16689278400863089 0.37048631692620287 0 -0.1813609546404725 0.35595255046315749 0 -0.1956253707180633 0.37355818799515828 0 -0.2000380028121157 0.35856944723279938 0 -0.1956253707180633 0.37355818799515828 0 -0.2000380028121157 0.35856944723279938 0 -0.20825127389149589 0.37038948781896619 0 -0.1813609546404725 0.35595255046315749 0 -0.1951678646333711 0.34883535218340811 0 -0.19258948339875709 0.33633707034479371 0 -0.1813609546404725 0.35595255046315749 0 -0.1951678646333711 0.34883535218340811 0 -0.2000380028121157 0.35856944723279938 0 -0.1951678646333711 0.34883535218340811 0 -0.2000380028121157 0.35856944723279938 0 -0.20668301768213909 0.34448234069288158 0 -0.20668301768213909 0.34448234069288158 0 -0.2120127789660084 0.36084248239747968 0 -0.21921666942493959 0.3569244055809645 0 -0.2000380028121157 0.35856944723279938 0 -0.20668301768213909 0.34448234069288158 0 -0.2120127789660084 0.36084248239747968 0 -0.2120127789660084 0.36084248239747968 0 -0.21921666942493959 0.3569244055809645 0 -0.20668301768213909 0.34448234069288158 0 -0.21921666942493959 0.3569244055809645 0 -0.22158808080033929 0.34557455345049992 0 -0.20668301768213909 0.34448234069288158 0 -0.21921666942493959 0.3569244055809645 0 -0.2000380028121157 0.35856944723279938 0 -0.20825127389149589 0.37038948781896619 0 -0.2120127789660084 0.36084248239747968 0 -0.2120127789660084 0.36084248239747968 0 -0.2199937556016836 0.36693485901855288 0 -0.21921666942493959 0.3569244055809645 0 -0.20825127389149589 0.37038948781896619 0 -0.2120127789660084 0.36084248239747968 0 -0.2199937556016836 0.36693485901855288 0 -0.21752164111765379 0.37637519474985792 0 -0.20825127389149589 0.37038948781896619 0 -0.2199937556016836 0.36693485901855288 0 -0.21752164111765379 0.37637519474985792 0 -0.23054114355980421 0.3681661286558337 0 -0.2199937556016836 0.36693485901855288 0 -0.23054114355980421 0.3681661286558337 0 -0.21921666942493959 0.3569244055809645 0 -0.23305195790672301 0.35812934693154008 0 -0.23054114355980421 0.3681661286558337 0 -0.2199937556016836 0.36693485901855288 0 -0.21921666942493959 0.3569244055809645 0 -0.23054114355980421 0.3681661286558337 0 -0.21921666942493959 0.3569244055809645 0 -0.21921666942493959 0.3569244055809645 0 -0.22158808080033929 0.34557455345049992 0 -0.23915963598069589 0.34607775607121571 0 -0.21921666942493959 0.3569244055809645 0 -0.23915963598069589 0.34607775607121571 0 -0.21921666942493959 0.3569244055809645 0 -0.23305195790672301 0.35812934693154008 0 -0.23915963598069589 0.34607775607121571 0 -0.23305195790672301 0.35812934693154008 0 -0.23915963598069589 0.34607775607121571 0 -0.24329038266145239 0.36134909741814653 0 -0.25407523553642281 0.3497448278934856 0 -0.23915963598069589 0.34607775607121571 0 -0.24329038266145239 0.36134909741814653 0 -0.25213085833087667 0.37355178257669552 0 -0.24000210142933509 0.37809552861286783 0 -0.24329038266145239 0.36134909741814653 0 -0.24000210142933509 0.37809552861286783 0 -0.23054114355980421 0.3681661286558337 0 -0.24329038266145239 0.36134909741814653 0 -0.23054114355980421 0.3681661286558337 0 -0.23305195790672301 0.35812934693154008 0 -0.24329038266145239 0.36134909741814653 0 -0.23582541811145999 0.32679902143390172 0 -0.24885494741763489 0.31718848033418301 0 -0.23189508169276829 0.30076725351495531 0 -0.23582541811145999 0.32679902143390172 0 -0.24885494741763489 0.31718848033418301 0 -0.24633099797708269 0.32737693631841108 0 -0.25451497659773847 0.32559442806853028 0 -0.24885494741763489 0.31718848033418301 0 -0.24633099797708269 0.32737693631841108 0 -0.24843663428782739 0.33758714710907461 0 -0.22129300011358269 0.33481371145693772 0 -0.25451497659773847 0.32559442806853028 0 -0.24633099797708269 0.32737693631841108 0 -0.24843663428782739 0.33758714710907461 0 -0.25910260253645218 0.33523110656146687 0 -0.23915963598069589 0.34607775607121571 0 -0.23582541811145999 0.32679902143390172 0 -0.24633099797708269 0.32737693631841108 0 -0.24843663428782739 0.33758714710907461 0 -0.25910260253645218 0.33523110656146687 0 -0.23915963598069589 0.34607775607121571 0 -0.24843663428782739 0.33758714710907461 0 -0.23582541811145999 0.32679902143390172 0 -0.24843663428782739 0.33758714710907461 0 -0.22129300011358269 0.33481371145693772 0 -0.23915963598069589 0.34607775607121571 0 -0.24843663428782739 0.33758714710907461 0 -0.22129300011358269 0.33481371145693772 0 -0.22158808080033929 0.34557455345049992 0 -0.23915963598069589 0.34607775607121571 0 -0.22129300011358269 0.33481371145693772 0 -0.23582541811145999 0.32679902143390172 0 -0.21954464392232159 0.31820766509236142 0 -0.23189508169276829 0.30076725351495531 0 -0.23582541811145999 0.32679902143390172 0 -0.22129300011358269 0.33481371145693772 0 -0.21954464392232159 0.31820766509236142 0 -0.21954464392232159 0.31820766509236142 0 -0.20492818889453221 0.32276220977772679 0 -0.20060783596013981 0.3076349397264902 0 -0.22129300011358269 0.33481371145693772 0 -0.21954464392232159 0.31820766509236142 0 -0.20492818889453221 0.32276220977772679 0 -0.22129300011358269 0.33481371145693772 0 -0.20492818889453221 0.32276220977772679 0 -0.19386790912735871 0.33176087567547108 0 -0.22129300011358269 0.33481371145693772 0 -0.19386790912735871 0.33176087567547108 0 -0.20668301768213909 0.34448234069288158 0 -0.22129300011358269 0.33481371145693772 0 -0.19386790912735871 0.33176087567547108 0 -0.20668301768213909 0.34448234069288158 0 -0.22158808080033929 0.34557455345049992 0 -0.22129300011358269 0.33481371145693772 0 -0.20668301768213909 0.34448234069288158 0 -0.19386790912735871 0.33176087567547108 0 -0.19258948339875709 0.33633707034479371 0 -0.20668301768213909 0.34448234069288158 0 -0.19386790912735871 0.33176087567547108 0 -0.1951678646333711 0.34883535218340811 0 -0.20668301768213909 0.34448234069288158 0 -0.19258948339875709 0.33633707034479371 0 -0.18096143664194889 0.33069278220625808 0 -0.19386790912735871 0.33176087567547108 0 -0.19258948339875709 0.33633707034479371 0 -0.19386790912735871 0.33176087567547108 0 -0.19258948339875709 0.33633707034479371 0 -0.18077272512400111 0.31876138179813301 0 -0.19386790912735871 0.33176087567547108 0 -0.20060783596013981 0.3076349397264902 0 -0.20492818889453221 0.32276220977772679 0 -0.19386790912735871 0.33176087567547108 0 -0.20060783596013981 0.3076349397264902 0 -0.19386790912735871 0.33176087567547108 0 -0.20060783596013981 0.3076349397264902 0 -0.20060783596013981 0.3076349397264902 0 -0.20734776279292019 0.28350900377750898 0 -0.23189508169276829 0.30076725351495531 0 -0.21954464392232159 0.31820766509236142 0 -0.20060783596013981 0.3076349397264902 0 -0.23189508169276829 0.30076725351495531 0 -0.20060783596013981 0.3076349397264902 0 -0.20734776279292019 0.28350900377750898 0 -0.18034630435624241 0.29180066960649809 0 -0.20734776279292019 0.28350900377750898 0 -0.19375927737912041 0.2730469699042487 0 -0.18034630435624241 0.29180066960649809 0 -0.20060783596013981 0.3076349397264902 0 -0.20734776279292019 0.28350900377750898 0 -0.20734776279292019 0.28350900377750898 0 -0.23189508169276829 0.30076725351495531 0 -0.22396762922540969 0.27514125130055722 0 -0.23189508169276829 0.30076725351495531 0 -0.2378434694439332 0.28391349183279069 0 -0.22396762922540969 0.27514125130055722 0 -0.25673188405007052 0.28646841290673969 0 -0.23189508169276829 0.30076725351495531 0 -0.2378434694439332 0.28391349183279069 0 -0.25673188405007052 0.28646841290673969 0 -0.23189508169276829 0.30076725351495531 0 -0.25505401324638421 0.30366623925853881 0 -0.25673188405007052 0.28646841290673969 0 -0.23189508169276829 0.30076725351495531 0 -0.25505401324638421 0.30366623925853881 0 -0.24885494741763489 0.31718848033418301 0 -0.23189508169276829 0.30076725351495531 0 -0.25265925142613249 0.26128234508680298 0 -0.23885305679183191 0.2684477152547543 0 -0.23951274761537589 0.2474853768326048 0 -0.23885305679183191 0.2684477152547543 0 -0.22811192938500721 0.25829645972706228 0 -0.23951274761537589 0.2474853768326048 0 -0.25621817608628389 0.2460965770837312 0 -0.25265925142613249 0.26128234508680298 0 -0.23951274761537589 0.2474853768326048 0 -0.25673188405007052 0.28646841290673969 0 -0.2378434694439332 0.28391349183279069 0 -0.23885305679183191 0.2684477152547543 0 -0.25265925142613249 0.26128234508680298 0 -0.25673188405007052 0.28646841290673969 0 -0.23885305679183191 0.2684477152547543 0 -0.23885305679183191 0.2684477152547543 0 -0.22396762922540969 0.27514125130055722 0 -0.22811192938500721 0.25829645972706228 0 -0.2378434694439332 0.28391349183279069 0 -0.23885305679183191 0.2684477152547543 0 -0.22396762922540969 0.27514125130055722 0 -0.22811192938500721 0.25829645972706228 0 -0.22371849106378741 0.2462845034026982 0 -0.23951274761537589 0.2474853768326048 0 -0.22396762922540969 0.27514125130055722 0 -0.22811192938500721 0.25829645972706228 0 -0.21408768962570049 0.25938306782852782 0 -0.22811192938500721 0.25829645972706228 0 -0.21408768962570049 0.25938306782852782 0 -0.22371849106378741 0.2462845034026982 0 -0.21408768962570049 0.25938306782852782 0 -0.19928355658839081 0.25766712263582692 0 -0.2066863838603582 0.24242880758937649 0 -0.21408768962570049 0.25938306782852782 0 -0.20163280817849061 0.26608937016207479 0 -0.19928355658839081 0.25766712263582692 0 -0.20734776279292019 0.28350900377750898 0 -0.21408768962570049 0.25938306782852782 0 -0.20734776279292019 0.28350900377750898 0 -0.22396762922540969 0.27514125130055722 0 -0.21408768962570049 0.25938306782852782 0 -0.20734776279292019 0.28350900377750898 0 -0.21408768962570049 0.25938306782852782 0 -0.20163280817849061 0.26608937016207479 0 -0.20734776279292019 0.28350900377750898 0 -0.20163280817849061 0.26608937016207479 0 -0.19375927737912041 0.2730469699042487 0 -0.20163280817849061 0.26608937016207479 0 -0.19375927737912041 0.2730469699042487 0 -0.19160269433399771 0.26436194023610149 0 -0.19375927737912041 0.2730469699042487 0 -0.19160269433399771 0.26436194023610149 0 -0.17991988358848049 0.26483995741486333 0 -0.19928355658839081 0.25766712263582692 0 -0.18259587964237009 0.2606558300825601 0 -0.2066863838603582 0.24242880758937649 0 -0.18259587964237009 0.2606558300825601 0 -0.19333963139412971 0.24385714112684301 0 -0.19928355658839081 0.25766712263582692 0 -0.19160269433399771 0.26436194023610149 0 -0.18259587964237009 0.2606558300825601 0 -0.18259587964237009 0.2606558300825601 0 -0.2066863838603582 0.24242880758937649 0 -0.20163280817849061 0.26608937016207479 0 -0.19928355658839081 0.25766712263582692 0 -0.19160269433399771 0.26436194023610149 0 -0.17991988358848049 0.26483995741486333 0 -0.17951502337729761 0.2392424245160312 0 -0.17991988358848049 0.26483995741486333 0 -0.17042143569771079 0.26099360542817968 0 -0.17951502337729761 0.2392424245160312 0 -0.18259587964237009 0.2606558300825601 0 -0.17991988358848049 0.26483995741486333 0 -0.17951502337729761 0.2392424245160312 0 -0.19160269433399771 0.26436194023610149 0 -0.18259587964237009 0.2606558300825601 0 -0.17991988358848049 0.26483995741486333 0 -0.18259587964237009 0.2606558300825601 0 -0.17991988358848049 0.26483995741486333 0 -0.17991988358848049 0.26483995741486333 0 -0.17042143569771079 0.26099360542817968 0 -0.17716480609589361 0.26914773470870201 0 -0.17042143569771079 0.26099360542817968 0 -0.1627301728603629 0.26968240911070368 0 -0.1532221513837192 0.25419418888983192 0 -0.17042143569771079 0.26099360542817968 0 -0.1532221513837192 0.25419418888983192 0 -0.17951502337729761 0.2392424245160312 0 -0.1627301728603629 0.26968240911070368 0 -0.1620479085915319 0.28265904931380531 0 -0.15271877240598841 0.27446820953958367 0 -0.17042143569771079 0.26099360542817968 0 -0.1627301728603629 0.26968240911070368 0 -0.1699765768805111 0.26885491792894611 0 -0.1627301728603629 0.26968240911070368 0 -0.1699765768805111 0.26885491792894611 0 -0.16860704672851359 0.27535934789532951 0 -0.1627301728603629 0.26968240911070368 0 -0.16860704672851359 0.27535934789532951 0 -0.1620479085915319 0.28265904931380531 0 -0.16860704672851359 0.27535934789532951 0 -0.17077339862397739 0.28423195702734899 0 -0.1620479085915319 0.28265904931380531 0 -0.17991988358848049 0.26483995741486333 0 -0.18034630435624241 0.29180066960649809 0 -0.17991988358848049 0.26483995741486333 0 -0.17716480609589361 0.26914773470870201 0 -0.18034630435624241 0.29180066960649809 0 -0.16860704672851359 0.27535934789532951 0 -0.17716480609589361 0.26914773470870201 0 -0.17077339862397739 0.28423195702734899 0 -0.19375927737912041 0.2730469699042487 0 -0.17991988358848049 0.26483995741486333 0 -0.18034630435624241 0.29180066960649809 0 -0.17042143569771079 0.26099360542817968 0 -0.1699765768805111 0.26885491792894611 0 -0.17716480609589361 0.26914773470870201 0 -0.1699765768805111 0.26885491792894611 0 -0.16860704672851359 0.27535934789532951 0 -0.17716480609589361 0.26914773470870201 0 -0.17991988358848049 0.26483995741486333 0 -0.17716480609589361 0.26914773470870201 0 -0.17716480609589361 0.26914773470870201 0 -0.18034630435624241 0.29180066960649809 0 -0.17077339862397739 0.28423195702734899 0 -0.18034630435624241 0.29180066960649809 0 -0.16501618616712291 0.29775164083812761 0 -0.17077339862397739 0.28423195702734899 0 -0.18077272512400111 0.31876138179813301 0 -0.18034630435624241 0.29180066960649809 0 -0.18077272512400111 0.31876138179813301 0 -0.18034630435624241 0.29180066960649809 0 -0.17285953122972289 0.31090601179704258 0 -0.18034630435624241 0.29180066960649809 0 -0.17285953122972289 0.31090601179704258 0 -0.16501618616712291 0.29775164083812761 0 -0.18077272512400111 0.31876138179813301 0 -0.20060783596013981 0.3076349397264902 0 -0.18034630435624241 0.29180066960649809 0 -0.16501618616712291 0.29775164083812761 0 -0.15329008091572741 0.28945008379417048 0 -0.1547819877644892 0.3091453549012102 0 -0.17285953122972289 0.31090601179704258 0 -0.16501618616712291 0.29775164083812761 0 -0.1638395481514221 0.30983277085387728 0 -0.16501618616712291 0.29775164083812761 0 -0.1638395481514221 0.30983277085387728 0 -0.1547819877644892 0.3091453549012102 0 -0.15943794807189979 0.31595908059817063 0 -0.1638395481514221 0.30983277085387728 0 -0.1547819877644892 0.3091453549012102 0 -0.16501618616712291 0.29775164083812761 0 -0.17077339862397739 0.28423195702734899 0 -0.1620479085915319 0.28265904931380531 0 -0.16501618616712291 0.29775164083812761 0 -0.1620479085915319 0.28265904931380531 0 -0.15329008091572741 0.28945008379417048 0 -0.1464174014568787 0.29836992735667278 0 -0.13959432766143021 0.2740409068552887 0 -0.1620479085915319 0.28265904931380531 0 -0.15329008091572741 0.28945008379417048 0 -0.15271877240598841 0.27446820953958367 0 -0.15329008091572741 0.28945008379417048 0 -0.1464174014568787 0.29836992735667278 0 -0.13959432766143021 0.2740409068552887 0 -0.15329008091572741 0.28945008379417048 0 -0.1464174014568787 0.29836992735667278 0 -0.1547819877644892 0.3091453549012102 0 -0.1532404752523272 0.32269894785805692 0 -0.1464174014568787 0.29836992735667278 0 -0.1360408951285694 0.3130357752318072 0 -0.14290423209994971 0.32095809222069871 0 -0.1464174014568787 0.29836992735667278 0 -0.1532404752523272 0.32269894785805692 0 -0.1464174014568787 0.29836992735667278 0 -0.1547819877644892 0.3091453549012102 0 -0.1360408951285694 0.3130357752318072 0 -0.1264253840414637 0.29528772621663357 0 -0.12136448477009221 0.30951812845445109 0 -0.1360408951285694 0.3130357752318072 0 -0.1464174014568787 0.29836992735667278 0 -0.1264253840414637 0.29528772621663357 0 -0.1464174014568787 0.29836992735667278 0 -0.1264253840414637 0.29528772621663357 0 -0.13959432766143021 0.2740409068552887 0 -0.1264253840414637 0.29528772621663357 0 -0.13959432766143021 0.2740409068552887 0 -0.1185373796182298 0.27837978510360878 0 -0.13959432766143021 0.2740409068552887 0 -0.1327712538659816 0.24971188635390451 0 -0.13959432766143021 0.2740409068552887 0 -0.116744543106582 0.25728181003509248 0 -0.1327712538659816 0.24971188635390451 0 -0.13959432766143021 0.2740409068552887 0 -0.1532221513837192 0.25419418888983192 0 -0.1327712538659816 0.24971188635390451 0 -0.1627301728603629 0.26968240911070368 0 -0.1532221513837192 0.25419418888983192 0 -0.15271877240598841 0.27446820953958367 0 -0.13959432766143021 0.2740409068552887 0 -0.1532221513837192 0.25419418888983192 0 -0.15271877240598841 0.27446820953958367 0 -0.15329008091572741 0.28945008379417048 0 -0.13959432766143021 0.2740409068552887 0 -0.15271877240598841 0.27446820953958367 0 -0.1061606963602142 0.26761343855331338 0 -0.1001789302111205 0.27974269320078388 0 -0.1185373796182298 0.27837978510360878 0 -0.1061606963602142 0.26761343855331338 0 -0.1001789302111205 0.27974269320078388 0 -0.092613028744971265 0.26767711662392979 0 -0.1061606963602142 0.26761343855331338 0 -0.10005120432924321 0.25626016583208688 0 -0.116744543106582 0.25728181003509248 0 -0.1061606963602142 0.26761343855331338 0 -0.10005120432924321 0.25626016583208688 0 -0.092613028744971265 0.26767711662392979 0 -0.10005120432924321 0.25626016583208688 0 -0.116744543106582 0.25728181003509248 0 -0.1045487088169635 0.24438495162540061 0 -0.13959432766143021 0.2740409068552887 0 -0.116744543106582 0.25728181003509248 0 -0.1185373796182298 0.27837978510360878 0 -0.1061606963602142 0.26761343855331338 0 -0.116744543106582 0.25728181003509248 0 -0.1185373796182298 0.27837978510360878 0 -0.1264253840414637 0.29528772621663357 0 -0.1127724140037699 0.30190213115774378 0 -0.1091517300735869 0.29135078386346752 0 -0.1264253840414637 0.29528772621663357 0 -0.1185373796182298 0.27837978510360878 0 -0.1091517300735869 0.29135078386346752 0 -0.1264253840414637 0.29528772621663357 0 -0.12136448477009221 0.30951812845445109 0 -0.1127724140037699 0.30190213115774378 0 -0.12136448477009221 0.30951812845445109 0 -0.1127724140037699 0.30190213115774378 0 -0.1061991548417472 0.31213959050036899 0 -0.1127724140037699 0.30190213115774378 0 -0.1061991548417472 0.31213959050036899 0 -0.1005146973405663 0.30141191014932889 0 -0.1127724140037699 0.30190213115774378 0 -0.1005146973405663 0.30141191014932889 0 -0.1091517300735869 0.29135078386346752 0 -0.1005146973405663 0.30141191014932889 0 -0.094430836728355921 0.29177030977787999 0 -0.089068024122243669 0.30112896568664949 0 -0.1061991548417472 0.31213959050036899 0 -0.1005146973405663 0.30141191014932889 0 -0.090928135519314904 0.31087631578889069 0 -0.1001789302111205 0.27974269320078388 0 -0.1185373796182298 0.27837978510360878 0 -0.1091517300735869 0.29135078386346752 0 -0.1005146973405663 0.30141191014932889 0 -0.1091517300735869 0.29135078386346752 0 -0.094430836728355921 0.29177030977787999 0 -0.1001789302111205 0.27974269320078388 0 -0.1091517300735869 0.29135078386346752 0 -0.094430836728355921 0.29177030977787999 0 -0.1001789302111205 0.27974269320078388 0 -0.094430836728355921 0.29177030977787999 0 -0.086145563619835275 0.2816538088019015 0 -0.094430836728355921 0.29177030977787999 0 -0.086145563619835275 0.2816538088019015 0 -0.081526075002782958 0.29533369696514911 0 -0.094430836728355921 0.29177030977787999 0 -0.081526075002782958 0.29533369696514911 0 -0.089068024122243669 0.30112896568664949 0 -0.086145563619835275 0.2816538088019015 0 -0.081526075002782958 0.29533369696514911 0 -0.070830210313899522 0.29195808219782299 0 -0.090928135519314904 0.31087631578889069 0 -0.079482369404140468 0.30560554845979909 0 -0.074915307566508993 0.31649039264194578 0 -0.090928135519314904 0.31087631578889069 0 -0.089068024122243669 0.30112896568664949 0 -0.079482369404140468 0.30560554845979909 0 -0.1005146973405663 0.30141191014932889 0 -0.090928135519314904 0.31087631578889069 0 -0.089068024122243669 0.30112896568664949 0 -0.081526075002782958 0.29533369696514911 0 -0.089068024122243669 0.30112896568664949 0 -0.079482369404140468 0.30560554845979909 0 -0.054647974243728172 0.30430181459310768 0 -0.074915307566508993 0.31649039264194578 0 -0.079482369404140468 0.30560554845979909 0 -0.068661557073843291 0.3005821027458685 0 -0.074915307566508993 0.31649039264194578 0 -0.068661557073843291 0.3005821027458685 0 -0.054647974243728172 0.30430181459310768 0 -0.074915307566508993 0.31649039264194578 0 -0.081526075002782958 0.29533369696514911 0 -0.079482369404140468 0.30560554845979909 0 -0.068661557073843291 0.3005821027458685 0 -0.070830210313899522 0.29195808219782299 0 -0.067453711470644842 0.27023673344429472 0 -0.052574645638654917 0.28480468584225688 0 -0.081526075002782958 0.29533369696514911 0 -0.068661557073843291 0.3005821027458685 0 -0.070830210313899522 0.29195808219782299 0 -0.068661557073843291 0.3005821027458685 0 -0.070830210313899522 0.29195808219782299 0 -0.068661557073843291 0.3005821027458685 0 -0.070830210313899522 0.29195808219782299 0 -0.059610011597539182 0.29372125904316332 0 -0.086145563619835275 0.2816538088019015 0 -0.070830210313899522 0.29195808219782299 0 -0.077256670317037021 0.26667642926106078 0 -0.070830210313899522 0.29195808219782299 0 -0.067453711470644842 0.27023673344429472 0 -0.070830210313899522 0.29195808219782299 0 -0.077256670317037021 0.26667642926106078 0 -0.070830210313899522 0.29195808219782299 0 -0.067453711470644842 0.27023673344429472 0 -0.077256670317037021 0.26667642926106078 0 -0.086145563619835275 0.2816538088019015 0 -0.077256670317037021 0.26667642926106078 0 -0.092613028744971265 0.26767711662392979 0 -0.1001789302111205 0.27974269320078388 0 -0.086145563619835275 0.2816538088019015 0 -0.092613028744971265 0.26767711662392979 0 -0.077256670317037021 0.26667642926106078 0 -0.086302411784292182 0.25447467192259482 0 -0.083666647235009842 0.24139059785004849 0 -0.077256670317037021 0.26667642926106078 0 -0.083666647235009842 0.24139059785004849 0 -0.10005120432924321 0.25626016583208688 0 -0.086302411784292182 0.25447467192259482 0 -0.094679029848152713 0.24609146959404629 0 -0.10005120432924321 0.25626016583208688 0 -0.092613028744971265 0.26767711662392979 0 -0.086302411784292182 0.25447467192259482 0 -0.077256670317037021 0.26667642926106078 0 -0.092613028744971265 0.26767711662392979 0 -0.086302411784292182 0.25447467192259482 0 -0.077256670317037021 0.26667642926106078 0 -0.064077212627390134 0.24851538469076631 0 -0.083666647235009842 0.24139059785004849 0 -0.067453711470644842 0.27023673344429472 0 -0.077256670317037021 0.26667642926106078 0 -0.064077212627390134 0.24851538469076631 0 -0.067453711470644842 0.27023673344429472 0 -0.064077212627390134 0.24851538469076631 0 -0.067453711470644842 0.27023673344429472 0 -0.04634179854296408 0.26632715615711849 0 -0.064077212627390134 0.24851538469076631 0 -0.04634179854296408 0.26632715615711849 0 -0.064077212627390134 0.24851538469076631 0 -0.046578861792199937 0.24361118962503389 0 -0.067453711470644842 0.27023673344429472 0 -0.04634179854296408 0.26632715615711849 0 -0.052574645638654917 0.28480468584225688 0 -0.04634179854296408 0.26632715615711849 0 -0.034380640920947357 0.29211323654426968 0 -0.052574645638654917 0.28480468584225688 0 -0.04634179854296408 0.26632715615711849 0 -0.022607631921228569 0.27169805167723737 0 -0.034380640920947357 0.29211323654426968 0 -0.04634179854296408 0.26632715615711849 0 -0.03068766995985707 0.25286978792993342 0 -0.022607631921228569 0.27169805167723737 0 -0.04634179854296408 0.26632715615711849 0 -0.03068766995985707 0.25286978792993342 0 -0.046578861792199937 0.24361118962503389 0 -0.03068766995985707 0.25286978792993342 0 -0.022607631921228569 0.27169805167723737 0 -0.0098044441781452579 0.25473951632571468 0 -0.022607631921228569 0.27169805167723737 0 -0.015153941911089409 0.29208252597919021 0 3.3590645499582607e-05 0.27236849017123349 0 -0.022607631921228569 0.27169805167723737 0 -0.0098044441781452579 0.25473951632571468 0 3.3590645499582607e-05 0.27236849017123349 0 -0.0098044441781452579 0.25473951632571468 0 0.0073806355134042019 0.25529449578482938 0 3.3590645499582607e-05 0.27236849017123349 0 -0.0088759444352828343 0.31092800175718183 0 -0.015153941911089409 0.29208252597919021 0 0.0083336089875100904 0.29343585490586271 0 -0.015153941911089409 0.29208252597919021 0 0.0083336089875100904 0.29343585490586271 0 3.3590645499582607e-05 0.27236849017123349 0 -0.022607631921228569 0.27169805167723737 0 -0.015153941911089409 0.29208252597919021 0 -0.034380640920947357 0.29211323654426968 0 -0.0088759444352828343 0.31092800175718183 0 -0.015153941911089409 0.29208252597919021 0 -0.03508050583840458 0.3127012881250415 0 -0.015153941911089409 0.29208252597919021 0 -0.034380640920947357 0.29211323654426968 0 -0.03508050583840458 0.3127012881250415 0 -0.034380640920947357 0.29211323654426968 0 -0.054647974243728172 0.30430181459310768 0 -0.034380640920947357 0.29211323654426968 0 -0.054647974243728172 0.30430181459310768 0 -0.03508050583840458 0.3127012881250415 0 -0.034380640920947357 0.29211323654426968 0 -0.052574645638654917 0.28480468584225688 0 -0.054647974243728172 0.30430181459310768 0 -0.052574645638654917 0.28480468584225688 0 -0.059610011597539182 0.29372125904316332 0 -0.054647974243728172 0.30430181459310768 0 -0.070830210313899522 0.29195808219782299 0 -0.052574645638654917 0.28480468584225688 0 -0.059610011597539182 0.29372125904316332 0 -0.068661557073843291 0.3005821027458685 0 -0.059610011597539182 0.29372125904316332 0 -0.054647974243728172 0.30430181459310768 0 -0.058679851530075752 0.32054224196392622 0 -0.045885169747561752 0.33132665820789581 0 -0.073191842414501496 0.33174208285196288 0 -0.054647974243728172 0.30430181459310768 0 -0.058679851530075752 0.32054224196392622 0 -0.03508050583840458 0.3127012881250415 0 -0.045885169747561752 0.33132665820789581 0 -0.067541502003893042 0.3482616942848048 0 -0.073191842414501496 0.33174208285196288 0 -0.045885169747561752 0.33132665820789581 0 -0.073191842414501496 0.33174208285196288 0 -0.045885169747561752 0.33132665820789581 0 -0.018578497080621779 0.33091123356382868 0 -0.045885169747561752 0.33132665820789581 0 -0.03508050583840458 0.3127012881250415 0 -0.018578497080621779 0.33091123356382868 0 -0.058679851530075752 0.32054224196392622 0 -0.045885169747561752 0.33132665820789581 0 -0.03508050583840458 0.3127012881250415 0 -0.0088759444352828343 0.31092800175718183 0 -0.03508050583840458 0.3127012881250415 0 -0.018578497080621779 0.33091123356382868 0 -0.018578497080621779 0.33091123356382868 0 -0.0050552824635438226 0.34569829691311771 0 -0.02749858990914332 0.35301881799134821 0 -0.045885169747561752 0.33132665820789581 0 -0.018578497080621779 0.33091123356382868 0 -0.02749858990914332 0.35301881799134821 0 -0.018578497080621779 0.33091123356382868 0 -0.0050552824635438226 0.34569829691311771 0 0.0064742168078369342 0.3347740657525386 0 -0.018578497080621779 0.33091123356382868 0 0.0087281755863181168 0.33049580891976171 0 -0.018578497080621779 0.33091123356382868 0 0.0064742168078369342 0.3347740657525386 0 0.0087281755863181168 0.33049580891976171 0 -0.018578497080621779 0.33091123356382868 0 -0.003280447873963227 0.32161399115684158 0 0.0087281755863181168 0.33049580891976171 0 -0.0088759444352828343 0.31092800175718183 0 -0.018578497080621779 0.33091123356382868 0 -0.003280447873963227 0.32161399115684158 0 -0.0088759444352828343 0.31092800175718183 0 -0.003280447873963227 0.32161399115684158 0 0.0056044744337335906 0.31412092038659428 0 -0.0052616759920083916 0.36132776784546622 0 -0.0045342830833226501 0.3863935686212247 0 -0.0052616759920083916 0.36132776784546622 0 -0.024169526760701381 0.37267007813580277 0 -0.0045342830833226501 0.3863935686212247 0 -0.0052616759920083916 0.36132776784546622 0 -0.0045342830833226501 0.3863935686212247 0 0.0079023355216259559 0.37348921158265391 0 -0.0052616759920083916 0.36132776784546622 0 -0.0050552824635438226 0.34569829691311771 0 0.0061318462344260851 0.35417601161121459 0 -0.0052616759920083916 0.36132776784546622 0 -0.0050552824635438226 0.34569829691311771 0 -0.02749858990914332 0.35301881799134821 0 -0.02749858990914332 0.35301881799134821 0 -0.024169526760701381 0.37267007813580277 0 -0.04149310004589906 0.37124785083274592 0 -0.0052616759920083916 0.36132776784546622 0 -0.02749858990914332 0.35301881799134821 0 -0.024169526760701381 0.37267007813580277 0 -0.02749858990914332 0.35301881799134821 0 -0.04149310004589906 0.37124785083274592 0 -0.051818441616049399 0.35735321764765782 0 -0.045885169747561752 0.33132665820789581 0 -0.02749858990914332 0.35301881799134821 0 -0.051818441616049399 0.35735321764765782 0 -0.045885169747561752 0.33132665820789581 0 -0.051818441616049399 0.35735321764765782 0 -0.067541502003893042 0.3482616942848048 0 -0.04149310004589906 0.37124785083274592 0 -0.051818441616049399 0.35735321764765782 0 -0.056875823715872062 0.37631267096962301 0 -0.051818441616049399 0.35735321764765782 0 -0.069616273344600341 0.3650636543096733 0 -0.056875823715872062 0.37631267096962301 0 -0.069616273344600341 0.3650636543096733 0 -0.085055645225370236 0.37193713089684588 0 -0.071788917171084016 0.3809272333041443 0 -0.069616273344600341 0.3650636543096733 0 -0.071788917171084016 0.3809272333041443 0 -0.056875823715872062 0.37631267096962301 0 -0.069616273344600341 0.3650636543096733 0 -0.085055645225370236 0.37193713089684588 0 -0.084100884505446297 0.3554636863979832 0 -0.085055645225370236 0.37193713089684588 0 -0.084100884505446297 0.3554636863979832 0 -0.1008292236537022 0.36036332390371462 0 -0.084100884505446297 0.3554636863979832 0 -0.067541502003893042 0.3482616942848048 0 -0.085709514220790303 0.34113927750747819 0 -0.084100884505446297 0.3554636863979832 0 -0.085709514220790303 0.34113927750747819 0 -0.099722393067727538 0.34687368244968458 0 -0.069616273344600341 0.3650636543096733 0 -0.084100884505446297 0.3554636863979832 0 -0.067541502003893042 0.3482616942848048 0 -0.051818441616049399 0.35735321764765782 0 -0.069616273344600341 0.3650636543096733 0 -0.067541502003893042 0.3482616942848048 0 -0.067541502003893042 0.3482616942848048 0 -0.073191842414501496 0.33174208285196288 0 -0.085709514220790303 0.34113927750747819 0 -0.058679851530075752 0.32054224196392622 0 -0.073191842414501496 0.33174208285196288 0 -0.074915307566508993 0.31649039264194578 0 -0.054647974243728172 0.30430181459310768 0 -0.058679851530075752 0.32054224196392622 0 -0.074915307566508993 0.31649039264194578 0 -0.073191842414501496 0.33174208285196288 0 -0.074915307566508993 0.31649039264194578 0 -0.095182640889289766 0.32867897069078372 0 -0.090928135519314904 0.31087631578889069 0 -0.074915307566508993 0.31649039264194578 0 -0.095182640889289766 0.32867897069078372 0 -0.074915307566508993 0.31649039264194578 0 -0.095182640889289766 0.32867897069078372 0 -0.073191842414501496 0.33174208285196288 0 -0.085709514220790303 0.34113927750747819 0 -0.095182640889289766 0.32867897069078372 0 -0.085709514220790303 0.34113927750747819 0 -0.095182640889289766 0.32867897069078372 0 -0.099722393067727538 0.34687368244968458 0 -0.095182640889289766 0.32867897069078372 0 -0.1154499742120704 0.34086754873962172 0 -0.095182640889289766 0.32867897069078372 0 -0.1098512680755149 0.32470257897991811 0 -0.1154499742120704 0.34086754873962172 0 -0.095182640889289766 0.32867897069078372 0 -0.1154499742120704 0.34086754873962172 0 -0.099722393067727538 0.34687368244968458 0 -0.1061991548417472 0.31213959050036899 0 -0.090928135519314904 0.31087631578889069 0 -0.095182640889289766 0.32867897069078372 0 -0.1061991548417472 0.31213959050036899 0 -0.095182640889289766 0.32867897069078372 0 -0.1098512680755149 0.32470257897991811 0 -0.1061991548417472 0.31213959050036899 0 -0.115330384384618 0.31728312261503783 0 -0.1098512680755149 0.32470257897991811 0 -0.12136448477009221 0.30951812845445109 0 -0.1061991548417472 0.31213959050036899 0 -0.115330384384618 0.31728312261503783 0 -0.115330384384618 0.31728312261503783 0 -0.1098512680755149 0.32470257897991811 0 -0.12142985306419619 0.32461006626398298 0 -0.12722248981549561 0.3181430308760943 0 -0.115330384384618 0.31728312261503783 0 -0.12142985306419619 0.32461006626398298 0 -0.12722248981549561 0.3181430308760943 0 -0.12136448477009221 0.30951812845445109 0 -0.115330384384618 0.31728312261503783 0 -0.1098512680755149 0.32470257897991811 0 -0.12142985306419619 0.32461006626398298 0 -0.1154499742120704 0.34086754873962172 0 -0.13363790056006589 0.32585743918209531 0 -0.12142985306419619 0.32461006626398298 0 -0.1154499742120704 0.34086754873962172 0 -0.12523428666698541 0.37069662222368049 0 -0.1294360936135257 0.3482770307028879 0 -0.1154159689866658 0.35521970897278921 0 -0.1154499742120704 0.34086754873962172 0 -0.1154159689866658 0.35521970897278921 0 -0.099722393067727538 0.34687368244968458 0 -0.1294360936135257 0.3482770307028879 0 -0.1154499742120704 0.34086754873962172 0 -0.1154159689866658 0.35521970897278921 0 -0.12523428666698541 0.37069662222368049 0 -0.1154159689866658 0.35521970897278921 0 -0.11117961403065831 0.36839673047223442 0 -0.12523428666698541 0.37069662222368049 0 -0.11117961403065831 0.36839673047223442 0 -0.1123930043347208 0.38073562172137532 0 -0.11117961403065831 0.36839673047223442 0 -0.1008292236537022 0.36036332390371462 0 -0.09970079949094271 0.37763208900548878 0 -0.1154159689866658 0.35521970897278921 0 -0.11117961403065831 0.36839673047223442 0 -0.1008292236537022 0.36036332390371462 0 -0.085055645225370236 0.37193713089684588 0 -0.1008292236537022 0.36036332390371462 0 -0.09970079949094271 0.37763208900548878 0 -0.084100884505446297 0.3554636863979832 0 -0.1008292236537022 0.36036332390371462 0 -0.099722393067727538 0.34687368244968458 0 -0.1154159689866658 0.35521970897278921 0 -0.1008292236537022 0.36036332390371462 0 -0.099722393067727538 0.34687368244968458 0 -0.1036554482544351 0.39516830989393792 0 -0.1102807352191843 0.41378788895710661 0 -0.09259379641793411 0.40948313349934218 0 -0.1036554482544351 0.39516830989393792 0 -0.09970079949094271 0.37763208900548878 0 -0.1123930043347208 0.38073562172137532 0 -0.1036554482544351 0.39516830989393792 0 -0.09970079949094271 0.37763208900548878 0 -0.084297773186445962 0.39217279846007119 0 -0.11117961403065831 0.36839673047223442 0 -0.09970079949094271 0.37763208900548878 0 -0.1123930043347208 0.38073562172137532 0 -0.12523428666698541 0.37069662222368049 0 -0.1123930043347208 0.38073562172137532 0 -0.12103247972044499 0.39311621374447298 0 -0.1036554482544351 0.39516830989393792 0 -0.1123930043347208 0.38073562172137532 0 -0.12103247972044499 0.39311621374447298 0 -0.12523428666698541 0.37069662222368049 0 -0.12103247972044499 0.39311621374447298 0 -0.1036554482544351 0.39516830989393792 0 -0.12103247972044499 0.39311621374447298 0 -0.1102807352191843 0.41378788895710661 0 -0.12997925716256209 0.39431640422262348 0 -0.1102807352191843 0.41378788895710661 0 -0.12997925716256209 0.39431640422262348 0 -0.12103247972044499 0.39311621374447298 0 -0.1102807352191843 0.41378788895710661 0 -0.12623023605756489 0.41143854881348008 0 -0.1102807352191843 0.41378788895710661 0 -0.1242188050129694 0.42501783294758849 0 -0.12623023605756489 0.41143854881348008 0 -0.12997925716256209 0.39431640422262348 0 -0.1102807352191843 0.41378788895710661 0 -0.1102807352191843 0.41378788895710661 0 -0.1104760497445479 0.43296770510105842 0 -0.1242188050129694 0.42501783294758849 0 -0.1104760497445479 0.43296770510105842 0 -0.1242188050129694 0.42501783294758849 0 -0.1248743097581413 0.44162978393037222 0 -0.1102807352191843 0.41378788895710661 0 -0.090582213275806372 0.43325937369158968 0 -0.1102807352191843 0.41378788895710661 0 -0.1104760497445479 0.43296770510105842 0 -0.090582213275806372 0.43325937369158968 0 -0.1102807352191843 0.41378788895710661 0 -0.09259379641793411 0.40948313349934218 0 -0.090582213275806372 0.43325937369158968 0 -0.09259379641793411 0.40948313349934218 0 -0.090582213275806372 0.43325937369158968 0 -0.074152812153798875 0.41302729649400538 0 -0.090582213275806372 0.43325937369158968 0 -0.066022972602334681 0.42956105407568013 0 -0.074152812153798875 0.41302729649400538 0 -0.066022972602334681 0.42956105407568013 0 -0.074152812153798875 0.41302729649400538 0 -0.049329429094603867 0.41198700835812702 0 -0.074152812153798875 0.41302729649400538 0 -0.063154715464804681 0.39516467689365731 0 -0.084297773186445962 0.39217279846007119 0 -0.09259379641793411 0.40948313349934218 0 -0.074152812153798875 0.41302729649400538 0 -0.084297773186445962 0.39217279846007119 0 -0.1036554482544351 0.39516830989393792 0 -0.09259379641793411 0.40948313349934218 0 -0.084297773186445962 0.39217279846007119 0 -0.085055645225370236 0.37193713089684588 0 -0.09970079949094271 0.37763208900548878 0 -0.084297773186445962 0.39217279846007119 0 -0.085055645225370236 0.37193713089684588 0 -0.084297773186445962 0.39217279846007119 0 -0.071788917171084016 0.3809272333041443 0 -0.063154715464804681 0.39516467689365731 0 -0.084297773186445962 0.39217279846007119 0 -0.071788917171084016 0.3809272333041443 0 -0.063154715464804681 0.39516467689365731 0 -0.071788917171084016 0.3809272333041443 0 -0.056875823715872062 0.37631267096962301 0 -0.04149310004589906 0.37124785083274592 0 -0.056875823715872062 0.37631267096962301 0 -0.04338349465279491 0.38811939282985902 0 -0.063154715464804681 0.39516467689365731 0 -0.056875823715872062 0.37631267096962301 0 -0.04338349465279491 0.38811939282985902 0 -0.063154715464804681 0.39516467689365731 0 -0.04338349465279491 0.38811939282985902 0 -0.049329429094603867 0.41198700835812702 0 -0.04338349465279491 0.38811939282985902 0 -0.024844401122877391 0.39948633252540261 0 -0.049329429094603867 0.41198700835812702 0 -0.024169526760701381 0.37267007813580277 0 -0.04149310004589906 0.37124785083274592 0 -0.04338349465279491 0.38811939282985902 0 -0.024169526760701381 0.37267007813580277 0 -0.04338349465279491 0.38811939282985902 0 -0.024844401122877391 0.39948633252540261 0 -0.024169526760701381 0.37267007813580277 0 -0.024844401122877391 0.39948633252540261 0 -0.0045342830833226501 0.3863935686212247 0 -0.024844401122877391 0.39948633252540261 0 -0.0045342830833226501 0.3863935686212247 0 -0.0038092142255275289 0.41137928311071797 0 -0.0045342830833226501 0.3863935686212247 0 -0.0038092142255275289 0.41137928311071797 0 -0.024169526760701381 0.37267007813580277 0 -0.0045342830833226501 0.3863935686212247 0 -0.0030841453677343121 0.43636499760021141 0 -0.0038092142255275289 0.41137928311071797 0 -0.026324668085478481 0.42779129271708288 0 -0.0030841453677343121 0.43636499760021141 0 -0.0038092142255275289 0.41137928311071797 0 -0.024844401122877391 0.39948633252540261 0 -0.0038092142255275289 0.41137928311071797 0 -0.026324668085478481 0.42779129271708288 0 -0.026324668085478481 0.42779129271708288 0 -0.049329429094603867 0.41198700835812702 0 -0.049413859365407042 0.43472239834070731 0 -0.024844401122877391 0.39948633252540261 0 -0.026324668085478481 0.42779129271708288 0 -0.049329429094603867 0.41198700835812702 0 -0.074152812153798875 0.41302729649400538 0 -0.063154715464804681 0.39516467689365731 0 -0.049329429094603867 0.41198700835812702 0 -0.066022972602334681 0.42956105407568013 0 -0.049329429094603867 0.41198700835812702 0 -0.049413859365407042 0.43472239834070731 0 -0.066022972602334681 0.42956105407568013 0 -0.049413859365407042 0.43472239834070731 0 -0.0708836913324285 0.45273085842607269 0 -0.0393713920190637 0.45112048084748302 0 -0.052402143273794041 0.47435943831340011 0 -0.0708836913324285 0.45273085842607269 0 -0.049413859365407042 0.43472239834070731 0 -0.0393713920190637 0.45112048084748302 0 -0.0708836913324285 0.45273085842607269 0 -0.0393713920190637 0.45112048084748302 0 -0.02876560419008364 0.47203163756026523 0 -0.052402143273794041 0.47435943831340011 0 -0.026324668085478481 0.42779129271708288 0 -0.049413859365407042 0.43472239834070731 0 -0.0393713920190637 0.45112048084748302 0 -0.0030841453677343121 0.43636499760021141 0 -0.026324668085478481 0.42779129271708288 0 -0.01888650882967766 0.45329231687868837 0 -0.026324668085478481 0.42779129271708288 0 -0.0393713920190637 0.45112048084748302 0 -0.01888650882967766 0.45329231687868837 0 -0.0393713920190637 0.45112048084748302 0 -0.01888650882967766 0.45329231687868837 0 -0.02876560419008364 0.47203163756026523 0 -0.01888650882967766 0.45329231687868837 0 -0.01341416680576474 0.47109478045738301 0 -0.02876560419008364 0.47203163756026523 0 -0.01888650882967766 0.45329231687868837 0 -0.002359076509941094 0.46135071208970457 0 -0.01341416680576474 0.47109478045738301 0 -0.0030841453677343121 0.43636499760021141 0 -0.01888650882967766 0.45329231687868837 0 -0.002359076509941094 0.46135071208970457 0 -0.0030841453677343121 0.43636499760021141 0 -0.002359076509941094 0.46135071208970457 0 -0.0090346539348886701 0.5 0 -0.0016340076521478781 0.48633642657919801 0 -0.017460482120078509 0.48648722646036041 0 -0.0016340076521478781 0.48633642657919801 0 -0.01341416680576474 0.47109478045738301 0 -0.017460482120078509 0.48648722646036041 0 -0.002359076509941094 0.46135071208970457 0 -0.0016340076521478781 0.48633642657919801 0 -0.01341416680576474 0.47109478045738301 0 -0.002359076509941094 0.46135071208970457 0 -0.0016340076521478781 0.48633642657919801 0 -0.002359076509941094 0.46135071208970457 0 -0.0016340076521478781 0.48633642657919801 0 0.0036787250480955699 0.47408322248379448 0 -0.01341416680576474 0.47109478045738301 0 -0.02876560419008364 0.47203163756026523 0 -0.017460482120078509 0.48648722646036041 0 -0.02876560419008364 0.47203163756026523 0 -0.017460482120078509 0.48648722646036041 0 -0.038135422162237087 0.5 0 -0.0090346539348886701 0.5 0 -0.017460482120078509 0.48648722646036041 0 -0.038135422162237087 0.5 0 -0.02876560419008364 0.47203163756026523 0 -0.038135422162237087 0.5 0 -0.052402143273794041 0.47435943831340011 0 -0.038135422162237087 0.5 0 -0.052402143273794041 0.47435943831340011 0 -0.067236190389585393 0.5 0 -0.052402143273794041 0.47435943831340011 0 -0.067236190389585393 0.5 0 -0.073349005429332273 0.47921852398434828 0 -0.067236190389585393 0.5 0 -0.073349005429332273 0.47921852398434828 0 -0.096336958616933588 0.5 0 -0.073349005429332273 0.47921852398434828 0 -0.096336958616933588 0.5 0 -0.093805091172543903 0.47224368257650851 0 -0.052402143273794041 0.47435943831340011 0 -0.073349005429332273 0.47921852398434828 0 -0.0708836913324285 0.45273085842607269 0 -0.0708836913324285 0.45273085842607269 0 -0.1043361340672995 0.45358667135048331 0 -0.093805091172543903 0.47224368257650851 0 -0.090582213275806372 0.43325937369158968 0 -0.0708836913324285 0.45273085842607269 0 -0.1043361340672995 0.45358667135048331 0 -0.090582213275806372 0.43325937369158968 0 -0.066022972602334681 0.42956105407568013 0 -0.0708836913324285 0.45273085842607269 0 -0.090582213275806372 0.43325937369158968 0 -0.0708836913324285 0.45273085842607269 0 -0.073349005429332273 0.47921852398434828 0 -0.0708836913324285 0.45273085842607269 0 -0.093805091172543903 0.47224368257650851 0 -0.1043361340672995 0.45358667135048331 0 -0.12052644250191399 0.4682622397032008 0 -0.093805091172543903 0.47224368257650851 0 -0.1104760497445479 0.43296770510105842 0 -0.090582213275806372 0.43325937369158968 0 -0.1043361340672995 0.45358667135048331 0 -0.12618187852634369 0.45882241462805679 0 -0.1043361340672995 0.45358667135048331 0 -0.1248743097581413 0.44162978393037222 0 -0.1104760497445479 0.43296770510105842 0 -0.1043361340672995 0.45358667135048331 0 -0.1248743097581413 0.44162978393037222 0 -0.12618187852634369 0.45882241462805679 0 -0.1043361340672995 0.45358667135048331 0 -0.12052644250191399 0.4682622397032008 0 -0.1317912103042716 0.47600940211286807 0 -0.12052644250191399 0.4682622397032008 0 -0.11642361318749669 0.48420448820259387 0 -0.12052644250191399 0.4682622397032008 0 -0.11642361318749669 0.48420448820259387 0 -0.093805091172543903 0.47224368257650851 0 -0.12543772684428189 0.5 0 -0.11642361318749669 0.48420448820259387 0 -0.096336958616933588 0.5 0 -0.12543772684428189 0.5 0 -0.13178312884530541 0.48627570230508688 0 -0.11642361318749669 0.48420448820259387 0 -0.11642361318749669 0.48420448820259387 0 -0.096336958616933588 0.5 0 -0.093805091172543903 0.47224368257650851 0 -0.1693268494853358 0.079538523923443544 0 -0.16945340910355561 0.089496265134995978 0 -0.1618062267740645 0.07958177760614682 0 -0.16945340910355561 0.089496265134995978 0 -0.1618062267740645 0.07958177760614682 0 -0.1616157516695074 0.095139316102685473 0 -0.1618062267740645 0.07958177760614682 0 -0.1616157516695074 0.095139316102685473 0 -0.14767322655010931 0.084806545451415583 0 -0.1618062267740645 0.07958177760614682 0 -0.16640070467345031 0.07104807823334372 0 -0.15517576509654349 0.068304766057398533 0 -0.16640070467345031 0.07104807823334372 0 -0.15517576509654349 0.068304766057398533 0 -0.16451238623864939 0.061110077383343737 0 -0.16640070467345031 0.07104807823334372 0 -0.17354141001077031 0.063798093567348918 0 -0.16451238623864939 0.061110077383343737 0 -0.17157411485926041 0.074087910936242465 0 -0.16640070467345031 0.07104807823334372 0 -0.17354141001077031 0.063798093567348918 0 -0.1693268494853358 0.079538523923443544 0 -0.17157411485926041 0.074087910936242465 0 -0.16640070467345031 0.07104807823334372 0 -0.1693268494853358 0.079538523923443544 0 -0.1618062267740645 0.07958177760614682 0 -0.16640070467345031 0.07104807823334372 0 -0.17354141001077031 0.063798093567348918 0 -0.17702749526748529 0.081966948020833708 0 -0.17656426821359539 0.052679136019797047 0 -0.18185637422210199 0.067243003367259677 0 -0.17702749526748529 0.081966948020833708 0 -0.17656426821359539 0.052679136019797047 0 -0.17702749526748529 0.081966948020833708 0 -0.17656426821359539 0.052679136019797047 0 -0.17157411485926041 0.074087910936242465 0 -0.17354141001077031 0.063798093567348918 0 -0.17702749526748529 0.081966948020833708 0 -0.18185637422210199 0.067243003367259677 0 -0.1853153676200878 0.058850167416455039 0 -0.18892740292417859 0.064703221589215376 0 -0.18185637422210199 0.067243003367259677 0 -0.19050021368002351 0.072419239531055349 0 -0.18892740292417859 0.064703221589215376 0 -0.18185637422210199 0.067243003367259677 0 -0.18141962227324601 0.075216957450553817 0 -0.17702749526748529 0.081966948020833708 0 -0.18185637422210199 0.067243003367259677 0 -0.18141962227324601 0.075216957450553817 0 -0.19050021368002351 0.072419239531055349 0 -0.18141962227324601 0.075216957450553817 0 -0.1867192510276118 0.077748512173410014 0 -0.19050021368002351 0.072419239531055349 0 -0.18141962227324601 0.075216957450553817 0 -0.1867192510276118 0.077748512173410014 0 -0.1819129998543452 0.079414551687582866 0 -0.18248563084903771 0.082725789105533951 0 -0.17702749526748529 0.081966948020833708 0 -0.17749072232138041 0.1112547600218704 0 -0.1867192510276118 0.077748512173410014 0 -0.18248563084903771 0.082725789105533951 0 -0.1819129998543452 0.079414551687582866 0 -0.18141962227324601 0.075216957450553817 0 -0.1819129998543452 0.079414551687582866 0 -0.17702749526748529 0.081966948020833708 0 -0.18248563084903771 0.082725789105533951 0 -0.1819129998543452 0.079414551687582866 0 -0.17702749526748529 0.081966948020833708 0 -0.1693268494853358 0.079538523923443544 0 -0.16945340910355561 0.089496265134995978 0 -0.17702749526748529 0.081966948020833708 0 -0.1693268494853358 0.079538523923443544 0 -0.17157411485926041 0.074087910936242465 0 -0.17702749526748529 0.081966948020833708 0 -0.17702749526748529 0.081966948020833708 0 -0.17749072232138041 0.1112547600218704 0 -0.16945340910355561 0.089496265134995978 0 -0.17702749526748529 0.081966948020833708 0 -0.17749072232138041 0.1112547600218704 0 -0.17749072232138041 0.1112547600218704 0 -0.1951643137470572 0.093770439387570487 0 -0.18248563084903771 0.082725789105533951 0 -0.17749072232138041 0.1112547600218704 0 -0.1951643137470572 0.093770439387570487 0 -0.17749072232138041 0.1112547600218704 0 -0.19150979458678249 0.1243728737611647 0 -0.17789558253256721 0.1368522929207025 0 -0.17749072232138041 0.1112547600218704 0 -0.17789558253256721 0.1368522929207025 0 -0.17749072232138041 0.1112547600218704 0 -0.16113979031376621 0.12743058591966341 0 -0.17749072232138041 0.1112547600218704 0 -0.15084139672814201 0.110160429760413 0 -0.16113979031376621 0.12743058591966341 0 -0.17749072232138041 0.1112547600218704 0 -0.1616157516695074 0.095139316102685473 0 -0.15084139672814201 0.110160429760413 0 -0.16945340910355561 0.089496265134995978 0 -0.17749072232138041 0.1112547600218704 0 -0.1616157516695074 0.095139316102685473 0 -0.1616157516695074 0.095139316102685473 0 -0.15084139672814201 0.110160429760413 0 -0.14767322655010931 0.084806545451415583 0 -0.15084139672814201 0.110160429760413 0 -0.1348328660863515 0.097215266237156234 0 -0.14767322655010931 0.084806545451415583 0 -0.15084139672814201 0.110160429760413 0 -0.13137241316615089 0.11357835761918721 0 -0.14300315410871919 0.1253406317882016 0 -0.15084139672814201 0.110160429760413 0 -0.16113979031376621 0.12743058591966341 0 -0.14300315410871919 0.1253406317882016 0 -0.13137241316615089 0.11357835761918721 0 -0.14300315410871919 0.1253406317882016 0 -0.12687331202938101 0.13192737382428379 0 -0.13137241316615089 0.11357835761918721 0 -0.1348328660863515 0.097215266237156234 0 -0.1198812247159142 0.095002477965890675 0 -0.15084139672814201 0.110160429760413 0 -0.13137241316615089 0.11357835761918721 0 -0.1348328660863515 0.097215266237156234 0 -0.1348328660863515 0.097215266237156234 0 -0.12533951967512769 0.078274991835817334 0 -0.1198812247159142 0.095002477965890675 0 -0.1348328660863515 0.097215266237156234 0 -0.12533951967512769 0.078274991835817334 0 -0.14767322655010931 0.084806545451415583 0 -0.1618062267740645 0.07958177760614682 0 -0.14767322655010931 0.084806545451415583 0 -0.15517576509654349 0.068304766057398533 0 -0.14767322655010931 0.084806545451415583 0 -0.15517576509654349 0.068304766057398533 0 -0.14001017723872511 0.063978020277280875 0 -0.12533951967512769 0.078274991835817334 0 -0.14767322655010931 0.084806545451415583 0 -0.14001017723872511 0.063978020277280875 0 -0.12533951967512769 0.078274991835817334 0 -0.14001017723872511 0.063978020277280875 0 -0.1248745965026067 0.059896082918310993 0 -0.14001017723872511 0.063978020277280875 0 -0.13626681081840961 0.042829268155062397 0 -0.1248745965026067 0.059896082918310993 0 -0.13626681081840961 0.042829268155062397 0 -0.1339340902388827 0.022300844741854581 0 -0.1180188049733784 0.030804183747700629 0 -0.13626681081840961 0.042829268155062397 0 -0.1339340902388827 0.022300844741854581 0 -0.15968783393996419 0.037567277286728401 0 -0.13626681081840961 0.042829268155062397 0 -0.15351002702878311 0.053877414325468623 0 -0.15968783393996419 0.037567277286728401 0 -0.13626681081840961 0.042829268155062397 0 -0.15968783393996419 0.037567277286728401 0 -0.14001017723872511 0.063978020277280875 0 -0.13626681081840961 0.042829268155062397 0 -0.15351002702878311 0.053877414325468623 0 -0.15517576509654349 0.068304766057398533 0 -0.14001017723872511 0.063978020277280875 0 -0.15351002702878311 0.053877414325468623 0 -0.12735709500343681 0.004015926865657337 0 -0.15177498865293759 0.016606981474429749 0 -0.12735709500343681 0.004015926865657337 0 -0.1339340902388827 0.022300844741854581 0 -0.15177498865293759 0.016606981474429749 0 -0.12735709500343681 0.004015926865657337 0 -0.1339340902388827 0.022300844741854581 0 -0.11835839359799651 0.016938700943610479 0 -0.1339340902388827 0.022300844741854581 0 -0.15177498865293759 0.016606981474429749 0 -0.15968783393996419 0.037567277286728401 0 -0.1339340902388827 0.022300844741854581 0 -0.15968783393996419 0.037567277286728401 0 -0.12735709500343681 0.004015926865657337 0 -0.15177498865293759 0.016606981474429749 0 -0.14801408494475049 0.0031182785745780331 0 -0.15177498865293759 0.016606981474429749 0 -0.14801408494475049 0.0031182785745780331 0 -0.1619193683370386 0.0066468078375689294 0 -0.15773416148281841 -0.0035868741371463562 0 -0.14801408494475049 0.0031182785745780331 0 -0.1619193683370386 0.0066468078375689294 0 -0.15177498865293759 0.016606981474429749 0 -0.1619193683370386 0.0066468078375689294 0 -0.16760309597538539 0.015861310899326669 0 -0.16716832075785379 -0.0032078365625175 0 -0.1619193683370386 0.0066468078375689294 0 -0.17584419881677341 0.0071523107965592754 0 -0.1619193683370386 0.0066468078375689294 0 -0.16760309597538539 0.015861310899326669 0 -0.17584419881677341 0.0071523107965592754 0 -0.15177498865293759 0.016606981474429749 0 -0.17619288230243149 0.029198036083215671 0 -0.15177498865293759 0.016606981474429749 0 -0.17619288230243149 0.029198036083215671 0 -0.15968783393996419 0.037567277286728401 0 -0.15177498865293759 0.016606981474429749 0 -0.16760309597538539 0.015861310899326669 0 -0.17619288230243149 0.029198036083215671 0 -0.17619288230243149 0.029198036083215671 0 -0.1852069371874478 0.015311100034367831 0 -0.17584419881677341 0.0071523107965592754 0 -0.17619288230243149 0.029198036083215671 0 -0.17584419881677341 0.0071523107965592754 0 -0.16760309597538539 0.015861310899326669 0 -0.17619288230243149 0.029198036083215671 0 -0.17584419881677341 0.0071523107965592754 0 -0.17619288230243149 0.029198036083215671 0 -0.19572946351785711 0.039272048382664133 0 -0.19029700863621521 0.024089069561314659 0 -0.17619288230243149 0.029198036083215671 0 -0.1852069371874478 0.015311100034367831 0 -0.19029700863621521 0.024089069561314659 0 -0.1852069371874478 0.015311100034367831 0 -0.18717715497560061 0.0062623078557712403 0 -0.17584419881677341 0.0071523107965592754 0 -0.18154179604087481 -0.0036104187285780349 0 -0.18717715497560061 0.0062623078557712403 0 -0.17584419881677341 0.0071523107965592754 0 -0.15351002702878311 0.053877414325468623 0 -0.1659033968134131 0.050269055427132232 0 -0.15968783393996419 0.037567277286728401 0 -0.1659033968134131 0.050269055427132232 0 -0.16451238623864939 0.061110077383343737 0 -0.17656426821359539 0.052679136019797047 0 -0.17354141001077031 0.063798093567348918 0 -0.16451238623864939 0.061110077383343737 0 -0.17656426821359539 0.052679136019797047 0 -0.16451238623864939 0.061110077383343737 0 -0.17656426821359539 0.052679136019797047 0 -0.15351002702878311 0.053877414325468623 0 -0.1659033968134131 0.050269055427132232 0 -0.16451238623864939 0.061110077383343737 0 -0.15517576509654349 0.068304766057398533 0 -0.15351002702878311 0.053877414325468623 0 -0.16451238623864939 0.061110077383343737 0 -0.15968783393996419 0.037567277286728401 0 -0.1762663423330757 0.033842591165095401 0 -0.1659033968134131 0.050269055427132232 0 -0.15968783393996419 0.037567277286728401 0 -0.1764827173319595 0.047523031967639129 0 -0.17619288230243149 0.029198036083215671 0 -0.15968783393996419 0.037567277286728401 0 -0.1762663423330757 0.033842591165095401 0 -0.15968783393996419 0.037567277286728401 0 -0.1764827173319595 0.047523031967639129 0 -0.15968783393996419 0.037567277286728401 0 -0.1762663423330757 0.033842591165095401 0 -0.1764827173319595 0.047523031967639129 0 -0.17619288230243149 0.029198036083215671 0 -0.19572946351785711 0.039272048382664133 0 -0.181281627628781 0.040827380692469641 0 -0.18051660755046151 0.049914261515807259 0 -0.1764827173319595 0.047523031967639129 0 -0.17619288230243149 0.029198036083215671 0 -0.1762663423330757 0.033842591165095401 0 -0.19572946351785711 0.039272048382664133 0 -0.1762663423330757 0.033842591165095401 0 -0.181281627628781 0.040827380692469641 0 -0.19572946351785711 0.039272048382664133 0 -0.1762663423330757 0.033842591165095401 0 -0.181281627628781 0.040827380692469641 0 -0.1764827173319595 0.047523031967639129 0 -0.1762663423330757 0.033842591165095401 0 -0.1764827173319595 0.047523031967639129 0 -0.17619288230243149 0.029198036083215671 0 -0.1762663423330757 0.033842591165095401 0 -0.181281627628781 0.040827380692469641 0 -0.18051660755046151 0.049914261515807259 0 -0.19572946351785711 0.039272048382664133 0 -0.18051660755046151 0.049914261515807259 0 -0.17656426821359539 0.052679136019797047 0 -0.1853153676200878 0.058850167416455039 0 -0.18051660755046151 0.049914261515807259 0 -0.1764827173319595 0.047523031967639129 0 -0.1764827173319595 0.047523031967639129 0 -0.17656426821359539 0.052679136019797047 0 -0.1659033968134131 0.050269055427132232 0 -0.1764827173319595 0.047523031967639129 0 -0.17656426821359539 0.052679136019797047 0 -0.18051660755046151 0.049914261515807259 0 -0.1764827173319595 0.047523031967639129 0 -0.17656426821359539 0.052679136019797047 0 -0.18051660755046151 0.049914261515807259 0 -0.17656426821359539 0.052679136019797047 0 -0.18185637422210199 0.067243003367259677 0 -0.17656426821359539 0.052679136019797047 0 -0.1853153676200878 0.058850167416455039 0 -0.1853153676200878 0.058850167416455039 0 -0.19803765617450109 0.060300476042091433 0 -0.18892740292417859 0.064703221589215376 0 -0.18051660755046151 0.049914261515807259 0 -0.19803765617450109 0.060300476042091433 0 -0.1977866825790292 0.05007637869738242 0 -0.18051660755046151 0.049914261515807259 0 -0.1853153676200878 0.058850167416455039 0 -0.19803765617450109 0.060300476042091433 0 -0.18051660755046151 0.049914261515807259 0 -0.19803765617450109 0.060300476042091433 0 -0.19803765617450109 0.060300476042091433 0 -0.1977866825790292 0.05007637869738242 0 -0.2066297839190599 0.054855205218219752 0 -0.18051660755046151 0.049914261515807259 0 -0.1977866825790292 0.05007637869738242 0 -0.19572946351785711 0.039272048382664133 0 -0.18051660755046151 0.049914261515807259 0 -0.19572946351785711 0.039272048382664133 0 -0.19572946351785711 0.039272048382664133 0 -0.2098237389609823 0.029412342647955388 0 -0.1977866825790292 0.05007637869738242 0 -0.19572946351785711 0.039272048382664133 0 -0.2073344650466164 0.045256152092875389 0 -0.19572946351785711 0.039272048382664133 0 -0.2073344650466164 0.045256152092875389 0 -0.2073344650466164 0.045256152092875389 0 -0.21702036639386221 0.038769314305699548 0 -0.2098237389609823 0.029412342647955388 0 -0.19572946351785711 0.039272048382664133 0 -0.2073344650466164 0.045256152092875389 0 -0.2098237389609823 0.029412342647955388 0 -0.21702036639386221 0.038769314305699548 0 -0.2098237389609823 0.029412342647955388 0 -0.2284051488343061 0.035137669629428533 0 -0.2073344650466164 0.045256152092875389 0 -0.21702036639386221 0.038769314305699548 0 -0.22251811273354419 0.045271092852538893 0 -0.2073344650466164 0.045256152092875389 0 -0.21769334509658461 0.055951218203848879 0 -0.22251811273354419 0.045271092852538893 0 -0.21769334509658461 0.055951218203848879 0 -0.20947987249717179 0.060448397508133619 0 -0.2066297839190599 0.054855205218219752 0 -0.21769334509658461 0.055951218203848879 0 -0.20947987249717179 0.060448397508133619 0 -0.2155587047985415 0.070686690568374386 0 -0.19803765617450109 0.060300476042091433 0 -0.20947987249717179 0.060448397508133619 0 -0.2066297839190599 0.054855205218219752 0 -0.1977866825790292 0.05007637869738242 0 -0.2073344650466164 0.045256152092875389 0 -0.2066297839190599 0.054855205218219752 0 -0.2073344650466164 0.045256152092875389 0 -0.21769334509658461 0.055951218203848879 0 -0.2066297839190599 0.054855205218219752 0 -0.1989264366345522 -0.0080023544535597537 0 -0.1965234412062255 0.0098537758749781944 0 -0.20713549204565579 6.5395444916274768e-05 0 -0.19066530249761049 -0.0041303576494283751 0 -0.18717715497560061 0.0062623078557712403 0 -0.1965234412062255 0.0098537758749781944 0 -0.1852069371874478 0.015311100034367831 0 -0.18717715497560061 0.0062623078557712403 0 -0.1965234412062255 0.0098537758749781944 0 -0.1965234412062255 0.0098537758749781944 0 -0.20113962024173071 0.02227838771243261 0 -0.2107847094499361 0.011405203725301251 0 -0.19572946351785711 0.039272048382664133 0 -0.20113962024173071 0.02227838771243261 0 -0.2098237389609823 0.029412342647955388 0 -0.19572946351785711 0.039272048382664133 0 -0.20113962024173071 0.02227838771243261 0 -0.19029700863621521 0.024089069561314659 0 -0.1965234412062255 0.0098537758749781944 0 -0.20113962024173071 0.02227838771243261 0 -0.19029700863621521 0.024089069561314659 0 -0.1852069371874478 0.015311100034367831 0 -0.1965234412062255 0.0098537758749781944 0 -0.19029700863621521 0.024089069561314659 0 -0.2098237389609823 0.029412342647955388 0 -0.2107847094499361 0.011405203725301251 0 -0.22391801440410891 0.019552636913248388 0 -0.20113962024173071 0.02227838771243261 0 -0.2098237389609823 0.029412342647955388 0 -0.2107847094499361 0.011405203725301251 0 -0.2098237389609823 0.029412342647955388 0 -0.22391801440410891 0.019552636913248388 0 -0.21702438745170211 -0.0043907958627755336 0 -0.2107847094499361 0.011405203725301251 0 -0.20713549204565579 6.5395444916274768e-05 0 -0.21702438745170211 -0.0043907958627755336 0 -0.2107847094499361 0.011405203725301251 0 -0.22391801440410891 0.019552636913248388 0 -0.1965234412062255 0.0098537758749781944 0 -0.2107847094499361 0.011405203725301251 0 -0.20713549204565579 6.5395444916274768e-05 0 -0.22867745033346079 0.0038692188645070222 0 -0.22391801440410891 0.019552636913248388 0 -0.2344599051246074 0.012178015861532989 0 -0.21702438745170211 -0.0043907958627755336 0 -0.22391801440410891 0.019552636913248388 0 -0.21702438745170211 -0.0043907958627755336 0 -0.22867745033346079 0.0038692188645070222 0 -0.22391801440410891 0.019552636913248388 0 -0.22391801440410891 0.019552636913248388 0 -0.2403792472176362 0.02548084658656756 0 -0.2344599051246074 0.012178015861532989 0 -0.2098237389609823 0.029412342647955388 0 -0.22391801440410891 0.019552636913248388 0 -0.2284051488343061 0.035137669629428533 0 -0.22391801440410891 0.019552636913248388 0 -0.2403792472176362 0.02548084658656756 0 -0.2284051488343061 0.035137669629428533 0 -0.22391801440410891 0.019552636913248388 0 -0.2344599051246074 0.012178015861532989 0 -0.22391801440410891 0.019552636913248388 0 -0.2284051488343061 0.035137669629428533 0 -0.2522816967992324 0.037264740289820159 0 -0.25157722050270093 0.012682655753942951 0 -0.2403792472176362 0.02548084658656756 0 -0.25157722050270093 0.012682655753942951 0 -0.2403792472176362 0.02548084658656756 0 -0.2344599051246074 0.012178015861532989 0 -0.25267499080189931 -0.0034516002120552492 0 -0.25157722050270093 0.012682655753942951 0 -0.2401015516947359 0.00075261550232862703 0 -0.25157722050270093 0.012682655753942951 0 -0.2344599051246074 0.012178015861532989 0 -0.2401015516947359 0.00075261550232862703 0 -0.22867745033346079 0.0038692188645070222 0 -0.2344599051246074 0.012178015861532989 0 -0.2401015516947359 0.00075261550232862703 0 -0.21769334509658461 0.055951218203848879 0 -0.23255980098598539 0.056775429521547523 0 -0.2155587047985415 0.070686690568374386 0 -0.23289228326450309 0.050722702345608793 0 -0.22641588552015429 0.052180110730886013 0 -0.22251811273354419 0.045271092852538893 0 -0.23289228326450309 0.050722702345608793 0 -0.23255980098598539 0.056775429521547523 0 -0.22641588552015429 0.052180110730886013 0 -0.21769334509658461 0.055951218203848879 0 -0.23255980098598539 0.056775429521547523 0 -0.22641588552015429 0.052180110730886013 0 -0.21769334509658461 0.055951218203848879 0 -0.22641588552015429 0.052180110730886013 0 -0.22251811273354419 0.045271092852538893 0 -0.21702036639386221 0.038769314305699548 0 -0.22251811273354419 0.045271092852538893 0 -0.2284051488343061 0.035137669629428533 0 -0.23289228326450309 0.050722702345608793 0 -0.22251811273354419 0.045271092852538893 0 -0.2284051488343061 0.035137669629428533 0 -0.23289228326450309 0.050722702345608793 0 -0.2284051488343061 0.035137669629428533 0 -0.2522816967992324 0.037264740289820159 0 -0.2403792472176362 0.02548084658656756 0 -0.2284051488343061 0.035137669629428533 0 -0.2522816967992324 0.037264740289820159 0 -0.23289228326450309 0.050722702345608793 0 -0.2284051488343061 0.035137669629428533 0 -0.2522816967992324 0.037264740289820159 0 -0.23289228326450309 0.050722702345608793 0 -0.23255980098598539 0.056775429521547523 0 -0.2522816967992324 0.037264740289820159 0 -0.23255980098598539 0.056775429521547523 0 -0.2522816967992324 0.037264740289820159 0 -0.23255980098598539 0.056775429521547523 0 -0.24906194248509719 0.058488871325365822 0 -0.23255980098598539 0.056775429521547523 0 -0.24906194248509719 0.058488871325365822 0 -0.23770452364983391 0.071010308971772351 0 -0.26257114212692878 0.06573449919026883 0 -0.24906194248509719 0.058488871325365822 0 -0.23770452364983391 0.071010308971772351 0 -0.25261226255175379 0.080423606239198905 0 -0.23770452364983391 0.071010308971772351 0 -0.23158356521460469 0.085326977986282804 0 -0.25261226255175379 0.080423606239198905 0 -0.23158356521460469 0.085326977986282804 0 -0.24377998071086901 0.096378574065869249 0 -0.23158356521460469 0.085326977986282804 0 -0.21283790517273879 0.076286118753275345 0 -0.22135706029896429 0.097751395037259853 0 -0.23158356521460469 0.085326977986282804 0 -0.22135706029896429 0.097751395037259853 0 -0.24377998071086901 0.096378574065869249 0 -0.23255980098598539 0.056775429521547523 0 -0.21283790517273879 0.076286118753275345 0 -0.23770452364983391 0.071010308971772351 0 -0.23158356521460469 0.085326977986282804 0 -0.21283790517273879 0.076286118753275345 0 -0.23255980098598539 0.056775429521547523 0 -0.23770452364983391 0.071010308971772351 0 -0.21283790517273879 0.076286118753275345 0 -0.23255980098598539 0.056775429521547523 0 -0.21283790517273879 0.076286118753275345 0 -0.2155587047985415 0.070686690568374386 0 -0.23770452364983391 0.071010308971772351 0 -0.21283790517273879 0.076286118753275345 0 -0.19803765617450109 0.060300476042091433 0 -0.20947987249717179 0.060448397508133619 0 -0.2155587047985415 0.070686690568374386 0 -0.19803765617450109 0.060300476042091433 0 -0.20333782300263301 0.070680183335342567 0 -0.2155587047985415 0.070686690568374386 0 -0.19803765617450109 0.060300476042091433 0 -0.2155587047985415 0.070686690568374386 0 -0.21283790517273879 0.076286118753275345 0 -0.19766176801088831 0.079505953929404904 0 -0.20333782300263301 0.070680183335342567 0 -0.21283790517273879 0.076286118753275345 0 -0.19766176801088831 0.079505953929404904 0 -0.20333782300263301 0.070680183335342567 0 -0.21283790517273879 0.076286118753275345 0 -0.2155587047985415 0.070686690568374386 0 -0.21283790517273879 0.076286118753275345 0 -0.1951643137470572 0.093770439387570487 0 -0.22135706029896429 0.097751395037259853 0 -0.21283790517273879 0.076286118753275345 0 -0.1951643137470572 0.093770439387570487 0 -0.21283790517273879 0.076286118753275345 0 -0.19766176801088831 0.079505953929404904 0 -0.1951643137470572 0.093770439387570487 0 -0.18248563084903771 0.082725789105533951 0 -0.19766176801088831 0.079505953929404904 0 -0.1951643137470572 0.093770439387570487 0 -0.1867192510276118 0.077748512173410014 0 -0.18248563084903771 0.082725789105533951 0 -0.19766176801088831 0.079505953929404904 0 -0.18248563084903771 0.082725789105533951 0 -0.19766176801088831 0.079505953929404904 0 -0.1867192510276118 0.077748512173410014 0 -0.19766176801088831 0.079505953929404904 0 -0.19050021368002351 0.072419239531055349 0 -0.19803765617450109 0.060300476042091433 0 -0.19050021368002351 0.072419239531055349 0 -0.18892740292417859 0.064703221589215376 0 -0.19803765617450109 0.060300476042091433 0 -0.20333782300263301 0.070680183335342567 0 -0.19050021368002351 0.072419239531055349 0 -0.20333782300263301 0.070680183335342567 0 -0.19766176801088831 0.079505953929404904 0 -0.19050021368002351 0.072419239531055349 0 -0.17749072232138041 0.1112547600218704 0 -0.19150979458678249 0.1243728737611647 0 -0.1951643137470572 0.093770439387570487 0 -0.19150979458678249 0.1243728737611647 0 -0.1951643137470572 0.093770439387570487 0 -0.20994497012605751 0.11823125198409511 0 -0.1951643137470572 0.093770439387570487 0 -0.20994497012605751 0.11823125198409511 0 -0.22135706029896429 0.097751395037259853 0 -0.20994497012605751 0.11823125198409511 0 -0.2348316268224595 0.11651500804646669 0 -0.2235388627286797 0.12965651036182041 0 -0.20994497012605751 0.11823125198409511 0 -0.22135706029896429 0.097751395037259853 0 -0.2348316268224595 0.11651500804646669 0 -0.22135706029896429 0.097751395037259853 0 -0.24377998071086901 0.096378574065869249 0 -0.2348316268224595 0.11651500804646669 0 -0.25136603029008331 0.1103208693098497 0 -0.24377998071086901 0.096378574065869249 0 -0.2348316268224595 0.11651500804646669 0 -0.25922316449870308 0.12628093809151891 0 -0.25136603029008331 0.1103208693098497 0 -0.2348316268224595 0.11651500804646669 0 -0.25922316449870308 0.12628093809151891 0 -0.2348316268224595 0.11651500804646669 0 -0.2369615480924761 0.1404602413506009 0 -0.2369615480924761 0.1404602413506009 0 -0.2235388627286797 0.12965651036182041 0 -0.2124173058737257 0.14341954006611901 0 -0.2348316268224595 0.11651500804646669 0 -0.2369615480924761 0.1404602413506009 0 -0.2235388627286797 0.12965651036182041 0 -0.2369615480924761 0.1404602413506009 0 -0.22679867445049531 0.16064067306310431 0 -0.2124173058737257 0.14341954006611901 0 -0.2369615480924761 0.1404602413506009 0 -0.247018622616726 0.15992587597476091 0 -0.22679867445049531 0.16064067306310431 0 -0.25846103874104392 0.14702121199507179 0 -0.2369615480924761 0.1404602413506009 0 -0.247018622616726 0.15992587597476091 0 -0.247018622616726 0.15992587597476091 0 -0.23359887481107691 0.1809086922627815 0 -0.247018622616726 0.15992587597476091 0 -0.23359887481107691 0.1809086922627815 0 -0.22679867445049531 0.16064067306310431 0 -0.26439180367967152 0.18225540552070321 0 -0.247018622616726 0.15992587597476091 0 -0.23359887481107691 0.1809086922627815 0 -0.23359887481107691 0.1809086922627815 0 -0.20517995294037331 0.17379218369948349 0 -0.2201791270054278 0.2018915085508021 0 -0.23359887481107691 0.1809086922627815 0 -0.22679867445049531 0.16064067306310431 0 -0.20517995294037331 0.17379218369948349 0 -0.22679867445049531 0.16064067306310431 0 -0.20517995294037331 0.17379218369948349 0 -0.2124173058737257 0.14341954006611901 0 -0.20517995294037331 0.17379218369948349 0 -0.19274338499996449 0.14807478539393409 0 -0.17830044274374979 0.16244982581953471 0 -0.19150979458678249 0.1243728737611647 0 -0.19274338499996449 0.14807478539393409 0 -0.2124173058737257 0.14341954006611901 0 -0.20994497012605751 0.11823125198409511 0 -0.2235388627286797 0.12965651036182041 0 -0.2124173058737257 0.14341954006611901 0 -0.19150979458678249 0.1243728737611647 0 -0.20994497012605751 0.11823125198409511 0 -0.2124173058737257 0.14341954006611901 0 -0.20517995294037331 0.17379218369948349 0 -0.19274338499996449 0.14807478539393409 0 -0.2124173058737257 0.14341954006611901 0 -0.22371849106378741 0.2462845034026982 0 -0.23019370483249479 0.22382880503591951 0 -0.2066863838603582 0.24242880758937649 0 -0.22371849106378741 0.2462845034026982 0 -0.23951274761537589 0.2474853768326048 0 -0.23019370483249479 0.22382880503591951 0 -0.25272375818517617 0.22994970808158929 0 -0.25621817608628389 0.2460965770837312 0 -0.23951274761537589 0.2474853768326048 0 -0.25370102580463139 0.2052288024824625 0 -0.25272375818517617 0.22994970808158929 0 -0.23019370483249479 0.22382880503591951 0 -0.25272375818517617 0.22994970808158929 0 -0.23951274761537589 0.2474853768326048 0 -0.23019370483249479 0.22382880503591951 0 -0.25370102580463139 0.2052288024824625 0 -0.23359887481107691 0.1809086922627815 0 -0.2201791270054278 0.2018915085508021 0 -0.25370102580463139 0.2052288024824625 0 -0.23019370483249479 0.22382880503591951 0 -0.2201791270054278 0.2018915085508021 0 -0.23019370483249479 0.22382880503591951 0 -0.2201791270054278 0.2018915085508021 0 -0.20675937919977869 0.22287432483882261 0 -0.25370102580463139 0.2052288024824625 0 -0.23019370483249479 0.22382880503591951 0 -0.23359887481107691 0.1809086922627815 0 -0.2201791270054278 0.2018915085508021 0 -0.20517995294037331 0.17379218369948349 0 -0.2201791270054278 0.2018915085508021 0 -0.19686056424972551 0.20437535499954981 0 -0.20517995294037331 0.17379218369948349 0 -0.19686056424972551 0.20437535499954981 0 -0.17870530295493239 0.18804735871836689 0 -0.19686056424972551 0.20437535499954981 0 -0.20675937919977869 0.22287432483882261 0 -0.19122946023172571 0.22600186257262461 0 -0.19686056424972551 0.20437535499954981 0 -0.19122946023172571 0.22600186257262461 0 -0.179110163166115 0.21364489161719899 0 -0.2201791270054278 0.2018915085508021 0 -0.19686056424972551 0.20437535499954981 0 -0.20675937919977869 0.22287432483882261 0 -0.2201791270054278 0.2018915085508021 0 -0.20675937919977869 0.22287432483882261 0 -0.23019370483249479 0.22382880503591951 0 -0.2066863838603582 0.24242880758937649 0 -0.23019370483249479 0.22382880503591951 0 -0.20675937919977869 0.22287432483882261 0 -0.2066863838603582 0.24242880758937649 0 -0.20675937919977869 0.22287432483882261 0 -0.19333963139412971 0.24385714112684301 0 -0.20675937919977869 0.22287432483882261 0 -0.19122946023172571 0.22600186257262461 0 -0.19333963139412971 0.24385714112684301 0 -0.19122946023172571 0.22600186257262461 0 -0.19333963139412971 0.24385714112684301 0 -0.17951502337729761 0.2392424245160312 0 -0.20675937919977869 0.22287432483882261 0 -0.19333963139412971 0.24385714112684301 0 -0.2066863838603582 0.24242880758937649 0 -0.18259587964237009 0.2606558300825601 0 -0.19333963139412971 0.24385714112684301 0 -0.2066863838603582 0.24242880758937649 0 -0.21408768962570049 0.25938306782852782 0 -0.22371849106378741 0.2462845034026982 0 -0.2066863838603582 0.24242880758937649 0 -0.1532221513837192 0.25419418888983192 0 -0.17951502337729761 0.2392424245160312 0 -0.15110003921584569 0.22881829817408891 0 -0.18259587964237009 0.2606558300825601 0 -0.19333963139412971 0.24385714112684301 0 -0.17951502337729761 0.2392424245160312 0 -0.17951502337729761 0.2392424245160312 0 -0.1619547442009632 0.2162214427956837 0 -0.179110163166115 0.21364489161719899 0 -0.19122946023172571 0.22600186257262461 0 -0.17951502337729761 0.2392424245160312 0 -0.179110163166115 0.21364489161719899 0 -0.17951502337729761 0.2392424245160312 0 -0.179110163166115 0.21364489161719899 0 -0.17951502337729761 0.2392424245160312 0 -0.1619547442009632 0.2162214427956837 0 -0.15110003921584569 0.22881829817408891 0 -0.1619547442009632 0.2162214427956837 0 -0.179110163166115 0.21364489161719899 0 -0.17870530295493239 0.18804735871836689 0 -0.19686056424972551 0.20437535499954981 0 -0.179110163166115 0.21364489161719899 0 -0.17870530295493239 0.18804735871836689 0 -0.179110163166115 0.21364489161719899 0 -0.17870530295493239 0.18804735871836689 0 -0.1619547442009632 0.2162214427956837 0 -0.17870530295493239 0.18804735871836689 0 -0.15775407484820861 0.18727827749961631 0 -0.14804225966403101 0.20585853828705919 0 -0.15775407484820861 0.18727827749961631 0 -0.13876353146598761 0.18223131465273959 0 -0.1619547442009632 0.2162214427956837 0 -0.14804225966403101 0.20585853828705919 0 -0.15775407484820861 0.18727827749961631 0 -0.13876353146598761 0.18223131465273959 0 -0.1245765098090509 0.17966052017845999 0 -0.1190175871807343 0.20067046473278771 0 -0.14804225966403101 0.20585853828705919 0 -0.13876353146598761 0.18223131465273959 0 -0.1190175871807343 0.20067046473278771 0 -0.14804225966403101 0.20585853828705919 0 -0.13479108425045189 0.2189379304695287 0 -0.1190175871807343 0.20067046473278771 0 -0.13479108425045189 0.2189379304695287 0 -0.12594818007053379 0.2253828658525201 0 -0.1190175871807343 0.20067046473278771 0 -0.1619547442009632 0.2162214427956837 0 -0.14804225966403101 0.20585853828705919 0 -0.15110003921584569 0.22881829817408891 0 -0.14804225966403101 0.20585853828705919 0 -0.15110003921584569 0.22881829817408891 0 -0.13479108425045189 0.2189379304695287 0 -0.15110003921584569 0.22881829817408891 0 -0.13479108425045189 0.2189379304695287 0 -0.1378537507735782 0.22769286600650679 0 -0.15110003921584569 0.22881829817408891 0 -0.1378537507735782 0.22769286600650679 0 -0.13827307027013019 0.2362506378269415 0 -0.13479108425045189 0.2189379304695287 0 -0.12594818007053379 0.2253828658525201 0 -0.1378537507735782 0.22769286600650679 0 -0.12594818007053379 0.2253828658525201 0 -0.1378537507735782 0.22769286600650679 0 -0.13827307027013019 0.2362506378269415 0 -0.12594818007053379 0.2253828658525201 0 -0.13827307027013019 0.2362506378269415 0 -0.1327712538659816 0.24971188635390451 0 -0.12594818007053379 0.2253828658525201 0 -0.1327712538659816 0.24971188635390451 0 -0.1532221513837192 0.25419418888983192 0 -0.15110003921584569 0.22881829817408891 0 -0.13827307027013019 0.2362506378269415 0 -0.1532221513837192 0.25419418888983192 0 -0.13827307027013019 0.2362506378269415 0 -0.1327712538659816 0.24971188635390451 0 -0.16317411874061041 0.14897554401654969 0 -0.16113979031376621 0.12743058591966341 0 -0.1447888583061562 0.1436064118174607 0 -0.16317411874061041 0.14897554401654969 0 -0.16113979031376621 0.12743058591966341 0 -0.17789558253256721 0.1368522929207025 0 -0.17749072232138041 0.1112547600218704 0 -0.16113979031376621 0.12743058591966341 0 -0.17789558253256721 0.1368522929207025 0 -0.19150979458678249 0.1243728737611647 0 -0.19274338499996449 0.14807478539393409 0 -0.17789558253256721 0.1368522929207025 0 -0.16317411874061041 0.14897554401654969 0 -0.17789558253256721 0.1368522929207025 0 -0.17830044274374979 0.16244982581953471 0 -0.17789558253256721 0.1368522929207025 0 -0.17830044274374979 0.16244982581953471 0 -0.19274338499996449 0.14807478539393409 0 -0.17789558253256721 0.1368522929207025 0 -0.17830044274374979 0.16244982581953471 0 -0.20517995294037331 0.17379218369948349 0 -0.17870530295493239 0.18804735871836689 0 -0.17830044274374979 0.16244982581953471 0 -0.17870530295493239 0.18804735871836689 0 -0.17830044274374979 0.16244982581953471 0 -0.17870530295493239 0.18804735871836689 0 -0.17830044274374979 0.16244982581953471 0 -0.15775407484820861 0.18727827749961631 0 -0.17830044274374979 0.16244982581953471 0 -0.15775407484820861 0.18727827749961631 0 -0.15245232938168229 0.1648839185887534 0 -0.16317411874061041 0.14897554401654969 0 -0.17830044274374979 0.16244982581953471 0 -0.15245232938168229 0.1648839185887534 0 -0.15775407484820861 0.18727827749961631 0 -0.15245232938168229 0.1648839185887534 0 -0.13876353146598761 0.18223131465273959 0 -0.13876353146598761 0.18223131465273959 0 -0.12843792629854631 0.15978223771525801 0 -0.1245765098090509 0.17966052017845999 0 -0.15245232938168229 0.1648839185887534 0 -0.13876353146598761 0.18223131465273959 0 -0.12843792629854631 0.15978223771525801 0 -0.12843792629854631 0.15978223771525801 0 -0.1447888583061562 0.1436064118174607 0 -0.12843792629854631 0.15978223771525801 0 -0.1447888583061562 0.1436064118174607 0 -0.1204435081575875 0.14623213693654391 0 -0.16317411874061041 0.14897554401654969 0 -0.15245232938168229 0.1648839185887534 0 -0.1447888583061562 0.1436064118174607 0 -0.15245232938168229 0.1648839185887534 0 -0.12843792629854631 0.15978223771525801 0 -0.1447888583061562 0.1436064118174607 0 -0.16113979031376621 0.12743058591966341 0 -0.1447888583061562 0.1436064118174607 0 -0.14300315410871919 0.1253406317882016 0 -0.16113979031376621 0.12743058591966341 0 -0.1447888583061562 0.1436064118174607 0 -0.1447888583061562 0.1436064118174607 0 -0.12687331202938101 0.13192737382428379 0 -0.1204435081575875 0.14623213693654391 0 -0.1447888583061562 0.1436064118174607 0 -0.14300315410871919 0.1253406317882016 0 -0.12687331202938101 0.13192737382428379 0 -0.12687331202938101 0.13192737382428379 0 -0.1130049083687871 0.13722853083192951 0 -0.10667563132183119 0.1260080396076822 0 -0.12687331202938101 0.13192737382428379 0 -0.1130049083687871 0.13722853083192951 0 -0.1204435081575875 0.14623213693654391 0 -0.10667563132183119 0.1260080396076822 0 -0.081978849477511453 0.1384377215961772 0 -0.096577670607123245 0.1239972751083621 0 -0.10667563132183119 0.1260080396076822 0 -0.1008242758955458 0.1385116675773613 0 -0.081978849477511453 0.1384377215961772 0 -0.10667563132183119 0.1260080396076822 0 -0.081978849477511453 0.1384377215961772 0 -0.1130049083687871 0.13722853083192951 0 -0.10667563132183119 0.1260080396076822 0 -0.1008242758955458 0.1385116675773613 0 -0.1130049083687871 0.13722853083192951 0 -0.1008242758955458 0.1385116675773613 0 -0.1078791741402548 0.14587794917826699 0 -0.094422293866394627 0.1556947047027778 0 -0.094582816169344081 0.14500609667275041 0 -0.1078791741402548 0.14587794917826699 0 -0.1008242758955458 0.1385116675773613 0 -0.094582816169344081 0.14500609667275041 0 -0.1078791741402548 0.14587794917826699 0 -0.12843792629854631 0.15978223771525801 0 -0.1204435081575875 0.14623213693654391 0 -0.1073217141416921 0.15896651377475199 0 -0.1078791741402548 0.14587794917826699 0 -0.1204435081575875 0.14623213693654391 0 -0.1073217141416921 0.15896651377475199 0 -0.1130049083687871 0.13722853083192951 0 -0.1078791741402548 0.14587794917826699 0 -0.1204435081575875 0.14623213693654391 0 -0.12843792629854631 0.15978223771525801 0 -0.1245765098090509 0.17966052017845999 0 -0.1120869942909358 0.17595806361305491 0 -0.1120869942909358 0.17595806361305491 0 -0.1073217141416921 0.15896651377475199 0 -0.12843792629854631 0.15978223771525801 0 -0.1120869942909358 0.17595806361305491 0 -0.12843792629854631 0.15978223771525801 0 -0.1120869942909358 0.17595806361305491 0 -0.1073217141416921 0.15896651377475199 0 -0.1245765098090509 0.17966052017845999 0 -0.1120869942909358 0.17595806361305491 0 -0.1190175871807343 0.20067046473278771 0 -0.1120869942909358 0.17595806361305491 0 -0.1020860412129876 0.1687304780430319 0 -0.095149617161195271 0.19271405424946009 0 -0.1020860412129876 0.1687304780430319 0 -0.095149617161195271 0.19271405424946009 0 -0.1120869942909358 0.17595806361305491 0 -0.095149617161195271 0.19271405424946009 0 -0.1020860412129876 0.1687304780430319 0 -0.093279947424905002 0.17994671451597891 0 -0.095149617161195271 0.19271405424946009 0 -0.1020860412129876 0.1687304780430319 0 -0.089956478385260899 0.16811851343374709 0 -0.093279947424905002 0.17994671451597891 0 -0.094422293866394627 0.1556947047027778 0 -0.1078791741402548 0.14587794917826699 0 -0.1020860412129876 0.1687304780430319 0 -0.1078791741402548 0.14587794917826699 0 -0.1073217141416921 0.15896651377475199 0 -0.1020860412129876 0.1687304780430319 0 -0.1120869942909358 0.17595806361305491 0 -0.1073217141416921 0.15896651377475199 0 -0.1020860412129876 0.1687304780430319 0 -0.1078791741402548 0.14587794917826699 0 -0.1020860412129876 0.1687304780430319 0 -0.094422293866394627 0.1556947047027778 0 -0.1020860412129876 0.1687304780430319 0 -0.089956478385260899 0.16811851343374709 0 -0.094422293866394627 0.1556947047027778 0 -0.089956478385260899 0.16811851343374709 0 -0.084742563178951485 0.15922574422532609 0 -0.089956478385260899 0.16811851343374709 0 -0.080023232193096983 0.1657260639694961 0 -0.084742563178951485 0.15922574422532609 0 -0.089956478385260899 0.16811851343374709 0 -0.080023232193096983 0.1657260639694961 0 -0.081293191825158789 0.17801619480298669 0 -0.080023232193096983 0.1657260639694961 0 -0.084742563178951485 0.15922574422532609 0 -0.074930767296401246 0.15918989644816289 0 -0.081293191825158789 0.17801619480298669 0 -0.095149617161195271 0.19271405424946009 0 -0.073474196407973841 0.19079473501472519 0 -0.081293191825158789 0.17801619480298669 0 -0.095149617161195271 0.19271405424946009 0 -0.093279947424905002 0.17994671451597891 0 -0.081293191825158789 0.17801619480298669 0 -0.095149617161195271 0.19271405424946009 0 -0.089956478385260899 0.16811851343374709 0 -0.093279947424905002 0.17994671451597891 0 -0.081293191825158789 0.17801619480298669 0 -0.064604308801312821 0.18244611143699499 0 -0.069549912031587807 0.17131438064227461 0 -0.073474196407973841 0.19079473501472519 0 -0.081293191825158789 0.17801619480298669 0 -0.069549912031587807 0.17131438064227461 0 -0.073474196407973841 0.19079473501472519 0 -0.069549912031587807 0.17131438064227461 0 -0.073474196407973841 0.19079473501472519 0 -0.064604308801312821 0.18244611143699499 0 -0.069549912031587807 0.17131438064227461 0 -0.062041409668937363 0.1723934095439342 0 -0.084742563178951485 0.15922574422532609 0 -0.074930767296401246 0.15918989644816289 0 -0.074588176879671189 0.15080810715310269 0 -0.080023232193096983 0.1657260639694961 0 -0.074930767296401246 0.15918989644816289 0 -0.06743676648912228 0.16331833535651319 0 -0.081293191825158789 0.17801619480298669 0 -0.069549912031587807 0.17131438064227461 0 -0.06743676648912228 0.16331833535651319 0 -0.080023232193096983 0.1657260639694961 0 -0.081293191825158789 0.17801619480298669 0 -0.06743676648912228 0.16331833535651319 0 -0.081293191825158789 0.17801619480298669 0 -0.06743676648912228 0.16331833535651319 0 -0.069549912031587807 0.17131438064227461 0 -0.062031688412593149 0.16441565219234799 0 -0.062041409668937363 0.1723934095439342 0 -0.069549912031587807 0.17131438064227461 0 -0.06743676648912228 0.16331833535651319 0 -0.062031688412593149 0.16441565219234799 0 -0.06743676648912228 0.16331833535651319 0 -0.06725389334219653 0.15771987894696021 0 -0.062031688412593149 0.16441565219234799 0 -0.074930767296401246 0.15918989644816289 0 -0.06743676648912228 0.16331833535651319 0 -0.06725389334219653 0.15771987894696021 0 -0.081978849477511453 0.1384377215961772 0 -0.05728206763319247 0.1508674035846734 0 -0.06725389334219653 0.15771987894696021 0 -0.074588176879671189 0.15080810715310269 0 -0.05728206763319247 0.1508674035846734 0 -0.074588176879671189 0.15080810715310269 0 -0.081978849477511453 0.1384377215961772 0 -0.05728206763319247 0.1508674035846734 0 -0.081978849477511453 0.1384377215961772 0 -0.06070043620975589 0.134524720015781 0 -0.05728206763319247 0.1508674035846734 0 -0.074930767296401246 0.15918989644816289 0 -0.06725389334219653 0.15771987894696021 0 -0.074588176879671189 0.15080810715310269 0 -0.071786582042575819 0.1280585334591178 0 -0.081978849477511453 0.1384377215961772 0 -0.08034823769671974 0.121089655777625 0 -0.071786582042575819 0.1280585334591178 0 -0.081978849477511453 0.1384377215961772 0 -0.06070043620975589 0.134524720015781 0 -0.071786582042575819 0.1280585334591178 0 -0.06070043620975589 0.134524720015781 0 -0.06411880478631618 0.11818203644688791 0 -0.081978849477511453 0.1384377215961772 0 -0.08034823769671974 0.121089655777625 0 -0.096577670607123245 0.1239972751083621 0 -0.1008242758955458 0.1385116675773613 0 -0.094582816169344081 0.14500609667275041 0 -0.081978849477511453 0.1384377215961772 0 -0.094582816169344081 0.14500609667275041 0 -0.081978849477511453 0.1384377215961772 0 -0.0854808471676783 0.14892295327365951 0 -0.094422293866394627 0.1556947047027778 0 -0.084742563178951485 0.15922574422532609 0 -0.0854808471676783 0.14892295327365951 0 -0.094422293866394627 0.1556947047027778 0 -0.094582816169344081 0.14500609667275041 0 -0.0854808471676783 0.14892295327365951 0 -0.084742563178951485 0.15922574422532609 0 -0.074588176879671189 0.15080810715310269 0 -0.0854808471676783 0.14892295327365951 0 -0.074588176879671189 0.15080810715310269 0 -0.081978849477511453 0.1384377215961772 0 -0.0854808471676783 0.14892295327365951 0 -0.1045487088169635 0.24438495162540061 0 -0.11455994162881621 0.23631135170566109 0 -0.098826177075254387 0.23394696074010041 0 -0.10005120432924321 0.25626016583208688 0 -0.094679029848152713 0.24609146959404629 0 -0.1045487088169635 0.24438495162540061 0 -0.094679029848152713 0.24609146959404629 0 -0.1045487088169635 0.24438495162540061 0 -0.098826177075254387 0.23394696074010041 0 -0.116744543106582 0.25728181003509248 0 -0.1045487088169635 0.24438495162540061 0 -0.11455994162881621 0.23631135170566109 0 -0.116744543106582 0.25728181003509248 0 -0.1327712538659816 0.24971188635390451 0 -0.11455994162881621 0.23631135170566109 0 -0.12594818007053379 0.2253828658525201 0 -0.1327712538659816 0.24971188635390451 0 -0.11455994162881621 0.23631135170566109 0 -0.11455994162881621 0.23631135170566109 0 -0.1144435087069731 0.2232582902708152 0 -0.1063794885369051 0.22193246116811141 0 -0.12594818007053379 0.2253828658525201 0 -0.1144435087069731 0.2232582902708152 0 -0.1108864245916369 0.20940648235696879 0 -0.12594818007053379 0.2253828658525201 0 -0.11455994162881621 0.23631135170566109 0 -0.1144435087069731 0.2232582902708152 0 -0.11455994162881621 0.23631135170566109 0 -0.1063794885369051 0.22193246116811141 0 -0.098826177075254387 0.23394696074010041 0 -0.1063794885369051 0.22193246116811141 0 -0.098826177075254387 0.23394696074010041 0 -0.089950704149474564 0.21660149084549701 0 -0.1063794885369051 0.22193246116811141 0 -0.089950704149474564 0.21660149084549701 0 -0.10053720550511509 0.21148400771379949 0 -0.095149617161195271 0.19271405424946009 0 -0.089950704149474564 0.21660149084549701 0 -0.1063794885369051 0.22193246116811141 0 -0.10053720550511509 0.21148400771379949 0 -0.089950704149474564 0.21660149084549701 0 -0.10053720550511509 0.21148400771379949 0 -0.1108864245916369 0.20940648235696879 0 -0.095149617161195271 0.19271405424946009 0 -0.1063794885369051 0.22193246116811141 0 -0.10053720550511509 0.21148400771379949 0 -0.1108864245916369 0.20940648235696879 0 -0.12594818007053379 0.2253828658525201 0 -0.1190175871807343 0.20067046473278771 0 -0.12594818007053379 0.2253828658525201 0 -0.1108864245916369 0.20940648235696879 0 -0.1190175871807343 0.20067046473278771 0 -0.12594818007053379 0.2253828658525201 0 -0.1108864245916369 0.20940648235696879 0 -0.1144435087069731 0.2232582902708152 0 -0.1063794885369051 0.22193246116811141 0 -0.1108864245916369 0.20940648235696879 0 -0.1120869942909358 0.17595806361305491 0 -0.1190175871807343 0.20067046473278771 0 -0.1108864245916369 0.20940648235696879 0 -0.1190175871807343 0.20067046473278771 0 -0.10682171669235439 0.1942096232944058 0 -0.1120869942909358 0.17595806361305491 0 -0.1190175871807343 0.20067046473278771 0 -0.10682171669235439 0.1942096232944058 0 -0.1108864245916369 0.20940648235696879 0 -0.095149617161195271 0.19271405424946009 0 -0.1108864245916369 0.20940648235696879 0 -0.10682171669235439 0.1942096232944058 0 -0.095149617161195271 0.19271405424946009 0 -0.1120869942909358 0.17595806361305491 0 -0.10682171669235439 0.1942096232944058 0 -0.095149617161195271 0.19271405424946009 0 -0.095149617161195271 0.19271405424946009 0 -0.077398480784349299 0.2102750893871779 0 -0.095149617161195271 0.19271405424946009 0 -0.073474196407973841 0.19079473501472519 0 -0.077398480784349299 0.2102750893871779 0 -0.095149617161195271 0.19271405424946009 0 -0.077398480784349299 0.2102750893871779 0 -0.087241526055590657 0.20514135106535239 0 -0.073474196407973841 0.19079473501472519 0 -0.077398480784349299 0.2102750893871779 0 -0.073474196407973841 0.19079473501472519 0 -0.077398480784349299 0.2102750893871779 0 -0.068984895145132993 0.20348567813270921 0 -0.064604308801312821 0.18244611143699499 0 -0.073474196407973841 0.19079473501472519 0 -0.062951628171730722 0.19451437844324071 0 -0.073474196407973841 0.19079473501472519 0 -0.062951628171730722 0.19451437844324071 0 -0.068984895145132993 0.20348567813270921 0 -0.062951628171730722 0.19451437844324071 0 -0.068984895145132993 0.20348567813270921 0 -0.057478398324341332 0.20606456403591589 0 -0.068984895145132993 0.20348567813270921 0 -0.075683327299925024 0.21197187487555791 0 -0.057478398324341332 0.20606456403591589 0 -0.075683327299925024 0.21197187487555791 0 -0.060700713784132942 0.2267940359372384 0 -0.057478398324341332 0.20606456403591589 0 -0.075683327299925024 0.21197187487555791 0 -0.057478398324341332 0.20606456403591589 0 -0.077398480784349299 0.2102750893871779 0 -0.068984895145132993 0.20348567813270921 0 -0.075683327299925024 0.21197187487555791 0 -0.075683327299925024 0.21197187487555791 0 -0.077884159070199604 0.2126860219832131 0 -0.060700713784132942 0.2267940359372384 0 -0.075683327299925024 0.21197187487555791 0 -0.077884159070199604 0.2126860219832131 0 -0.077398480784349299 0.2102750893871779 0 -0.075683327299925024 0.21197187487555791 0 -0.077884159070199604 0.2126860219832131 0 -0.077398480784349299 0.2102750893871779 0 -0.077884159070199604 0.2126860219832131 0 -0.077398480784349299 0.2102750893871779 0 -0.075683327299925024 0.21197187487555791 0 -0.077884159070199604 0.2126860219832131 0 -0.089950704149474564 0.21660149084549701 0 -0.077884159070199604 0.2126860219832131 0 -0.087241526055590657 0.20514135106535239 0 -0.089950704149474564 0.21660149084549701 0 -0.095149617161195271 0.19271405424946009 0 -0.087241526055590657 0.20514135106535239 0 -0.089950704149474564 0.21660149084549701 0 -0.095149617161195271 0.19271405424946009 0 -0.089950704149474564 0.21660149084549701 0 -0.077398480784349299 0.2102750893871779 0 -0.077884159070199604 0.2126860219832131 0 -0.087241526055590657 0.20514135106535239 0 -0.077884159070199604 0.2126860219832131 0 -0.083666647235009842 0.24139059785004849 0 -0.089950704149474564 0.21660149084549701 0 -0.083666647235009842 0.24139059785004849 0 -0.077884159070199604 0.2126860219832131 0 -0.089950704149474564 0.21660149084549701 0 -0.083666647235009842 0.24139059785004849 0 -0.098826177075254387 0.23394696074010041 0 -0.089950704149474564 0.21660149084549701 0 -0.083666647235009842 0.24139059785004849 0 -0.077884159070199604 0.2126860219832131 0 -0.083666647235009842 0.24139059785004849 0 -0.060700713784132942 0.2267940359372384 0 -0.075683327299925024 0.21197187487555791 0 -0.060700713784132942 0.2267940359372384 0 -0.064077212627390134 0.24851538469076631 0 -0.083666647235009842 0.24139059785004849 0 -0.060700713784132942 0.2267940359372384 0 -0.086302411784292182 0.25447467192259482 0 -0.083666647235009842 0.24139059785004849 0 -0.094679029848152713 0.24609146959404629 0 -0.098826177075254387 0.23394696074010041 0 -0.083666647235009842 0.24139059785004849 0 -0.086302411784292182 0.25447467192259482 0 -0.094679029848152713 0.24609146959404629 0 -0.083666647235009842 0.24139059785004849 0 -0.03068766995985707 0.25286978792993342 0 -0.034335222642673788 0.23481172099035691 0 -0.046578861792199937 0.24361118962503389 0 -0.034335222642673788 0.23481172099035691 0 -0.046578861792199937 0.24361118962503389 0 -0.045510089746351297 0.2289623102588538 0 -0.064077212627390134 0.24851538469076631 0 -0.046578861792199937 0.24361118962503389 0 -0.055802081643016588 0.23164020743468811 0 -0.064077212627390134 0.24851538469076631 0 -0.055802081643016588 0.23164020743468811 0 -0.060700713784132942 0.2267940359372384 0 -0.064077212627390134 0.24851538469076631 0 -0.060700713784132942 0.2267940359372384 0 -0.046578861792199937 0.24361118962503389 0 -0.055802081643016588 0.23164020743468811 0 -0.045510089746351297 0.2289623102588538 0 -0.055802081643016588 0.23164020743468811 0 -0.053252725762674542 0.2222055350902031 0 -0.045510089746351297 0.2289623102588538 0 -0.055802081643016588 0.23164020743468811 0 -0.060700713784132942 0.2267940359372384 0 -0.053252725762674542 0.2222055350902031 0 -0.055802081643016588 0.23164020743468811 0 -0.060700713784132942 0.2267940359372384 0 -0.053252725762674542 0.2222055350902031 0 -0.045510089746351297 0.2289623102588538 0 -0.046772345315528908 0.21756655778431969 0 -0.045510089746351297 0.2289623102588538 0 -0.036443083940353373 0.22210497005765251 0 -0.046772345315528908 0.21756655778431969 0 -0.034335222642673788 0.23481172099035691 0 -0.045510089746351297 0.2289623102588538 0 -0.036443083940353373 0.22210497005765251 0 -0.034335222642673788 0.23481172099035691 0 -0.036443083940353373 0.22210497005765251 0 -0.024866254401544021 0.22078734426404351 0 -0.036443083940353373 0.22210497005765251 0 -0.046772345315528908 0.21756655778431969 0 -0.031637039445344017 0.19767931081015269 0 -0.046772345315528908 0.21756655778431969 0 -0.057478398324341332 0.20606456403591589 0 -0.031637039445344017 0.19767931081015269 0 -0.060700713784132942 0.2267940359372384 0 -0.053252725762674542 0.2222055350902031 0 -0.057478398324341332 0.20606456403591589 0 -0.060700713784132942 0.2267940359372384 0 -0.057478398324341332 0.20606456403591589 0 -0.053252725762674542 0.2222055350902031 0 -0.046772345315528908 0.21756655778431969 0 -0.057478398324341332 0.20606456403591589 0 -0.062951628171730722 0.19451437844324071 0 -0.057478398324341332 0.20606456403591589 0 -0.054948738746262903 0.1897910154656581 0 -0.057478398324341332 0.20606456403591589 0 -0.054948738746262903 0.1897910154656581 0 -0.031637039445344017 0.19767931081015269 0 -0.057478398324341332 0.20606456403591589 0 -0.054948738746262903 0.1897910154656581 0 -0.054948738746262903 0.1897910154656581 0 -0.031637039445344017 0.19767931081015269 0 -0.039999697082172873 0.18418677263352329 0 -0.057478398324341332 0.20606456403591589 0 -0.031637039445344017 0.19767931081015269 0 -0.031637039445344017 0.19767931081015269 0 -0.0057956805663459468 0.1892940575843915 0 -0.031637039445344017 0.19767931081015269 0 -0.0057956805663459468 0.1892940575843915 0 -0.024775833668462071 0.17590936267321361 0 -0.031637039445344017 0.19767931081015269 0 -0.0057956805663459468 0.1892940575843915 0 -0.01019634689217482 0.20814994011246479 0 -0.0057956805663459468 0.1892940575843915 0 -0.01019634689217482 0.20814994011246479 0 0.0090806704795409685 0.20996839310177981 0 -0.01019634689217482 0.20814994011246479 0 0.00014186162909880781 0.2338185852574263 0 0.0090806704795409685 0.20996839310177981 0 -0.036443083940353373 0.22210497005765251 0 -0.031637039445344017 0.19767931081015269 0 -0.024866254401544021 0.22078734426404351 0 -0.031637039445344017 0.19767931081015269 0 -0.01019634689217482 0.20814994011246479 0 -0.024866254401544021 0.22078734426404351 0 -0.034335222642673788 0.23481172099035691 0 -0.024866254401544021 0.22078734426404351 0 -0.01991034591062427 0.239405390953495 0 -0.024866254401544021 0.22078734426404351 0 0.00014186162909880781 0.2338185852574263 0 -0.024866254401544021 0.22078734426404351 0 -0.01991034591062427 0.239405390953495 0 0.00014186162909880781 0.2338185852574263 0 -0.01019634689217482 0.20814994011246479 0 -0.024866254401544021 0.22078734426404351 0 0.00014186162909880781 0.2338185852574263 0 -0.0098044441781452579 0.25473951632571468 0 0.00014186162909880781 0.2338185852574263 0 0.0073806355134042019 0.25529449578482938 0 -0.0098044441781452579 0.25473951632571468 0 -0.01991034591062427 0.239405390953495 0 0.00014186162909880781 0.2338185852574263 0 -0.03068766995985707 0.25286978792993342 0 -0.034335222642673788 0.23481172099035691 0 -0.01991034591062427 0.239405390953495 0 -0.03068766995985707 0.25286978792993342 0 -0.0098044441781452579 0.25473951632571468 0 -0.01991034591062427 0.239405390953495 0 -0.045513089216113363 0.1481501368583191 0 -0.039963318838929777 0.1583549670989208 0 -0.028048700007850699 0.14601834090005769 0 -0.045513089216113363 0.1481501368583191 0 -0.037584816749385713 0.12707105787504261 0 -0.028048700007850699 0.14601834090005769 0 -0.037584816749385713 0.12707105787504261 0 -0.028048700007850699 0.14601834090005769 0 -0.045513089216113363 0.1481501368583191 0 -0.037584816749385713 0.12707105787504261 0 -0.045513089216113363 0.1481501368583191 0 -0.037584816749385713 0.12707105787504261 0 -0.049753839012929922 0.13582205838018921 0 -0.037584816749385713 0.12707105787504261 0 -0.049753839012929922 0.13582205838018921 0 -0.051208231868337763 0.1260313133231428 0 -0.049753839012929922 0.13582205838018921 0 -0.06070043620975589 0.134524720015781 0 -0.052276118599972977 0.1457036522838337 0 -0.051208231868337763 0.1260313133231428 0 -0.06070043620975589 0.134524720015781 0 -0.06411880478631618 0.11818203644688791 0 -0.06070043620975589 0.134524720015781 0 -0.06411880478631618 0.11818203644688791 0 -0.049753839012929922 0.13582205838018921 0 -0.051208231868337763 0.1260313133231428 0 -0.06070043620975589 0.134524720015781 0 -0.06070043620975589 0.134524720015781 0 -0.052276118599972977 0.1457036522838337 0 -0.05728206763319247 0.1508674035846734 0 -0.06070043620975589 0.134524720015781 0 -0.05728206763319247 0.1508674035846734 0 -0.045513089216113363 0.1481501368583191 0 -0.049753839012929922 0.13582205838018921 0 -0.052276118599972977 0.1457036522838337 0 -0.045513089216113363 0.1481501368583191 0 -0.052276118599972977 0.1457036522838337 0 -0.053440893212920608 0.15280063427064891 0 -0.052276118599972977 0.1457036522838337 0 -0.053440893212920608 0.15280063427064891 0 -0.05728206763319247 0.1508674035846734 0 -0.053440893212920608 0.15280063427064891 0 -0.05728206763319247 0.1508674035846734 0 -0.05728206763319247 0.1508674035846734 0 -0.062031688412593149 0.16441565219234799 0 -0.053441361682841117 0.16922921584159559 0 -0.053440893212920608 0.15280063427064891 0 -0.05728206763319247 0.1508674035846734 0 -0.053441361682841117 0.16922921584159559 0 -0.045513089216113363 0.1481501368583191 0 -0.053440893212920608 0.15280063427064891 0 -0.053441361682841117 0.16922921584159559 0 -0.045513089216113363 0.1481501368583191 0 -0.053441361682841117 0.16922921584159559 0 -0.05728206763319247 0.1508674035846734 0 -0.053441361682841117 0.16922921584159559 0 -0.06725389334219653 0.15771987894696021 0 -0.05728206763319247 0.1508674035846734 0 -0.062031688412593149 0.16441565219234799 0 -0.062031688412593149 0.16441565219234799 0 -0.053441361682841117 0.16922921584159559 0 -0.062041409668937363 0.1723934095439342 0 -0.053441361682841117 0.16922921584159559 0 -0.047633738945979477 0.17108968717192211 0 -0.039963318838929777 0.1583549670989208 0 -0.052991971448818453 0.17137768000779441 0 -0.053441361682841117 0.16922921584159559 0 -0.047633738945979477 0.17108968717192211 0 -0.052991971448818453 0.17137768000779441 0 -0.053441361682841117 0.16922921584159559 0 -0.054948738746262903 0.1897910154656581 0 -0.052419079168185397 0.17351746689540021 0 -0.046888846475854867 0.17837904804597579 0 -0.062951628171730722 0.19451437844324071 0 -0.054948738746262903 0.1897910154656581 0 -0.052419079168185397 0.17351746689540021 0 -0.062951628171730722 0.19451437844324071 0 -0.052991971448818453 0.17137768000779441 0 -0.052419079168185397 0.17351746689540021 0 -0.064604308801312821 0.18244611143699499 0 -0.062951628171730722 0.19451437844324071 0 -0.053441361682841117 0.16922921584159559 0 -0.062951628171730722 0.19451437844324071 0 -0.052991971448818453 0.17137768000779441 0 -0.053441361682841117 0.16922921584159559 0 -0.054948738746262903 0.1897910154656581 0 -0.052419079168185397 0.17351746689540021 0 -0.062951628171730722 0.19451437844324071 0 -0.053441361682841117 0.16922921584159559 0 -0.064604308801312821 0.18244611143699499 0 -0.053441361682841117 0.16922921584159559 0 -0.062041409668937363 0.1723934095439342 0 -0.052991971448818453 0.17137768000779441 0 -0.047633738945979477 0.17108968717192211 0 -0.052419079168185397 0.17351746689540021 0 -0.047633738945979477 0.17108968717192211 0 -0.052419079168185397 0.17351746689540021 0 -0.046888846475854867 0.17837904804597579 0 -0.054948738746262903 0.1897910154656581 0 -0.046888846475854867 0.17837904804597579 0 -0.039999697082172873 0.18418677263352329 0 -0.031637039445344017 0.19767931081015269 0 -0.039999697082172873 0.18418677263352329 0 -0.024775833668462071 0.17590936267321361 0 -0.046888846475854867 0.17837904804597579 0 -0.039999697082172873 0.18418677263352329 0 -0.039442978436673673 0.17331029806337539 0 -0.047633738945979477 0.17108968717192211 0 -0.046888846475854867 0.17837904804597579 0 -0.039442978436673673 0.17331029806337539 0 -0.039442978436673673 0.17331029806337539 0 -0.032139483942643897 0.16694135859911591 0 -0.024775833668462071 0.17590936267321361 0 -0.039999697082172873 0.18418677263352329 0 -0.039442978436673673 0.17331029806337539 0 -0.024775833668462071 0.17590936267321361 0 -0.045513089216113363 0.1481501368583191 0 -0.053441361682841117 0.16922921584159559 0 -0.039963318838929777 0.1583549670989208 0 -0.039963318838929777 0.1583549670989208 0 -0.032139483942643897 0.16694135859911591 0 -0.02343924065842673 0.15869802647678349 0 -0.047633738945979477 0.17108968717192211 0 -0.039442978436673673 0.17331029806337539 0 -0.039963318838929777 0.1583549670989208 0 -0.039442978436673673 0.17331029806337539 0 -0.039963318838929777 0.1583549670989208 0 -0.032139483942643897 0.16694135859911591 0 -0.032139483942643897 0.16694135859911591 0 -0.02343924065842673 0.15869802647678349 0 -0.024775833668462071 0.17590936267321361 0 -0.02343924065842673 0.15869802647678349 0 -0.024775833668462071 0.17590936267321361 0 -0.0048034666842798916 0.1614245706846468 0 -0.0057956805663459468 0.1892940575843915 0 -0.024775833668462071 0.17590936267321361 0 -0.0048034666842798916 0.1614245706846468 0 -0.0048034666842798916 0.1614245706846468 0 -0.01090464080839405 0.14353955890474629 0 0.011098566836083609 0.13484946890849181 0 -0.02343924065842673 0.15869802647678349 0 -0.0048034666842798916 0.1614245706846468 0 -0.01090464080839405 0.14353955890474629 0 -0.039963318838929777 0.1583549670989208 0 -0.02343924065842673 0.15869802647678349 0 -0.028048700007850699 0.14601834090005769 0 -0.02343924065842673 0.15869802647678349 0 -0.01090464080839405 0.14353955890474629 0 -0.028048700007850699 0.14601834090005769 0 -0.037584816749385713 0.12707105787504261 0 -0.0187932077553963 0.1304023687453105 0 -0.02482114599867602 0.1199028763409456 0 -0.01090464080839405 0.14353955890474629 0 -0.028048700007850699 0.14601834090005769 0 -0.0187932077553963 0.1304023687453105 0 -0.037584816749385713 0.12707105787504261 0 -0.028048700007850699 0.14601834090005769 0 -0.0187932077553963 0.1304023687453105 0 -0.0064436606074630637 0.13109611639504981 0 -0.007175360702145514 0.1155930690216506 0 0.011098566836083609 0.13484946890849181 0 -0.01090464080839405 0.14353955890474629 0 -0.0064436606074630637 0.13109611639504981 0 0.011098566836083609 0.13484946890849181 0 -0.0187932077553963 0.1304023687453105 0 -0.0064436606074630637 0.13109611639504981 0 -0.007175360702145514 0.1155930690216506 0 -0.01090464080839405 0.14353955890474629 0 -0.0187932077553963 0.1304023687453105 0 -0.0064436606074630637 0.13109611639504981 0 -0.007175360702145514 0.1155930690216506 0 -0.0040088977147468936 0.097024336429998151 0 -0.013655752966245171 0.094180689311720855 0 -0.007175360702145514 0.1155930690216506 0 -0.0040088977147468936 0.097024336429998151 0 0.0025937760044158291 0.1064596481343341 0 -0.007175360702145514 0.1155930690216506 0 -0.013655752966245171 0.094180689311720855 0 -0.02544928824037461 0.096336669134809427 0 -0.029459919491476121 0.1011230655410132 0 -0.021580178673492881 0.1105609364200745 0 -0.037915498494119543 0.10215930426450601 0 -0.007175360702145514 0.1155930690216506 0 -0.02544928824037461 0.096336669134809427 0 -0.007175360702145514 0.1155930690216506 0 -0.02544928824037461 0.096336669134809427 0 -0.0241566231860777 0.1021061234229471 0 -0.02544928824037461 0.096336669134809427 0 -0.029459919491476121 0.1011230655410132 0 -0.035034026511796899 0.0954599165668297 0 -0.02544928824037461 0.096336669134809427 0 -0.029459919491476121 0.1011230655410132 0 -0.0241566231860777 0.1021061234229471 0 -0.02544928824037461 0.096336669134809427 0 -0.0241566231860777 0.1021061234229471 0 -0.029459919491476121 0.1011230655410132 0 -0.0241566231860777 0.1021061234229471 0 -0.021580178673492881 0.1105609364200745 0 -0.02482114599867602 0.1199028763409456 0 -0.021580178673492881 0.1105609364200745 0 -0.032585978911933711 0.11378053360982859 0 -0.007175360702145514 0.1155930690216506 0 -0.0241566231860777 0.1021061234229471 0 -0.021580178673492881 0.1105609364200745 0 -0.0187932077553963 0.1304023687453105 0 -0.007175360702145514 0.1155930690216506 0 -0.02482114599867602 0.1199028763409456 0 -0.007175360702145514 0.1155930690216506 0 -0.02482114599867602 0.1199028763409456 0 -0.021580178673492881 0.1105609364200745 0 -0.01109578586274463 0.07592966442077155 0 -0.01963881101933795 0.057650575484614511 0 -0.0089029190745683329 0.062319161291970238 0 -0.0031702267477386531 0.067180855403790804 0 -0.01109578586274463 0.07592966442077155 0 0.0065236609159091173 0.071671444604676282 0 -0.0031702267477386531 0.067180855403790804 0 -0.0089029190745683329 0.062319161291970238 0 0.00079413703044923156 0.058803151297745167 0 -0.0031702267477386531 0.067180855403790804 0 -0.01109578586274463 0.07592966442077155 0 -0.0089029190745683329 0.062319161291970238 0 -0.0040088977147468936 0.097024336429998151 0 -0.01109578586274463 0.07592966442077155 0 0.011643404763696401 0.092949868607662828 0 -0.0040088977147468936 0.097024336429998151 0 -0.013655752966245171 0.094180689311720855 0 -0.01109578586274463 0.07592966442077155 0 -0.013655752966245171 0.094180689311720855 0 -0.01109578586274463 0.07592966442077155 0 -0.02054943231121421 0.086019707551374502 0 -0.02544928824037461 0.096336669134809427 0 -0.02054943231121421 0.086019707551374502 0 -0.029642132364781061 0.077623064684345475 0 -0.02544928824037461 0.096336669134809427 0 -0.029642132364781061 0.077623064684345475 0 -0.036673455980692451 0.084509049595857907 0 -0.01109578586274463 0.07592966442077155 0 -0.02054943231121421 0.086019707551374502 0 -0.029642132364781061 0.077623064684345475 0 -0.02544928824037461 0.096336669134809427 0 -0.029642132364781061 0.077623064684345475 0 -0.013655752966245171 0.094180689311720855 0 -0.02544928824037461 0.096336669134809427 0 -0.02054943231121421 0.086019707551374502 0 -0.02544928824037461 0.096336669134809427 0 -0.036673455980692451 0.084509049595857907 0 -0.01109578586274463 0.07592966442077155 0 -0.033834976489186493 0.058909460233881362 0 -0.01109578586274463 0.07592966442077155 0 -0.029642132364781061 0.077623064684345475 0 -0.033834976489186493 0.058909460233881362 0 -0.01109578586274463 0.07592966442077155 0 -0.033834976489186493 0.058909460233881362 0 -0.01963881101933795 0.057650575484614511 0 -0.029642132364781061 0.077623064684345475 0 -0.033834976489186493 0.058909460233881362 0 -0.029642132364781061 0.077623064684345475 0 -0.036732086871232597 0.066761861307427367 0 -0.033834976489186493 0.058909460233881362 0 -0.042969512877196837 0.063698159366550891 0 -0.036732086871232597 0.066761861307427367 0 -0.038306240480512441 0.072768089837317376 0 -0.042969512877196837 0.063698159366550891 0 -0.038306240480512441 0.072768089837317376 0 -0.046136221960229658 0.070392563092827029 0 -0.042969512877196837 0.063698159366550891 0 -0.036732086871232597 0.066761861307427367 0 -0.038907572144486188 0.060810532415041758 0 -0.029642132364781061 0.077623064684345475 0 -0.036732086871232597 0.066761861307427367 0 -0.038306240480512441 0.072768089837317376 0 -0.038306240480512441 0.072768089837317376 0 -0.046136221960229658 0.070392563092827029 0 -0.043586306971417507 0.077534071189344175 0 -0.038306240480512441 0.072768089837317376 0 -0.043586306971417507 0.077534071189344175 0 -0.036673455980692451 0.084509049595857907 0 -0.043586306971417507 0.077534071189344175 0 -0.036673455980692451 0.084509049595857907 0 -0.046978765451358998 0.084182386091036676 0 -0.029642132364781061 0.077623064684345475 0 -0.038306240480512441 0.072768089837317376 0 -0.036673455980692451 0.084509049595857907 0 -0.02544928824037461 0.096336669134809427 0 -0.036673455980692451 0.084509049595857907 0 -0.035034026511796899 0.0954599165668297 0 -0.036673455980692451 0.084509049595857907 0 -0.044089979176562301 0.093675305350012283 0 -0.035034026511796899 0.0954599165668297 0 -0.036673455980692451 0.084509049595857907 0 -0.044089979176562301 0.093675305350012283 0 -0.046978765451358998 0.084182386091036676 0 -0.044089979176562301 0.093675305350012283 0 -0.057144835734191893 0.088207312209507505 0 -0.046978765451358998 0.084182386091036676 0 -0.057144835734191893 0.088207312209507505 0 -0.046978765451358998 0.084182386091036676 0 -0.053399249393930842 0.076986192110461482 0 -0.043586306971417507 0.077534071189344175 0 -0.046978765451358998 0.084182386091036676 0 -0.053399249393930842 0.076986192110461482 0 -0.053399249393930842 0.076986192110461482 0 -0.070406408885084593 0.061857930521202607 0 -0.059815066152941319 0.061788281472960463 0 -0.057144835734191893 0.088207312209507505 0 -0.053399249393930842 0.076986192110461482 0 -0.070406408885084593 0.061857930521202607 0 -0.046136221960229658 0.070392563092827029 0 -0.043586306971417507 0.077534071189344175 0 -0.053399249393930842 0.076986192110461482 0 -0.046136221960229658 0.070392563092827029 0 -0.053399249393930842 0.076986192110461482 0 -0.05257832837313995 0.068950164376806455 0 -0.053399249393930842 0.076986192110461482 0 -0.05257832837313995 0.068950164376806455 0 -0.059815066152941319 0.061788281472960463 0 -0.05257832837313995 0.068950164376806455 0 -0.052166049838275927 0.062310195238599278 0 -0.059815066152941319 0.061788281472960463 0 -0.046136221960229658 0.070392563092827029 0 -0.05257832837313995 0.068950164376806455 0 -0.052166049838275927 0.062310195238599278 0 -0.042969512877196837 0.063698159366550891 0 -0.046136221960229658 0.070392563092827029 0 -0.052166049838275927 0.062310195238599278 0 -0.021580178673492881 0.1105609364200745 0 -0.043883262583300407 0.11455669389781301 0 -0.021580178673492881 0.1105609364200745 0 -0.043883262583300407 0.11455669389781301 0 -0.032585978911933711 0.11378053360982859 0 -0.037584816749385713 0.12707105787504261 0 -0.051208231868337763 0.1260313133231428 0 -0.043883262583300407 0.11455669389781301 0 -0.037584816749385713 0.12707105787504261 0 -0.043883262583300407 0.11455669389781301 0 -0.037584816749385713 0.12707105787504261 0 -0.032585978911933711 0.11378053360982859 0 -0.037584816749385713 0.12707105787504261 0 -0.043883262583300407 0.11455669389781301 0 -0.032585978911933711 0.11378053360982859 0 -0.037584816749385713 0.12707105787504261 0 -0.02482114599867602 0.1199028763409456 0 -0.032585978911933711 0.11378053360982859 0 -0.021580178673492881 0.1105609364200745 0 -0.043883262583300407 0.11455669389781301 0 -0.037915498494119543 0.10215930426450601 0 -0.044089979176562301 0.093675305350012283 0 -0.043883262583300407 0.11455669389781301 0 -0.037915498494119543 0.10215930426450601 0 -0.044089979176562301 0.093675305350012283 0 -0.037915498494119543 0.10215930426450601 0 -0.035034026511796899 0.0954599165668297 0 -0.029459919491476121 0.1011230655410132 0 -0.037915498494119543 0.10215930426450601 0 -0.035034026511796899 0.0954599165668297 0 -0.044089979176562301 0.093675305350012283 0 -0.057144835734191893 0.088207312209507505 0 -0.043883262583300407 0.11455669389781301 0 -0.057144835734191893 0.088207312209507505 0 -0.043883262583300407 0.11455669389781301 0 -0.057144835734191893 0.088207312209507505 0 -0.043883262583300407 0.11455669389781301 0 -0.056175626513735713 0.104231459755559 0 -0.056175626513735713 0.104231459755559 0 -0.061770267295803899 0.1005995653590098 0 -0.06411880478631618 0.11818203644688791 0 -0.057144835734191893 0.088207312209507505 0 -0.056175626513735713 0.104231459755559 0 -0.061770267295803899 0.1005995653590098 0 -0.043883262583300407 0.11455669389781301 0 -0.06411880478631618 0.11818203644688791 0 -0.051208231868337763 0.1260313133231428 0 -0.043883262583300407 0.11455669389781301 0 -0.06411880478631618 0.11818203644688791 0 -0.043883262583300407 0.11455669389781301 0 -0.056175626513735713 0.104231459755559 0 -0.06411880478631618 0.11818203644688791 0 -0.071786582042575819 0.1280585334591178 0 -0.06411880478631618 0.11818203644688791 0 -0.08034823769671974 0.121089655777625 0 -0.06411880478631618 0.11818203644688791 0 -0.08034823769671974 0.121089655777625 0 -0.075381325115152609 0.106019298300689 0 -0.06411880478631618 0.11818203644688791 0 -0.08034823769671974 0.121089655777625 0 -0.08034823769671974 0.121089655777625 0 -0.096577670607123245 0.1239972751083621 0 -0.08034823769671974 0.121089655777625 0 -0.092569001324263961 0.1124699312803344 0 -0.096577670607123245 0.1239972751083621 0 -0.08034823769671974 0.121089655777625 0 -0.083967771981719092 0.1102844810624737 0 -0.092569001324263961 0.1124699312803344 0 -0.08034823769671974 0.121089655777625 0 -0.083967771981719092 0.1102844810624737 0 -0.075381325115152609 0.106019298300689 0 -0.087572523790740042 0.10155903889124659 0 -0.082071947835387321 0.094412947715560025 0 -0.09233625647768956 0.091651488650119919 0 -0.083967771981719092 0.1102844810624737 0 -0.092569001324263961 0.1124699312803344 0 -0.087572523790740042 0.10155903889124659 0 -0.083967771981719092 0.1102844810624737 0 -0.087572523790740042 0.10155903889124659 0 -0.075381325115152609 0.106019298300689 0 -0.087572523790740042 0.10155903889124659 0 -0.082071947835387321 0.094412947715560025 0 -0.075381325115152609 0.106019298300689 0 -0.06411880478631618 0.11818203644688791 0 -0.06964180214897181 0.091777453024084701 0 -0.082071947835387321 0.094412947715560025 0 -0.075381325115152609 0.106019298300689 0 -0.06964180214897181 0.091777453024084701 0 -0.06411880478631618 0.11818203644688791 0 -0.075381325115152609 0.106019298300689 0 -0.06964180214897181 0.091777453024084701 0 -0.061770267295803899 0.1005995653590098 0 -0.06411880478631618 0.11818203644688791 0 -0.06964180214897181 0.091777453024084701 0 -0.057144835734191893 0.088207312209507505 0 -0.061770267295803899 0.1005995653590098 0 -0.06964180214897181 0.091777453024084701 0 -0.06964180214897181 0.091777453024084701 0 -0.075164799511626648 0.065372869601281192 0 -0.057144835734191893 0.088207312209507505 0 -0.06964180214897181 0.091777453024084701 0 -0.068089461569968729 0.076803891339018993 0 -0.06964180214897181 0.091777453024084701 0 -0.068089461569968729 0.076803891339018993 0 -0.075164799511626648 0.065372869601281192 0 -0.057144835734191893 0.088207312209507505 0 -0.068089461569968729 0.076803891339018993 0 -0.070406408885084593 0.061857930521202607 0 -0.06964180214897181 0.091777453024084701 0 -0.075164799511626648 0.065372869601281192 0 -0.08073347634316104 0.073575546631144614 0 -0.057144835734191893 0.088207312209507505 0 -0.070406408885084593 0.061857930521202607 0 -0.068089461569968729 0.076803891339018993 0 -0.075164799511626648 0.065372869601281192 0 -0.070406408885084593 0.061857930521202607 0 -0.089923560922876636 0.068178037636278263 0 -0.08578586832533959 0.082170087930996366 0 -0.103675070998617 0.083967309240415983 0 -0.08073347634316104 0.073575546631144614 0 -0.089923560922876636 0.068178037636278263 0 -0.083186879645449088 0.059889597987781727 0 -0.075164799511626648 0.065372869601281192 0 -0.08073347634316104 0.073575546631144614 0 -0.083186879645449088 0.059889597987781727 0 -0.08073347634316104 0.073575546631144614 0 -0.089923560922876636 0.068178037636278263 0 -0.08578586832533959 0.082170087930996366 0 -0.06964180214897181 0.091777453024084701 0 -0.08073347634316104 0.073575546631144614 0 -0.08578586832533959 0.082170087930996366 0 -0.082071947835387321 0.094412947715560025 0 -0.06964180214897181 0.091777453024084701 0 -0.08578586832533959 0.082170087930996366 0 -0.082071947835387321 0.094412947715560025 0 -0.08578586832533959 0.082170087930996366 0 -0.09233625647768956 0.091651488650119919 0 -0.09233625647768956 0.091651488650119919 0 -0.103675070998617 0.083967309240415983 0 -0.10429444750695741 0.1014886749251958 0 -0.08578586832533959 0.082170087930996366 0 -0.09233625647768956 0.091651488650119919 0 -0.103675070998617 0.083967309240415983 0 -0.103675070998617 0.083967309240415983 0 -0.1198812247159142 0.095002477965890675 0 -0.10429444750695741 0.1014886749251958 0 -0.089923560922876636 0.068178037636278263 0 -0.103675070998617 0.083967309240415983 0 -0.10785209906359081 0.065371441260914459 0 -0.12533951967512769 0.078274991835817334 0 -0.103675070998617 0.083967309240415983 0 -0.10785209906359081 0.065371441260914459 0 -0.12533951967512769 0.078274991835817334 0 -0.10785209906359081 0.065371441260914459 0 -0.1248745965026067 0.059896082918310993 0 -0.12533951967512769 0.078274991835817334 0 -0.103675070998617 0.083967309240415983 0 -0.1198812247159142 0.095002477965890675 0 -0.13137241316615089 0.11357835761918721 0 -0.1198812247159142 0.095002477965890675 0 -0.10429444750695741 0.1014886749251958 0 -0.13137241316615089 0.11357835761918721 0 -0.12687331202938101 0.13192737382428379 0 -0.10667563132183119 0.1260080396076822 0 -0.13137241316615089 0.11357835761918721 0 -0.10667563132183119 0.1260080396076822 0 -0.1062978327852654 0.11550845570815239 0 -0.13137241316615089 0.11357835761918721 0 -0.1062978327852654 0.11550845570815239 0 -0.10429444750695741 0.1014886749251958 0 -0.13137241316615089 0.11357835761918721 0 -0.10667563132183119 0.1260080396076822 0 -0.10667563132183119 0.1260080396076822 0 -0.1062978327852654 0.11550845570815239 0 -0.096577670607123245 0.1239972751083621 0 -0.092569001324263961 0.1124699312803344 0 -0.1062978327852654 0.11550845570815239 0 -0.096577670607123245 0.1239972751083621 0 -0.092569001324263961 0.1124699312803344 0 -0.1062978327852654 0.11550845570815239 0 -0.10429444750695741 0.1014886749251958 0 -0.092569001324263961 0.1124699312803344 0 -0.087572523790740042 0.10155903889124659 0 -0.10429444750695741 0.1014886749251958 0 -0.087572523790740042 0.10155903889124659 0 -0.09233625647768956 0.091651488650119919 0 -0.10429444750695741 0.1014886749251958 0 -0.10370969952600501 0.019997694726909911 0 -0.098524362227562057 0.035744340183224317 0 -0.08645931971955316 0.02325136753113614 0 -0.10370969952600501 0.019997694726909911 0 -0.08645931971955316 0.02325136753113614 0 -0.091682611010439896 0.0063963380850077774 0 -0.10370969952600501 0.019997694726909911 0 -0.1180188049733784 0.030804183747700629 0 -0.098524362227562057 0.035744340183224317 0 -0.10370969952600501 0.019997694726909911 0 -0.10877227824827949 0.0075748546359299482 0 -0.091682611010439896 0.0063963380850077774 0 -0.1029392013539359 -0.0085751277431150782 0 -0.10877227824827949 0.0075748546359299482 0 -0.091682611010439896 0.0063963380850077774 0 -0.10370969952600501 0.019997694726909911 0 -0.10877227824827949 0.0075748546359299482 0 -0.11835839359799651 0.016938700943610479 0 -0.1029392013539359 -0.0085751277431150782 0 -0.12735709500343681 0.004015926865657337 0 -0.10877227824827949 0.0075748546359299482 0 -0.12735709500343681 0.004015926865657337 0 -0.10877227824827949 0.0075748546359299482 0 -0.11835839359799651 0.016938700943610479 0 -0.1339340902388827 0.022300844741854581 0 -0.11835839359799651 0.016938700943610479 0 -0.1180188049733784 0.030804183747700629 0 -0.10370969952600501 0.019997694726909911 0 -0.11835839359799651 0.016938700943610479 0 -0.1180188049733784 0.030804183747700629 0 -0.1180188049733784 0.030804183747700629 0 -0.1128457876968547 0.048091259023394652 0 -0.098524362227562057 0.035744340183224317 0 -0.13626681081840961 0.042829268155062397 0 -0.1128457876968547 0.048091259023394652 0 -0.13626681081840961 0.042829268155062397 0 -0.1180188049733784 0.030804183747700629 0 -0.1128457876968547 0.048091259023394652 0 -0.13626681081840961 0.042829268155062397 0 -0.1128457876968547 0.048091259023394652 0 -0.1248745965026067 0.059896082918310993 0 -0.10785209906359081 0.065371441260914459 0 -0.1128457876968547 0.048091259023394652 0 -0.1248745965026067 0.059896082918310993 0 -0.1128457876968547 0.048091259023394652 0 -0.089424764575299687 0.053353249891726941 0 -0.089923560922876636 0.068178037636278263 0 -0.10785209906359081 0.065371441260914459 0 -0.089424764575299687 0.053353249891726941 0 -0.10785209906359081 0.065371441260914459 0 -0.1128457876968547 0.048091259023394652 0 -0.089424764575299687 0.053353249891726941 0 -0.1128457876968547 0.048091259023394652 0 -0.098524362227562057 0.035744340183224317 0 -0.089424764575299687 0.053353249891726941 0 -0.098524362227562057 0.035744340183224317 0 -0.080687796874281473 0.038968286178477703 0 -0.08645931971955316 0.02325136753113614 0 -0.098524362227562057 0.035744340183224317 0 -0.080687796874281473 0.038968286178477703 0 -0.089424764575299687 0.053353249891726941 0 -0.080687796874281473 0.038968286178477703 0 -0.089424764575299687 0.053353249891726941 0 -0.083186879645449088 0.059889597987781727 0 -0.075164799511626648 0.065372869601281192 0 -0.080687796874281473 0.038968286178477703 0 -0.083186879645449088 0.059889597987781727 0 -0.089923560922876636 0.068178037636278263 0 -0.089424764575299687 0.053353249891726941 0 -0.083186879645449088 0.059889597987781727 0 -0.075164799511626648 0.065372869601281192 0 -0.080687796874281473 0.038968286178477703 0 -0.071303082845968715 0.053347503409362687 0 -0.075164799511626648 0.065372869601281192 0 -0.080687796874281473 0.038968286178477703 0 -0.075164799511626648 0.065372869601281192 0 -0.070406408885084593 0.061857930521202607 0 -0.071303082845968715 0.053347503409362687 0 -0.071303082845968715 0.053347503409362687 0 -0.064856269609628314 0.055117702274744398 0 -0.065400139349222536 0.045420728471107522 0 -0.070406408885084593 0.061857930521202607 0 -0.071303082845968715 0.053347503409362687 0 -0.064856269609628314 0.055117702274744398 0 -0.070406408885084593 0.061857930521202607 0 -0.064856269609628314 0.055117702274744398 0 -0.059815066152941319 0.061788281472960463 0 -0.080687796874281473 0.038968286178477703 0 -0.065400139349222536 0.045420728471107522 0 -0.063264057366842208 0.031259222641012697 0 -0.080687796874281473 0.038968286178477703 0 -0.063264057366842208 0.031259222641012697 0 -0.073460039823911166 0.024685388153665749 0 -0.080687796874281473 0.038968286178477703 0 -0.071303082845968715 0.053347503409362687 0 -0.065400139349222536 0.045420728471107522 0 -0.063264057366842208 0.031259222641012697 0 -0.073460039823911166 0.024685388153665749 0 -0.061440697951084179 0.017621877449499421 0 -0.073460039823911166 0.024685388153665749 0 -0.076769634387976737 0.01135693610240161 0 -0.061440697951084179 0.017621877449499421 0 -0.080687796874281473 0.038968286178477703 0 -0.073460039823911166 0.024685388153665749 0 -0.08645931971955316 0.02325136753113614 0 -0.073460039823911166 0.024685388153665749 0 -0.08645931971955316 0.02325136753113614 0 -0.076769634387976737 0.01135693610240161 0 -0.08645931971955316 0.02325136753113614 0 -0.091682611010439896 0.0063963380850077774 0 -0.076769634387976737 0.01135693610240161 0 -0.091682611010439896 0.0063963380850077774 0 -0.078933949510919491 0.00072378658541613432 0 -0.076769634387976737 0.01135693610240161 0 -0.086097875964997059 -0.0058870606910941042 0 -0.091682611010439896 0.0063963380850077774 0 -0.078933949510919491 0.00072378658541613432 0 -0.078933949510919491 0.00072378658541613432 0 -0.076769634387976737 0.01135693610240161 0 -0.068462160169621672 0.0025537029525893409 0 -0.068462160169621672 0.0025537029525893409 0 -0.057836245250817257 0.0062936453779614283 0 -0.061440697951084179 0.017621877449499421 0 -0.076769634387976737 0.01135693610240161 0 -0.068462160169621672 0.0025537029525893409 0 -0.061440697951084179 0.017621877449499421 0 -0.057836245250817257 0.0062936453779614283 0 -0.061440697951084179 0.017621877449499421 0 -0.042678209040760022 0.019440128409622049 0 -0.057836245250817257 0.0062936453779614283 0 -0.042678209040760022 0.019440128409622049 0 -0.044352522143416888 0.0050416822031405977 0 -0.063264057366842208 0.031259222641012697 0 -0.042678209040760022 0.019440128409622049 0 -0.05195897498334151 0.039592758420259042 0 -0.063264057366842208 0.031259222641012697 0 -0.061440697951084179 0.017621877449499421 0 -0.042678209040760022 0.019440128409622049 0 -0.042678209040760022 0.019440128409622049 0 -0.038256592764973757 0.039174794321751791 0 -0.042678209040760022 0.019440128409622049 0 -0.038256592764973757 0.039174794321751791 0 -0.027511467414372541 0.03001296694831072 0 -0.042678209040760022 0.019440128409622049 0 -0.028180513839983729 0.018098474401369 0 -0.027511467414372541 0.03001296694831072 0 -0.042678209040760022 0.019440128409622049 0 -0.032770024037711037 0.0084985419153508525 0 -0.028180513839983729 0.018098474401369 0 -0.032770024037711037 0.0084985419153508525 0 -0.03614709390981162 0.0015378833132510439 0 -0.044352522143416888 0.0050416822031405977 0 -0.029539197120254941 -0.00051038393964639519 0 -0.032770024037711037 0.0084985419153508525 0 -0.03614709390981162 0.0015378833132510439 0 -0.042678209040760022 0.019440128409622049 0 -0.032770024037711037 0.0084985419153508525 0 -0.044352522143416888 0.0050416822031405977 0 -0.042969512877196837 0.063698159366550891 0 -0.047980875447113908 0.056604040506729722 0 -0.052166049838275927 0.062310195238599278 0 -0.047980875447113908 0.056604040506729722 0 -0.052166049838275927 0.062310195238599278 0 -0.055804220694704088 0.051985500715961808 0 -0.064856269609628314 0.055117702274744398 0 -0.059815066152941319 0.061788281472960463 0 -0.055804220694704088 0.051985500715961808 0 -0.052166049838275927 0.062310195238599278 0 -0.059815066152941319 0.061788281472960463 0 -0.055804220694704088 0.051985500715961808 0 -0.064856269609628314 0.055117702274744398 0 -0.065400139349222536 0.045420728471107522 0 -0.055804220694704088 0.051985500715961808 0 -0.047980875447113908 0.056604040506729722 0 -0.055804220694704088 0.051985500715961808 0 -0.046350630683546529 0.050276175962098407 0 -0.055804220694704088 0.051985500715961808 0 -0.05195897498334151 0.039592758420259042 0 -0.046350630683546529 0.050276175962098407 0 -0.065400139349222536 0.045420728471107522 0 -0.055804220694704088 0.051985500715961808 0 -0.05195897498334151 0.039592758420259042 0 -0.065400139349222536 0.045420728471107522 0 -0.063264057366842208 0.031259222641012697 0 -0.05195897498334151 0.039592758420259042 0 -0.042678209040760022 0.019440128409622049 0 -0.05195897498334151 0.039592758420259042 0 -0.038256592764973757 0.039174794321751791 0 -0.05195897498334151 0.039592758420259042 0 -0.038256592764973757 0.039174794321751791 0 -0.046350630683546529 0.050276175962098407 0 -0.038256592764973757 0.039174794321751791 0 -0.033834976489186493 0.058909460233881362 0 -0.038256592764973757 0.039174794321751791 0 -0.038513274033404883 0.055407770980391423 0 -0.033834976489186493 0.058909460233881362 0 -0.038256592764973757 0.039174794321751791 0 -0.046350630683546529 0.050276175962098407 0 -0.038513274033404883 0.055407770980391423 0 -0.038256592764973757 0.039174794321751791 0 -0.033834976489186493 0.058909460233881362 0 -0.02879531395286377 0.050132256585483953 0 -0.046350630683546529 0.050276175962098407 0 -0.038513274033404883 0.055407770980391423 0 -0.042914570065583427 0.057802329486214707 0 -0.036732086871232597 0.066761861307427367 0 -0.033834976489186493 0.058909460233881362 0 -0.038907572144486188 0.060810532415041758 0 -0.038513274033404883 0.055407770980391423 0 -0.033834976489186493 0.058909460233881362 0 -0.038513274033404883 0.055407770980391423 0 -0.033834976489186493 0.058909460233881362 0 -0.038907572144486188 0.060810532415041758 0 -0.042969512877196837 0.063698159366550891 0 -0.038907572144486188 0.060810532415041758 0 -0.042914570065583427 0.057802329486214707 0 -0.038513274033404883 0.055407770980391423 0 -0.038907572144486188 0.060810532415041758 0 -0.042914570065583427 0.057802329486214707 0 -0.047980875447113908 0.056604040506729722 0 -0.046350630683546529 0.050276175962098407 0 -0.042914570065583427 0.057802329486214707 0 -0.042969512877196837 0.063698159366550891 0 -0.047980875447113908 0.056604040506729722 0 -0.042914570065583427 0.057802329486214707 0 -0.033834976489186493 0.058909460233881362 0 -0.01963881101933795 0.057650575484614511 0 -0.02879531395286377 0.050132256585483953 0 -0.01963881101933795 0.057650575484614511 0 -0.02879531395286377 0.050132256585483953 0 -0.02345087553795689 0.044794196301688183 0 -0.01963881101933795 0.057650575484614511 0 -0.02345087553795689 0.044794196301688183 0 -0.012175026131353321 0.050402421608982242 0 -0.02345087553795689 0.044794196301688183 0 -0.014695186475719159 0.0359408453649432 0 -0.012175026131353321 0.050402421608982242 0 -0.038256592764973757 0.039174794321751791 0 -0.02879531395286377 0.050132256585483953 0 -0.02345087553795689 0.044794196301688183 0 -0.038256592764973757 0.039174794321751791 0 -0.02345087553795689 0.044794196301688183 0 -0.027511467414372541 0.03001296694831072 0 -0.02345087553795689 0.044794196301688183 0 -0.014695186475719159 0.0359408453649432 0 -0.027511467414372541 0.03001296694831072 0 -0.014695186475719159 0.0359408453649432 0 -0.0023331541944977092 0.045311556235899067 0 0.00074240361007229996 0.028778475488121531 0 -0.014695186475719159 0.0359408453649432 0 -0.0023331541944977092 0.045311556235899067 0 -0.012175026131353321 0.050402421608982242 0 -0.0023331541944977092 0.045311556235899067 0 -0.012175026131353321 0.050402421608982242 0 0.00079413703044923156 0.058803151297745167 0 -0.012175026131353321 0.050402421608982242 0 -0.0089029190745683329 0.062319161291970238 0 0.00079413703044923156 0.058803151297745167 0 -0.01963881101933795 0.057650575484614511 0 -0.012175026131353321 0.050402421608982242 0 -0.0089029190745683329 0.062319161291970238 0 -0.021996997598287969 0.010981086364913869 0 -0.02112675760807068 0.0030512678310729521 0 -0.0083058662928979787 0.012079608812324741 0 -0.021996997598287969 0.010981086364913869 0 -0.01661374249992489 0.02103319015209278 0 -0.0083058662928979787 0.012079608812324741 0 -0.021996997598287969 0.010981086364913869 0 -0.02112675760807068 0.0030512678310729521 0 -0.02631380729169577 0.0053104208567875946 0 -0.029539197120254941 -0.00051038393964639519 0 -0.02112675760807068 0.0030512678310729521 0 -0.02631380729169577 0.0053104208567875946 0 -0.029539197120254941 -0.00051038393964639519 0 -0.032770024037711037 0.0084985419153508525 0 -0.02631380729169577 0.0053104208567875946 0 -0.032770024037711037 0.0084985419153508525 0 -0.021996997598287969 0.010981086364913869 0 -0.02631380729169577 0.0053104208567875946 0 -0.032770024037711037 0.0084985419153508525 0 -0.021996997598287969 0.010981086364913869 0 -0.028180513839983729 0.018098474401369 0 -0.028180513839983729 0.018098474401369 0 -0.027511467414372541 0.03001296694831072 0 -0.01661374249992489 0.02103319015209278 0 -0.014695186475719159 0.0359408453649432 0 -0.027511467414372541 0.03001296694831072 0 -0.01661374249992489 0.02103319015209278 0 -0.021996997598287969 0.010981086364913869 0 -0.028180513839983729 0.018098474401369 0 -0.01661374249992489 0.02103319015209278 0 -0.01661374249992489 0.02103319015209278 0 0.00074240361007229996 0.028778475488121531 0 -0.0083058662928979787 0.012079608812324741 0 0.0060294939382754481 0.01286563290641534 0 0.00074240361007229996 0.028778475488121531 0 -0.014695186475719159 0.0359408453649432 0 -0.01661374249992489 0.02103319015209278 0 0.00074240361007229996 0.028778475488121531 0 -0.0083058662928979787 0.012079608812324741 0 0.00074240361007229996 0.028778475488121531 0 -0.01661374249992489 0.02103319015209278 0 -0.0083058662928979787 0.012079608812324741 0 0.00074240361007229996 0.028778475488121531 0 -0.0072764121498596901 -0.0036325873431357339 0 -0.0083058662928979787 0.012079608812324741 0 0.0012074066645448821 -0.00065723147797176382 0 -0.0072764121498596901 -0.0036325873431357339 0 -0.013607688627124061 -0.00178224205395049 0 -0.0083058662928979787 0.012079608812324741 0 -0.017354136195868258 -0.0046192578634720229 0 -0.0083058662928979787 0.012079608812324741 0 -0.017354136195868258 -0.0046192578634720229 0 -0.013607688627124061 -0.00178224205395049 0 -0.0083058662928979787 0.012079608812324741 0 -0.0083058662928979787 0.012079608812324741 0 0.0060294939382754481 0.01286563290641534 0 0.0012074066645448821 -0.00065723147797176382 0 -0.017354136195868258 -0.0046192578634720229 0 -0.02112675760807068 0.0030512678310729521 0 -0.0083058662928979787 0.012079608812324741 0 0.0060294939382754481 0.01286563290641534 0 0.0012074066645448821 -0.00065723147797176382 0 0.01265631079038235 -0.01012693536007268 0 0.0060294939382754481 0.01286563290641534 0 0.020311547060899309 0.014329649790385431 0 0.01265631079038235 -0.01012693536007268 0 0.00074240361007229996 0.028778475488121531 0 0.015746539320639769 0.024046632949657649 0 0.022626785018342459 0.038544513255683338 0 0.0060294939382754481 0.01286563290641534 0 0.00074240361007229996 0.028778475488121531 0 0.015746539320639769 0.024046632949657649 0 0.0060294939382754481 0.01286563290641534 0 0.015746539320639769 0.024046632949657649 0 0.020311547060899309 0.014329649790385431 0 0.015746539320639769 0.024046632949657649 0 0.029022466975609298 0.02571489330768258 0 0.020311547060899309 0.014329649790385431 0 0.015746539320639769 0.024046632949657649 0 0.029022466975609298 0.02571489330768258 0 0.022626785018342459 0.038544513255683338 0 0.020311547060899309 0.014329649790385431 0 0.034885408484197772 0.0062912350017927032 0 0.01265631079038235 -0.01012693536007268 0 0.029022466975609298 0.02571489330768258 0 0.020311547060899309 0.014329649790385431 0 0.034885408484197772 0.0062912350017927032 0 0.00079413703044923156 0.058803151297745167 0 0.01366790099406239 0.052632887419703241 0 0.0065236609159091173 0.071671444604676282 0 -0.0023331541944977092 0.045311556235899067 0 0.00079413703044923156 0.058803151297745167 0 0.01366790099406239 0.052632887419703241 0 0.00074240361007229996 0.028778475488121531 0 0.01366790099406239 0.052632887419703241 0 0.022626785018342459 0.038544513255683338 0 0.00074240361007229996 0.028778475488121531 0 0.022626785018342459 0.038544513255683338 0 -0.0023331541944977092 0.045311556235899067 0 0.00074240361007229996 0.028778475488121531 0 0.01366790099406239 0.052632887419703241 0 0.00074240361007229996 0.028778475488121531 0 0.01366790099406239 0.052632887419703241 0 0.029022466975609298 0.02571489330768258 0 0.022626785018342459 0.038544513255683338 0 0.037630953216902623 0.033668105561091018 0 0.01366790099406239 0.052632887419703241 0 0.022626785018342459 0.038544513255683338 0 0.025434983742737761 0.055249644843112657 0 0.022626785018342459 0.038544513255683338 0 0.025434983742737761 0.055249644843112657 0 0.034616451435572633 0.051242168749322393 0 0.025434983742737761 0.055249644843112657 0 0.034062632092931817 0.061255223706808547 0 0.02703491536905472 0.067401080742933134 0 0.01366790099406239 0.052632887419703241 0 0.025434983742737761 0.055249644843112657 0 0.02703491536905472 0.067401080742933134 0 0.034616451435572633 0.051242168749322393 0 0.044511166426612833 0.04831055102324476 0 0.060132464308973767 0.062986029428160187 0 0.034616451435572633 0.051242168749322393 0 0.060132464308973767 0.062986029428160187 0 0.044258496001147778 0.063884183083345675 0 0.034062632092931817 0.061255223706808547 0 0.034616451435572633 0.051242168749322393 0 0.044258496001147778 0.063884183083345675 0 0.025434983742737761 0.055249644843112657 0 0.034062632092931817 0.061255223706808547 0 0.034616451435572633 0.051242168749322393 0 0.022626785018342459 0.038544513255683338 0 0.044511166426612833 0.04831055102324476 0 0.022626785018342459 0.038544513255683338 0 0.034616451435572633 0.051242168749322393 0 0.044511166426612833 0.04831055102324476 0 0.022626785018342459 0.038544513255683338 0 0.044511166426612833 0.04831055102324476 0 0.037630953216902623 0.033668105561091018 0 0.044511166426612833 0.04831055102324476 0 0.037630953216902623 0.033668105561091018 0 0.0484135161167236 0.034205204957136963 0 0.0484135161167236 0.034205204957136963 0 0.060669767880595721 0.038134724015348051 0 0.0518117103670514 0.042737821036878322 0 0.0484135161167236 0.034205204957136963 0 0.060669767880595721 0.038134724015348051 0 0.057623658326613529 0.02352368721002385 0 0.060669767880595721 0.038134724015348051 0 0.0518117103670514 0.042737821036878322 0 0.059559274975242667 0.047504887075434543 0 0.044511166426612833 0.04831055102324476 0 0.0518117103670514 0.042737821036878322 0 0.059559274975242667 0.047504887075434543 0 0.044511166426612833 0.04831055102324476 0 0.0484135161167236 0.034205204957136963 0 0.0518117103670514 0.042737821036878322 0 0.044511166426612833 0.04831055102324476 0 0.066395547834883203 0.05807658879080619 0 0.060132464308973767 0.062986029428160187 0 0.034616451435572633 0.051242168749322393 0 0.060132464308973767 0.062986029428160187 0 0.044511166426612833 0.04831055102324476 0 0.066395547834883203 0.05807658879080619 0 0.044511166426612833 0.04831055102324476 0 0.059559274975242667 0.047504887075434543 0 0.066395547834883203 0.05807658879080619 0 0.034885408484197772 0.0062912350017927032 0 0.052968053050369737 0.0090809173488315582 0 0.042517259973231587 -0.011683923625132649 0 0.034885408484197772 0.0062912350017927032 0 0.043580831547224863 0.021565365261707499 0 0.052968053050369737 0.0090809173488315582 0 0.029022466975609298 0.02571489330768258 0 0.034885408484197772 0.0062912350017927032 0 0.043580831547224863 0.021565365261707499 0 0.029022466975609298 0.02571489330768258 0 0.037630953216902623 0.033668105561091018 0 0.043580831547224863 0.021565365261707499 0 0.037630953216902623 0.033668105561091018 0 0.0484135161167236 0.034205204957136963 0 0.043580831547224863 0.021565365261707499 0 0.057623658326613529 0.02352368721002385 0 0.052968053050369737 0.0090809173488315582 0 0.071708216805815503 0.016768608491387289 0 0.043580831547224863 0.021565365261707499 0 0.057623658326613529 0.02352368721002385 0 0.052968053050369737 0.0090809173488315582 0 0.0484135161167236 0.034205204957136963 0 0.043580831547224863 0.021565365261707499 0 0.057623658326613529 0.02352368721002385 0 0.052968053050369737 0.0090809173488315582 0 0.071708216805815503 0.016768608491387289 0 0.067492943165135169 -0.0019794682467893379 0 0.083930998993742512 0.0059737405228527038 0 0.071708216805815503 0.016768608491387289 0 0.067492943165135169 -0.0019794682467893379 0 0.083930998993742512 0.0059737405228527038 0 0.098495163759696414 0.0029673617968291321 0 0.094917995650245529 0.021722354499223519 0 0.083930998993742512 0.0059737405228527038 0 0.071708216805815503 0.016768608491387289 0 0.094917995650245529 0.021722354499223519 0 0.071708216805815503 0.016768608491387289 0 0.07449934060461412 0.03258063005354956 0 0.094917995650245529 0.021722354499223519 0 0.07449934060461412 0.03258063005354956 0 0.087237150257314613 0.037926204838731957 0 0.094917995650245529 0.021722354499223519 0 0.057623658326613529 0.02352368721002385 0 0.071708216805815503 0.016768608491387289 0 0.07449934060461412 0.03258063005354956 0 0.060669767880595721 0.038134724015348051 0 0.057623658326613529 0.02352368721002385 0 0.07449934060461412 0.03258063005354956 0 0.060669767880595721 0.038134724015348051 0 0.069155187538762042 0.045022305850501279 0 0.07449934060461412 0.03258063005354956 0 0.060669767880595721 0.038134724015348051 0 0.059559274975242667 0.047504887075434543 0 0.069155187538762042 0.045022305850501279 0 0.069155187538762042 0.045022305850501279 0 0.07449934060461412 0.03258063005354956 0 0.079692196512252927 0.044953406994506007 0 0.059559274975242667 0.047504887075434543 0 0.069155187538762042 0.045022305850501279 0 0.067326156772233525 0.050603546620565112 0 0.059559274975242667 0.047504887075434543 0 0.066395547834883203 0.05807658879080619 0 0.067326156772233525 0.050603546620565112 0 0.066395547834883203 0.05807658879080619 0 0.067326156772233525 0.050603546620565112 0 0.074194616740046182 0.051810404765518438 0 0.069155187538762042 0.045022305850501279 0 0.067326156772233525 0.050603546620565112 0 0.074194616740046182 0.051810404765518438 0 0.069155187538762042 0.045022305850501279 0 0.074194616740046182 0.051810404765518438 0 0.079692196512252927 0.044953406994506007 0 0.066395547834883203 0.05807658879080619 0 0.074194616740046182 0.051810404765518438 0 0.080343143758095259 0.058335218209008277 0 0.066395547834883203 0.05807658879080619 0 0.080343143758095259 0.058335218209008277 0 0.08827992924315356 0.067842626558367619 0 0.080343143758095259 0.058335218209008277 0 0.083306510346727383 0.05351440315152866 0 0.090416084875221875 0.058235299142909973 0 0.074194616740046182 0.051810404765518438 0 0.083306510346727383 0.05351440315152866 0 0.079692196512252927 0.044953406994506007 0 0.083306510346727383 0.05351440315152866 0 0.089760373586053266 0.048866493307206167 0 0.079692196512252927 0.044953406994506007 0 0.074194616740046182 0.051810404765518438 0 0.080343143758095259 0.058335218209008277 0 0.083306510346727383 0.05351440315152866 0 0.083306510346727383 0.05351440315152866 0 0.089760373586053266 0.048866493307206167 0 0.090416084875221875 0.058235299142909973 0 0.089760373586053266 0.048866493307206167 0 0.090416084875221875 0.058235299142909973 0 0.099395501669828634 0.055681054702382278 0 0.080343143758095259 0.058335218209008277 0 0.090416084875221875 0.058235299142909973 0 0.08827992924315356 0.067842626558367619 0 0.087237150257314613 0.037926204838731957 0 0.098930039005792711 0.04227996871225087 0 0.094917995650245529 0.021722354499223519 0 0.07449934060461412 0.03258063005354956 0 0.079692196512252927 0.044953406994506007 0 0.087237150257314613 0.037926204838731957 0 0.089760373586053266 0.048866493307206167 0 0.079692196512252927 0.044953406994506007 0 0.087237150257314613 0.037926204838731957 0 0.089760373586053266 0.048866493307206167 0 0.087237150257314613 0.037926204838731957 0 0.098930039005792711 0.04227996871225087 0 0.10894092886672049 0.033503019923715648 0 0.098930039005792711 0.04227996871225087 0 0.11550376979223601 0.054551475820320147 0 0.10894092886672049 0.033503019923715648 0 0.098930039005792711 0.04227996871225087 0 0.094917995650245529 0.021722354499223519 0 0.098930039005792711 0.04227996871225087 0 0.099395501669828634 0.055681054702382278 0 0.11550376979223601 0.054551475820320147 0 0.099395501669828634 0.055681054702382278 0 0.11550376979223601 0.054551475820320147 0 0.10561354398445311 0.069921878226714862 0 0.090416084875221875 0.058235299142909973 0 0.099395501669828634 0.055681054702382278 0 0.095618088847860577 0.065038419849084594 0 0.089760373586053266 0.048866493307206167 0 0.098930039005792711 0.04227996871225087 0 0.099395501669828634 0.055681054702382278 0 0.10894092886672049 0.033503019923715648 0 0.11961069471150609 0.02296590295220987 0 0.12977361784467401 0.039215218793308727 0 0.10894092886672049 0.033503019923715648 0 0.11550376979223601 0.054551475820320147 0 0.12977361784467401 0.039215218793308727 0 0.11961069471150609 0.02296590295220987 0 0.1158546052028349 0.0064685721448778594 0 0.094917995650245529 0.021722354499223519 0 0.11961069471150609 0.02296590295220987 0 0.1158546052028349 0.0064685721448778594 0 0.13894824890776639 0.02136224913872127 0 0.1158546052028349 0.0064685721448778594 0 0.098495163759696414 0.0029673617968291321 0 0.094917995650245529 0.021722354499223519 0 0.10894092886672049 0.033503019923715648 0 0.11961069471150609 0.02296590295220987 0 0.094917995650245529 0.021722354499223519 0 0.097728221435088053 0.099184528615223033 0 0.110275064223293 0.10236359857942121 0 0.11116449005577619 0.086473750785835857 0 0.099894961061174667 0.1104201015940532 0 0.11150799601301251 0.1117412241471519 0 0.110275064223293 0.10236359857942121 0 0.097728221435088053 0.099184528615223033 0 0.099894961061174667 0.1104201015940532 0 0.110275064223293 0.10236359857942121 0 0.097728221435088053 0.099184528615223033 0 0.099894961061174667 0.1104201015940532 0 0.084925795867796111 0.1103515185161017 0 0.099894961061174667 0.1104201015940532 0 0.096984900528893664 0.1212489081817222 0 0.084925795867796111 0.1103515185161017 0 0.099894961061174667 0.1104201015940532 0 0.096984900528893664 0.1212489081817222 0 0.10712684862241641 0.1210429748963526 0 0.096984900528893664 0.1212489081817222 0 0.10712684862241641 0.1210429748963526 0 0.10589272808503949 0.13156516273042271 0 0.099894961061174667 0.1104201015940532 0 0.10712684862241641 0.1210429748963526 0 0.11150799601301251 0.1117412241471519 0 0.10712684862241641 0.1210429748963526 0 0.11150799601301251 0.1117412241471519 0 0.1187293914863337 0.1182846474287873 0 0.11150799601301251 0.1117412241471519 0 0.1187293914863337 0.1182846474287873 0 0.1197878353292403 0.1092484053650479 0 0.10712684862241641 0.1210429748963526 0 0.1187293914863337 0.1182846474287873 0 0.114987521205969 0.1268010028982309 0 0.1187293914863337 0.1182846474287873 0 0.12813823657366311 0.12049833089676459 0 0.12624189261331301 0.1140678077034443 0 0.1187293914863337 0.1182846474287873 0 0.12212988809696081 0.1249307776834532 0 0.12813823657366311 0.12049833089676459 0 0.1187293914863337 0.1182846474287873 0 0.12212988809696081 0.1249307776834532 0 0.114987521205969 0.1268010028982309 0 0.1187293914863337 0.1182846474287873 0 0.1197878353292403 0.1092484053650479 0 0.12624189261331301 0.1140678077034443 0 0.1216961693062274 0.1020981758197984 0 0.110275064223293 0.10236359857942121 0 0.11116449005577619 0.086473750785835857 0 0.1197878353292403 0.1092484053650479 0 0.1216961693062274 0.1020981758197984 0 0.1302764983332621 0.10693497851168419 0 0.1216961693062274 0.1020981758197984 0 0.11116449005577619 0.086473750785835857 0 0.13668050292917741 0.098217611464673699 0 0.1197878353292403 0.1092484053650479 0 0.1216961693062274 0.1020981758197984 0 0.110275064223293 0.10236359857942121 0 0.11150799601301251 0.1117412241471519 0 0.1197878353292403 0.1092484053650479 0 0.110275064223293 0.10236359857942121 0 0.11116449005577619 0.086473750785835857 0 0.1207366242219714 0.074251990558816788 0 0.1300820653953097 0.084166932106396392 0 0.11116449005577619 0.086473750785835857 0 0.13668050292917741 0.098217611464673699 0 0.11116449005577619 0.086473750785835857 0 0.1207366242219714 0.074251990558816788 0 0.10561354398445311 0.069921878226714862 0 0.11550376979223601 0.054551475820320147 0 0.1207366242219714 0.074251990558816788 0 0.13255022158949201 0.068763676371196639 0 0.11550376979223601 0.054551475820320147 0 0.1207366242219714 0.074251990558816788 0 0.10561354398445311 0.069921878226714862 0 0.11116449005577619 0.086473750785835857 0 0.10561354398445311 0.069921878226714862 0 0.085648477182374977 0.074729890106998029 0 0.10561354398445311 0.069921878226714862 0 0.095618088847860577 0.065038419849084594 0 0.085648477182374977 0.074729890106998029 0 0.099395501669828634 0.055681054702382278 0 0.10561354398445311 0.069921878226714862 0 0.095618088847860577 0.065038419849084594 0 0.11116449005577619 0.086473750785835857 0 0.085648477182374977 0.074729890106998029 0 0.11116449005577619 0.086473750785835857 0 0.090808031879269946 0.087622927320568048 0 0.085648477182374977 0.074729890106998029 0 0.097728221435088053 0.099184528615223033 0 0.11116449005577619 0.086473750785835857 0 0.090808031879269946 0.087622927320568048 0 0.097728221435088053 0.099184528615223033 0 0.090808031879269946 0.087622927320568048 0 0.080235742217082393 0.093435287859391092 0 0.090808031879269946 0.087622927320568048 0 0.078675001300488379 0.083882301042573534 0 0.085648477182374977 0.074729890106998029 0 0.090808031879269946 0.087622927320568048 0 0.078675001300488379 0.083882301042573534 0 0.080235742217082393 0.093435287859391092 0 0.066395547834883203 0.05807658879080619 0 0.08827992924315356 0.067842626558367619 0 0.085648477182374977 0.074729890106998029 0 0.095618088847860577 0.065038419849084594 0 0.08827992924315356 0.067842626558367619 0 0.085648477182374977 0.074729890106998029 0 0.090416084875221875 0.058235299142909973 0 0.095618088847860577 0.065038419849084594 0 0.08827992924315356 0.067842626558367619 0 0.066395547834883203 0.05807658879080619 0 0.085648477182374977 0.074729890106998029 0 0.060132464308973767 0.062986029428160187 0 0.066395547834883203 0.05807658879080619 0 0.08827992924315356 0.067842626558367619 0 0.085648477182374977 0.074729890106998029 0 0.068637102026180674 0.07792917868559901 0 0.060132464308973767 0.062986029428160187 0 0.085648477182374977 0.074729890106998029 0 0.060132464308973767 0.062986029428160187 0 0.078675001300488379 0.083882301042573534 0 0.085648477182374977 0.074729890106998029 0 0.068637102026180674 0.07792917868559901 0 0.080235742217082393 0.093435287859391092 0 0.069503799956795384 0.087722797055870286 0 0.068523875558259784 0.095111972458496966 0 0.078675001300488379 0.083882301042573534 0 0.080235742217082393 0.093435287859391092 0 0.069503799956795384 0.087722797055870286 0 0.078675001300488379 0.083882301042573534 0 0.068637102026180674 0.07792917868559901 0 0.069503799956795384 0.087722797055870286 0 0.068637102026180674 0.07792917868559901 0 0.069503799956795384 0.087722797055870286 0 0.060111091978902922 0.083782113849914977 0 0.069503799956795384 0.087722797055870286 0 0.06135777996986308 0.093915161513068182 0 0.060111091978902922 0.083782113849914977 0 0.069503799956795384 0.087722797055870286 0 0.068523875558259784 0.095111972458496966 0 0.06135777996986308 0.093915161513068182 0 0.068523875558259784 0.095111972458496966 0 0.071520258741129425 0.10189571548122769 0 0.062413973273008162 0.1018934272394761 0 0.068523875558259784 0.095111972458496966 0 0.062413973273008162 0.1018934272394761 0 0.06135777996986308 0.093915161513068182 0 0.071520258741129425 0.10189571548122769 0 0.072821304814728441 0.1108529925529516 0 0.063718101814298073 0.11016590081819259 0 0.071520258741129425 0.10189571548122769 0 0.063718101814298073 0.11016590081819259 0 0.062413973273008162 0.1018934272394761 0 0.071520258741129425 0.10189571548122769 0 0.084925795867796111 0.1103515185161017 0 0.072821304814728441 0.1108529925529516 0 0.080235742217082393 0.093435287859391092 0 0.068523875558259784 0.095111972458496966 0 0.071520258741129425 0.10189571548122769 0 0.097728221435088053 0.099184528615223033 0 0.080235742217082393 0.093435287859391092 0 0.084925795867796111 0.1103515185161017 0 0.080235742217082393 0.093435287859391092 0 0.071520258741129425 0.10189571548122769 0 0.084925795867796111 0.1103515185161017 0 0.084925795867796111 0.1103515185161017 0 0.074154959480044275 0.1204842858357125 0 0.087075880893963842 0.12621803440601359 0 0.096984900528893664 0.1212489081817222 0 0.084925795867796111 0.1103515185161017 0 0.087075880893963842 0.12621803440601359 0 0.084925795867796111 0.1103515185161017 0 0.074154959480044275 0.1204842858357125 0 0.072821304814728441 0.1108529925529516 0 0.074154959480044275 0.1204842858357125 0 0.072821304814728441 0.1108529925529516 0 0.063718101814298073 0.11016590081819259 0 0.074154959480044275 0.1204842858357125 0 0.063718101814298073 0.11016590081819259 0 0.060124536552058239 0.11864948812996751 0 0.074154959480044275 0.1204842858357125 0 0.060124536552058239 0.11864948812996751 0 0.061109117960118017 0.12720913792676911 0 0.060124536552058239 0.11864948812996751 0 0.052595679859244633 0.1236025024456274 0 0.054913207086597561 0.11271600588853189 0 0.060124536552058239 0.11864948812996751 0 0.052595679859244633 0.1236025024456274 0 0.061109117960118017 0.12720913792676911 0 0.052595679859244633 0.1236025024456274 0 0.054913207086597561 0.11271600588853189 0 0.046771683079868627 0.1089772416004138 0 0.063718101814298073 0.11016590081819259 0 0.060124536552058239 0.11864948812996751 0 0.054913207086597561 0.11271600588853189 0 0.063718101814298073 0.11016590081819259 0 0.062413973273008162 0.1018934272394761 0 0.053620768430252298 0.1031656988462608 0 0.063718101814298073 0.11016590081819259 0 0.054913207086597561 0.11271600588853189 0 0.053620768430252298 0.1031656988462608 0 0.06135777996986308 0.093915161513068182 0 0.053620768430252298 0.1031656988462608 0 0.051535176025136201 0.090416251810209708 0 0.062413973273008162 0.1018934272394761 0 0.06135777996986308 0.093915161513068182 0 0.053620768430252298 0.1031656988462608 0 0.053620768430252298 0.1031656988462608 0 0.042875633238578528 0.09739353282270094 0 0.051535176025136201 0.090416251810209708 0 0.053620768430252298 0.1031656988462608 0 0.046771683079868627 0.1089772416004138 0 0.042875633238578528 0.09739353282270094 0 0.054913207086597561 0.11271600588853189 0 0.053620768430252298 0.1031656988462608 0 0.046771683079868627 0.1089772416004138 0 0.046771683079868627 0.1089772416004138 0 0.042875633238578528 0.09739353282270094 0 0.034382595390138257 0.1099700727945534 0 0.042875633238578528 0.09739353282270094 0 0.034382595390138257 0.1099700727945534 0 0.030708755379597181 0.088685576768743155 0 0.034382595390138257 0.1099700727945534 0 0.030708755379597181 0.088685576768743155 0 0.052595679859244633 0.1236025024456274 0 0.046771683079868627 0.1089772416004138 0 0.034382595390138257 0.1099700727945534 0 0.034382595390138257 0.1099700727945534 0 0.02520709702204247 0.1232263280856261 0 0.037354296692750887 0.12718670835402709 0 0.052595679859244633 0.1236025024456274 0 0.034382595390138257 0.1099700727945534 0 0.037354296692750887 0.12718670835402709 0 0.034382595390138257 0.1099700727945534 0 0.037354296692750887 0.12718670835402709 0 0.052595679859244633 0.1236025024456274 0 0.034382595390138257 0.1099700727945534 0 0.060132464308973767 0.062986029428160187 0 0.051537231586459821 0.0703604747810012 0 0.044258496001147778 0.063884183083345675 0 0.051537231586459821 0.0703604747810012 0 0.045053238281461433 0.071665999821029613 0 0.044258496001147778 0.063884183083345675 0 0.060132464308973767 0.062986029428160187 0 0.058160070023191839 0.074213970699792686 0 0.051537231586459821 0.0703604747810012 0 0.068637102026180674 0.07792917868559901 0 0.060132464308973767 0.062986029428160187 0 0.058160070023191839 0.074213970699792686 0 0.051537231586459821 0.0703604747810012 0 0.049495561811348857 0.078896267932753172 0 0.045053238281461433 0.071665999821029613 0 0.058160070023191839 0.074213970699792686 0 0.051537231586459821 0.0703604747810012 0 0.049495561811348857 0.078896267932753172 0 0.049495561811348857 0.078896267932753172 0 0.051535176025136201 0.090416251810209708 0 0.041750220721871581 0.085344735896560275 0 0.049495561811348857 0.078896267932753172 0 0.060111091978902922 0.083782113849914977 0 0.051535176025136201 0.090416251810209708 0 0.068637102026180674 0.07792917868559901 0 0.058160070023191839 0.074213970699792686 0 0.060111091978902922 0.083782113849914977 0 0.058160070023191839 0.074213970699792686 0 0.049495561811348857 0.078896267932753172 0 0.060111091978902922 0.083782113849914977 0 0.06135777996986308 0.093915161513068182 0 0.060111091978902922 0.083782113849914977 0 0.051535176025136201 0.090416251810209708 0 0.042875633238578528 0.09739353282270094 0 0.051535176025136201 0.090416251810209708 0 0.041750220721871581 0.085344735896560275 0 0.042875633238578528 0.09739353282270094 0 0.041750220721871581 0.085344735896560275 0 0.030708755379597181 0.088685576768743155 0 0.041750220721871581 0.085344735896560275 0 0.037489048909448763 0.07466528487264068 0 0.030708755379597181 0.088685576768743155 0 0.049495561811348857 0.078896267932753172 0 0.041750220721871581 0.085344735896560275 0 0.037489048909448763 0.07466528487264068 0 0.037489048909448763 0.07466528487264068 0 0.02703491536905472 0.067401080742933134 0 0.030708755379597181 0.088685576768743155 0 0.049495561811348857 0.078896267932753172 0 0.045053238281461433 0.071665999821029613 0 0.037489048909448763 0.07466528487264068 0 0.045053238281461433 0.071665999821029613 0 0.037489048909448763 0.07466528487264068 0 0.037579666130808903 0.067774354445351542 0 0.034062632092931817 0.061255223706808547 0 0.037579666130808903 0.067774354445351542 0 0.02703491536905472 0.067401080742933134 0 0.037489048909448763 0.07466528487264068 0 0.037579666130808903 0.067774354445351542 0 0.02703491536905472 0.067401080742933134 0 0.034062632092931817 0.061255223706808547 0 0.037579666130808903 0.067774354445351542 0 0.044258496001147778 0.063884183083345675 0 0.045053238281461433 0.071665999821029613 0 0.037579666130808903 0.067774354445351542 0 0.044258496001147778 0.063884183083345675 0 0.02703491536905472 0.067401080742933134 0 0.030708755379597181 0.088685576768743155 0 0.01366790099406239 0.052632887419703241 0 0.026593398378051959 0.076487299351285121 0 0.01366790099406239 0.052632887419703241 0 0.02703491536905472 0.067401080742933134 0 0.026593398378051959 0.076487299351285121 0 0.02703491536905472 0.067401080742933134 0 0.026593398378051959 0.076487299351285121 0 0.030708755379597181 0.088685576768743155 0 0.01366790099406239 0.052632887419703241 0 0.026593398378051959 0.076487299351285121 0 0.01611389888654503 0.070322973248010373 0 0.026593398378051959 0.076487299351285121 0 0.01611389888654503 0.070322973248010373 0 0.01767063525815666 0.080500261616376856 0 0.01767063525815666 0.080500261616376856 0 0.030708755379597181 0.088685576768743155 0 0.011643404763696401 0.092949868607662828 0 0.026593398378051959 0.076487299351285121 0 0.01767063525815666 0.080500261616376856 0 0.030708755379597181 0.088685576768743155 0 0.01767063525815666 0.080500261616376856 0 0.011643404763696401 0.092949868607662828 0 0.0065236609159091173 0.071671444604676282 0 -0.01109578586274463 0.07592966442077155 0 0.011643404763696401 0.092949868607662828 0 0.0065236609159091173 0.071671444604676282 0 -0.01109578586274463 0.07592966442077155 0 0.011643404763696401 0.092949868607662828 0 0.01366790099406239 0.052632887419703241 0 0.01611389888654503 0.070322973248010373 0 0.0065236609159091173 0.071671444604676282 0 0.01611389888654503 0.070322973248010373 0 0.01767063525815666 0.080500261616376856 0 0.0065236609159091173 0.071671444604676282 0 -0.0031702267477386531 0.067180855403790804 0 0.00079413703044923156 0.058803151297745167 0 0.0065236609159091173 0.071671444604676282 0 0.034382595390138257 0.1099700727945534 0 0.02520709702204247 0.1232263280856261 0 0.01356063639681436 0.11371506303709419 0 0.02520709702204247 0.1232263280856261 0 0.01356063639681436 0.11371506303709419 0 0.011098566836083609 0.13484946890849181 0 0.034382595390138257 0.1099700727945534 0 0.011643404763696401 0.092949868607662828 0 0.01356063639681436 0.11371506303709419 0 0.034382595390138257 0.1099700727945534 0 0.011643404763696401 0.092949868607662828 0 0.034382595390138257 0.1099700727945534 0 0.030708755379597181 0.088685576768743155 0 0.011643404763696401 0.092949868607662828 0 -0.0040088977147468936 0.097024336429998151 0 0.011643404763696401 0.092949868607662828 0 0.0025937760044158291 0.1064596481343341 0 0.011643404763696401 0.092949868607662828 0 0.0025937760044158291 0.1064596481343341 0 0.01356063639681436 0.11371506303709419 0 -0.007175360702145514 0.1155930690216506 0 0.0025937760044158291 0.1064596481343341 0 0.01356063639681436 0.11371506303709419 0 -0.007175360702145514 0.1155930690216506 0 0.01356063639681436 0.11371506303709419 0 0.011098566836083609 0.13484946890849181 0 -0.007175360702145514 0.1155930690216506 0 0.011098566836083609 0.13484946890849181 0 0.02520709702204247 0.1232263280856261 0 0.011098566836083609 0.13484946890849181 0 0.028759663239593541 0.13617761485890201 0 0.02520709702204247 0.1232263280856261 0 0.028759663239593541 0.13617761485890201 0 0.037354296692750887 0.12718670835402709 0 0.011098566836083609 0.13484946890849181 0 0.029372494374312729 0.15410586879533311 0 0.013538337341477229 0.1636201682865295 0 0.011098566836083609 0.13484946890849181 0 0.028759663239593541 0.13617761485890201 0 0.029372494374312729 0.15410586879533311 0 0.011098566836083609 0.13484946890849181 0 0.029372494374312729 0.15410586879533311 0 -0.0048034666842798916 0.1614245706846468 0 0.011098566836083609 0.13484946890849181 0 0.013538337341477229 0.1636201682865295 0 -0.0057956805663459468 0.1892940575843915 0 -0.0048034666842798916 0.1614245706846468 0 0.013538337341477229 0.1636201682865295 0 -0.0057956805663459468 0.1892940575843915 0 0.013538337341477229 0.1636201682865295 0 0.020045678312652242 0.18090880435863019 0 -0.0057956805663459468 0.1892940575843915 0 0.020045678312652242 0.18090880435863019 0 0.029372494374312729 0.15410586879533311 0 0.013538337341477229 0.1636201682865295 0 0.020045678312652242 0.18090880435863019 0 0.029372494374312729 0.15410586879533311 0 0.045887037191650451 0.17252355113286891 0 0.04813315871709322 0.1541455757588851 0 0.029372494374312729 0.15410586879533311 0 0.020045678312652242 0.18090880435863019 0 0.045887037191650451 0.17252355113286891 0 0.020045678312652242 0.18090880435863019 0 0.045887037191650451 0.17252355113286891 0 0.020045678312652242 0.18090880435863019 0 0.045887037191650451 0.17252355113286891 0 0.041991232206495782 0.1919910870650737 0 0.045887037191650451 0.17252355113286891 0 0.060802696405823108 0.1787365445376432 0 0.041991232206495782 0.1919910870650737 0 0.045887037191650451 0.17252355113286891 0 0.071728396070648653 0.1641382979071076 0 0.045887037191650451 0.17252355113286891 0 0.060802696405823108 0.1787365445376432 0 0.071728396070648653 0.1641382979071076 0 0.045887037191650451 0.17252355113286891 0 0.059657673584757237 0.15824269734654939 0 0.04813315871709322 0.1541455757588851 0 0.045887037191650451 0.17252355113286891 0 0.059657673584757237 0.15824269734654939 0 0.071728396070648653 0.1641382979071076 0 0.059657673584757237 0.15824269734654939 0 0.04813315871709322 0.1541455757588851 0 0.060329678829100349 0.1474246815113264 0 0.04813315871709322 0.1541455757588851 0 0.050215372913412007 0.1458935282758238 0 0.060329678829100349 0.1474246815113264 0 0.050215372913412007 0.1458935282758238 0 0.060329678829100349 0.1474246815113264 0 0.052072656112092337 0.13760051191958289 0 0.050215372913412007 0.1458935282758238 0 0.052072656112092337 0.13760051191958289 0 0.040325997995362128 0.14440334391350099 0 0.060329678829100349 0.1474246815113264 0 0.062159468211553673 0.13737243366585769 0 0.052072656112092337 0.13760051191958289 0 0.062159468211553673 0.13737243366585769 0 0.054733357378362921 0.13083888414419281 0 0.052072656112092337 0.13760051191958289 0 0.052595679859244633 0.1236025024456274 0 0.054733357378362921 0.13083888414419281 0 0.061109117960118017 0.12720913792676911 0 0.062159468211553673 0.13737243366585769 0 0.054733357378362921 0.13083888414419281 0 0.061109117960118017 0.12720913792676911 0 0.052595679859244633 0.1236025024456274 0 0.054733357378362921 0.13083888414419281 0 0.046346625143134958 0.1312929959830558 0 0.054733357378362921 0.13083888414419281 0 0.052072656112092337 0.13760051191958289 0 0.046346625143134958 0.1312929959830558 0 0.037354296692750887 0.12718670835402709 0 0.040325997995362128 0.14440334391350099 0 0.046346625143134958 0.1312929959830558 0 0.037354296692750887 0.12718670835402709 0 0.040325997995362128 0.14440334391350099 0 0.028759663239593541 0.13617761485890201 0 0.037354296692750887 0.12718670835402709 0 0.040325997995362128 0.14440334391350099 0 0.052072656112092337 0.13760051191958289 0 0.046346625143134958 0.1312929959830558 0 0.040325997995362128 0.14440334391350099 0 0.052595679859244633 0.1236025024456274 0 0.046346625143134958 0.1312929959830558 0 0.037354296692750887 0.12718670835402709 0 0.028759663239593541 0.13617761485890201 0 0.029372494374312729 0.15410586879533311 0 0.040325997995362128 0.14440334391350099 0 0.029372494374312729 0.15410586879533311 0 0.04813315871709322 0.1541455757588851 0 0.040325997995362128 0.14440334391350099 0 0.04813315871709322 0.1541455757588851 0 0.050215372913412007 0.1458935282758238 0 0.040325997995362128 0.14440334391350099 0 0.025149977659741599 0.24684982625080901 0 0.00014186162909880781 0.2338185852574263 0 0.02177620002751179 0.22559840920251981 0 0.025149977659741599 0.24684982625080901 0 0.00014186162909880781 0.2338185852574263 0 0.025149977659741599 0.24684982625080901 0 0.00014186162909880781 0.2338185852574263 0 0.0073806355134042019 0.25529449578482938 0 0.00014186162909880781 0.2338185852574263 0 0.02177620002751179 0.22559840920251981 0 0.0090806704795409685 0.20996839310177981 0 0.025149977659741599 0.24684982625080901 0 0.02177620002751179 0.22559840920251981 0 0.039960986899899173 0.22780444499479169 0 0.02177620002751179 0.22559840920251981 0 0.0090806704795409685 0.20996839310177981 0 0.034547503469278373 0.20955079640779209 0 0.0090806704795409685 0.20996839310177981 0 0.02162293693503077 0.1981024475624624 0 0.034547503469278373 0.20955079640779209 0 -0.0057956805663459468 0.1892940575843915 0 0.0090806704795409685 0.20996839310177981 0 0.02162293693503077 0.1981024475624624 0 -0.0057956805663459468 0.1892940575843915 0 0.020045678312652242 0.18090880435863019 0 0.02162293693503077 0.1981024475624624 0 0.020045678312652242 0.18090880435863019 0 0.02162293693503077 0.1981024475624624 0 0.041991232206495782 0.1919910870650737 0 0.02162293693503077 0.1981024475624624 0 0.041991232206495782 0.1919910870650737 0 0.034547503469278373 0.20955079640779209 0 0.041991232206495782 0.1919910870650737 0 0.05849467095877426 0.1965416733816682 0 0.050764695011206777 0.20916964222725651 0 0.060802696405823108 0.1787365445376432 0 0.041991232206495782 0.1919910870650737 0 0.05849467095877426 0.1965416733816682 0 0.050764695011206777 0.20916964222725651 0 0.066981886553135278 0.20878848804672309 0 0.05849467095877426 0.1965416733816682 0 0.050764695011206777 0.20916964222725651 0 0.066981886553135278 0.20878848804672309 0 0.050764695011206777 0.20916964222725651 0 0.061514006406540499 0.23071042489022231 0 0.066981886553135278 0.20878848804672309 0 0.050764695011206777 0.20916964222725651 0 0.034547503469278373 0.20955079640779209 0 0.039960986899899173 0.22780444499479169 0 0.050764695011206777 0.20916964222725651 0 0.034547503469278373 0.20955079640779209 0 0.041991232206495782 0.1919910870650737 0 0.050764695011206777 0.20916964222725651 0 0.034547503469278373 0.20955079640779209 0 0.02177620002751179 0.22559840920251981 0 0.034547503469278373 0.20955079640779209 0 0.039960986899899173 0.22780444499479169 0 0.039960986899899173 0.22780444499479169 0 0.061514006406540499 0.23071042489022231 0 0.045472231705318063 0.24424317023843681 0 0.050764695011206777 0.20916964222725651 0 0.039960986899899173 0.22780444499479169 0 0.061514006406540499 0.23071042489022231 0 0.061514006406540499 0.23071042489022231 0 0.056046126259945157 0.25263236173372139 0 0.061514006406540499 0.23071042489022231 0 0.056046126259945157 0.25263236173372139 0 0.067905867336300579 0.25358800162702 0 0.061514006406540499 0.23071042489022231 0 0.045472231705318063 0.24424317023843681 0 0.056046126259945157 0.25263236173372139 0 0.025149977659741599 0.24684982625080901 0 0.039960986899899173 0.22780444499479169 0 0.045472231705318063 0.24424317023843681 0 0.092857250133516089 0.24175825718487831 0 0.078525547080241467 0.2465942846531784 0 0.093798877441032588 0.2579700649065903 0 0.092857250133516089 0.24175825718487831 0 0.078525547080241467 0.2465942846531784 0 0.081986142109724491 0.22560265144644431 0 0.061514006406540499 0.23071042489022231 0 0.078525547080241467 0.2465942846531784 0 0.067905867336300579 0.25358800162702 0 0.061514006406540499 0.23071042489022231 0 0.078525547080241467 0.2465942846531784 0 0.081986142109724491 0.22560265144644431 0 0.061514006406540499 0.23071042489022231 0 0.081986142109724491 0.22560265144644431 0 0.066981886553135278 0.20878848804672309 0 0.061514006406540499 0.23071042489022231 0 0.066981886553135278 0.20878848804672309 0 0.081986142109724491 0.22560265144644431 0 0.09236794217301933 0.20819183719001669 0 0.066981886553135278 0.20878848804672309 0 0.09236794217301933 0.20819183719001669 0 0.066981886553135278 0.20878848804672309 0 0.09236794217301933 0.20819183719001669 0 0.066981886553135278 0.20878848804672309 0 0.071445073857882777 0.19089458628000441 0 0.060802696405823108 0.1787365445376432 0 0.05849467095877426 0.1965416733816682 0 0.071445073857882777 0.19089458628000441 0 0.066981886553135278 0.20878848804672309 0 0.071445073857882777 0.19089458628000441 0 0.05849467095877426 0.1965416733816682 0 0.066981886553135278 0.20878848804672309 0 0.071445073857882777 0.19089458628000441 0 0.09236794217301933 0.20819183719001669 0 0.071445073857882777 0.19089458628000441 0 0.086464584236575506 0.1862285865309723 0 0.09236794217301933 0.20819183719001669 0 0.086464584236575506 0.1862285865309723 0 0.1023855527362314 0.18749689463882899 0 0.09236794217301933 0.20819183719001669 0 0.11775399779290339 0.20759518633331239 0 0.1023855527362314 0.18749689463882899 0 0.11775399779290339 0.20759518633331239 0 0.1023855527362314 0.18749689463882899 0 0.12550986450034471 0.186594373040398 0 0.09236794217301933 0.20819183719001669 0 0.11775399779290339 0.20759518633331239 0 0.09236794217301933 0.20819183719001669 0 0.11775399779290339 0.20759518633331239 0 0.10906069526472741 0.22998953009969161 0 0.092857250133516089 0.24175825718487831 0 0.081986142109724491 0.22560265144644431 0 0.10906069526472741 0.22998953009969161 0 0.081986142109724491 0.22560265144644431 0 0.09236794217301933 0.20819183719001669 0 0.10906069526472741 0.22998953009969161 0 0.11775399779290339 0.20759518633331239 0 0.10906069526472741 0.22998953009969161 0 0.1382648444377183 0.22719855966067881 0 0.10906069526472741 0.22998953009969161 0 0.12787711237058769 0.24521089126939841 0 0.1100607559553454 0.25396994184181759 0 0.092857250133516089 0.24175825718487831 0 0.10906069526472741 0.22998953009969161 0 0.1100607559553454 0.25396994184181759 0 0.081151633673542972 0.15313158297098389 0 0.083920606388658545 0.14050817004821939 0 0.0975697549496468 0.15575304468134629 0 0.081151633673542972 0.15313158297098389 0 0.083920606388658545 0.14050817004821939 0 0.071387777285217918 0.15212681924726251 0 0.074154959480044275 0.1204842858357125 0 0.087075880893963842 0.12621803440601359 0 0.083920606388658545 0.14050817004821939 0 0.087075880893963842 0.12621803440601359 0 0.083920606388658545 0.14050817004821939 0 0.097906888154765004 0.1362305538396491 0 0.062159468211553673 0.13737243366585769 0 0.061109117960118017 0.12720913792676911 0 0.083920606388658545 0.14050817004821939 0 0.074154959480044275 0.1204842858357125 0 0.061109117960118017 0.12720913792676911 0 0.083920606388658545 0.14050817004821939 0 0.061109117960118017 0.12720913792676911 0 0.083920606388658545 0.14050817004821939 0 0.062159468211553673 0.13737243366585769 0 0.083920606388658545 0.14050817004821939 0 0.069449382678632612 0.1443580261181665 0 0.060329678829100349 0.1474246815113264 0 0.062159468211553673 0.13737243366585769 0 0.069449382678632612 0.1443580261181665 0 0.060329678829100349 0.1474246815113264 0 0.069449382678632612 0.1443580261181665 0 0.071387777285217918 0.15212681924726251 0 0.083920606388658545 0.14050817004821939 0 0.069449382678632612 0.1443580261181665 0 0.071387777285217918 0.15212681924726251 0 0.059657673584757237 0.15824269734654939 0 0.060329678829100349 0.1474246815113264 0 0.071387777285217918 0.15212681924726251 0 0.059657673584757237 0.15824269734654939 0 0.071387777285217918 0.15212681924726251 0 0.071728396070648653 0.1641382979071076 0 0.081151633673542972 0.15313158297098389 0 0.071387777285217918 0.15212681924726251 0 0.071728396070648653 0.1641382979071076 0 0.071445073857882777 0.19089458628000441 0 0.075908261162629706 0.17300068451328551 0 0.086464584236575506 0.1862285865309723 0 0.060802696405823108 0.1787365445376432 0 0.071445073857882777 0.19089458628000441 0 0.075908261162629706 0.17300068451328551 0 0.071445073857882777 0.19089458628000441 0 0.075908261162629706 0.17300068451328551 0 0.060802696405823108 0.1787365445376432 0 0.071728396070648653 0.1641382979071076 0 0.075908261162629706 0.17300068451328551 0 0.086464584236575506 0.1862285865309723 0 0.090216091253114361 0.17155893003272579 0 0.1023855527362314 0.18749689463882899 0 0.075908261162629706 0.17300068451328551 0 0.086464584236575506 0.1862285865309723 0 0.090216091253114361 0.17155893003272579 0 0.081151633673542972 0.15313158297098389 0 0.071728396070648653 0.1641382979071076 0 0.0975697549496468 0.15575304468134629 0 0.071728396070648653 0.1641382979071076 0 0.090216091253114361 0.17155893003272579 0 0.0975697549496468 0.15575304468134629 0 0.071728396070648653 0.1641382979071076 0 0.075908261162629706 0.17300068451328551 0 0.090216091253114361 0.17155893003272579 0 0.071728396070648653 0.1641382979071076 0 0.0975697549496468 0.15575304468134629 0 0.090216091253114361 0.17155893003272579 0 0.1064810698159025 0.16893633516972181 0 0.0975697549496468 0.15575304468134629 0 0.1064810698159025 0.16893633516972181 0 0.1067320948171991 0.1538072021696697 0 0.0975697549496468 0.15575304468134629 0 0.090216091253114361 0.17155893003272579 0 0.1064810698159025 0.16893633516972181 0 0.1023855527362314 0.18749689463882899 0 0.1064810698159025 0.16893633516972181 0 0.12954358324573961 0.16710623429112001 0 0.12550986450034471 0.186594373040398 0 0.1064810698159025 0.16893633516972181 0 0.1023855527362314 0.18749689463882899 0 0.12550986450034471 0.186594373040398 0 0.1064810698159025 0.16893633516972181 0 0.1067320948171991 0.1538072021696697 0 0.12954358324573961 0.16710623429112001 0 0.1067320948171991 0.1538072021696697 0 0.1262856736452258 0.1537478882528979 0 0.12954358324573961 0.16710623429112001 0 0.1067320948171991 0.1538072021696697 0 0.12954358324573961 0.16710623429112001 0 0.1148569119608701 0.14824987142416859 0 0.1067320948171991 0.1538072021696697 0 0.1262856736452258 0.1537478882528979 0 0.118317888191051 0.14254191757659121 0 0.1148569119608701 0.14824987142416859 0 0.1262856736452258 0.1537478882528979 0 0.118317888191051 0.14254191757659121 0 0.12756241452120801 0.13893694775055651 0 0.1262856736452258 0.1537478882528979 0 0.1148569119608701 0.14824987142416859 0 0.1067320948171991 0.1538072021696697 0 0.1080919911900045 0.14290247769751591 0 0.118317888191051 0.14254191757659121 0 0.1148569119608701 0.14824987142416859 0 0.1080919911900045 0.14290247769751591 0 0.083920606388658545 0.14050817004821939 0 0.1067320948171991 0.1538072021696697 0 0.1067320948171991 0.1538072021696697 0 0.1080919911900045 0.14290247769751591 0 0.097906888154765004 0.1362305538396491 0 0.083920606388658545 0.14050817004821939 0 0.1067320948171991 0.1538072021696697 0 0.097906888154765004 0.1362305538396491 0 0.083920606388658545 0.14050817004821939 0 0.1067320948171991 0.1538072021696697 0 0.0975697549496468 0.15575304468134629 0 0.096984900528893664 0.1212489081817222 0 0.097906888154765004 0.1362305538396491 0 0.10589272808503949 0.13156516273042271 0 0.096984900528893664 0.1212489081817222 0 0.087075880893963842 0.12621803440601359 0 0.097906888154765004 0.1362305538396491 0 0.1080919911900045 0.14290247769751591 0 0.097906888154765004 0.1362305538396491 0 0.10589272808503949 0.13156516273042271 0 0.1080919911900045 0.14290247769751591 0 0.10589272808503949 0.13156516273042271 0 0.11327312463209829 0.13597294690712769 0 0.10712684862241641 0.1210429748963526 0 0.10589272808503949 0.13156516273042271 0 0.114987521205969 0.1268010028982309 0 0.10589272808503949 0.13156516273042271 0 0.114987521205969 0.1268010028982309 0 0.11327312463209829 0.13597294690712769 0 0.114987521205969 0.1268010028982309 0 0.11327312463209829 0.13597294690712769 0 0.1203000125167645 0.13336293759413789 0 0.118317888191051 0.14254191757659121 0 0.1080919911900045 0.14290247769751591 0 0.11327312463209829 0.13597294690712769 0 0.118317888191051 0.14254191757659121 0 0.1203000125167645 0.13336293759413789 0 0.12756241452120801 0.13893694775055651 0 0.118317888191051 0.14254191757659121 0 0.11327312463209829 0.13597294690712769 0 0.1203000125167645 0.13336293759413789 0 0.12212988809696081 0.1249307776834532 0 0.114987521205969 0.1268010028982309 0 0.1203000125167645 0.13336293759413789 0 0.12212988809696081 0.1249307776834532 0 0.1203000125167645 0.13336293759413789 0 0.12788127083107459 0.1291064789800366 0 0.12788127083107459 0.1291064789800366 0 0.13409394305489639 0.1257339851238449 0 0.12813823657366311 0.12049833089676459 0 0.12788127083107459 0.1291064789800366 0 0.13410827310584911 0.13282331674432049 0 0.13409394305489639 0.1257339851238449 0 0.12788127083107459 0.1291064789800366 0 0.12756241452120801 0.13893694775055651 0 0.13410827310584911 0.13282331674432049 0 0.1203000125167645 0.13336293759413789 0 0.12788127083107459 0.1291064789800366 0 0.12756241452120801 0.13893694775055651 0 0.13410827310584911 0.13282331674432049 0 0.14295710802469111 0.12768772724150559 0 0.13848136883728299 0.14203914735535511 0 0.12756241452120801 0.13893694775055651 0 0.13410827310584911 0.13282331674432049 0 0.13848136883728299 0.14203914735535511 0 0.13410827310584911 0.13282331674432049 0 0.13409394305489639 0.1257339851238449 0 0.14295710802469111 0.12768772724150559 0 0.14295710802469111 0.12768772724150559 0 0.15698787762036359 0.14007723406829989 0 0.15364605026385231 0.1227496740475859 0 0.14295710802469111 0.12768772724150559 0 0.13848136883728299 0.14203914735535511 0 0.15698787762036359 0.14007723406829989 0 0.13848136883728299 0.14203914735535511 0 0.1441447949138806 0.1573716891147208 0 0.15698787762036359 0.14007723406829989 0 0.1441447949138806 0.1573716891147208 0 0.1598153361361678 0.15982657838785511 0 0.15698787762036359 0.14007723406829989 0 0.13848136883728299 0.14203914735535511 0 0.1262856736452258 0.1537478882528979 0 0.1441447949138806 0.1573716891147208 0 0.12756241452120801 0.13893694775055651 0 0.13848136883728299 0.14203914735535511 0 0.1262856736452258 0.1537478882528979 0 0.1262856736452258 0.1537478882528979 0 0.12954358324573961 0.16710623429112001 0 0.1441447949138806 0.1573716891147208 0 0.12954358324573961 0.16710623429112001 0 0.12550986450034471 0.186594373040398 0 0.15375492999850379 0.1814330523327968 0 0.12954358324573961 0.16710623429112001 0 0.15375492999850379 0.1814330523327968 0 0.1441447949138806 0.1573716891147208 0 0.15375492999850379 0.1814330523327968 0 0.1441447949138806 0.1573716891147208 0 0.1598153361361678 0.15982657838785511 0 0.1598153361361678 0.15982657838785511 0 0.17205847002769489 0.1711246398383999 0 0.17247097746626519 0.1464629757798975 0 0.15375492999850379 0.1814330523327968 0 0.1598153361361678 0.15982657838785511 0 0.17205847002769489 0.1711246398383999 0 0.15375492999850379 0.1814330523327968 0 0.17205847002769489 0.1711246398383999 0 0.18411838942066619 0.18828130780555291 0 0.17205847002769489 0.1711246398383999 0 0.18411838942066619 0.18828130780555291 0 0.19050902449260759 0.164433536692701 0 0.17205847002769489 0.1711246398383999 0 0.17247097746626519 0.1464629757798975 0 0.19050902449260759 0.164433536692701 0 0.17247097746626519 0.1464629757798975 0 0.1903693880120208 0.14015559280000461 0 0.19050902449260759 0.164433536692701 0 0.17247097746626519 0.1464629757798975 0 0.18002451345814399 0.12716596121819479 0 0.1903693880120208 0.14015559280000461 0 0.17247097746626519 0.1464629757798975 0 0.18002451345814399 0.12716596121819479 0 0.16417220099380411 0.12505127510387981 0 0.15698787762036359 0.14007723406829989 0 0.16417220099380411 0.12505127510387981 0 0.15364605026385231 0.1227496740475859 0 0.17247097746626519 0.1464629757798975 0 0.15698787762036359 0.14007723406829989 0 0.16417220099380411 0.12505127510387981 0 0.1598153361361678 0.15982657838785511 0 0.17247097746626519 0.1464629757798975 0 0.15698787762036359 0.14007723406829989 0 0.14702044576598061 0.2478904659134552 0 0.1382648444377183 0.22719855966067881 0 0.15828943790025421 0.22969507774947781 0 0.14702044576598061 0.2478904659134552 0 0.12787711237058769 0.24521089126939841 0 0.1382648444377183 0.22719855966067881 0 0.10906069526472741 0.22998953009969161 0 0.12787711237058769 0.24521089126939841 0 0.1382648444377183 0.22719855966067881 0 0.1382648444377183 0.22719855966067881 0 0.14314005341278749 0.20699853547660821 0 0.15828943790025421 0.22969507774947781 0 0.14314005341278749 0.20699853547660821 0 0.16852610903267151 0.206401884619904 0 0.11775399779290339 0.20759518633331239 0 0.1382648444377183 0.22719855966067881 0 0.14314005341278749 0.20699853547660821 0 0.11775399779290339 0.20759518633331239 0 0.14314005341278749 0.20699853547660821 0 0.11775399779290339 0.20759518633331239 0 0.12550986450034471 0.186594373040398 0 0.14314005341278749 0.20699853547660821 0 0.15375492999850379 0.1814330523327968 0 0.14314005341278749 0.20699853547660821 0 0.16852610903267151 0.206401884619904 0 0.12550986450034471 0.186594373040398 0 0.15375492999850379 0.1814330523327968 0 0.14314005341278749 0.20699853547660821 0 0.15375492999850379 0.1814330523327968 0 0.18411838942066619 0.18828130780555291 0 0.16852610903267151 0.206401884619904 0 0.18411838942066619 0.18828130780555291 0 0.16852610903267151 0.206401884619904 0 0.1878214256448299 0.20672411698152671 0 0.16852610903267151 0.206401884619904 0 0.17766068788986381 0.23020170431202469 0 0.1878214256448299 0.20672411698152671 0 0.14314005341278749 0.20699853547660821 0 0.16852610903267151 0.206401884619904 0 0.15828943790025421 0.22969507774947781 0 0.16852610903267151 0.206401884619904 0 0.15828943790025421 0.22969507774947781 0 0.17766068788986381 0.23020170431202469 0 0.17766068788986381 0.23020170431202469 0 0.19353513124668931 0.22246748781277501 0 0.1878214256448299 0.20672411698152671 0 0.17766068788986381 0.23020170431202469 0 0.18692125413578081 0.24552837502103991 0 0.19379669244916639 0.23440003217329089 0 0.17766068788986381 0.23020170431202469 0 0.18692125413578081 0.24552837502103991 0 0.16774616909827719 0.2460930353984315 0 0.15828943790025421 0.22969507774947781 0 0.17766068788986381 0.23020170431202469 0 0.16774616909827719 0.2460930353984315 0 0.14702044576598061 0.2478904659134552 0 0.15828943790025421 0.22969507774947781 0 0.16774616909827719 0.2460930353984315 0 0.21557305570370441 0.24515722135805329 0 0.2029257889591993 0.24295866219667439 0 0.23007231546290949 0.2334513308517342 0 0.2029257889591993 0.24295866219667439 0 0.23007231546290949 0.2334513308517342 0 0.21557305570370441 0.24515722135805329 0 0.2029257889591993 0.24295866219667439 0 0.20107379594449931 0.25686311186437227 0 0.18692125413578081 0.24552837502103991 0 0.2029257889591993 0.24295866219667439 0 0.20107379594449931 0.25686311186437227 0 0.18692125413578081 0.24552837502103991 0 0.19379669244916639 0.23440003217329089 0 0.2029257889591993 0.24295866219667439 0 0.17766068788986381 0.23020170431202469 0 0.19379669244916639 0.23440003217329089 0 0.19353513124668931 0.22246748781277501 0 0.19379669244916639 0.23440003217329089 0 0.2029257889591993 0.24295866219667439 0 0.20920449219815451 0.22515354045629349 0 0.19379669244916639 0.23440003217329089 0 0.19353513124668931 0.22246748781277501 0 0.20920449219815451 0.22515354045629349 0 0.2029257889591993 0.24295866219667439 0 0.20920449219815451 0.22515354045629349 0 0.23007231546290949 0.2334513308517342 0 0.19353513124668931 0.22246748781277501 0 0.20920449219815451 0.22515354045629349 0 0.20732414099141369 0.20672295990195361 0 0.20920449219815451 0.22515354045629349 0 0.20732414099141369 0.20672295990195361 0 0.22783619495118521 0.20973527166224001 0 0.19353513124668931 0.22246748781277501 0 0.20732414099141369 0.20672295990195361 0 0.1878214256448299 0.20672411698152671 0 0.18411838942066619 0.18828130780555291 0 0.1878214256448299 0.20672411698152671 0 0.20343121377691101 0.18825927067945539 0 0.20732414099141369 0.20672295990195361 0 0.1878214256448299 0.20672411698152671 0 0.20343121377691101 0.18825927067945539 0 0.20732414099141369 0.20672295990195361 0 0.20343121377691101 0.18825927067945539 0 0.2219787971027708 0.18678942035429349 0 0.20732414099141369 0.20672295990195361 0 0.22783619495118521 0.20973527166224001 0 0.2219787971027708 0.18678942035429349 0 0.24528107816237801 0.1907036486386274 0 0.22783619495118521 0.20973527166224001 0 0.2219787971027708 0.18678942035429349 0 0.24528107816237801 0.1907036486386274 0 0.25242827713160498 0.21540237912569379 0 0.24528107816237801 0.1907036486386274 0 0.22783619495118521 0.20973527166224001 0 0.25242827713160498 0.21540237912569379 0 0.20920449219815451 0.22515354045629349 0 0.22783619495118521 0.20973527166224001 0 0.23007231546290949 0.2334513308517342 0 0.23007231546290949 0.2334513308517342 0 0.25242827713160498 0.21540237912569379 0 0.23007231546290949 0.2334513308517342 0 0.25511338863332461 0.22468137717712711 0 0.25242827713160498 0.21540237912569379 0 0.23007231546290949 0.2334513308517342 0 0.25511338863332461 0.22468137717712711 0 0.23007231546290949 0.2334513308517342 0 0.2457442494512444 0.24022391879071339 0 0.25511338863332461 0.22468137717712711 0 0.22783619495118521 0.20973527166224001 0 0.23007231546290949 0.2334513308517342 0 0.25242827713160498 0.21540237912569379 0 0.2457442494512444 0.24022391879071339 0 0.23628031136540401 0.25597328662156199 0 0.26221447651104962 0.2479993693513689 0 0.23007231546290949 0.2334513308517342 0 0.2457442494512444 0.24022391879071339 0 0.23628031136540401 0.25597328662156199 0 0.21557305570370441 0.24515722135805329 0 0.23007231546290949 0.2334513308517342 0 0.23628031136540401 0.25597328662156199 0 0.21557305570370441 0.24515722135805329 0 0.23007231546290949 0.2334513308517342 0 0.21023583046185859 0.14706018503428281 0 0.22521494488481819 0.12557893006429149 0 0.2001236667938262 0.1180422718546187 0 0.18002451345814399 0.12716596121819479 0 0.1903693880120208 0.14015559280000461 0 0.2001236667938262 0.1180422718546187 0 0.21023583046185859 0.14706018503428281 0 0.1903693880120208 0.14015559280000461 0 0.2001236667938262 0.1180422718546187 0 0.21023583046185859 0.14706018503428281 0 0.1903693880120208 0.14015559280000461 0 0.19050902449260759 0.164433536692701 0 0.18411838942066619 0.18828130780555291 0 0.20343121377691101 0.18825927067945539 0 0.19050902449260759 0.164433536692701 0 0.20343121377691101 0.18825927067945539 0 0.19050902449260759 0.164433536692701 0 0.20962662881846919 0.1707346457134423 0 0.20343121377691101 0.18825927067945539 0 0.20962662881846919 0.1707346457134423 0 0.2219787971027708 0.18678942035429349 0 0.21023583046185859 0.14706018503428281 0 0.20962662881846919 0.1707346457134423 0 0.2254160648188453 0.164078398330023 0 0.21023583046185859 0.14706018503428281 0 0.19050902449260759 0.164433536692701 0 0.20962662881846919 0.1707346457134423 0 0.20962662881846919 0.1707346457134423 0 0.2254160648188453 0.164078398330023 0 0.2219787971027708 0.18678942035429349 0 0.2254160648188453 0.164078398330023 0 0.2219787971027708 0.18678942035429349 0 0.23714843650665229 0.1758398884969993 0 0.24528107816237801 0.1907036486386274 0 0.2219787971027708 0.18678942035429349 0 0.23714843650665229 0.1758398884969993 0 0.24528107816237801 0.1907036486386274 0 0.23714843650665229 0.1758398884969993 0 0.25292738168467233 0.17649485219682931 0 0.2254160648188453 0.164078398330023 0 0.24653130607993951 0.16237692388552691 0 0.23688534306575301 0.1458043597726891 0 0.23714843650665229 0.1758398884969993 0 0.24653130607993951 0.16237692388552691 0 0.25292738168467233 0.17649485219682931 0 0.2254160648188453 0.164078398330023 0 0.23714843650665229 0.1758398884969993 0 0.24653130607993951 0.16237692388552691 0 0.24653130607993951 0.16237692388552691 0 0.2496536413094039 0.15044712256699261 0 0.23688534306575301 0.1458043597726891 0 0.2496536413094039 0.15044712256699261 0 0.23688534306575301 0.1458043597726891 0 0.25004344172447263 0.14019424959050239 0 0.21023583046185859 0.14706018503428281 0 0.2254160648188453 0.164078398330023 0 0.23688534306575301 0.1458043597726891 0 0.21023583046185859 0.14706018503428281 0 0.23688534306575301 0.1458043597726891 0 0.22521494488481819 0.12557893006429149 0 0.22521494488481819 0.12557893006429149 0 0.25030622297580962 0.13311558827396619 0 0.23688534306575301 0.1458043597726891 0 0.22521494488481819 0.12557893006429149 0 0.25030622297580962 0.13311558827396619 0 0.23688534306575301 0.1458043597726891 0 0.25004344172447263 0.14019424959050239 0 0.25030622297580962 0.13311558827396619 0 0.22521494488481819 0.12557893006429149 0 0.2369469616243938 0.1144798656387125 0 0.25030622297580962 0.13311558827396619 0 0.2369469616243938 0.1144798656387125 0 0.25094552198087999 0.11589449234768209 0 0.25030622297580962 0.13311558827396619 0 0.2369469616243938 0.1144798656387125 0 0.25158482098595109 0.098673396421397969 0 0.25094552198087999 0.11589449234768209 0 0.2369469616243938 0.1144798656387125 0 0.2308580048349978 0.09939168424622695 0 0.25158482098595109 0.098673396421397969 0 0.2308580048349978 0.09939168424622695 0 0.2177667053289645 0.10879872465146249 0 0.21723881235993189 0.092441087960636145 0 0.2369469616243938 0.1144798656387125 0 0.2308580048349978 0.09939168424622695 0 0.2177667053289645 0.10879872465146249 0 0.22521494488481819 0.12557893006429149 0 0.2369469616243938 0.1144798656387125 0 0.2177667053289645 0.10879872465146249 0 0.2177667053289645 0.10879872465146249 0 0.1970849337058638 0.1019164286603922 0 0.2001236667938262 0.1180422718546187 0 0.22521494488481819 0.12557893006429149 0 0.2177667053289645 0.10879872465146249 0 0.2001236667938262 0.1180422718546187 0 0.22521494488481819 0.12557893006429149 0 0.2001236667938262 0.1180422718546187 0 0.1970849337058638 0.1019164286603922 0 0.20420713705815571 0.090978010823124941 0 0.21723881235993189 0.092441087960636145 0 0.1970849337058638 0.1019164286603922 0 0.21723881235993189 0.092441087960636145 0 0.2177667053289645 0.10879872465146249 0 0.1970849337058638 0.1019164286603922 0 0.21723881235993189 0.092441087960636145 0 0.1970849337058638 0.1019164286603922 0 0.1916307843626972 0.08827444688259839 0 0.17503238870283441 0.11050561364494491 0 0.2001236667938262 0.1180422718546187 0 0.17503238870283441 0.11050561364494491 0 0.1970849337058638 0.1019164286603922 0 0.2001236667938262 0.1180422718546187 0 0.17503238870283441 0.11050561364494491 0 0.1916307843626972 0.08827444688259839 0 0.2082291800225603 0.066043280120252124 0 0.19067723801237901 0.065525043857756982 0 0.1916307843626972 0.08827444688259839 0 0.2082291800225603 0.066043280120252124 0 0.1916307843626972 0.08827444688259839 0 0.21087401780412959 0.081280079788873041 0 0.20420713705815571 0.090978010823124941 0 0.1970849337058638 0.1019164286603922 0 0.1916307843626972 0.08827444688259839 0 0.20420713705815571 0.090978010823124941 0 0.1916307843626972 0.08827444688259839 0 0.21087401780412959 0.081280079788873041 0 0.2082291800225603 0.066043280120252124 0 0.21087401780412959 0.081280079788873041 0 0.20420713705815571 0.090978010823124941 0 0.21723881235993189 0.092441087960636145 0 0.21087401780412959 0.081280079788873041 0 0.21723881235993189 0.092441087960636145 0 0.22613356481757629 0.0775902723280468 0 0.21087401780412959 0.081280079788873041 0 0.2082291800225603 0.066043280120252124 0 0.22613356481757629 0.0775902723280468 0 0.2082291800225603 0.066043280120252124 0 0.22613356481757629 0.0775902723280468 0 0.2082291800225603 0.066043280120252124 0 0.2259496113806885 0.070300708218039992 0 0.21450653174737461 0.057635669175196122 0 0.2259496113806885 0.070300708218039992 0 0.21450653174737461 0.057635669175196122 0 0.2082291800225603 0.066043280120252124 0 0.2259496113806885 0.070300708218039992 0 0.22613356481757629 0.0775902723280468 0 0.2259496113806885 0.070300708218039992 0 0.2248665156508784 0.061611733455129589 0 0.21450653174737461 0.057635669175196122 0 0.2259496113806885 0.070300708218039992 0 0.22613356481757629 0.0775902723280468 0 0.23739269101400209 0.082965747260884265 0 0.2259496113806885 0.070300708218039992 0 0.23739269101400209 0.082965747260884265 0 0.237967452106535 0.070105640596903412 0 0.2259496113806885 0.070300708218039992 0 0.23739269101400209 0.082965747260884265 0 0.2259496113806885 0.070300708218039992 0 0.2330718446673557 0.064441819436705627 0 0.2248665156508784 0.061611733455129589 0 0.2259496113806885 0.070300708218039992 0 0.2330718446673557 0.064441819436705627 0 0.237967452106535 0.070105640596903412 0 0.2308580048349978 0.09939168424622695 0 0.21723881235993189 0.092441087960636145 0 0.23739269101400209 0.082965747260884265 0 0.21723881235993189 0.092441087960636145 0 0.22613356481757629 0.0775902723280468 0 0.23739269101400209 0.082965747260884265 0 0.21723881235993189 0.092441087960636145 0 0.23739269101400209 0.082965747260884265 0 0.23739269101400209 0.082965747260884265 0 0.25158482098595109 0.098673396421397969 0 0.23739269101400209 0.082965747260884265 0 0.25243039498113262 0.075895774732197205 0 0.25158482098595109 0.098673396421397969 0 0.2308580048349978 0.09939168424622695 0 0.23739269101400209 0.082965747260884265 0 0.25158482098595109 0.098673396421397969 0 0.23739269101400209 0.082965747260884265 0 0.25243039498113262 0.075895774732197205 0 0.23934469018649959 0.064583282500140851 0 0.237967452106535 0.070105640596903412 0 0.24496427956833819 0.066036472520138348 0 0.2330718446673557 0.064441819436705627 0 0.23934469018649959 0.064583282500140851 0 0.2376257901407148 0.059976102198904507 0 0.2330718446673557 0.064441819436705627 0 0.23934469018649959 0.064583282500140851 0 0.237967452106535 0.070105640596903412 0 0.23739269101400209 0.082965747260884265 0 0.237967452106535 0.070105640596903412 0 0.24429048066179679 0.072622021298478806 0 0.24429048066179679 0.072622021298478806 0 0.24842415088314279 0.069033451464499671 0 0.25243039498113262 0.075895774732197205 0 0.23739269101400209 0.082965747260884265 0 0.24429048066179679 0.072622021298478806 0 0.25243039498113262 0.075895774732197205 0 0.24842415088314279 0.069033451464499671 0 0.24853219730195361 0.063845178725116872 0 0.25274476311700622 0.067427493409812952 0 0.237967452106535 0.070105640596903412 0 0.24429048066179679 0.072622021298478806 0 0.24496427956833819 0.066036472520138348 0 0.24429048066179679 0.072622021298478806 0 0.24842415088314279 0.069033451464499671 0 0.24496427956833819 0.066036472520138348 0 0.23934469018649959 0.064583282500140851 0 0.24496427956833819 0.066036472520138348 0 0.24309408444955441 0.062356377748052388 0 0.24496427956833819 0.066036472520138348 0 0.24602681454492631 0.062964227281045088 0 0.24309408444955441 0.062356377748052388 0 0.24496427956833819 0.066036472520138348 0 0.24602681454492631 0.062964227281045088 0 0.24853219730195361 0.063845178725116872 0 0.24842415088314279 0.069033451464499671 0 0.24496427956833819 0.066036472520138348 0 0.24853219730195361 0.063845178725116872 0 0.24751669685985911 0.059618880130872708 0 0.24309408444955441 0.062356377748052388 0 0.2376257901407148 0.059976102198904507 0 0.24751669685985911 0.059618880130872708 0 0.24426241142214139 0.049994713685017962 0 0.2310385276818335 0.053106641608170198 0 0.24751669685985911 0.059618880130872708 0 0.2376257901407148 0.059976102198904507 0 0.2310385276818335 0.053106641608170198 0 0.24751669685985911 0.059618880130872708 0 0.2310385276818335 0.053106641608170198 0 0.24853219730195361 0.063845178725116872 0 0.24751669685985911 0.059618880130872708 0 0.2530174900015254 0.0600809219264858 0 0.24602681454492631 0.062964227281045088 0 0.24853219730195361 0.063845178725116872 0 0.24751669685985911 0.059618880130872708 0 0.24602681454492631 0.062964227281045088 0 0.24751669685985911 0.059618880130872708 0 0.24309408444955441 0.062356377748052388 0 0.23934469018649959 0.064583282500140851 0 0.24309408444955441 0.062356377748052388 0 0.2376257901407148 0.059976102198904507 0 0.24426241142214139 0.049994713685017962 0 0.23928634064401511 0.040096757013566242 0 0.2310385276818335 0.053106641608170198 0 0.24751669685985911 0.059618880130872708 0 0.24426241142214139 0.049994713685017962 0 0.25102243244437311 0.053297338652025752 0 0.24426241142214139 0.049994713685017962 0 0.25174039047255609 0.044464402284776217 0 0.25102243244437311 0.053297338652025752 0 0.23928634064401511 0.040096757013566242 0 0.2320502206633881 0.021165953515508481 0 0.25044211127373811 0.032849993626191502 0 0.23928634064401511 0.040096757013566242 0 0.25044211127373811 0.032849993626191502 0 0.25174039047255609 0.044464402284776217 0 0.24426241142214139 0.049994713685017962 0 0.23928634064401511 0.040096757013566242 0 0.25174039047255609 0.044464402284776217 0 0.22618438235043381 0.038998837361733103 0 0.2320502206633881 0.021165953515508481 0 0.20963369093729961 0.03941564640516447 0 0.23928634064401511 0.040096757013566242 0 0.22618438235043381 0.038998837361733103 0 0.2320502206633881 0.021165953515508481 0 0.22618438235043381 0.038998837361733103 0 0.2310385276818335 0.053106641608170198 0 0.21456035850380811 0.046594403085467223 0 0.23928634064401511 0.040096757013566242 0 0.22618438235043381 0.038998837361733103 0 0.2310385276818335 0.053106641608170198 0 0.2310385276818335 0.053106641608170198 0 0.21456035850380811 0.046594403085467223 0 0.2248665156508784 0.061611733455129589 0 0.2310385276818335 0.053106641608170198 0 0.21456035850380811 0.046594403085467223 0 0.2248665156508784 0.061611733455129589 0 0.21456035850380811 0.046594403085467223 0 0.2330718446673557 0.064441819436705627 0 0.2248665156508784 0.061611733455129589 0 0.23150027442910881 0.059501590197602497 0 0.2248665156508784 0.061611733455129589 0 0.23150027442910881 0.059501590197602497 0 0.2310385276818335 0.053106641608170198 0 0.2330718446673557 0.064441819436705627 0 0.2376257901407148 0.059976102198904507 0 0.23150027442910881 0.059501590197602497 0 0.2376257901407148 0.059976102198904507 0 0.23150027442910881 0.059501590197602497 0 0.2310385276818335 0.053106641608170198 0 0.2320502206633881 0.021165953515508481 0 0.22999165343287109 0.0038227322559807589 0 0.25446675038947358 0.0029162606258486688 0 0.2320502206633881 0.021165953515508481 0 0.2600935707136679 0.019574361616358959 0 0.25446675038947358 0.0029162606258486688 0 0.22999165343287109 0.0038227322559807589 0 0.25446675038947358 0.0029162606258486688 0 0.24138147174972829 -0.0061427828714447699 0 0.2320502206633881 0.021165953515508481 0 0.25446675038947358 0.0029162606258486688 0 0.2320502206633881 0.021165953515508481 0 0.2600935707136679 0.019574361616358959 0 0.25044211127373811 0.032849993626191502 0 0.2320502206633881 0.021165953515508481 0 0.20963369093729961 0.03941564640516447 0 0.22999165343287109 0.0038227322559807589 0 0.21340461703840111 0.0096506044731711187 0 0.21351355446813719 -0.0021103410187178909 0 0.2320502206633881 0.021165953515508481 0 0.22999165343287109 0.0038227322559807589 0 0.21340461703840111 0.0096506044731711187 0 0.21340461703840111 0.0096506044731711187 0 0.1998105265397013 0.00335350757378736 0 0.21351355446813719 -0.0021103410187178909 0 0.21340461703840111 0.0096506044731711187 0 0.20371525389429951 0.01279949030761077 0 0.2082588668535221 0.02245160931237615 0 0.21340461703840111 0.0096506044731711187 0 0.20371525389429951 0.01279949030761077 0 0.1998105265397013 0.00335350757378736 0 0.2320502206633881 0.021165953515508481 0 0.2082588668535221 0.02245160931237615 0 0.20963369093729961 0.03941564640516447 0 0.2320502206633881 0.021165953515508481 0 0.21340461703840111 0.0096506044731711187 0 0.2082588668535221 0.02245160931237615 0 0.2082588668535221 0.02245160931237615 0 0.19338700514557339 0.015742239871108451 0 0.20963369093729961 0.03941564640516447 0 0.19338700514557339 0.015742239871108451 0 0.1989601287501698 0.040429129743079398 0 0.18048502430789731 0.01998114488410483 0 0.1989601287501698 0.040429129743079398 0 0.18048502430789731 0.01998114488410483 0 0.19338700514557339 0.015742239871108451 0 0.20963369093729961 0.03941564640516447 0 0.20371525389429951 0.01279949030761077 0 0.2082588668535221 0.02245160931237615 0 0.19338700514557339 0.015742239871108451 0 0.19338700514557339 0.015742239871108451 0 0.1998105265397013 0.00335350757378736 0 0.17714031935384769 -0.0079311666629475405 0 0.20371525389429951 0.01279949030761077 0 0.19338700514557339 0.015742239871108451 0 0.1998105265397013 0.00335350757378736 0 0.21450653174737461 0.057635669175196122 0 0.2029561920580818 0.044851916216142339 0 0.21450653174737461 0.057635669175196122 0 0.2029561920580818 0.044851916216142339 0 0.2021088015620611 0.053433964061651712 0 0.21450653174737461 0.057635669175196122 0 0.21456035850380811 0.046594403085467223 0 0.2029561920580818 0.044851916216142339 0 0.2082291800225603 0.066043280120252124 0 0.21450653174737461 0.057635669175196122 0 0.2021088015620611 0.053433964061651712 0 0.2248665156508784 0.061611733455129589 0 0.21450653174737461 0.057635669175196122 0 0.21456035850380811 0.046594403085467223 0 0.2082291800225603 0.066043280120252124 0 0.21450653174737461 0.057635669175196122 0 0.22618438235043381 0.038998837361733103 0 0.21456035850380811 0.046594403085467223 0 0.20963369093729961 0.03941564640516447 0 0.21456035850380811 0.046594403085467223 0 0.20963369093729961 0.03941564640516447 0 0.21456035850380811 0.046594403085467223 0 0.20530753189452691 0.042937648913457381 0 0.2029561920580818 0.044851916216142339 0 0.20963369093729961 0.03941564640516447 0 0.20530753189452691 0.042937648913457381 0 0.1989601287501698 0.040429129743079398 0 0.21456035850380811 0.046594403085467223 0 0.20530753189452691 0.042937648913457381 0 0.21456035850380811 0.046594403085467223 0 0.20963369093729961 0.03941564640516447 0 0.20530753189452691 0.042937648913457381 0 0.20963369093729961 0.03941564640516447 0 0.20530753189452691 0.042937648913457381 0 0.20530753189452691 0.042937648913457381 0 0.2029561920580818 0.044851916216142339 0 0.1989601287501698 0.040429129743079398 0 0.1774654858828027 0.031934360706524292 0 0.2029561920580818 0.044851916216142339 0 0.1989601287501698 0.040429129743079398 0 0.19971656766465989 0.047489351670260083 0 0.1989601287501698 0.040429129743079398 0 0.19133087755196571 0.045131483978966998 0 0.19971656766465989 0.047489351670260083 0 0.2029561920580818 0.044851916216142339 0 0.19971656766465989 0.047489351670260083 0 0.19338700514557339 0.015742239871108451 0 0.20963369093729961 0.03941564640516447 0 0.1989601287501698 0.040429129743079398 0 0.1989601287501698 0.040429129743079398 0 0.19133087755196571 0.045131483978966998 0 0.18298678422305309 0.040980100737508622 0 0.20530753189452691 0.042937648913457381 0 0.2029561920580818 0.044851916216142339 0 0.1989601287501698 0.040429129743079398 0 0.20530753189452691 0.042937648913457381 0 0.1989601287501698 0.040429129743079398 0 0.2029561920580818 0.044851916216142339 0 0.1989601287501698 0.040429129743079398 0 0.2082291800225603 0.066043280120252124 0 0.18513553631762919 0.051149603126408108 0 0.2021088015620611 0.053433964061651712 0 0.19971656766465989 0.047489351670260083 0 0.18513553631762919 0.051149603126408108 0 0.2082291800225603 0.066043280120252124 0 0.2021088015620611 0.053433964061651712 0 0.18513553631762919 0.051149603126408108 0 0.19067723801237901 0.065525043857756982 0 0.2082291800225603 0.066043280120252124 0 0.18513553631762919 0.051149603126408108 0 0.19133087755196571 0.045131483978966998 0 0.19971656766465989 0.047489351670260083 0 0.18513553631762919 0.051149603126408108 0 0.2029561920580818 0.044851916216142339 0 0.2021088015620611 0.053433964061651712 0 0.19971656766465989 0.047489351670260083 0 0.17734631865053521 0.060730067185729229 0 0.18513553631762919 0.051149603126408108 0 0.16725106424272049 0.052894846580172288 0 0.19067723801237901 0.065525043857756982 0 0.17734631865053521 0.060730067185729229 0 0.18513553631762919 0.051149603126408108 0 0.18298678422305309 0.040980100737508622 0 0.1774654858828027 0.031934360706524292 0 0.1620418926126978 0.036255926132564682 0 0.19133087755196571 0.045131483978966998 0 0.18513553631762919 0.051149603126408108 0 0.18298678422305309 0.040980100737508622 0 0.18513553631762919 0.051149603126408108 0 0.18298678422305309 0.040980100737508622 0 0.1620418926126978 0.036255926132564682 0 0.1989601287501698 0.040429129743079398 0 0.18298678422305309 0.040980100737508622 0 0.1774654858828027 0.031934360706524292 0 0.18513553631762919 0.051149603126408108 0 0.1620418926126978 0.036255926132564682 0 0.1620418926126978 0.036255926132564682 0 0.16725106424272049 0.052894846580172288 0 0.15541952745182569 0.04677658384696623 0 0.18513553631762919 0.051149603126408108 0 0.1620418926126978 0.036255926132564682 0 0.16725106424272049 0.052894846580172288 0 0.16725106424272049 0.052894846580172288 0 0.15507694825043991 0.057889849327421902 0 0.15541952745182569 0.04677658384696623 0 0.16725106424272049 0.052894846580172288 0 0.15507694825043991 0.057889849327421902 0 0.1653937448538241 0.067538194789913991 0 0.17734631865053521 0.060730067185729229 0 0.16725106424272049 0.052894846580172288 0 0.1653937448538241 0.067538194789913991 0 0.18048502430789731 0.01998114488410483 0 0.1657030786406338 0.0084270166623369204 0 0.17714031935384769 -0.0079311666629475405 0 0.19338700514557339 0.015742239871108451 0 0.17714031935384769 -0.0079311666629475405 0 0.19338700514557339 0.015742239871108451 0 0.18048502430789731 0.01998114488410483 0 0.17714031935384769 -0.0079311666629475405 0 0.1989601287501698 0.040429129743079398 0 0.1774654858828027 0.031934360706524292 0 0.18048502430789731 0.01998114488410483 0 0.1774654858828027 0.031934360706524292 0 0.18048502430789731 0.01998114488410483 0 0.16935520337559401 0.020657770454092759 0 0.1774654858828027 0.031934360706524292 0 0.15597084301543529 0.02343959166996953 0 0.1774654858828027 0.031934360706524292 0 0.1620418926126978 0.036255926132564682 0 0.15597084301543529 0.02343959166996953 0 0.1774654858828027 0.031934360706524292 0 0.16935520337559401 0.020657770454092759 0 0.15597084301543529 0.02343959166996953 0 0.16935520337559401 0.020657770454092759 0 0.1657030786406338 0.0084270166623369204 0 0.15597084301543529 0.02343959166996953 0 0.18048502430789731 0.01998114488410483 0 0.16935520337559401 0.020657770454092759 0 0.1657030786406338 0.0084270166623369204 0 0.1657030786406338 0.0084270166623369204 0 0.14883794818754281 0.01110572894874149 0 0.15480995508657039 -0.001084596553268768 0 0.1657030786406338 0.0084270166623369204 0 0.14883794818754281 0.01110572894874149 0 0.15597084301543529 0.02343959166996953 0 0.14883794818754281 0.01110572894874149 0 0.13464870039648349 0.00080453217212592717 0 0.15480995508657039 -0.001084596553268768 0 0.14883794818754281 0.01110572894874149 0 0.13894824890776639 0.02136224913872127 0 0.13464870039648349 0.00080453217212592717 0 0.1620418926126978 0.036255926132564682 0 0.13894824890776639 0.02136224913872127 0 0.14883794818754281 0.01110572894874149 0 0.15597084301543529 0.02343959166996953 0 0.13894824890776639 0.02136224913872127 0 0.1620418926126978 0.036255926132564682 0 0.15597084301543529 0.02343959166996953 0 0.13894824890776639 0.02136224913872127 0 0.11961069471150609 0.02296590295220987 0 0.13894824890776639 0.02136224913872127 0 0.12977361784467401 0.039215218793308727 0 0.1158546052028349 0.0064685721448778594 0 0.13894824890776639 0.02136224913872127 0 0.1158546052028349 0.0064685721448778594 0 0.13894824890776639 0.02136224913872127 0 0.13464870039648349 0.00080453217212592717 0 0.14278372382386809 0.048416123664777412 0 0.1428601767931531 0.062084067640591357 0 0.15507694825043991 0.057889849327421902 0 0.14278372382386809 0.048416123664777412 0 0.15507694825043991 0.057889849327421902 0 0.15541952745182569 0.04677658384696623 0 0.1620418926126978 0.036255926132564682 0 0.13894824890776639 0.02136224913872127 0 0.14579340212816641 0.038405220315267663 0 0.1620418926126978 0.036255926132564682 0 0.15541952745182569 0.04677658384696623 0 0.14579340212816641 0.038405220315267663 0 0.14278372382386809 0.048416123664777412 0 0.15541952745182569 0.04677658384696623 0 0.14579340212816641 0.038405220315267663 0 0.14278372382386809 0.048416123664777412 0 0.14579340212816641 0.038405220315267663 0 0.12977361784467401 0.039215218793308727 0 0.13894824890776639 0.02136224913872127 0 0.14579340212816641 0.038405220315267663 0 0.12977361784467401 0.039215218793308727 0 0.11550376979223601 0.054551475820320147 0 0.12977361784467401 0.039215218793308727 0 0.1326943019686847 0.054606112458038862 0 0.11550376979223601 0.054551475820320147 0 0.1326943019686847 0.054606112458038862 0 0.13255022158949201 0.068763676371196639 0 0.14278372382386809 0.048416123664777412 0 0.12977361784467401 0.039215218793308727 0 0.1326943019686847 0.054606112458038862 0 0.14278372382386809 0.048416123664777412 0 0.1428601767931531 0.062084067640591357 0 0.1326943019686847 0.054606112458038862 0 0.1428601767931531 0.062084067640591357 0 0.1326943019686847 0.054606112458038862 0 0.13255022158949201 0.068763676371196639 0 0.1207366242219714 0.074251990558816788 0 0.13255022158949201 0.068763676371196639 0 0.13578085374332971 0.077614708003019631 0 0.13255022158949201 0.068763676371196639 0 0.13578085374332971 0.077614708003019631 0 0.1430759120552613 0.073085192731263071 0 0.1428601767931531 0.062084067640591357 0 0.13255022158949201 0.068763676371196639 0 0.1430759120552613 0.073085192731263071 0 0.1428601767931531 0.062084067640591357 0 0.1430759120552613 0.073085192731263071 0 0.15260580868734391 0.069203578475014266 0 0.1430759120552613 0.073085192731263071 0 0.14969883640752091 0.076610515579137797 0 0.14563192422462459 0.083183778073064013 0 0.13578085374332971 0.077614708003019631 0 0.1430759120552613 0.073085192731263071 0 0.14563192422462459 0.083183778073064013 0 0.1430759120552613 0.073085192731263071 0 0.14969883640752091 0.076610515579137797 0 0.15260580868734391 0.069203578475014266 0 0.14969883640752091 0.076610515579137797 0 0.15260580868734391 0.069203578475014266 0 0.15677919641446331 0.080277826610221981 0 0.1428601767931531 0.062084067640591357 0 0.15507694825043991 0.057889849327421902 0 0.15260580868734391 0.069203578475014266 0 0.1506819444987289 0.088437751930635633 0 0.14868901735932749 0.09586058707093438 0 0.157853861938485 0.092527754269896317 0 0.1506819444987289 0.088437751930635633 0 0.15677919641446331 0.080277826610221981 0 0.157853861938485 0.092527754269896317 0 0.14969883640752091 0.076610515579137797 0 0.14563192422462459 0.083183778073064013 0 0.15677919641446331 0.080277826610221981 0 0.1506819444987289 0.088437751930635633 0 0.14563192422462459 0.083183778073064013 0 0.15677919641446331 0.080277826610221981 0 0.14563192422462459 0.083183778073064013 0 0.1444557225567443 0.090338813629061501 0 0.13888671887288589 0.088270852986767859 0 0.1506819444987289 0.088437751930635633 0 0.14563192422462459 0.083183778073064013 0 0.1444557225567443 0.090338813629061501 0 0.1444557225567443 0.090338813629061501 0 0.14209274384079601 0.094639397504520467 0 0.14868901735932749 0.09586058707093438 0 0.1506819444987289 0.088437751930635633 0 0.1444557225567443 0.090338813629061501 0 0.14868901735932749 0.09586058707093438 0 0.1444557225567443 0.090338813629061501 0 0.13888671887288589 0.088270852986767859 0 0.14209274384079601 0.094639397504520467 0 0.13888671887288589 0.088270852986767859 0 0.13668050292917741 0.098217611464673699 0 0.14209274384079601 0.094639397504520467 0 0.13888671887288589 0.088270852986767859 0 0.1300820653953097 0.084166932106396392 0 0.13668050292917741 0.098217611464673699 0 0.11116449005577619 0.086473750785835857 0 0.1300820653953097 0.084166932106396392 0 0.13668050292917741 0.098217611464673699 0 0.13578085374332971 0.077614708003019631 0 0.13888671887288589 0.088270852986767859 0 0.1300820653953097 0.084166932106396392 0 0.13578085374332971 0.077614708003019631 0 0.14563192422462459 0.083183778073064013 0 0.13888671887288589 0.088270852986767859 0 0.1207366242219714 0.074251990558816788 0 0.13578085374332971 0.077614708003019631 0 0.1300820653953097 0.084166932106396392 0 0.1216961693062274 0.1020981758197984 0 0.1302764983332621 0.10693497851168419 0 0.13668050292917741 0.098217611464673699 0 0.1302764983332621 0.10693497851168419 0 0.13758713408363871 0.1043360441680015 0 0.13668050292917741 0.098217611464673699 0 0.1302764983332621 0.10693497851168419 0 0.1360833458267342 0.1084620534226548 0 0.13758713408363871 0.1043360441680015 0 0.1360833458267342 0.1084620534226548 0 0.13758713408363871 0.1043360441680015 0 0.14314356584317489 0.10755645506983 0 0.13758713408363871 0.1043360441680015 0 0.13668050292917741 0.098217611464673699 0 0.14175175748584509 0.1005091223711649 0 0.13668050292917741 0.098217611464673699 0 0.14209274384079601 0.094639397504520467 0 0.14175175748584509 0.1005091223711649 0 0.12813823657366311 0.12049833089676459 0 0.13246275659848361 0.1130811342378658 0 0.13708322035591489 0.118794437000363 0 0.12212988809696081 0.1249307776834532 0 0.12788127083107459 0.1291064789800366 0 0.12813823657366311 0.12049833089676459 0 0.1197878353292403 0.1092484053650479 0 0.1302764983332621 0.10693497851168419 0 0.12624189261331301 0.1140678077034443 0 0.12813823657366311 0.12049833089676459 0 0.12624189261331301 0.1140678077034443 0 0.13246275659848361 0.1130811342378658 0 0.1302764983332621 0.10693497851168419 0 0.12624189261331301 0.1140678077034443 0 0.13246275659848361 0.1130811342378658 0 0.138866780176991 0.11235807520418389 0 0.13708322035591489 0.118794437000363 0 0.14572099158606311 0.1154247658161887 0 0.1360833458267342 0.1084620534226548 0 0.13246275659848361 0.1130811342378658 0 0.138866780176991 0.11235807520418389 0 0.1302764983332621 0.10693497851168419 0 0.1360833458267342 0.1084620534226548 0 0.13246275659848361 0.1130811342378658 0 0.1360833458267342 0.1084620534226548 0 0.138866780176991 0.11235807520418389 0 0.14314356584317489 0.10755645506983 0 0.13246275659848361 0.1130811342378658 0 0.138866780176991 0.11235807520418389 0 0.13708322035591489 0.118794437000363 0 0.13409394305489639 0.1257339851238449 0 0.14295710802469111 0.12768772724150559 0 0.13708322035591489 0.118794437000363 0 0.13409394305489639 0.1257339851238449 0 0.12813823657366311 0.12049833089676459 0 0.13708322035591489 0.118794437000363 0 0.14572099158606311 0.1154247658161887 0 0.15364605026385231 0.1227496740475859 0 0.15839207309433961 0.10550736800805539 0 0.14295710802469111 0.12768772724150559 0 0.13708322035591489 0.118794437000363 0 0.14572099158606311 0.1154247658161887 0 0.14295710802469111 0.12768772724150559 0 0.14572099158606311 0.1154247658161887 0 0.15364605026385231 0.1227496740475859 0 0.138866780176991 0.11235807520418389 0 0.14572099158606311 0.1154247658161887 0 0.14314356584317489 0.10755645506983 0 0.14572099158606311 0.1154247658161887 0 0.14314356584317489 0.10755645506983 0 0.15839207309433961 0.10550736800805539 0 0.14175175748584509 0.1005091223711649 0 0.15839207309433961 0.10550736800805539 0 0.14175175748584509 0.1005091223711649 0 0.14314356584317489 0.10755645506983 0 0.15839207309433961 0.10550736800805539 0 0.14175175748584509 0.1005091223711649 0 0.14868901735932749 0.09586058707093438 0 0.15839207309433961 0.10550736800805539 0 0.14209274384079601 0.094639397504520467 0 0.14175175748584509 0.1005091223711649 0 0.14868901735932749 0.09586058707093438 0 0.13758713408363871 0.1043360441680015 0 0.14175175748584509 0.1005091223711649 0 0.14314356584317489 0.10755645506983 0 0.14868901735932749 0.09586058707093438 0 0.15839207309433961 0.10550736800805539 0 0.157853861938485 0.092527754269896317 0 0.15839207309433961 0.10550736800805539 0 0.17503238870283441 0.11050561364494491 0 0.15839207309433961 0.10550736800805539 0 0.1705578526620479 0.095927182961129481 0 0.157853861938485 0.092527754269896317 0 0.15839207309433961 0.10550736800805539 0 0.1705578526620479 0.095927182961129481 0 0.17503238870283441 0.11050561364494491 0 0.16417220099380411 0.12505127510387981 0 0.15839207309433961 0.10550736800805539 0 0.17503238870283441 0.11050561364494491 0 0.16417220099380411 0.12505127510387981 0 0.15364605026385231 0.1227496740475859 0 0.15839207309433961 0.10550736800805539 0 0.16417220099380411 0.12505127510387981 0 0.17503238870283441 0.11050561364494491 0 0.18002451345814399 0.12716596121819479 0 0.16417220099380411 0.12505127510387981 0 0.17503238870283441 0.11050561364494491 0 0.18002451345814399 0.12716596121819479 0 0.2001236667938262 0.1180422718546187 0 0.17503238870283441 0.11050561364494491 0 0.1916307843626972 0.08827444688259839 0 0.1705578526620479 0.095927182961129481 0 0.17503238870283441 0.11050561364494491 0 0.1916307843626972 0.08827444688259839 0 0.17503238870283441 0.11050561364494491 0 0.1916307843626972 0.08827444688259839 0 0.17935943521264269 0.07135827912697662 0 0.16988015521188329 0.08282073200015258 0 0.1916307843626972 0.08827444688259839 0 0.1705578526620479 0.095927182961129481 0 0.16988015521188329 0.08282073200015258 0 0.19067723801237901 0.065525043857756982 0 0.1916307843626972 0.08827444688259839 0 0.17935943521264269 0.07135827912697662 0 0.19067723801237901 0.065525043857756982 0 0.17734631865053521 0.060730067185729229 0 0.17935943521264269 0.07135827912697662 0 0.17734631865053521 0.060730067185729229 0 0.17935943521264269 0.07135827912697662 0 0.1653937448538241 0.067538194789913991 0 0.17935943521264269 0.07135827912697662 0 0.1653937448538241 0.067538194789913991 0 0.16988015521188329 0.08282073200015258 0 0.15507694825043991 0.057889849327421902 0 0.15260580868734391 0.069203578475014266 0 0.1653937448538241 0.067538194789913991 0 0.15260580868734391 0.069203578475014266 0 0.1653937448538241 0.067538194789913991 0 0.15677919641446331 0.080277826610221981 0 0.1653937448538241 0.067538194789913991 0 0.15677919641446331 0.080277826610221981 0 0.16988015521188329 0.08282073200015258 0 0.15677919641446331 0.080277826610221981 0 0.157853861938485 0.092527754269896317 0 0.16988015521188329 0.08282073200015258 0 0.1705578526620479 0.095927182961129481 0 0.157853861938485 0.092527754269896317 0 0.16988015521188329 0.08282073200015258 0 0.099456207782380623 0.4822659283708195 0 0.1141892196830592 0.48396198267476093 0 0.11304725129434449 0.46767028325629811 0 0.099456207782380623 0.4822659283708195 0 0.11304725129434449 0.46767028325629811 0 0.096803680563272876 0.46646214520586099 0 0.099456207782380623 0.4822659283708195 0 0.10782601469385079 0.5 0 0.078267650747156567 0.50000000000000133 0 0.099456207782380623 0.4822659283708195 0 0.10782601469385079 0.5 0 0.1141892196830592 0.48396198267476093 0 0.10782601469385079 0.5 0 0.1249193769550877 0.49369376296818718 0 0.1141892196830592 0.48396198267476093 0 0.1249193769550877 0.49369376296818718 0 0.1141892196830592 0.48396198267476093 0 0.12569724768963239 0.47617993877849962 0 0.10782601469385079 0.5 0 0.1249193769550877 0.49369376296818718 0 0.13738437864054501 0.5 0 0.1141892196830592 0.48396198267476093 0 0.11304725129434449 0.46767028325629811 0 0.12569724768963239 0.47617993877849962 0 0.11304725129434449 0.46767028325629811 0 0.1267882431275838 0.46370707134437261 0 0.12569724768963239 0.47617993877849962 0 0.11304725129434449 0.46767028325629811 0 0.1221607865463437 0.4507156547582637 0 0.1004821270038239 0.44949914822431608 0 0.11304725129434449 0.46767028325629811 0 0.1221607865463437 0.4507156547582637 0 0.1267882431275838 0.46370707134437261 0 0.1221607865463437 0.4507156547582637 0 0.1004821270038239 0.44949914822431608 0 0.12259086230274099 0.42947812748907283 0 0.1004821270038239 0.44949914822431608 0 0.096803680563272876 0.46646214520586099 0 0.084307548883437972 0.45862843933572522 0 0.11304725129434449 0.46767028325629811 0 0.1004821270038239 0.44949914822431608 0 0.096803680563272876 0.46646214520586099 0 0.084307548883437972 0.45862843933572522 0 0.070120974899159305 0.46867166915081548 0 0.08254081050968877 0.47642281665818748 0 0.096803680563272876 0.46646214520586099 0 0.084307548883437972 0.45862843933572522 0 0.08254081050968877 0.47642281665818748 0 0.084307548883437972 0.45862843933572522 0 0.083205653112744402 0.44008551456546158 0 0.070599818540594342 0.45171728711773013 0 0.1004821270038239 0.44949914822431608 0 0.084307548883437972 0.45862843933572522 0 0.083205653112744402 0.44008551456546158 0 0.1004821270038239 0.44949914822431608 0 0.083205653112744402 0.44008551456546158 0 0.095892719888732866 0.42453745382262881 0 0.070599818540594342 0.45171728711773013 0 0.057347956450285731 0.44480695268810438 0 0.068330088192809502 0.43602814955066621 0 0.083205653112744402 0.44008551456546158 0 0.070599818540594342 0.45171728711773013 0 0.068330088192809502 0.43602814955066621 0 0.070599818540594342 0.45171728711773013 0 0.070120974899159305 0.46867166915081548 0 0.05832870883015126 0.45973880463956351 0 0.084307548883437972 0.45862843933572522 0 0.070599818540594342 0.45171728711773013 0 0.070120974899159305 0.46867166915081548 0 0.070120974899159305 0.46867166915081548 0 0.08254081050968877 0.47642281665818748 0 0.061557047466102868 0.48310025102256282 0 0.070120974899159305 0.46867166915081548 0 0.061557047466102868 0.48310025102256282 0 0.05832870883015126 0.45973880463956351 0 0.099456207782380623 0.4822659283708195 0 0.096803680563272876 0.46646214520586099 0 0.08254081050968877 0.47642281665818748 0 0.099456207782380623 0.4822659283708195 0 0.08254081050968877 0.47642281665818748 0 0.078267650747156567 0.50000000000000133 0 0.078267650747156567 0.50000000000000133 0 0.049166882519808157 0.5 0 0.061557047466102868 0.48310025102256282 0 0.08254081050968877 0.47642281665818748 0 0.078267650747156567 0.50000000000000133 0 0.061557047466102868 0.48310025102256282 0 0.078267650747156567 0.50000000000000133 0 0.061557047466102868 0.48310025102256282 0 0.049166882519808157 0.5 0 0.061557047466102868 0.48310025102256282 0 0.038208171894904559 0.48286056860770488 0 0.061557047466102868 0.48310025102256282 0 0.044846444185049857 0.46620050204512359 0 0.05832870883015126 0.45973880463956351 0 0.061557047466102868 0.48310025102256282 0 0.044846444185049857 0.46620050204512359 0 0.061557047466102868 0.48310025102256282 0 0.038208171894904559 0.48286056860770488 0 0.044846444185049857 0.46620050204512359 0 0.038208171894904559 0.48286056860770488 0 0.029572045059576241 0.469060477695939 0 0.044846444185049857 0.46620050204512359 0 0.049166882519808157 0.5 0 0.038208171894904559 0.48286056860770488 0 0.020066114292459799 0.5 0 0.038208171894904559 0.48286056860770488 0 0.020066114292459799 0.5 0 0.021055159894441029 0.48095839664786189 0 0.038208171894904559 0.48286056860770488 0 0.029572045059576241 0.469060477695939 0 0.021055159894441029 0.48095839664786189 0 0.029572045059576241 0.469060477695939 0 0.021055159894441029 0.48095839664786189 0 0.01561460841948897 0.46598216811131982 0 0.021055159894441029 0.48095839664786189 0 0.0030933759349822849 0.48266358315495572 0 0.01561460841948897 0.46598216811131982 0 0.0030933759349822849 0.48266358315495572 0 0.01561460841948897 0.46598216811131982 0 0.0036787250480955699 0.47408322248379448 0 0.0030933759349822849 0.48266358315495572 0 0.01561460841948897 0.46598216811131982 0 -0.0016340076521478781 0.48633642657919801 0 0.0036787250480955699 0.47408322248379448 0 0.0030933759349822849 0.48266358315495572 0 0.020066114292459799 0.5 0 0.021055159894441029 0.48095839664786189 0 0.0030933759349822849 0.48266358315495572 0 -0.0090346539348886701 0.5 0 -0.0016340076521478781 0.48633642657919801 0 0.020066114292459799 0.5 0 -0.0016340076521478781 0.48633642657919801 0 0.020066114292459799 0.5 0 0.0030933759349822849 0.48266358315495572 0 -0.0030841453677343121 0.43636499760021141 0 -0.002359076509941094 0.46135071208970457 0 0.010470448459028871 0.45111158928184719 0 -0.0030841453677343121 0.43636499760021141 0 0.010470448459028871 0.45111158928184719 0 0.017893296784651399 0.43894227458572882 0 -0.002359076509941094 0.46135071208970457 0 0.010470448459028871 0.45111158928184719 0 0.01561460841948897 0.46598216811131982 0 -0.002359076509941094 0.46135071208970457 0 0.0036787250480955699 0.47408322248379448 0 0.01561460841948897 0.46598216811131982 0 0.010470448459028871 0.45111158928184719 0 0.01561460841948897 0.46598216811131982 0 0.0281358409039968 0.44930075306768458 0 0.029572045059576241 0.469060477695939 0 0.01561460841948897 0.46598216811131982 0 0.0281358409039968 0.44930075306768458 0 0.01561460841948897 0.46598216811131982 0 0.0281358409039968 0.44930075306768458 0 0.010470448459028871 0.45111158928184719 0 0.0281358409039968 0.44930075306768458 0 0.017893296784651399 0.43894227458572882 0 0.0281358409039968 0.44930075306768458 0 0.017893296784651399 0.43894227458572882 0 0.03800042812263172 0.43615865433005307 0 0.0281358409039968 0.44930075306768458 0 0.017893296784651399 0.43894227458572882 0 0.0281358409039968 0.44930075306768458 0 0.04587361322417214 0.448769157871174 0 0.03800042812263172 0.43615865433005307 0 0.0281358409039968 0.44930075306768458 0 0.03800042812263172 0.43615865433005307 0 0.04587361322417214 0.448769157871174 0 0.049411209704934803 0.43621283219101809 0 0.03800042812263172 0.43615865433005307 0 0.029572045059576241 0.469060477695939 0 0.0281358409039968 0.44930075306768458 0 0.044846444185049857 0.46620050204512359 0 0.0281358409039968 0.44930075306768458 0 0.04587361322417214 0.448769157871174 0 0.044846444185049857 0.46620050204512359 0 0.0281358409039968 0.44930075306768458 0 0.044846444185049857 0.46620050204512359 0 0.04587361322417214 0.448769157871174 0 0.044846444185049857 0.46620050204512359 0 0.05832870883015126 0.45973880463956351 0 0.04587361322417214 0.448769157871174 0 0.057347956450285731 0.44480695268810438 0 0.049411209704934803 0.43621283219101809 0 0.04587361322417214 0.448769157871174 0 0.05832870883015126 0.45973880463956351 0 0.057347956450285731 0.44480695268810438 0 0.070599818540594342 0.45171728711773013 0 0.05832870883015126 0.45973880463956351 0 0.057347956450285731 0.44480695268810438 0 0.057347956450285731 0.44480695268810438 0 0.058238482531349368 0.43512174465279091 0 0.068330088192809502 0.43602814955066621 0 0.057347956450285731 0.44480695268810438 0 0.058238482531349368 0.43512174465279091 0 0.049411209704934803 0.43621283219101809 0 0.058238482531349368 0.43512174465279091 0 0.05412352915042095 0.42739076434297479 0 0.063786863135573219 0.4234822836218442 0 0.05412352915042095 0.42739076434297479 0 0.047865015341267358 0.42301655559242213 0 0.049411209704934803 0.43621283219101809 0 0.05412352915042095 0.42739076434297479 0 0.047865015341267358 0.42301655559242213 0 0.058238482531349368 0.43512174465279091 0 0.05412352915042095 0.42739076434297479 0 0.049411209704934803 0.43621283219101809 0 0.047865015341267358 0.42301655559242213 0 0.055388731832649349 0.41299308245440008 0 0.044385004541519633 0.40583709082877739 0 0.055388731832649349 0.41299308245440008 0 0.057103340742871267 0.4006394318358022 0 0.0691327228978319 0.40699071288372829 0 0.05412352915042095 0.42739076434297479 0 0.055388731832649349 0.41299308245440008 0 0.063786863135573219 0.4234822836218442 0 0.047865015341267358 0.42301655559242213 0 0.055388731832649349 0.41299308245440008 0 0.05412352915042095 0.42739076434297479 0 0.047865015341267358 0.42301655559242213 0 0.055388731832649349 0.41299308245440008 0 0.055388731832649349 0.41299308245440008 0 0.044385004541519633 0.40583709082877739 0 0.057103340742871267 0.4006394318358022 0 0.047865015341267358 0.42301655559242213 0 0.030398582533070099 0.41080889326869052 0 0.044385004541519633 0.40583709082877739 0 0.047865015341267358 0.42301655559242213 0 0.035686717363660143 0.42423985257235269 0 0.030398582533070099 0.41080889326869052 0 0.047865015341267358 0.42301655559242213 0 0.030398582533070099 0.41080889326869052 0 0.047865015341267358 0.42301655559242213 0 0.049411209704934803 0.43621283219101809 0 0.03800042812263172 0.43615865433005307 0 0.047865015341267358 0.42301655559242213 0 0.03800042812263172 0.43615865433005307 0 0.047865015341267358 0.42301655559242213 0 0.035686717363660143 0.42423985257235269 0 0.03800042812263172 0.43615865433005307 0 0.035686717363660143 0.42423985257235269 0 0.03800042812263172 0.43615865433005307 0 0.0264828434576714 0.42697530709824522 0 0.017893296784651399 0.43894227458572882 0 0.0264828434576714 0.42697530709824522 0 0.013451351612083251 0.42022136891186163 0 0.017893296784651399 0.43894227458572882 0 0.03800042812263172 0.43615865433005307 0 0.0264828434576714 0.42697530709824522 0 0.030398582533070099 0.41080889326869052 0 0.013451351612083251 0.42022136891186163 0 0.012932149724872831 0.39860123094495892 0 0.0264828434576714 0.42697530709824522 0 0.030398582533070099 0.41080889326869052 0 0.013451351612083251 0.42022136891186163 0 0.035686717363660143 0.42423985257235269 0 0.0264828434576714 0.42697530709824522 0 0.030398582533070099 0.41080889326869052 0 -0.0038092142255275289 0.41137928311071797 0 0.013451351612083251 0.42022136891186163 0 0.012932149724872831 0.39860123094495892 0 -0.0030841453677343121 0.43636499760021141 0 0.017893296784651399 0.43894227458572882 0 0.013451351612083251 0.42022136891186163 0 -0.0030841453677343121 0.43636499760021141 0 -0.0038092142255275289 0.41137928311071797 0 0.013451351612083251 0.42022136891186163 0 -0.0045342830833226501 0.3863935686212247 0 0.012932149724872831 0.39860123094495892 0 0.0079023355216259559 0.37348921158265391 0 0.012932149724872831 0.39860123094495892 0 0.025375843575522711 0.38021681034322929 0 0.0079023355216259559 0.37348921158265391 0 -0.0045342830833226501 0.3863935686212247 0 0.012932149724872831 0.39860123094495892 0 -0.0045342830833226501 0.3863935686212247 0 -0.0038092142255275289 0.41137928311071797 0 0.012932149724872831 0.39860123094495892 0 0.030398582533070099 0.41080889326869052 0 0.012932149724872831 0.39860123094495892 0 0.030398582533070099 0.41080889326869052 0 0.012932149724872831 0.39860123094495892 0 0.030218872497922818 0.39559608178221078 0 0.012932149724872831 0.39860123094495892 0 0.030218872497922818 0.39559608178221078 0 0.025375843575522711 0.38021681034322929 0 0.025375843575522711 0.38021681034322929 0 0.045236422390978262 0.39339421550307069 0 0.045418656597819553 0.37354288132317159 0 0.030218872497922818 0.39559608178221078 0 0.025375843575522711 0.38021681034322929 0 0.045236422390978262 0.39339421550307069 0 0.030398582533070099 0.41080889326869052 0 0.030218872497922818 0.39559608178221078 0 0.044385004541519633 0.40583709082877739 0 0.030218872497922818 0.39559608178221078 0 0.045236422390978262 0.39339421550307069 0 0.044385004541519633 0.40583709082877739 0 0.045236422390978262 0.39339421550307069 0 0.057103340742871267 0.4006394318358022 0 0.06607043693335328 0.38973814947632979 0 0.045236422390978262 0.39339421550307069 0 0.044385004541519633 0.40583709082877739 0 0.057103340742871267 0.4006394318358022 0 0.045236422390978262 0.39339421550307069 0 0.06607043693335328 0.38973814947632979 0 0.045418656597819553 0.37354288132317159 0 0.06607043693335328 0.38973814947632979 0 0.066778362586220691 0.36264744131756171 0 0.045418656597819553 0.37354288132317159 0 0.06607043693335328 0.38973814947632979 0 0.086713905658550791 0.37461406501925459 0 0.066778362586220691 0.36264744131756171 0 0.091303312773641829 0.3995757594209417 0 0.1025776524751303 0.38486691706586951 0 0.086713905658550791 0.37461406501925459 0 0.06607043693335328 0.38973814947632979 0 0.091303312773641829 0.3995757594209417 0 0.086713905658550791 0.37461406501925459 0 0.091303312773641829 0.3995757594209417 0 0.086713905658550791 0.37461406501925459 0 0.06607043693335328 0.38973814947632979 0 0.091303312773641829 0.3995757594209417 0 0.0691327228978319 0.40699071288372829 0 0.057103340742871267 0.4006394318358022 0 0.06607043693335328 0.38973814947632979 0 0.0691327228978319 0.40699071288372829 0 0.055388731832649349 0.41299308245440008 0 0.0691327228978319 0.40699071288372829 0 0.063786863135573219 0.4234822836218442 0 0.0691327228978319 0.40699071288372829 0 0.077714875811277062 0.4214876261871765 0 0.063786863135573219 0.4234822836218442 0 0.083205653112744402 0.44008551456546158 0 0.077714875811277062 0.4214876261871765 0 0.068330088192809502 0.43602814955066621 0 0.058238482531349368 0.43512174465279091 0 0.068330088192809502 0.43602814955066621 0 0.063786863135573219 0.4234822836218442 0 0.077714875811277062 0.4214876261871765 0 0.068330088192809502 0.43602814955066621 0 0.063786863135573219 0.4234822836218442 0 0.083205653112744402 0.44008551456546158 0 0.077714875811277062 0.4214876261871765 0 0.095892719888732866 0.42453745382262881 0 0.091303312773641829 0.3995757594209417 0 0.0691327228978319 0.40699071288372829 0 0.077714875811277062 0.4214876261871765 0 0.091303312773641829 0.3995757594209417 0 0.095892719888732866 0.42453745382262881 0 0.091303312773641829 0.3995757594209417 0 0.077714875811277062 0.4214876261871765 0 0.095892719888732866 0.42453745382262881 0 0.091303312773641829 0.3995757594209417 0 0.095892719888732866 0.42453745382262881 0 0.115428724103706 0.40267530492779557 0 0.1004821270038239 0.44949914822431608 0 0.095892719888732866 0.42453745382262881 0 0.12259086230274099 0.42947812748907283 0 0.1004821270038239 0.44949914822431608 0 0.095892719888732866 0.42453745382262881 0 0.095892719888732866 0.42453745382262881 0 0.12259086230274099 0.42947812748907283 0 0.115428724103706 0.40267530492779557 0 0.115428724103706 0.40267530492779557 0 0.119448870245615 0.38256434187866972 0 0.13692284990477191 0.38930777957628943 0 0.119448870245615 0.38256434187866972 0 0.1025776524751303 0.38486691706586951 0 0.1087205780393706 0.3656269003386084 0 0.115428724103706 0.40267530492779557 0 0.119448870245615 0.38256434187866972 0 0.1025776524751303 0.38486691706586951 0 0.1025776524751303 0.38486691706586951 0 0.1087205780393706 0.3656269003386084 0 0.086713905658550791 0.37461406501925459 0 0.091303312773641829 0.3995757594209417 0 0.115428724103706 0.40267530492779557 0 0.1025776524751303 0.38486691706586951 0 0.1087205780393706 0.3656269003386084 0 0.1202868522871179 0.34060046584014031 0 0.0915497208986496 0.34709204532757532 0 0.1087205780393706 0.3656269003386084 0 0.0915497208986496 0.34709204532757532 0 0.086713905658550791 0.37461406501925459 0 0.119448870245615 0.38256434187866972 0 0.1087205780393706 0.3656269003386084 0 0.13274728415341139 0.36410634055334368 0 0.1087205780393706 0.3656269003386084 0 0.1202868522871179 0.34060046584014031 0 0.13274728415341139 0.36410634055334368 0 0.1202868522871179 0.34060046584014031 0 0.1104734498024164 0.31171603628350752 0 0.14183880654046921 0.32250528078568202 0 0.1202868522871179 0.34060046584014031 0 0.1016552612267161 0.33013161519950079 0 0.1104734498024164 0.31171603628350752 0 0.1016552612267161 0.33013161519950079 0 0.081254576285268804 0.3210829637434266 0 0.1104734498024164 0.31171603628350752 0 0.1202868522871179 0.34060046584014031 0 0.1016552612267161 0.33013161519950079 0 0.0915497208986496 0.34709204532757532 0 0.081254576285268804 0.3210829637434266 0 0.072654821413094289 0.33942743407960763 0 0.0915497208986496 0.34709204532757532 0 0.1016552612267161 0.33013161519950079 0 0.081254576285268804 0.3210829637434266 0 0.0915497208986496 0.34709204532757532 0 0.081254576285268804 0.3210829637434266 0 0.06358813508901956 0.32234581427363851 0 0.071244474661197085 0.3036312559279935 0 0.081254576285268804 0.3210829637434266 0 0.06358813508901956 0.32234581427363851 0 0.072654821413094289 0.33942743407960763 0 0.06358813508901956 0.32234581427363851 0 0.072654821413094289 0.33942743407960763 0 0.055199983679349987 0.34246375673151652 0 0.072654821413094289 0.33942743407960763 0 0.066778362586220691 0.36264744131756171 0 0.055199983679349987 0.34246375673151652 0 0.072654821413094289 0.33942743407960763 0 0.0915497208986496 0.34709204532757532 0 0.066778362586220691 0.36264744131756171 0 0.0915497208986496 0.34709204532757532 0 0.086713905658550791 0.37461406501925459 0 0.066778362586220691 0.36264744131756171 0 0.066778362586220691 0.36264744131756171 0 0.044951457965310811 0.3555124197003488 0 0.045418656597819553 0.37354288132317159 0 0.066778362586220691 0.36264744131756171 0 0.044951457965310811 0.3555124197003488 0 0.055199983679349987 0.34246375673151652 0 0.044951457965310811 0.3555124197003488 0 0.021903196078839001 0.35746348141110651 0 0.035457090884324839 0.34144453771838768 0 0.044951457965310811 0.3555124197003488 0 0.035457090884324839 0.34144453771838768 0 0.055199983679349987 0.34246375673151652 0 0.044951457965310811 0.3555124197003488 0 0.045418656597819553 0.37354288132317159 0 0.021903196078839001 0.35746348141110651 0 0.025375843575522711 0.38021681034322929 0 0.021903196078839001 0.35746348141110651 0 0.0079023355216259559 0.37348921158265391 0 0.025375843575522711 0.38021681034322929 0 0.045418656597819553 0.37354288132317159 0 0.021903196078839001 0.35746348141110651 0 0.021903196078839001 0.35746348141110651 0 0.017151683724365509 0.3376665205351736 0 0.035457090884324839 0.34144453771838768 0 0.021903196078839001 0.35746348141110651 0 0.0095650341834115256 0.34490192427506011 0 0.017151683724365509 0.3376665205351736 0 0.021903196078839001 0.35746348141110651 0 0.0095650341834115256 0.34490192427506011 0 0.0061318462344260851 0.35417601161121459 0 -0.0050552824635438226 0.34569829691311771 0 0.0095650341834115256 0.34490192427506011 0 0.0061318462344260851 0.35417601161121459 0 0.021903196078839001 0.35746348141110651 0 0.0061318462344260851 0.35417601161121459 0 0.0079023355216259559 0.37348921158265391 0 -0.0052616759920083916 0.36132776784546622 0 0.0061318462344260851 0.35417601161121459 0 0.0079023355216259559 0.37348921158265391 0 0.0087281755863181168 0.33049580891976171 0 0.020410497070949891 0.30832150289807031 0 0.0056044744337335906 0.31412092038659428 0 0.0087281755863181168 0.33049580891976171 0 0.020410497070949891 0.30832150289807031 0 -0.003280447873963227 0.32161399115684158 0 0.0056044744337335906 0.31412092038659428 0 0.0087281755863181168 0.33049580891976171 0 0.0064742168078369342 0.3347740657525386 0 0.0087281755863181168 0.33049580891976171 0 -0.0050552824635438226 0.34569829691311771 0 0.0095650341834115256 0.34490192427506011 0 0.0064742168078369342 0.3347740657525386 0 0.0095650341834115256 0.34490192427506011 0 0.0064742168078369342 0.3347740657525386 0 0.017151683724365509 0.3376665205351736 0 0.0064742168078369342 0.3347740657525386 0 0.0087281755863181168 0.33049580891976171 0 0.017151683724365509 0.3376665205351736 0 0.0087281755863181168 0.33049580891976171 0 0.025353163704189718 0.33024288796319817 0 0.017151683724365509 0.3376665205351736 0 0.0087281755863181168 0.33049580891976171 0 0.025353163704189718 0.33024288796319817 0 0.025353163704189718 0.33024288796319817 0 0.017151683724365509 0.3376665205351736 0 0.035457090884324839 0.34144453771838768 0 0.0087281755863181168 0.33049580891976171 0 0.025353163704189718 0.33024288796319817 0 0.020410497070949891 0.30832150289807031 0 0.025353163704189718 0.33024288796319817 0 0.038017806832533571 0.30672300381527179 0 0.020410497070949891 0.30832150289807031 0 0.025353163704189718 0.33024288796319817 0 0.045812945845809312 0.32351293560108041 0 0.038017806832533571 0.30672300381527179 0 0.025353163704189718 0.33024288796319817 0 0.045812945845809312 0.32351293560108041 0 0.035457090884324839 0.34144453771838768 0 0.045812945845809312 0.32351293560108041 0 0.035457090884324839 0.34144453771838768 0 0.055199983679349987 0.34246375673151652 0 0.06358813508901956 0.32234581427363851 0 0.045812945845809312 0.32351293560108041 0 0.055199983679349987 0.34246375673151652 0 0.06358813508901956 0.32234581427363851 0 0.045812945845809312 0.32351293560108041 0 0.055148108477292443 0.3057593846019967 0 0.055148108477292443 0.3057593846019967 0 0.047586914097201803 0.29032131063477928 0 0.038017806832533571 0.30672300381527179 0 0.055148108477292443 0.3057593846019967 0 0.047586914097201803 0.29032131063477928 0 0.066935962560195753 0.28615893812798288 0 0.047586914097201803 0.29032131063477928 0 0.050578246113349837 0.27455429857722041 0 0.066935962560195753 0.28615893812798288 0 0.047586914097201803 0.29032131063477928 0 0.032092818555581597 0.28614719687637868 0 0.038017806832533571 0.30672300381527179 0 0.047586914097201803 0.29032131063477928 0 0.032092818555581597 0.28614719687637868 0 0.050578246113349837 0.27455429857722041 0 0.045812945845809312 0.32351293560108041 0 0.055148108477292443 0.3057593846019967 0 0.038017806832533571 0.30672300381527179 0 0.032092818555581597 0.28614719687637868 0 0.038017806832533571 0.30672300381527179 0 0.020410497070949891 0.30832150289807031 0 0.032092818555581597 0.28614719687637868 0 0.020410497070949891 0.30832150289807031 0 0.032092818555581597 0.28614719687637868 0 0.020410497070949891 0.30832150289807031 0 0.0083336089875100904 0.29343585490586271 0 0.032092818555581597 0.28614719687637868 0 0.0083336089875100904 0.29343585490586271 0 0.021382191810826279 0.2686960609189637 0 -0.0088759444352828343 0.31092800175718183 0 0.0056044744337335906 0.31412092038659428 0 0.0083336089875100904 0.29343585490586271 0 0.0056044744337335906 0.31412092038659428 0 0.020410497070949891 0.30832150289807031 0 0.0083336089875100904 0.29343585490586271 0 0.0073806355134042019 0.25529449578482938 0 3.3590645499582607e-05 0.27236849017123349 0 0.021382191810826279 0.2686960609189637 0 0.0083336089875100904 0.29343585490586271 0 3.3590645499582607e-05 0.27236849017123349 0 0.021382191810826279 0.2686960609189637 0 0.025149977659741599 0.24684982625080901 0 0.0073806355134042019 0.25529449578482938 0 0.021382191810826279 0.2686960609189637 0 0.025149977659741599 0.24684982625080901 0 0.021382191810826279 0.2686960609189637 0 0.043775140040213267 0.26397289085468728 0 0.025149977659741599 0.24684982625080901 0 0.045472231705318063 0.24424317023843681 0 0.050158093690384618 0.2598810672441918 0 0.025149977659741599 0.24684982625080901 0 0.050158093690384618 0.2598810672441918 0 0.025149977659741599 0.24684982625080901 0 0.043775140040213267 0.26397289085468728 0 0.050158093690384618 0.2598810672441918 0 0.032092818555581597 0.28614719687637868 0 0.043775140040213267 0.26397289085468728 0 0.032092818555581597 0.28614719687637868 0 0.021382191810826279 0.2686960609189637 0 0.043775140040213267 0.26397289085468728 0 0.032092818555581597 0.28614719687637868 0 0.043775140040213267 0.26397289085468728 0 0.050578246113349837 0.27455429857722041 0 0.050578246113349837 0.27455429857722041 0 0.063875668081316214 0.2678607518654692 0 0.066935962560195753 0.28615893812798288 0 0.043775140040213267 0.26397289085468728 0 0.050578246113349837 0.27455429857722041 0 0.050158093690384618 0.2598810672441918 0 0.050578246113349837 0.27455429857722041 0 0.056046126259945157 0.25263236173372139 0 0.063875668081316214 0.2678607518654692 0 0.050578246113349837 0.27455429857722041 0 0.050158093690384618 0.2598810672441918 0 0.056046126259945157 0.25263236173372139 0 0.045472231705318063 0.24424317023843681 0 0.050158093690384618 0.2598810672441918 0 0.056046126259945157 0.25263236173372139 0 0.050578246113349837 0.27455429857722041 0 0.056046126259945157 0.25263236173372139 0 0.078525547080241467 0.2465942846531784 0 0.067905867336300579 0.25358800162702 0 0.079567988853459573 0.27014218499250892 0 0.067905867336300579 0.25358800162702 0 0.079567988853459573 0.27014218499250892 0 0.063875668081316214 0.2678607518654692 0 0.056046126259945157 0.25263236173372139 0 0.067905867336300579 0.25358800162702 0 0.063875668081316214 0.2678607518654692 0 0.078525547080241467 0.2465942846531784 0 0.079567988853459573 0.27014218499250892 0 0.093798877441032588 0.2579700649065903 0 0.079567988853459573 0.27014218499250892 0 0.063875668081316214 0.2678607518654692 0 0.066935962560195753 0.28615893812798288 0 0.079567988853459573 0.27014218499250892 0 0.066935962560195753 0.28615893812798288 0 0.087430381393448858 0.29852998767476718 0 0.066935962560195753 0.28615893812798288 0 0.071244474661197085 0.3036312559279935 0 0.087430381393448858 0.29852998767476718 0 0.055148108477292443 0.3057593846019967 0 0.066935962560195753 0.28615893812798288 0 0.071244474661197085 0.3036312559279935 0 0.06358813508901956 0.32234581427363851 0 0.055148108477292443 0.3057593846019967 0 0.071244474661197085 0.3036312559279935 0 0.081254576285268804 0.3210829637434266 0 0.087430381393448858 0.29852998767476718 0 0.1104734498024164 0.31171603628350752 0 0.081254576285268804 0.3210829637434266 0 0.071244474661197085 0.3036312559279935 0 0.087430381393448858 0.29852998767476718 0 0.079567988853459573 0.27014218499250892 0 0.087430381393448858 0.29852998767476718 0 0.1079828451826004 0.27738565586056829 0 0.087430381393448858 0.29852998767476718 0 0.1104734498024164 0.31171603628350752 0 0.1079828451826004 0.27738565586056829 0 0.1104734498024164 0.31171603628350752 0 0.1079828451826004 0.27738565586056829 0 0.13401849175413849 0.29214957311260448 0 0.1079828451826004 0.27738565586056829 0 0.13401849175413849 0.29214957311260448 0 0.1100607559553454 0.25396994184181759 0 0.1079828451826004 0.27738565586056829 0 0.13366986361514199 0.26692500362740812 0 0.12787711237058769 0.24521089126939841 0 0.1100607559553454 0.25396994184181759 0 0.13366986361514199 0.26692500362740812 0 0.092857250133516089 0.24175825718487831 0 0.1100607559553454 0.25396994184181759 0 0.093798877441032588 0.2579700649065903 0 0.1100607559553454 0.25396994184181759 0 0.093798877441032588 0.2579700649065903 0 0.1079828451826004 0.27738565586056829 0 0.079567988853459573 0.27014218499250892 0 0.093798877441032588 0.2579700649065903 0 0.1079828451826004 0.27738565586056829 0 0.13366986361514199 0.26692500362740812 0 0.1558685034792309 0.28595093384994291 0 0.15959452244756481 0.26367036214955358 0 0.14702044576598061 0.2478904659134552 0 0.13366986361514199 0.26692500362740812 0 0.15959452244756481 0.26367036214955358 0 0.14702044576598061 0.2478904659134552 0 0.12787711237058769 0.24521089126939841 0 0.13366986361514199 0.26692500362740812 0 0.1079828451826004 0.27738565586056829 0 0.13366986361514199 0.26692500362740812 0 0.13401849175413849 0.29214957311260448 0 0.1104734498024164 0.31171603628350752 0 0.13401849175413849 0.29214957311260448 0 0.14183880654046921 0.32250528078568202 0 0.13401849175413849 0.29214957311260448 0 0.16005413832567669 0.30691349036464077 0 0.14183880654046921 0.32250528078568202 0 0.13401849175413849 0.29214957311260448 0 0.16005413832567669 0.30691349036464077 0 0.13401849175413849 0.29214957311260448 0 0.1558685034792309 0.28595093384994291 0 0.16005413832567669 0.30691349036464077 0 0.13366986361514199 0.26692500362740812 0 0.13401849175413849 0.29214957311260448 0 0.1558685034792309 0.28595093384994291 0 0.1558685034792309 0.28595093384994291 0 0.1700220001876428 0.28782965529906401 0 0.16005413832567669 0.30691349036464077 0 0.1558685034792309 0.28595093384994291 0 0.1700220001876428 0.28782965529906401 0 0.17370236977615991 0.27502287964280692 0 0.1700220001876428 0.28782965529906401 0 0.16005413832567669 0.30691349036464077 0 0.1764196225356903 0.29880027385689728 0 0.16005413832567669 0.30691349036464077 0 0.1764196225356903 0.29880027385689728 0 0.18686192329242929 0.31378732528256248 0 0.1764196225356903 0.29880027385689728 0 0.18674031124236579 0.30201460306836742 0 0.19086383386244751 0.2907864273273883 0 0.1764196225356903 0.29880027385689728 0 0.18674031124236579 0.30201460306836742 0 0.18686192329242929 0.31378732528256248 0 0.1700220001876428 0.28782965529906401 0 0.18013512871176271 0.28566990799825959 0 0.17370236977615991 0.27502287964280692 0 0.1700220001876428 0.28782965529906401 0 0.1764196225356903 0.29880027385689728 0 0.18013512871176271 0.28566990799825959 0 0.1764196225356903 0.29880027385689728 0 0.18013512871176271 0.28566990799825959 0 0.19086383386244751 0.2907864273273883 0 0.18013512871176271 0.28566990799825959 0 0.1896678171968729 0.27591030386514148 0 0.19086383386244751 0.2907864273273883 0 0.18251379545819379 0.26835647973838378 0 0.17370236977615991 0.27502287964280692 0 0.1896678171968729 0.27591030386514148 0 0.18013512871176271 0.28566990799825959 0 0.17370236977615991 0.27502287964280692 0 0.1896678171968729 0.27591030386514148 0 0.18251379545819379 0.26835647973838378 0 0.17370236977615991 0.27502287964280692 0 0.17699066645021869 0.2595722272450377 0 0.17370236977615991 0.27502287964280692 0 0.15959452244756481 0.26367036214955358 0 0.17699066645021869 0.2595722272450377 0 0.1558685034792309 0.28595093384994291 0 0.17370236977615991 0.27502287964280692 0 0.15959452244756481 0.26367036214955358 0 0.16774616909827719 0.2460930353984315 0 0.15959452244756481 0.26367036214955358 0 0.17699066645021869 0.2595722272450377 0 0.14702044576598061 0.2478904659134552 0 0.16774616909827719 0.2460930353984315 0 0.15959452244756481 0.26367036214955358 0 0.18692125413578081 0.24552837502103991 0 0.16774616909827719 0.2460930353984315 0 0.17699066645021869 0.2595722272450377 0 0.18692125413578081 0.24552837502103991 0 0.17699066645021869 0.2595722272450377 0 0.19242781921148469 0.26384338938458129 0 0.18251379545819379 0.26835647973838378 0 0.17699066645021869 0.2595722272450377 0 0.19242781921148469 0.26384338938458129 0 0.18692125413578081 0.24552837502103991 0 0.19242781921148469 0.26384338938458129 0 0.20107379594449931 0.25686311186437227 0 0.18692125413578081 0.24552837502103991 0 0.20107379594449931 0.25686311186437227 0 0.19242781921148469 0.26384338938458129 0 0.20107379594449931 0.25686311186437227 0 0.2008998280478862 0.26959186196165702 0 0.19242781921148469 0.26384338938458129 0 0.20107379594449931 0.25686311186437227 0 0.19242781921148469 0.26384338938458129 0 0.1896678171968729 0.27591030386514148 0 0.2008998280478862 0.26959186196165702 0 0.18251379545819379 0.26835647973838378 0 0.19242781921148469 0.26384338938458129 0 0.1896678171968729 0.27591030386514148 0 0.1896678171968729 0.27591030386514148 0 0.2008998280478862 0.26959186196165702 0 0.20354188417430641 0.281093168015905 0 0.2008998280478862 0.26959186196165702 0 0.2177878237122676 0.27024933667828532 0 0.20354188417430641 0.281093168015905 0 0.2177878237122676 0.27024933667828532 0 0.20354188417430641 0.281093168015905 0 0.2166033006779626 0.28924568688104418 0 0.21557305570370441 0.24515722135805329 0 0.20107379594449931 0.25686311186437227 0 0.2177878237122676 0.27024933667828532 0 0.20107379594449931 0.25686311186437227 0 0.2177878237122676 0.27024933667828532 0 0.20107379594449931 0.25686311186437227 0 0.2008998280478862 0.26959186196165702 0 0.2177878237122676 0.27024933667828532 0 0.21557305570370441 0.24515722135805329 0 0.20107379594449931 0.25686311186437227 0 0.21557305570370441 0.24515722135805329 0 0.2177878237122676 0.27024933667828532 0 0.23628031136540401 0.25597328662156199 0 0.2177878237122676 0.27024933667828532 0 0.23628031136540401 0.25597328662156199 0 0.23450185148003599 0.28363556149219821 0 0.2177878237122676 0.27024933667828532 0 0.23450185148003599 0.28363556149219821 0 0.2166033006779626 0.28924568688104418 0 0.2177878237122676 0.27024933667828532 0 0.23450185148003599 0.28363556149219821 0 0.23628031136540401 0.25597328662156199 0 0.23450185148003599 0.28363556149219821 0 0.25102838231212438 0.26850893423506528 0 0.23450185148003599 0.28363556149219821 0 0.25953152444998728 0.28294166139542631 0 0.25102838231212438 0.26850893423506528 0 0.23628031136540401 0.25597328662156199 0 0.25102838231212438 0.26850893423506528 0 0.26221447651104962 0.2479993693513689 0 0.2297645605960125 0.30261029929826411 0 0.25121587924780342 0.29702178630611242 0 0.2484846271056145 0.31037308609574782 0 0.2297645605960125 0.30261029929826411 0 0.23798581837376781 0.31938142953188831 0 0.2484846271056145 0.31037308609574782 0 0.2297645605960125 0.30261029929826411 0 0.25121587924780342 0.29702178630611242 0 0.23450185148003599 0.28363556149219821 0 0.2297645605960125 0.30261029929826411 0 0.25121587924780342 0.29702178630611242 0 0.23450185148003599 0.28363556149219821 0 0.25121587924780342 0.29702178630611242 0 0.23450185148003599 0.28363556149219821 0 0.25953152444998728 0.28294166139542631 0 0.25121587924780342 0.29702178630611242 0 0.23450185148003599 0.28363556149219821 0 0.2297645605960125 0.30261029929826411 0 0.2166033006779626 0.28924568688104418 0 0.2297645605960125 0.30261029929826411 0 0.20831324194422091 0.30819881229041318 0 0.2297645605960125 0.30261029929826411 0 0.20831324194422091 0.30819881229041318 0 0.21977364325038071 0.31928170538083578 0 0.20831324194422091 0.30819881229041318 0 0.2166033006779626 0.28924568688104418 0 0.20288664267638859 0.29424953150154581 0 0.2297645605960125 0.30261029929826411 0 0.20831324194422091 0.30819881229041318 0 0.2166033006779626 0.28924568688104418 0 0.20354188417430641 0.281093168015905 0 0.2166033006779626 0.28924568688104418 0 0.20288664267638859 0.29424953150154581 0 0.20354188417430641 0.281093168015905 0 0.20288664267638859 0.29424953150154581 0 0.19086383386244751 0.2907864273273883 0 0.20288664267638859 0.29424953150154581 0 0.19086383386244751 0.2907864273273883 0 0.19511095272300569 0.3019235629929784 0 0.1896678171968729 0.27591030386514148 0 0.20354188417430641 0.281093168015905 0 0.19086383386244751 0.2907864273273883 0 0.20831324194422091 0.30819881229041318 0 0.18686192329242929 0.31378732528256248 0 0.20831324194422091 0.30819881229041318 0 0.19511095272300569 0.3019235629929784 0 0.18686192329242929 0.31378732528256248 0 0.20831324194422091 0.30819881229041318 0 0.20288664267638859 0.29424953150154581 0 0.19511095272300569 0.3019235629929784 0 0.18674031124236579 0.30201460306836742 0 0.19086383386244751 0.2907864273273883 0 0.19511095272300569 0.3019235629929784 0 0.18674031124236579 0.30201460306836742 0 0.19511095272300569 0.3019235629929784 0 0.18686192329242929 0.31378732528256248 0 0.20141288137377081 0.31920030670374799 0 0.18686192329242929 0.31378732528256248 0 0.18608978489721489 0.32167740761667712 0 0.20831324194422091 0.30819881229041318 0 0.20141288137377081 0.31920030670374799 0 0.18686192329242929 0.31378732528256248 0 0.20141288137377081 0.31920030670374799 0 0.21212543146875301 0.33644132486871342 0 0.18608978489721489 0.32167740761667712 0 0.21212543146875301 0.33644132486871342 0 0.18608978489721489 0.32167740761667712 0 0.19231113454718349 0.34165597013868199 0 0.21212543146875301 0.33644132486871342 0 0.18608978489721489 0.32167740761667712 0 0.20831324194422091 0.30819881229041318 0 0.20141288137377081 0.31920030670374799 0 0.21977364325038071 0.31928170538083578 0 0.20141288137377081 0.31920030670374799 0 0.21212543146875301 0.33644132486871342 0 0.21977364325038071 0.31928170538083578 0 0.21977364325038071 0.31928170538083578 0 0.2290399257457596 0.32985805959198788 0 0.23798581837376781 0.31938142953188831 0 0.2297645605960125 0.30261029929826411 0 0.21977364325038071 0.31928170538083578 0 0.23798581837376781 0.31938142953188831 0 0.21212543146875301 0.33644132486871342 0 0.21977364325038071 0.31928170538083578 0 0.2290399257457596 0.32985805959198788 0 0.21212543146875301 0.33644132486871342 0 0.23060518033342339 0.33807106122714048 0 0.2290399257457596 0.32985805959198788 0 0.21212543146875301 0.33644132486871342 0 0.23060518033342339 0.33807106122714048 0 0.23816107804029091 0.35120524212074949 0 0.23060518033342339 0.33807106122714048 0 0.2290399257457596 0.32985805959198788 0 0.2430942860788903 0.33477961832711151 0 0.23060518033342339 0.33807106122714048 0 0.2430942860788903 0.33477961832711151 0 0.23816107804029091 0.35120524212074949 0 0.2484846271056145 0.31037308609574782 0 0.23798581837376781 0.31938142953188831 0 0.25508783524565293 0.32209220201309929 0 0.2430942860788903 0.33477961832711151 0 0.23798581837376781 0.31938142953188831 0 0.25508783524565293 0.32209220201309929 0 0.2290399257457596 0.32985805959198788 0 0.2430942860788903 0.33477961832711151 0 0.23798581837376781 0.31938142953188831 0 0.23439037865920059 0.35560025357312369 0 0.2386764282036242 0.37725286527910618 0 0.24311907173897271 0.36013203008567057 0 0.23439037865920059 0.35560025357312369 0 0.2386764282036242 0.37725286527910618 0 0.2492643002430574 0.365916522193315 0 0.24311907173897271 0.36013203008567057 0 0.2386764282036242 0.37725286527910618 0 0.2492643002430574 0.365916522193315 0 0.2386764282036242 0.37725286527910618 0 0.25383912625151372 0.37755129754335942 0 0.24311907173897271 0.36013203008567057 0 0.23816107804029091 0.35120524212074949 0 0.2641967246118288 0.36596915937278562 0 0.2430942860788903 0.33477961832711151 0 0.23816107804029091 0.35120524212074949 0 0.26173146881309822 0.35734024057335978 0 0.24311907173897271 0.36013203008567057 0 0.23816107804029091 0.35120524212074949 0 0.23439037865920059 0.35560025357312369 0 0.21212543146875301 0.33644132486871342 0 0.23816107804029091 0.35120524212074949 0 0.21848510057545151 0.35453686872473111 0 0.23816107804029091 0.35120524212074949 0 0.23439037865920059 0.35560025357312369 0 0.21848510057545151 0.35453686872473111 0 0.21212543146875301 0.33644132486871342 0 0.23816107804029091 0.35120524212074949 0 0.23439037865920059 0.35560025357312369 0 0.22513916990612379 0.36868200325308897 0 0.2386764282036242 0.37725286527910618 0 0.23439037865920059 0.35560025357312369 0 0.22513916990612379 0.36868200325308897 0 0.21848510057545151 0.35453686872473111 0 0.22513916990612379 0.36868200325308897 0 0.20931495008602691 0.36890180222237801 0 0.21961872799640589 0.38146559318592133 0 0.22513916990612379 0.36868200325308897 0 0.20931495008602691 0.36890180222237801 0 0.21848510057545151 0.35453686872473111 0 0.20931495008602691 0.36890180222237801 0 0.21848510057545151 0.35453686872473111 0 0.2018014651714847 0.35413555731190122 0 0.21212543146875301 0.33644132486871342 0 0.21848510057545151 0.35453686872473111 0 0.2018014651714847 0.35413555731190122 0 0.19231113454718349 0.34165597013868199 0 0.2018014651714847 0.35413555731190122 0 0.1832131523033072 0.3569188224833833 0 0.19231113454718349 0.34165597013868199 0 0.21212543146875301 0.33644132486871342 0 0.2018014651714847 0.35413555731190122 0 0.20931495008602691 0.36890180222237801 0 0.2018014651714847 0.35413555731190122 0 0.19217836357317111 0.36996972767433872 0 0.20931495008602691 0.36890180222237801 0 0.19217836357317111 0.36996972767433872 0 0.20289108470775991 0.38370682355227331 0 0.2018014651714847 0.35413555731190122 0 0.19217836357317111 0.36996972767433872 0 0.1832131523033072 0.3569188224833833 0 0.19217836357317111 0.36996972767433872 0 0.17197644233242751 0.37002706837148541 0 0.1832131523033072 0.3569188224833833 0 0.17197644233242751 0.37002706837148541 0 0.16866852787741549 0.35230522619665788 0 0.1832131523033072 0.3569188224833833 0 0.17197644233242751 0.37002706837148541 0 0.16866852787741549 0.35230522619665788 0 0.15186920095361911 0.35620033980905319 0 0.17197644233242751 0.37002706837148541 0 0.15186920095361911 0.35620033980905319 0 0.15185568245476189 0.37707061606136422 0 0.16866852787741549 0.35230522619665788 0 0.1579580049025659 0.33927316190663209 0 0.15186920095361911 0.35620033980905319 0 0.16866852787741549 0.35230522619665788 0 0.1832131523033072 0.3569188224833833 0 0.17832583889515771 0.33910673841273542 0 0.19231113454718349 0.34165597013868199 0 0.1832131523033072 0.3569188224833833 0 0.17832583889515771 0.33910673841273542 0 0.17832583889515771 0.33910673841273542 0 0.18608978489721489 0.32167740761667712 0 0.16647560889869609 0.32578562508456149 0 0.19231113454718349 0.34165597013868199 0 0.17832583889515771 0.33910673841273542 0 0.18608978489721489 0.32167740761667712 0 0.16005413832567669 0.30691349036464077 0 0.18608978489721489 0.32167740761667712 0 0.16005413832567669 0.30691349036464077 0 0.18686192329242929 0.31378732528256248 0 0.18608978489721489 0.32167740761667712 0 0.16005413832567669 0.30691349036464077 0 0.18608978489721489 0.32167740761667712 0 0.16647560889869609 0.32578562508456149 0 0.17832583889515771 0.33910673841273542 0 0.16647560889869609 0.32578562508456149 0 0.1579580049025659 0.33927316190663209 0 0.16866852787741549 0.35230522619665788 0 0.17832583889515771 0.33910673841273542 0 0.1579580049025659 0.33927316190663209 0 0.16647560889869609 0.32578562508456149 0 0.1579580049025659 0.33927316190663209 0 0.14183880654046921 0.32250528078568202 0 0.1579580049025659 0.33927316190663209 0 0.14183880654046921 0.32250528078568202 0 0.14054269679001921 0.34363296691054102 0 0.16005413832567669 0.30691349036464077 0 0.16647560889869609 0.32578562508456149 0 0.14183880654046921 0.32250528078568202 0 0.1202868522871179 0.34060046584014031 0 0.14183880654046921 0.32250528078568202 0 0.14054269679001921 0.34363296691054102 0 0.1202868522871179 0.34060046584014031 0 0.14054269679001921 0.34363296691054102 0 0.13274728415341139 0.36410634055334368 0 0.13274728415341139 0.36410634055334368 0 0.15186920095361911 0.35620033980905319 0 0.15185568245476189 0.37707061606136422 0 0.14054269679001921 0.34363296691054102 0 0.13274728415341139 0.36410634055334368 0 0.15186920095361911 0.35620033980905319 0 0.1579580049025659 0.33927316190663209 0 0.14054269679001921 0.34363296691054102 0 0.15186920095361911 0.35620033980905319 0 0.15352992747694119 0.40026604784697911 0 0.13692284990477191 0.38930777957628943 0 0.1397509022148696 0.40843688002483958 0 0.15352992747694119 0.40026604784697911 0 0.15185568245476189 0.37707061606136422 0 0.13692284990477191 0.38930777957628943 0 0.13274728415341139 0.36410634055334368 0 0.15185568245476189 0.37707061606136422 0 0.13692284990477191 0.38930777957628943 0 0.119448870245615 0.38256434187866972 0 0.13274728415341139 0.36410634055334368 0 0.13692284990477191 0.38930777957628943 0 0.115428724103706 0.40267530492779557 0 0.13692284990477191 0.38930777957628943 0 0.1397509022148696 0.40843688002483958 0 0.12259086230274099 0.42947812748907283 0 0.1397509022148696 0.40843688002483958 0 0.14363603346764281 0.42707530835579988 0 0.12259086230274099 0.42947812748907283 0 0.115428724103706 0.40267530492779557 0 0.1397509022148696 0.40843688002483958 0 0.12259086230274099 0.42947812748907283 0 0.14363603346764281 0.42707530835579988 0 0.13510526379757609 0.44116740875256688 0 0.14363603346764281 0.42707530835579988 0 0.16526304614212209 0.42908608809292892 0 0.1507341445198021 0.44370602134863157 0 0.14363603346764281 0.42707530835579988 0 0.15527295380072001 0.4153931176925994 0 0.16526304614212209 0.42908608809292892 0 0.14363603346764281 0.42707530835579988 0 0.1507341445198021 0.44370602134863157 0 0.13510526379757609 0.44116740875256688 0 0.1397509022148696 0.40843688002483958 0 0.14363603346764281 0.42707530835579988 0 0.15527295380072001 0.4153931176925994 0 0.15352992747694119 0.40026604784697911 0 0.1397509022148696 0.40843688002483958 0 0.15527295380072001 0.4153931176925994 0 0.15527295380072001 0.4153931176925994 0 0.1711416470664554 0.41062619466687539 0 0.16526304614212209 0.42908608809292892 0 0.15352992747694119 0.40026604784697911 0 0.15527295380072001 0.4153931176925994 0 0.1711416470664554 0.41062619466687539 0 0.16526304614212209 0.42908608809292892 0 0.1809560021812836 0.43814832633623357 0 0.16598328874466911 0.44273574664910909 0 0.16526304614212209 0.42908608809292892 0 0.18469425222239219 0.42125941149134333 0 0.1809560021812836 0.43814832633623357 0 0.1711416470664554 0.41062619466687539 0 0.16526304614212209 0.42908608809292892 0 0.18469425222239219 0.42125941149134333 0 0.1711416470664554 0.41062619466687539 0 0.18469425222239219 0.42125941149134333 0 0.1843100454414533 0.40126956181167389 0 0.1711416470664554 0.41062619466687539 0 0.1843100454414533 0.40126956181167389 0 0.16952276405911931 0.3912061138884545 0 0.1843100454414533 0.40126956181167389 0 0.16952276405911931 0.3912061138884545 0 0.18589276442329861 0.38606835492789338 0 0.15352992747694119 0.40026604784697911 0 0.1711416470664554 0.41062619466687539 0 0.16952276405911931 0.3912061138884545 0 0.15352992747694119 0.40026604784697911 0 0.15185568245476189 0.37707061606136422 0 0.16952276405911931 0.3912061138884545 0 0.17197644233242751 0.37002706837148541 0 0.15185568245476189 0.37707061606136422 0 0.16952276405911931 0.3912061138884545 0 0.17197644233242751 0.37002706837148541 0 0.16952276405911931 0.3912061138884545 0 0.18589276442329861 0.38606835492789338 0 0.19217836357317111 0.36996972767433872 0 0.17197644233242751 0.37002706837148541 0 0.18589276442329861 0.38606835492789338 0 0.18589276442329861 0.38606835492789338 0 0.20289108470775991 0.38370682355227331 0 0.19700705340585539 0.39579078134538831 0 0.19217836357317111 0.36996972767433872 0 0.18589276442329861 0.38606835492789338 0 0.20289108470775991 0.38370682355227331 0 0.19700705340585539 0.39579078134538831 0 0.21316338490038089 0.39704202397260657 0 0.19877798755638451 0.41086714246249401 0 0.1843100454414533 0.40126956181167389 0 0.19700705340585539 0.39579078134538831 0 0.19877798755638451 0.41086714246249401 0 0.1843100454414533 0.40126956181167389 0 0.18589276442329861 0.38606835492789338 0 0.19700705340585539 0.39579078134538831 0 0.20289108470775991 0.38370682355227331 0 0.19700705340585539 0.39579078134538831 0 0.21316338490038089 0.39704202397260657 0 0.20931495008602691 0.36890180222237801 0 0.20289108470775991 0.38370682355227331 0 0.21961872799640589 0.38146559318592133 0 0.20289108470775991 0.38370682355227331 0 0.21316338490038089 0.39704202397260657 0 0.21961872799640589 0.38146559318592133 0 0.22513916990612379 0.36868200325308897 0 0.21961872799640589 0.38146559318592133 0 0.2386764282036242 0.37725286527910618 0 0.21961872799640589 0.38146559318592133 0 0.22852735017452019 0.39320804083607441 0 0.2386764282036242 0.37725286527910618 0 0.21316338490038089 0.39704202397260657 0 0.21961872799640589 0.38146559318592133 0 0.22852735017452019 0.39320804083607441 0 0.21316338490038089 0.39704202397260657 0 0.22852735017452019 0.39320804083607441 0 0.22983145469658259 0.40925978250573319 0 0.21316338490038089 0.39704202397260657 0 0.22983145469658259 0.40925978250573319 0 0.22852735017452019 0.39320804083607441 0 0.2429624777480478 0.39890547698508871 0 0.22983145469658259 0.40925978250573319 0 0.2429624777480478 0.39890547698508871 0 0.2386764282036242 0.37725286527910618 0 0.22852735017452019 0.39320804083607441 0 0.2429624777480478 0.39890547698508871 0 0.2386764282036242 0.37725286527910618 0 0.2429624777480478 0.39890547698508871 0 0.2386764282036242 0.37725286527910618 0 0.25341304662754638 0.38974012394171498 0 0.2386764282036242 0.37725286527910618 0 0.25383912625151372 0.37755129754335942 0 0.25341304662754638 0.38974012394171498 0 0.24649952449278431 0.42147754103885982 0 0.22996656543308741 0.44177288309861867 0 0.24946733303660301 0.43176723098649622 0 0.24649952449278431 0.42147754103885982 0 0.22996656543308741 0.44177288309861867 0 0.24649952449278431 0.42147754103885982 0 0.22738899126970491 0.42458926785457718 0 0.22996656543308741 0.44177288309861867 0 0.24946733303660301 0.43176723098649622 0 0.24649952449278431 0.42147754103885982 0 0.2429624777480478 0.39890547698508871 0 0.24649952449278431 0.42147754103885982 0 0.24649952449278431 0.42147754103885982 0 0.22983145469658259 0.40925978250573319 0 0.22738899126970491 0.42458926785457718 0 0.24649952449278431 0.42147754103885982 0 0.22983145469658259 0.40925978250573319 0 0.2429624777480478 0.39890547698508871 0 0.24649952449278431 0.42147754103885982 0 0.22983145469658259 0.40925978250573319 0 0.21316338490038089 0.39704202397260657 0 0.22983145469658259 0.40925978250573319 0 0.21370806227123909 0.41789950377956148 0 0.22983145469658259 0.40925978250573319 0 0.22738899126970491 0.42458926785457718 0 0.21370806227123909 0.41789950377956148 0 0.22738899126970491 0.42458926785457718 0 0.21739304288862979 0.43200563017257382 0 0.22996656543308741 0.44177288309861867 0 0.22738899126970491 0.42458926785457718 0 0.21739304288862979 0.43200563017257382 0 0.21370806227123909 0.41789950377956148 0 0.21739304288862979 0.43200563017257382 0 0.1999317510848099 0.43097584272053618 0 0.2111195299095035 0.44359306409302351 0 0.21739304288862979 0.43200563017257382 0 0.21370806227123909 0.41789950377956148 0 0.1999317510848099 0.43097584272053618 0 0.21370806227123909 0.41789950377956148 0 0.19877798755638451 0.41086714246249401 0 0.1999317510848099 0.43097584272053618 0 0.21316338490038089 0.39704202397260657 0 0.21370806227123909 0.41789950377956148 0 0.19877798755638451 0.41086714246249401 0 0.18469425222239219 0.42125941149134333 0 0.19877798755638451 0.41086714246249401 0 0.1999317510848099 0.43097584272053618 0 0.18469425222239219 0.42125941149134333 0 0.1843100454414533 0.40126956181167389 0 0.19877798755638451 0.41086714246249401 0 0.18469425222239219 0.42125941149134333 0 0.1999317510848099 0.43097584272053618 0 0.1809560021812836 0.43814832633623357 0 0.1999317510848099 0.43097584272053618 0 0.19479511809318301 0.4526549487178691 0 0.2111195299095035 0.44359306409302351 0 0.1999317510848099 0.43097584272053618 0 0.19479511809318301 0.4526549487178691 0 0.1809560021812836 0.43814832633623357 0 0.19479511809318301 0.4526549487178691 0 0.213169792932182 0.46047172596691099 0 0.19211155850092579 0.47790980627879082 0 0.19479511809318301 0.4526549487178691 0 0.19211155850092579 0.47790980627879082 0 0.18348770279874721 0.46143911161818069 0 0.213169792932182 0.46047172596691099 0 0.2111195299095035 0.44359306409302351 0 0.22996656543308741 0.44177288309861867 0 0.19479511809318301 0.4526549487178691 0 0.213169792932182 0.46047172596691099 0 0.2111195299095035 0.44359306409302351 0 0.21739304288862979 0.43200563017257382 0 0.2111195299095035 0.44359306409302351 0 0.22996656543308741 0.44177288309861867 0 0.22996656543308741 0.44177288309861867 0 0.22854105436186559 0.46372788353366717 0 0.24141841662185301 0.45603819576859073 0 0.213169792932182 0.46047172596691099 0 0.22854105436186559 0.46372788353366717 0 0.221321310837439 0.47674074212904899 0 0.213169792932182 0.46047172596691099 0 0.22996656543308741 0.44177288309861867 0 0.22854105436186559 0.46372788353366717 0 0.24141841662185301 0.45603819576859073 0 0.23645949407781469 0.47608243786178739 0 0.25047151807745072 0.47036873115219768 0 0.22854105436186559 0.46372788353366717 0 0.24141841662185301 0.45603819576859073 0 0.23645949407781469 0.47608243786178739 0 0.24141841662185301 0.45603819576859073 0 0.25047151807745072 0.47036873115219768 0 0.25477099823403621 0.45804476415031298 0 0.24141841662185301 0.45603819576859073 0 0.25282491994113748 0.44831200937164878 0 0.25477099823403621 0.45804476415031298 0 0.22996656543308741 0.44177288309861867 0 0.24141841662185301 0.45603819576859073 0 0.24583280085865111 0.44361242472787987 0 0.24946733303660301 0.43176723098649622 0 0.22996656543308741 0.44177288309861867 0 0.24583280085865111 0.44361242472787987 0 0.24141841662185301 0.45603819576859073 0 0.24583280085865111 0.44361242472787987 0 0.25282491994113748 0.44831200937164878 0 0.24904418528453851 0.48634810883828161 0 0.23645949407781469 0.47608243786178739 0 0.23352830384551029 0.49999999999999978 0 0.24904418528453851 0.48634810883828161 0 0.23352830384551029 0.49999999999999978 0 0.25181722630913472 0.5 0 0.24904418528453851 0.48634810883828161 0 0.23645949407781469 0.47608243786178739 0 0.25047151807745072 0.47036873115219768 0 0.23645949407781469 0.47608243786178739 0 0.221321310837439 0.47674074212904899 0 0.23352830384551029 0.49999999999999978 0 0.22854105436186559 0.46372788353366717 0 0.23645949407781469 0.47608243786178739 0 0.221321310837439 0.47674074212904899 0 0.23352830384551029 0.49999999999999978 0 0.2128199311732181 0.48895490313939532 0 0.21702906166474581 0.5 0 0.23352830384551029 0.49999999999999978 0 0.2128199311732181 0.48895490313939532 0 0.221321310837439 0.47674074212904899 0 0.23352830384551029 0.49999999999999978 0 0.2128199311732181 0.48895490313939532 0 0.2128199311732181 0.48895490313939532 0 0.21702906166474581 0.5 0 0.20052981948398141 0.49999999999999989 0 0.213169792932182 0.46047172596691099 0 0.221321310837439 0.47674074212904899 0 0.19211155850092579 0.47790980627879082 0 0.221321310837439 0.47674074212904899 0 0.2128199311732181 0.48895490313939532 0 0.19211155850092579 0.47790980627879082 0 0.2128199311732181 0.48895490313939532 0 0.19211155850092579 0.47790980627879082 0 0.2128199311732181 0.48895490313939532 0 0.20052981948398141 0.49999999999999989 0 0.19295831529489699 0.4905304616351287 0 0.2128199311732181 0.48895490313939532 0 0.19211155850092579 0.47790980627879082 0 0.19295831529489699 0.4905304616351287 0 0.20052981948398141 0.49999999999999989 0 0.1839227339461352 0.49861489743603538 0 0.20052981948398141 0.49999999999999989 0 0.19295831529489699 0.4905304616351287 0 0.1839227339461352 0.49861489743603538 0 0.19211155850092579 0.47790980627879082 0 0.19295831529489699 0.4905304616351287 0 0.1809625144841838 0.48570342190566712 0 0.1839227339461352 0.49861489743603538 0 0.1809625144841838 0.48570342190566712 0 0.16731564840828889 0.49722979487207219 0 0.1839227339461352 0.49861489743603538 0 0.16731564840828889 0.49722979487207219 0 0.1839227339461352 0.49861489743603538 0 0.1669427425872391 0.49999999999999922 0 0.16731564840828889 0.49722979487207219 0 0.19295831529489699 0.4905304616351287 0 0.1839227339461352 0.49861489743603538 0 0.1809625144841838 0.48570342190566712 0 0.1809625144841838 0.48570342190566712 0 0.16731564840828889 0.49722979487207219 0 0.16935941711846161 0.48204725214512889 0 0.16731564840828889 0.49722979487207219 0 0.157708884996551 0.48584061526662409 0 0.14611751268168829 0.49546177892012921 0 0.16731564840828889 0.49722979487207219 0 0.14611751268168829 0.49546177892012921 0 0.1669427425872391 0.49999999999999922 0 0.16731564840828889 0.49722979487207219 0 0.14611751268168829 0.49546177892012921 0 0.1669427425872391 0.49999999999999922 0 0.16731564840828889 0.49722979487207219 0 0.16731564840828889 0.49722979487207219 0 0.16935941711846161 0.48204725214512889 0 0.16731564840828889 0.49722979487207219 0 0.157708884996551 0.48584061526662409 0 0.16935941711846161 0.48204725214512889 0 0.16382575626869561 0.4735735187060508 0 0.15802571703479451 0.46684670821381258 0 0.1531189490294651 0.47544631339495541 0 0.157708884996551 0.48584061526662409 0 0.16382575626869561 0.4735735187060508 0 0.1531189490294651 0.47544631339495541 0 0.157708884996551 0.48584061526662409 0 0.16382575626869561 0.4735735187060508 0 0.16935941711846161 0.48204725214512889 0 0.16935941711846161 0.48204725214512889 0 0.17140318582863401 0.46686470941818559 0 0.16382575626869561 0.4735735187060508 0 0.16935941711846161 0.48204725214512889 0 0.17140318582863401 0.46686470941818559 0 0.1809625144841838 0.48570342190566712 0 0.16935941711846161 0.48204725214512889 0 0.17140318582863401 0.46686470941818559 0 0.19211155850092579 0.47790980627879082 0 0.1809625144841838 0.48570342190566712 0 0.17140318582863401 0.46686470941818559 0 0.19211155850092579 0.47790980627879082 0 0.17140318582863401 0.46686470941818559 0 0.19479511809318301 0.4526549487178691 0 0.18348770279874721 0.46143911161818069 0 0.17341546959919829 0.45191605883299152 0 0.19211155850092579 0.47790980627879082 0 0.18348770279874721 0.46143911161818069 0 0.17140318582863401 0.46686470941818559 0 0.18348770279874721 0.46143911161818069 0 0.17341546959919829 0.45191605883299152 0 0.17140318582863401 0.46686470941818559 0 0.17341546959919829 0.45191605883299152 0 0.17140318582863401 0.46686470941818559 0 0.19479511809318301 0.4526549487178691 0 0.1809560021812836 0.43814832633623357 0 0.17341546959919829 0.45191605883299152 0 0.1809560021812836 0.43814832633623357 0 0.17341546959919829 0.45191605883299152 0 0.16598328874466911 0.44273574664910909 0 0.17341546959919829 0.45191605883299152 0 0.16598328874466911 0.44273574664910909 0 0.15954778128093949 0.4508222386347599 0 0.16598328874466911 0.44273574664910909 0 0.15954778128093949 0.4508222386347599 0 0.1507341445198021 0.44370602134863157 0 0.16526304614212209 0.42908608809292892 0 0.16598328874466911 0.44273574664910909 0 0.1507341445198021 0.44370602134863157 0 0.16382575626869561 0.4735735187060508 0 0.1651762257979181 0.46354347419730452 0 0.17140318582863401 0.46686470941818559 0 0.1651762257979181 0.46354347419730452 0 0.17140318582863401 0.46686470941818559 0 0.17341546959919829 0.45191605883299152 0 0.1651762257979181 0.46354347419730452 0 0.17140318582863401 0.46686470941818559 0 0.17341546959919829 0.45191605883299152 0 0.15954778128093949 0.4508222386347599 0 0.1651762257979181 0.46354347419730452 0 0.15954778128093949 0.4508222386347599 0 0.1651762257979181 0.46354347419730452 0 0.1582471669695637 0.45974252444074731 0 0.16382575626869561 0.4735735187060508 0 0.1651762257979181 0.46354347419730452 0 0.15802571703479451 0.46684670821381258 0 0.1651762257979181 0.46354347419730452 0 0.1582471669695637 0.45974252444074731 0 0.15802571703479451 0.46684670821381258 0 0.14976048710833001 0.46192771033000529 0 0.1507341445198021 0.44370602134863157 0 0.136404492151351 0.45486193181106682 0 0.1582471669695637 0.45974252444074731 0 0.15802571703479451 0.46684670821381258 0 0.14976048710833001 0.46192771033000529 0 0.15802571703479451 0.46684670821381258 0 0.14976048710833001 0.46192771033000529 0 0.1531189490294651 0.47544631339495541 0 0.15954778128093949 0.4508222386347599 0 0.1582471669695637 0.45974252444074731 0 0.14976048710833001 0.46192771033000529 0 0.14976048710833001 0.46192771033000529 0 0.136404492151351 0.45486193181106682 0 0.13663143795624749 0.46910754811773492 0 0.15954778128093949 0.4508222386347599 0 0.14976048710833001 0.46192771033000529 0 0.1507341445198021 0.44370602134863157 0 0.1507341445198021 0.44370602134863157 0 0.13510526379757609 0.44116740875256688 0 0.136404492151351 0.45486193181106682 0 0.1221607865463437 0.4507156547582637 0 0.12259086230274099 0.42947812748907283 0 0.13510526379757609 0.44116740875256688 0 0.1221607865463437 0.4507156547582637 0 0.13510526379757609 0.44116740875256688 0 0.136404492151351 0.45486193181106682 0 0.136404492151351 0.45486193181106682 0 0.1267882431275838 0.46370707134437261 0 0.13663143795624749 0.46910754811773492 0 0.1221607865463437 0.4507156547582637 0 0.136404492151351 0.45486193181106682 0 0.1267882431275838 0.46370707134437261 0 0.1267882431275838 0.46370707134437261 0 0.12569724768963239 0.47617993877849962 0 0.13663143795624749 0.46910754811773492 0 0.12569724768963239 0.47617993877849962 0 0.13663143795624749 0.46910754811773492 0 0.1364132019148096 0.48384982340983701 0 0.13663143795624749 0.46910754811773492 0 0.1364132019148096 0.48384982340983701 0 0.14361111091913481 0.47574478002545789 0 0.1249193769550877 0.49369376296818718 0 0.1364132019148096 0.48384982340983701 0 0.14611751268168829 0.49546177892012921 0 0.1249193769550877 0.49369376296818718 0 0.14611751268168829 0.49546177892012921 0 0.1249193769550877 0.49369376296818718 0 0.12569724768963239 0.47617993877849962 0 0.1364132019148096 0.48384982340983701 0 0.1249193769550877 0.49369376296818718 0 0.13738437864054501 0.5 0 0.14611751268168829 0.49546177892012921 0 0.1364132019148096 0.48384982340983701 0 0.14611751268168829 0.49546177892012921 0 0.14718343377546941 0.48347361591025501 0 0.1669427425872391 0.49999999999999922 0 0.13738437864054501 0.5 0 0.14611751268168829 0.49546177892012921 0 0.157708884996551 0.48584061526662409 0 0.14611751268168829 0.49546177892012921 0 0.14718343377546941 0.48347361591025501 0 0.157708884996551 0.48584061526662409 0 0.1531189490294651 0.47544631339495541 0 0.14718343377546941 0.48347361591025501 0 0.14976048710833001 0.46192771033000529 0 0.1531189490294651 0.47544631339495541 0 0.14361111091913481 0.47574478002545789 0 0.14976048710833001 0.46192771033000529 0 0.13663143795624749 0.46910754811773492 0 0.14361111091913481 0.47574478002545789 0 0.1364132019148096 0.48384982340983701 0 0.14361111091913481 0.47574478002545789 0 0.14718343377546941 0.48347361591025501 0 0.1531189490294651 0.47544631339495541 0 0.14361111091913481 0.47574478002545789 0 0.14718343377546941 0.48347361591025501 0 0.35832214194920592 0.47929915408112939 0 0.34611268429232461 0.46591887339206078 0 0.3375369348076922 0.4829399206954248 0 0.35832214194920592 0.47929915408112939 0 0.35850557312216419 0.5 0 0.3375369348076922 0.4829399206954248 0 0.35850557312216419 0.5 0 0.37801407526051067 0.48065415083330842 0 0.38797204790529932 0.5 0 0.35832214194920592 0.47929915408112939 0 0.35850557312216419 0.5 0 0.37801407526051067 0.48065415083330842 0 0.35832214194920592 0.47929915408112939 0 0.36980735363827261 0.46050290225189661 0 0.37801407526051067 0.48065415083330842 0 0.36980735363827261 0.46050290225189661 0 0.34502769605759259 0.44546544446971242 0 0.36959298495063608 0.43610817863788948 0 0.35832214194920592 0.47929915408112939 0 0.36980735363827261 0.46050290225189661 0 0.34611268429232461 0.46591887339206078 0 0.36980735363827261 0.46050290225189661 0 0.34502769605759259 0.44546544446971242 0 0.34611268429232461 0.46591887339206078 0 0.36980735363827261 0.46050290225189661 0 0.34611268429232461 0.46591887339206078 0 0.34611268429232461 0.46591887339206078 0 0.3317687487832644 0.45597005559148451 0 0.32241801494637662 0.47133484453222518 0 0.34502769605759259 0.44546544446971242 0 0.34611268429232461 0.46591887339206078 0 0.3317687487832644 0.45597005559148451 0 0.34611268429232461 0.46591887339206078 0 0.32241801494637662 0.47133484453222518 0 0.34502769605759259 0.44546544446971242 0 0.3317687487832644 0.45597005559148451 0 0.32480939915707069 0.44218818576869201 0 0.34502769605759259 0.44546544446971242 0 0.32480939915707069 0.44218818576869201 0 0.33523501366627878 0.43221560569608392 0 0.3107318966111981 0.4514989769174147 0 0.3227404476219688 0.42624713816244092 0 0.3317687487832644 0.45597005559148451 0 0.32480939915707069 0.44218818576869201 0 0.3107318966111981 0.4514989769174147 0 0.32480939915707069 0.44218818576869201 0 0.3107318966111981 0.4514989769174147 0 0.3227404476219688 0.42624713816244092 0 0.3317687487832644 0.45597005559148451 0 0.32241801494637662 0.47133484453222518 0 0.3107318966111981 0.4514989769174147 0 0.32241801494637662 0.47133484453222518 0 0.3375369348076922 0.4829399206954248 0 0.31372501333874958 0.48784291822244708 0 0.34611268429232461 0.46591887339206078 0 0.32241801494637662 0.47133484453222518 0 0.3375369348076922 0.4829399206954248 0 0.35850557312216419 0.5 0 0.3375369348076922 0.4829399206954248 0 0.32903909833902928 0.5 0 0.32903909833902928 0.5 0 0.31372501333874958 0.48784291822244708 0 0.29957262355589431 0.5 0 0.3375369348076922 0.4829399206954248 0 0.32903909833902928 0.5 0 0.31372501333874958 0.48784291822244708 0 0.31372501333874958 0.48784291822244708 0 0.30130976803097798 0.48891801032572652 0 0.29957262355589431 0.5 0 0.31372501333874958 0.48784291822244708 0 0.30130976803097798 0.48891801032572652 0 0.29872334560042851 0.47675081567238892 0 0.30130976803097798 0.48891801032572652 0 0.29957262355589431 0.5 0 0.28978827390519868 0.49553967616935518 0 0.32241801494637662 0.47133484453222518 0 0.29872334560042851 0.47675081567238892 0 0.32241801494637662 0.47133484453222518 0 0.31372501333874958 0.48784291822244708 0 0.29872334560042851 0.47675081567238892 0 0.29872334560042851 0.47675081567238892 0 0.28397488520641462 0.48012192141307769 0 0.28978827390519868 0.49553967616935518 0 0.29872334560042851 0.47675081567238892 0 0.28929399795500932 0.47058792179259418 0 0.29703527816799058 0.46117092995693892 0 0.29872334560042851 0.47675081567238892 0 0.28929399795500932 0.47058792179259418 0 0.28397488520641462 0.48012192141307769 0 0.29872334560042851 0.47675081567238892 0 0.28397488520641462 0.48012192141307769 0 0.28929399795500932 0.47058792179259418 0 0.28397488520641462 0.48012192141307769 0 0.27920072977811172 0.47805830749059319 0 0.28397488520641462 0.48012192141307769 0 0.28978827390519868 0.49553967616935518 0 0.27010614877275918 0.50000000000000067 0 0.29957262355589431 0.5 0 0.28978827390519868 0.49553967616935518 0 0.27010614877275918 0.50000000000000067 0 0.30130976803097798 0.48891801032572652 0 0.29872334560042851 0.47675081567238892 0 0.28978827390519868 0.49553967616935518 0 0.29872334560042851 0.47675081567238892 0 0.28978827390519868 0.49553967616935518 0 0.28397488520641462 0.48012192141307769 0 0.27010614877275918 0.50000000000000067 0 0.27920072977811172 0.47805830749059319 0 0.27010614877275918 0.50000000000000067 0 0.26909437115437917 0.48384867389528768 0 0.26130641782501518 0.49139676135406141 0 0.27010614877275918 0.50000000000000067 0 0.27920072977811172 0.47805830749059319 0 0.26909437115437917 0.48384867389528768 0 0.27010614877275918 0.50000000000000067 0 0.27920072977811172 0.47805830749059319 0 0.27920072977811172 0.47805830749059319 0 0.27306774476234302 0.47644699960251641 0 0.26909437115437917 0.48384867389528768 0 0.27920072977811172 0.47805830749059319 0 0.27306774476234302 0.47644699960251641 0 0.27643472525740193 0.46726539210963169 0 0.26824582816420722 0.47348896141386071 0 0.27306774476234302 0.47644699960251641 0 0.27643472525740193 0.46726539210963169 0 0.26824582816420722 0.47348896141386071 0 0.26909437115437917 0.48384867389528768 0 0.25993240985832161 0.47939275616227872 0 0.26824582816420722 0.47348896141386071 0 0.27306774476234302 0.47644699960251641 0 0.26909437115437917 0.48384867389528768 0 0.24904418528453851 0.48634810883828161 0 0.25993240985832161 0.47939275616227872 0 0.25047151807745072 0.47036873115219768 0 0.26824582816420722 0.47348896141386071 0 0.25993240985832161 0.47939275616227872 0 0.26165523792153211 0.46576309323832682 0 0.25993240985832161 0.47939275616227872 0 0.25047151807745072 0.47036873115219768 0 0.26165523792153211 0.46576309323832682 0 0.27010614877275918 0.50000000000000067 0 0.25181722630913472 0.5 0 0.26130641782501518 0.49139676135406141 0 0.24904418528453851 0.48634810883828161 0 0.25993240985832161 0.47939275616227872 0 0.26130641782501518 0.49139676135406141 0 0.24904418528453851 0.48634810883828161 0 0.25181722630913472 0.5 0 0.26130641782501518 0.49139676135406141 0 0.26909437115437917 0.48384867389528768 0 0.25993240985832161 0.47939275616227872 0 0.26130641782501518 0.49139676135406141 0 0.26490489917960358 0.45079530358348557 0 0.25548676926057468 0.44017180441404491 0 0.26331147225899149 0.43380076267102891 0 0.24946733303660301 0.43176723098649622 0 0.24583280085865111 0.44361242472787987 0 0.25548676926057468 0.44017180441404491 0 0.24583280085865111 0.44361242472787987 0 0.25548676926057468 0.44017180441404491 0 0.25282491994113748 0.44831200937164878 0 0.26490489917960358 0.45079530358348557 0 0.25548676926057468 0.44017180441404491 0 0.25282491994113748 0.44831200937164878 0 0.26490489917960358 0.45079530358348557 0 0.25282491994113748 0.44831200937164878 0 0.25477099823403621 0.45804476415031298 0 0.25047151807745072 0.47036873115219768 0 0.25477099823403621 0.45804476415031298 0 0.26165523792153211 0.46576309323832682 0 0.26490489917960358 0.45079530358348557 0 0.25477099823403621 0.45804476415031298 0 0.26165523792153211 0.46576309323832682 0 0.26490489917960358 0.45079530358348557 0 0.27160577401557351 0.46248804296782559 0 0.27679169795675967 0.45600994403837303 0 0.26490489917960358 0.45079530358348557 0 0.26165523792153211 0.46576309323832682 0 0.27160577401557351 0.46248804296782559 0 0.26824582816420722 0.47348896141386071 0 0.27160577401557351 0.46248804296782559 0 0.27643472525740193 0.46726539210963169 0 0.26824582816420722 0.47348896141386071 0 0.26165523792153211 0.46576309323832682 0 0.27160577401557351 0.46248804296782559 0 0.27160577401557351 0.46248804296782559 0 0.27643472525740193 0.46726539210963169 0 0.27679169795675967 0.45600994403837303 0 0.27643472525740193 0.46726539210963169 0 0.27679169795675967 0.45600994403837303 0 0.28829531078346382 0.45611661498118572 0 0.27903440424894049 0.4453257315987294 0 0.26331147225899149 0.43380076267102891 0 0.26490489917960358 0.45079530358348557 0 0.27903440424894049 0.4453257315987294 0 0.26331147225899149 0.43380076267102891 0 0.26490489917960358 0.45079530358348557 0 0.27679169795675967 0.45600994403837303 0 0.27903440424894049 0.4453257315987294 0 0.27903440424894049 0.4453257315987294 0 0.2917470315179379 0.44281751567604499 0 0.28179675760275558 0.42932557237874241 0 0.27679169795675967 0.45600994403837303 0 0.27903440424894049 0.4453257315987294 0 0.28829531078346382 0.45611661498118572 0 0.27903440424894049 0.4453257315987294 0 0.2917470315179379 0.44281751567604499 0 0.28829531078346382 0.45611661498118572 0 0.2917470315179379 0.44281751567604499 0 0.28829531078346382 0.45611661498118572 0 0.29813183988985342 0.45090032042111128 0 0.27920072977811172 0.47805830749059319 0 0.27643472525740193 0.46726539210963169 0 0.28829531078346382 0.45611661498118572 0 0.28929399795500932 0.47058792179259418 0 0.27920072977811172 0.47805830749059319 0 0.28829531078346382 0.45611661498118572 0 0.27920072977811172 0.47805830749059319 0 0.28829531078346382 0.45611661498118572 0 0.28829531078346382 0.45611661498118572 0 0.29703527816799058 0.46117092995693892 0 0.29813183988985342 0.45090032042111128 0 0.28929399795500932 0.47058792179259418 0 0.28829531078346382 0.45611661498118572 0 0.29703527816799058 0.46117092995693892 0 0.29872334560042851 0.47675081567238892 0 0.29703527816799058 0.46117092995693892 0 0.3107318966111981 0.4514989769174147 0 0.29872334560042851 0.47675081567238892 0 0.3107318966111981 0.4514989769174147 0 0.32241801494637662 0.47133484453222518 0 0.29872334560042851 0.47675081567238892 0 0.3107318966111981 0.4514989769174147 0 0.29703527816799058 0.46117092995693892 0 0.29813183988985342 0.45090032042111128 0 0.3107318966111981 0.4514989769174147 0 0.30159082278473881 0.44219288247638061 0 0.3107318966111981 0.4514989769174147 0 0.30884109342504262 0.43428586920116352 0 0.2917470315179379 0.44281751567604499 0 0.30159082278473881 0.44219288247638061 0 0.29850225247966211 0.43146173016616862 0 0.2917470315179379 0.44281751567604499 0 0.30159082278473881 0.44219288247638061 0 0.29813183988985342 0.45090032042111128 0 0.30159082278473881 0.44219288247638061 0 0.29813183988985342 0.45090032042111128 0 0.3107318966111981 0.4514989769174147 0 0.30884109342504262 0.43428586920116352 0 0.29850225247966211 0.43146173016616862 0 0.30862162828234507 0.42004495563460759 0 0.29850225247966211 0.43146173016616862 0 0.30862162828234507 0.42004495563460759 0 0.29547148538100448 0.41817397575591742 0 0.30159082278473881 0.44219288247638061 0 0.30884109342504262 0.43428586920116352 0 0.29850225247966211 0.43146173016616862 0 0.30862162828234507 0.42004495563460759 0 0.30304430461131138 0.40735012112542651 0 0.3196782615082488 0.40265332564926309 0 0.30862162828234507 0.42004495563460759 0 0.30304430461131138 0.40735012112542651 0 0.29547148538100448 0.41817397575591742 0 0.30304430461131138 0.40735012112542651 0 0.29062365375375682 0.40708788978866228 0 0.29547148538100448 0.41817397575591742 0 0.29062365375375682 0.40708788978866228 0 0.29547148538100448 0.41817397575591742 0 0.28288479604298378 0.41446876034122271 0 0.29547148538100448 0.41817397575591742 0 0.28288479604298378 0.41446876034122271 0 0.28179675760275558 0.42932557237874241 0 0.29062365375375682 0.40708788978866228 0 0.28288479604298378 0.41446876034122271 0 0.28001120465417539 0.40182109974822727 0 0.29850225247966211 0.43146173016616862 0 0.29547148538100448 0.41817397575591742 0 0.28179675760275558 0.42932557237874241 0 0.2917470315179379 0.44281751567604499 0 0.29850225247966211 0.43146173016616862 0 0.28179675760275558 0.42932557237874241 0 0.28179675760275558 0.42932557237874241 0 0.27042562322166658 0.41684269204638819 0 0.26331147225899149 0.43380076267102891 0 0.27903440424894049 0.4453257315987294 0 0.28179675760275558 0.42932557237874241 0 0.26331147225899149 0.43380076267102891 0 0.27042562322166658 0.41684269204638819 0 0.26380858941988822 0.4002294757553399 0 0.28001120465417539 0.40182109974822727 0 0.28288479604298378 0.41446876034122271 0 0.28179675760275558 0.42932557237874241 0 0.27042562322166658 0.41684269204638819 0 0.28288479604298378 0.41446876034122271 0 0.27042562322166658 0.41684269204638819 0 0.28001120465417539 0.40182109974822727 0 0.24649952449278431 0.42147754103885982 0 0.25492995388566009 0.41993008507457552 0 0.26380858941988822 0.4002294757553399 0 0.27042562322166658 0.41684269204638819 0 0.25492995388566009 0.41993008507457552 0 0.26380858941988822 0.4002294757553399 0 0.24649952449278431 0.42147754103885982 0 0.26380858941988822 0.4002294757553399 0 0.2429624777480478 0.39890547698508871 0 0.24649952449278431 0.42147754103885982 0 0.26380858941988822 0.4002294757553399 0 0.24946733303660301 0.43176723098649622 0 0.24649952449278431 0.42147754103885982 0 0.26331147225899149 0.43380076267102891 0 0.24649952449278431 0.42147754103885982 0 0.25492995388566009 0.41993008507457552 0 0.26331147225899149 0.43380076267102891 0 0.24649952449278431 0.42147754103885982 0 0.26331147225899149 0.43380076267102891 0 0.27042562322166658 0.41684269204638819 0 0.25492995388566009 0.41993008507457552 0 0.26331147225899149 0.43380076267102891 0 0.24946733303660301 0.43176723098649622 0 0.25548676926057468 0.44017180441404491 0 0.26331147225899149 0.43380076267102891 0 0.26350653962281989 0.38010735630523079 0 0.25341304662754638 0.38974012394171498 0 0.26380858941988822 0.4002294757553399 0 0.26350653962281989 0.38010735630523079 0 0.25383912625151372 0.37755129754335942 0 0.25710864090743918 0.37145542319719338 0 0.26350653962281989 0.38010735630523079 0 0.25383912625151372 0.37755129754335942 0 0.25341304662754638 0.38974012394171498 0 0.2429624777480478 0.39890547698508871 0 0.25341304662754638 0.38974012394171498 0 0.26380858941988822 0.4002294757553399 0 0.26380858941988822 0.4002294757553399 0 0.28001120465417539 0.40182109974822727 0 0.28036865154730628 0.37990086281960789 0 0.26350653962281989 0.38010735630523079 0 0.28036865154730628 0.37990086281960789 0 0.2641967246118288 0.36596915937278562 0 0.26380858941988822 0.4002294757553399 0 0.28036865154730628 0.37990086281960789 0 0.26350653962281989 0.38010735630523079 0 0.26380858941988822 0.4002294757553399 0 0.28036865154730628 0.37990086281960789 0 0.28036865154730628 0.37990086281960789 0 0.29170647807930872 0.39362549197251728 0 0.2987730087010142 0.37934426936791982 0 0.28036865154730628 0.37990086281960789 0 0.29170647807930872 0.39362549197251728 0 0.28001120465417539 0.40182109974822727 0 0.28036865154730628 0.37990086281960789 0 0.29170647807930872 0.39362549197251728 0 0.29062365375375682 0.40708788978866228 0 0.28001120465417539 0.40182109974822727 0 0.29170647807930872 0.39362549197251728 0 0.30304430461131138 0.40735012112542651 0 0.29062365375375682 0.40708788978866228 0 0.29170647807930872 0.39362549197251728 0 0.30304430461131138 0.40735012112542651 0 0.30637452063024528 0.39219955594670219 0 0.3196782615082488 0.40265332564926309 0 0.30304430461131138 0.40735012112542651 0 0.29170647807930872 0.39362549197251728 0 0.30304430461131138 0.40735012112542651 0 0.29170647807930872 0.39362549197251728 0 0.30637452063024528 0.39219955594670219 0 0.30637452063024528 0.39219955594670219 0 0.2987730087010142 0.37934426936791982 0 0.31661607539452802 0.37905951313608538 0 0.29170647807930872 0.39362549197251728 0 0.30637452063024528 0.39219955594670219 0 0.2987730087010142 0.37934426936791982 0 0.31661607539452802 0.37905951313608538 0 0.32905198958534931 0.38831461949406398 0 0.3196782615082488 0.40265332564926309 0 0.31661607539452802 0.37905951313608538 0 0.32905198958534931 0.38831461949406398 0 0.33389487655237682 0.3658352592629312 0 0.32905198958534931 0.38831461949406398 0 0.34270248502322931 0.38427053755298168 0 0.33389487655237682 0.3658352592629312 0 0.32905198958534931 0.38831461949406398 0 0.34270248502322931 0.38427053755298168 0 0.33272146632259869 0.40525883785771122 0 0.34270248502322931 0.38427053755298168 0 0.33272146632259869 0.40525883785771122 0 0.34270248502322931 0.38427053755298168 0 0.33272146632259869 0.40525883785771122 0 0.34670895149724801 0.40816004440777182 0 0.31661607539452802 0.37905951313608538 0 0.3196782615082488 0.40265332564926309 0 0.32905198958534931 0.38831461949406398 0 0.33272146632259869 0.40525883785771122 0 0.3196782615082488 0.40265332564926309 0 0.30637452063024528 0.39219955594670219 0 0.31661607539452802 0.37905951313608538 0 0.3196782615082488 0.40265332564926309 0 0.3196782615082488 0.40265332564926309 0 0.3227404476219688 0.42624713816244092 0 0.30862162828234507 0.42004495563460759 0 0.3196782615082488 0.40265332564926309 0 0.3227404476219688 0.42624713816244092 0 0.33272146632259869 0.40525883785771122 0 0.3196782615082488 0.40265332564926309 0 0.3227404476219688 0.42624713816244092 0 0.33272146632259869 0.40525883785771122 0 0.3227404476219688 0.42624713816244092 0 0.32480939915707069 0.44218818576869201 0 0.3227404476219688 0.42624713816244092 0 0.3107318966111981 0.4514989769174147 0 0.30884109342504262 0.43428586920116352 0 0.3227404476219688 0.42624713816244092 0 0.32480939915707069 0.44218818576869201 0 0.3227404476219688 0.42624713816244092 0 0.33523501366627878 0.43221560569608392 0 0.30884109342504262 0.43428586920116352 0 0.30862162828234507 0.42004495563460759 0 0.3227404476219688 0.42624713816244092 0 0.34502769605759259 0.44546544446971242 0 0.33523501366627878 0.43221560569608392 0 0.34795858503051302 0.425881111768525 0 0.3227404476219688 0.42624713816244092 0 0.33523501366627878 0.43221560569608392 0 0.33659904832278342 0.4201421825902541 0 0.33523501366627878 0.43221560569608392 0 0.33659904832278342 0.4201421825902541 0 0.34795858503051302 0.425881111768525 0 0.33272146632259869 0.40525883785771122 0 0.3227404476219688 0.42624713816244092 0 0.33659904832278342 0.4201421825902541 0 0.33272146632259869 0.40525883785771122 0 0.33659904832278342 0.4201421825902541 0 0.34670895149724801 0.40816004440777182 0 0.33659904832278342 0.4201421825902541 0 0.34670895149724801 0.40816004440777182 0 0.34795858503051302 0.425881111768525 0 0.34670895149724801 0.40816004440777182 0 0.34795858503051302 0.425881111768525 0 0.36336601300371613 0.41450991002864218 0 0.34670895149724801 0.40816004440777182 0 0.36336601300371613 0.41450991002864218 0 0.35690611128064731 0.3988976866485166 0 0.34502769605759259 0.44546544446971242 0 0.34795858503051302 0.425881111768525 0 0.36959298495063608 0.43610817863788948 0 0.34795858503051302 0.425881111768525 0 0.36959298495063608 0.43610817863788948 0 0.36336601300371613 0.41450991002864218 0 0.36959298495063608 0.43610817863788948 0 0.36336601300371613 0.41450991002864218 0 0.38530342098431941 0.41064856824057122 0 0.36336601300371613 0.41450991002864218 0 0.3736470799201031 0.39378130610698531 0 0.38530342098431941 0.41064856824057122 0 0.3736470799201031 0.39378130610698531 0 0.3601059063978746 0.38125551426405008 0 0.35690611128064731 0.3988976866485166 0 0.36336601300371613 0.41450991002864218 0 0.3736470799201031 0.39378130610698531 0 0.35690611128064731 0.3988976866485166 0 0.3736470799201031 0.39378130610698531 0 0.3601059063978746 0.38125551426405008 0 0.37414389550204002 0.36898578533419818 0 0.34270248502322931 0.38427053755298168 0 0.3601059063978746 0.38125551426405008 0 0.35690611128064731 0.3988976866485166 0 0.34270248502322931 0.38427053755298168 0 0.3601059063978746 0.38125551426405008 0 0.35268350372385993 0.36328223724825232 0 0.34270248502322931 0.38427053755298168 0 0.34670895149724801 0.40816004440777182 0 0.35690611128064731 0.3988976866485166 0 0.35268350372385993 0.36328223724825232 0 0.36266452242448938 0.34229393694352239 0 0.35030182712711511 0.35130594720886232 0 0.35268350372385993 0.36328223724825232 0 0.36266452242448938 0.34229393694352239 0 0.35030182712711511 0.35130594720886232 0 0.35146565257524442 0.34420791440797271 0 0.36266452242448938 0.34229393694352239 0 0.35030182712711511 0.35130594720886232 0 0.35146565257524442 0.34420791440797271 0 0.34269927497721508 0.34493512072036142 0 0.35030182712711511 0.35130594720886232 0 0.35268350372385993 0.36328223724825232 0 0.33389487655237682 0.3658352592629312 0 0.34270248502322931 0.38427053755298168 0 0.35268350372385993 0.36328223724825232 0 0.3601059063978746 0.38125551426405008 0 0.35268350372385993 0.36328223724825232 0 0.37414389550204002 0.36898578533419818 0 0.35268350372385993 0.36328223724825232 0 0.37414389550204002 0.36898578533419818 0 0.36300645299402812 0.35604351837507042 0 0.37414389550204002 0.36898578533419818 0 0.37228166628853332 0.35471301169251829 0 0.36300645299402812 0.35604351837507042 0 0.35268350372385993 0.36328223724825232 0 0.36300645299402812 0.35604351837507042 0 0.36266452242448938 0.34229393694352239 0 0.37228166628853332 0.35471301169251829 0 0.36300645299402812 0.35604351837507042 0 0.36840829020790361 0.34668560051738673 0 0.36300645299402812 0.35604351837507042 0 0.36840829020790361 0.34668560051738673 0 0.36266452242448938 0.34229393694352239 0 0.36840829020790361 0.34668560051738673 0 0.36266452242448938 0.34229393694352239 0 0.36587418437400321 0.34278907974668538 0 0.37228166628853332 0.35471301169251829 0 0.36840829020790361 0.34668560051738673 0 0.37486749369974542 0.34694596905823039 0 0.37486749369974542 0.34694596905823039 0 0.37256750073976291 0.34304532959464751 0 0.37670219357667811 0.34177383067972761 0 0.36840829020790361 0.34668560051738673 0 0.37486749369974542 0.34694596905823039 0 0.37256750073976291 0.34304532959464751 0 0.36124897776362869 0.33531944770056321 0 0.36266452242448938 0.34229393694352239 0 0.36411885078159001 0.32644375487552563 0 0.37256750073976291 0.34304532959464751 0 0.36916640720496519 0.34145859007673351 0 0.37369311900952262 0.33836265764115908 0 0.37256750073976291 0.34304532959464751 0 0.37369311900952262 0.33836265764115908 0 0.37670219357667811 0.34177383067972761 0 0.36266452242448938 0.34229393694352239 0 0.37014896644917339 0.316543878568457 0 0.36770298492566261 0.33637877995368609 0 0.36266452242448938 0.34229393694352239 0 0.37368960646642962 0.31911015363466272 0 0.36770298492566261 0.33637877995368609 0 0.36985494237623989 0.33311962493185521 0 0.37368960646642962 0.31911015363466272 0 0.36266452242448938 0.34229393694352239 0 0.37368960646642962 0.31911015363466272 0 0.36266452242448938 0.34229393694352239 0 0.37014896644917339 0.316543878568457 0 0.36411885078159001 0.32644375487552563 0 0.36840829020790361 0.34668560051738673 0 0.36916640720496519 0.34145859007673351 0 0.36587418437400321 0.34278907974668538 0 0.36840829020790361 0.34668560051738673 0 0.37256750073976291 0.34304532959464751 0 0.36916640720496519 0.34145859007673351 0 0.36916640720496519 0.34145859007673351 0 0.36587418437400321 0.34278907974668538 0 0.36708394454210669 0.33994961910346172 0 0.36916640720496519 0.34145859007673351 0 0.37010024416019238 0.33739894816112592 0 0.36708394454210669 0.33994961910346172 0 0.36916640720496519 0.34145859007673351 0 0.37010024416019238 0.33739894816112592 0 0.37369311900952262 0.33836265764115908 0 0.36770298492566261 0.33637877995368609 0 0.37010024416019238 0.33739894816112592 0 0.36708394454210669 0.33994961910346172 0 0.37010024416019238 0.33739894816112592 0 0.37369311900952262 0.33836265764115908 0 0.3722735272100694 0.33425106354392481 0 0.3722735272100694 0.33425106354392481 0 0.37245621682226088 0.32924087979990557 0 0.375263113682131 0.33313320718557798 0 0.37369311900952262 0.33836265764115908 0 0.3722735272100694 0.33425106354392481 0 0.375263113682131 0.33313320718557798 0 0.3722735272100694 0.33425106354392481 0 0.37245621682226088 0.32924087979990557 0 0.36985494237623989 0.33311962493185521 0 0.37245621682226088 0.32924087979990557 0 0.37577016905582622 0.32787937856968757 0 0.375263113682131 0.33313320718557798 0 0.37010024416019238 0.33739894816112592 0 0.3722735272100694 0.33425106354392481 0 0.36985494237623989 0.33311962493185521 0 0.36770298492566261 0.33637877995368609 0 0.37010024416019238 0.33739894816112592 0 0.36985494237623989 0.33311962493185521 0 0.36128237795215928 0.33126347269122047 0 0.36124897776362869 0.33531944770056321 0 0.36411885078159001 0.32644375487552563 0 0.36150631125237548 0.32912422255951068 0 0.36128237795215928 0.33126347269122047 0 0.36411885078159001 0.32644375487552563 0 0.36150631125237548 0.32912422255951068 0 0.35994194411877378 0.32646204206530971 0 0.35835984371964152 0.33045614064968309 0 0.36128237795215928 0.33126347269122047 0 0.35899626180536931 0.33430086833413269 0 0.35835984371964152 0.33045614064968309 0 0.36150631125237548 0.32912422255951068 0 0.36128237795215928 0.33126347269122047 0 0.35835984371964152 0.33045614064968309 0 0.36128237795215928 0.33126347269122047 0 0.36124897776362869 0.33531944770056321 0 0.35899626180536931 0.33430086833413269 0 0.36124897776362869 0.33531944770056321 0 0.36001134864139028 0.33778823672905661 0 0.35899626180536931 0.33430086833413269 0 0.36124897776362869 0.33531944770056321 0 0.36001134864139028 0.33778823672905661 0 0.36266452242448938 0.34229393694352239 0 0.36001134864139028 0.33778823672905661 0 0.36266452242448938 0.34229393694352239 0 0.3582225103283424 0.33883319475427592 0 0.36266452242448938 0.34229393694352239 0 0.36587418437400321 0.34278907974668538 0 0.36708394454210669 0.33994961910346172 0 0.36770298492566261 0.33637877995368609 0 0.36266452242448938 0.34229393694352239 0 0.36708394454210669 0.33994961910346172 0 0.36266452242448938 0.34229393694352239 0 0.37368960646642962 0.31911015363466272 0 0.37014896644917339 0.316543878568457 0 0.37014896644917339 0.316543878568457 0 0.36604953812300478 0.31497278055865852 0 0.36630954626425261 0.31087512405144152 0 0.37499251130121058 0.31593455150060828 0 0.37014896644917339 0.316543878568457 0 0.37695808612291098 0.31120865645681561 0 0.37499251130121058 0.31593455150060828 0 0.37368960646642962 0.31911015363466272 0 0.37014896644917339 0.316543878568457 0 0.37014896644917339 0.316543878568457 0 0.36646072203027302 0.32009490443849897 0 0.3659238024377004 0.31770243144255911 0 0.37014896644917339 0.316543878568457 0 0.3659238024377004 0.31770243144255911 0 0.36604953812300478 0.31497278055865852 0 0.37245621682226088 0.32924087979990557 0 0.36985494237623989 0.33311962493185521 0 0.37368960646642962 0.31911015363466272 0 0.37245621682226088 0.32924087979990557 0 0.37368960646642962 0.31911015363466272 0 0.37506056064123422 0.32471797871916308 0 0.37245621682226088 0.32924087979990557 0 0.37577016905582622 0.32787937856968757 0 0.37506056064123422 0.32471797871916308 0 0.37014896644917339 0.316543878568457 0 0.36411885078159001 0.32644375487552563 0 0.36646072203027302 0.32009490443849897 0 0.36411885078159001 0.32644375487552563 0 0.35994194411877378 0.32646204206530971 0 0.36132202517978662 0.32303080634539388 0 0.36150631125237548 0.32912422255951068 0 0.36411885078159001 0.32644375487552563 0 0.35994194411877378 0.32646204206530971 0 0.36132202517978662 0.32303080634539388 0 0.36348301458407639 0.32047903077872458 0 0.35962675317161102 0.31893041505789499 0 0.36411885078159001 0.32644375487552563 0 0.36132202517978662 0.32303080634539388 0 0.36348301458407639 0.32047903077872458 0 0.36411885078159001 0.32644375487552563 0 0.36348301458407639 0.32047903077872458 0 0.36646072203027302 0.32009490443849897 0 0.36348301458407639 0.32047903077872458 0 0.36646072203027302 0.32009490443849897 0 0.3659238024377004 0.31770243144255911 0 0.3659238024377004 0.31770243144255911 0 0.36344593390349789 0.31667187251247519 0 0.36604953812300478 0.31497278055865852 0 0.36348301458407639 0.32047903077872458 0 0.3659238024377004 0.31770243144255911 0 0.36344593390349789 0.31667187251247519 0 0.36348301458407639 0.32047903077872458 0 0.36344593390349789 0.31667187251247519 0 0.35962675317161102 0.31893041505789499 0 0.36344593390349789 0.31667187251247519 0 0.35962675317161102 0.31893041505789499 0 0.35878641637012221 0.31305233625990619 0 0.36344593390349789 0.31667187251247519 0 0.36331333565659901 0.31283202127524651 0 0.35878641637012221 0.31305233625990619 0 0.36331333565659901 0.31283202127524651 0 0.36604953812300478 0.31497278055865852 0 0.36630954626425261 0.31087512405144152 0 0.36344593390349789 0.31667187251247519 0 0.36331333565659901 0.31283202127524651 0 0.36604953812300478 0.31497278055865852 0 0.35878641637012221 0.31305233625990619 0 0.35512602374864599 0.31718053618965047 0 0.35090510471213721 0.31152713165908658 0 0.35512602374864599 0.31718053618965047 0 0.34983435518440159 0.31943204998396652 0 0.35090510471213721 0.31152713165908658 0 0.35962675317161102 0.31893041505789499 0 0.35878641637012221 0.31305233625990619 0 0.35512602374864599 0.31718053618965047 0 0.35962675317161102 0.31893041505789499 0 0.35512602374864599 0.31718053618965047 0 0.35673455485560862 0.32229528426682241 0 0.35512602374864599 0.31718053618965047 0 0.35673455485560862 0.32229528426682241 0 0.34983435518440159 0.31943204998396652 0 0.35673455485560862 0.32229528426682241 0 0.35060422568955008 0.32587015674736058 0 0.34983435518440159 0.31943204998396652 0 0.35994194411877378 0.32646204206530971 0 0.36132202517978662 0.32303080634539388 0 0.35673455485560862 0.32229528426682241 0 0.36132202517978662 0.32303080634539388 0 0.35962675317161102 0.31893041505789499 0 0.35673455485560862 0.32229528426682241 0 0.35994194411877378 0.32646204206530971 0 0.35673455485560862 0.32229528426682241 0 0.35627338036128769 0.32705738058013539 0 0.35994194411877378 0.32646204206530971 0 0.35627338036128769 0.32705738058013539 0 0.35835984371964152 0.33045614064968309 0 0.35627338036128769 0.32705738058013539 0 0.35060422568955008 0.32587015674736058 0 0.35398721241228231 0.33095327650953749 0 0.35673455485560862 0.32229528426682241 0 0.35627338036128769 0.32705738058013539 0 0.35060422568955008 0.32587015674736058 0 0.35060422568955008 0.32587015674736058 0 0.34514221143703899 0.32919058107390442 0 0.34284551192874652 0.32364904383841531 0 0.35060422568955008 0.32587015674736058 0 0.34983435518440159 0.31943204998396652 0 0.34284551192874652 0.32364904383841531 0 0.34983435518440159 0.31943204998396652 0 0.34480088275632298 0.31606258733578418 0 0.35090510471213721 0.31152713165908658 0 0.34983435518440159 0.31943204998396652 0 0.34480088275632298 0.31606258733578418 0 0.34284551192874652 0.32364904383841531 0 0.35146565257524442 0.34420791440797271 0 0.36266452242448938 0.34229393694352239 0 0.35562031764263757 0.34031424282986023 0 0.35302683950207769 0.33602013814058929 0 0.35562031764263757 0.34031424282986023 0 0.35672120529774148 0.33684362974708199 0 0.35202203774268331 0.33965573310897551 0 0.35302683950207769 0.33602013814058929 0 0.35562031764263757 0.34031424282986023 0 0.35146565257524442 0.34420791440797271 0 0.35202203774268331 0.33965573310897551 0 0.35562031764263757 0.34031424282986023 0 0.36266452242448938 0.34229393694352239 0 0.35562031764263757 0.34031424282986023 0 0.3582225103283424 0.33883319475427592 0 0.35562031764263757 0.34031424282986023 0 0.3582225103283424 0.33883319475427592 0 0.35672120529774148 0.33684362974708199 0 0.36001134864139028 0.33778823672905661 0 0.3582225103283424 0.33883319475427592 0 0.35672120529774148 0.33684362974708199 0 0.36001134864139028 0.33778823672905661 0 0.35672120529774148 0.33684362974708199 0 0.35899626180536931 0.33430086833413269 0 0.35899626180536931 0.33430086833413269 0 0.35641212776078268 0.33381706902087938 0 0.35835984371964152 0.33045614064968309 0 0.35672120529774148 0.33684362974708199 0 0.35899626180536931 0.33430086833413269 0 0.35641212776078268 0.33381706902087938 0 0.35627338036128769 0.32705738058013539 0 0.35835984371964152 0.33045614064968309 0 0.35398721241228231 0.33095327650953749 0 0.35641212776078268 0.33381706902087938 0 0.35835984371964152 0.33045614064968309 0 0.35398721241228231 0.33095327650953749 0 0.35302683950207769 0.33602013814058929 0 0.35641212776078268 0.33381706902087938 0 0.35398721241228231 0.33095327650953749 0 0.35302683950207769 0.33602013814058929 0 0.35398721241228231 0.33095327650953749 0 0.34924685744035389 0.33249877391857741 0 0.35302683950207769 0.33602013814058929 0 0.35672120529774148 0.33684362974708199 0 0.35641212776078268 0.33381706902087938 0 0.35302683950207769 0.33602013814058929 0 0.34924685744035389 0.33249877391857741 0 0.34788509595764172 0.33882226599831611 0 0.35060422568955008 0.32587015674736058 0 0.34924685744035389 0.33249877391857741 0 0.34514221143703899 0.32919058107390442 0 0.35060422568955008 0.32587015674736058 0 0.35398721241228231 0.33095327650953749 0 0.34924685744035389 0.33249877391857741 0 0.34924685744035389 0.33249877391857741 0 0.34514221143703899 0.32919058107390442 0 0.34474234507332802 0.33433591834825649 0 0.34924685744035389 0.33249877391857741 0 0.34474234507332802 0.33433591834825649 0 0.34788509595764172 0.33882226599831611 0 0.34474234507332802 0.33433591834825649 0 0.34788509595764172 0.33882226599831611 0 0.34057592936449049 0.33809639891542392 0 0.35146565257524442 0.34420791440797271 0 0.34788509595764172 0.33882226599831611 0 0.34269927497721508 0.34493512072036142 0 0.35202203774268331 0.33965573310897551 0 0.35302683950207769 0.33602013814058929 0 0.34788509595764172 0.33882226599831611 0 0.35146565257524442 0.34420791440797271 0 0.35202203774268331 0.33965573310897551 0 0.34788509595764172 0.33882226599831611 0 0.34057592936449049 0.33809639891542392 0 0.33318390910610529 0.34358855052096038 0 0.34269927497721508 0.34493512072036142 0 0.34788509595764172 0.33882226599831611 0 0.34057592936449049 0.33809639891542392 0 0.34269927497721508 0.34493512072036142 0 0.34474234507332802 0.33433591834825649 0 0.34057592936449049 0.33809639891542392 0 0.33946855119551672 0.33096103471374028 0 0.34514221143703899 0.32919058107390442 0 0.34474234507332802 0.33433591834825649 0 0.33946855119551672 0.33096103471374028 0 0.34057592936449049 0.33809639891542392 0 0.33946855119551672 0.33096103471374028 0 0.33283637980140879 0.33469331179832718 0 0.33946855119551672 0.33096103471374028 0 0.33283637980140879 0.33469331179832718 0 0.33464693517381472 0.32630086361949601 0 0.33283637980140879 0.33469331179832718 0 0.33464693517381472 0.32630086361949601 0 0.3250964778074269 0.32978689602061512 0 0.34057592936449049 0.33809639891542392 0 0.33283637980140879 0.33469331179832718 0 0.33318390910610529 0.34358855052096038 0 0.33283637980140879 0.33469331179832718 0 0.33318390910610529 0.34358855052096038 0 0.32611481079287369 0.33974729713420021 0 0.34480088275632298 0.31606258733578418 0 0.33769186663180051 0.31814262317354819 0 0.34192449374142192 0.30753297203612773 0 0.34480088275632298 0.31606258733578418 0 0.33769186663180051 0.31814262317354819 0 0.34284551192874652 0.32364904383841531 0 0.33946855119551672 0.33096103471374028 0 0.34284551192874652 0.32364904383841531 0 0.33464693517381472 0.32630086361949601 0 0.33769186663180051 0.31814262317354819 0 0.34284551192874652 0.32364904383841531 0 0.33464693517381472 0.32630086361949601 0 0.34514221143703899 0.32919058107390442 0 0.33946855119551672 0.33096103471374028 0 0.34284551192874652 0.32364904383841531 0 0.33769186663180051 0.31814262317354819 0 0.33464693517381472 0.32630086361949601 0 0.32994282367798861 0.32057227217232959 0 0.33464693517381472 0.32630086361949601 0 0.32994282367798861 0.32057227217232959 0 0.3250964778074269 0.32978689602061512 0 0.33769186663180051 0.31814262317354819 0 0.32994282367798861 0.32057227217232959 0 0.32867162081685902 0.31028670060733149 0 0.32176892132522322 0.32006025561378759 0 0.31440941436971798 0.31242774502049953 0 0.32867162081685902 0.31028670060733149 0 0.32994282367798861 0.32057227217232959 0 0.32176892132522322 0.32006025561378759 0 0.32867162081685902 0.31028670060733149 0 0.32176892132522322 0.32006025561378759 0 0.31484893044661 0.32778579360563193 0 0.3250964778074269 0.32978689602061512 0 0.32994282367798861 0.32057227217232959 0 0.32176892132522322 0.32006025561378759 0 0.3250964778074269 0.32978689602061512 0 0.32176892132522322 0.32006025561378759 0 0.31484893044661 0.32778579360563193 0 0.31440941436971798 0.31242774502049953 0 0.32611481079287369 0.33974729713420021 0 0.3250964778074269 0.32978689602061512 0 0.31767498628904178 0.33862919533695518 0 0.32611481079287369 0.33974729713420021 0 0.31767498628904178 0.33862919533695518 0 0.32336406622478242 0.34852958887145069 0 0.33283637980140879 0.33469331179832718 0 0.32611481079287369 0.33974729713420021 0 0.3250964778074269 0.32978689602061512 0 0.31484893044661 0.32778579360563193 0 0.31767498628904178 0.33862919533695518 0 0.30654896287530792 0.34033791233229299 0 0.31484893044661 0.32778579360563193 0 0.3250964778074269 0.32978689602061512 0 0.31767498628904178 0.33862919533695518 0 0.31767498628904178 0.33862919533695518 0 0.31315570067328902 0.3464643712977632 0 0.32336406622478242 0.34852958887145069 0 0.31315570067328902 0.3464643712977632 0 0.31355388928080707 0.35546570062290778 0 0.32336406622478242 0.34852958887145069 0 0.32336406622478242 0.34852958887145069 0 0.33442175170730049 0.35218858713626039 0 0.32437013183195901 0.3602157298059272 0 0.31355388928080707 0.35546570062290778 0 0.32336406622478242 0.34852958887145069 0 0.32437013183195901 0.3602157298059272 0 0.33318390910610529 0.34358855052096038 0 0.32611481079287369 0.33974729713420021 0 0.32336406622478242 0.34852958887145069 0 0.35030182712711511 0.35130594720886232 0 0.33442175170730049 0.35218858713626039 0 0.33389487655237682 0.3658352592629312 0 0.33318390910610529 0.34358855052096038 0 0.32336406622478242 0.34852958887145069 0 0.33442175170730049 0.35218858713626039 0 0.35030182712711511 0.35130594720886232 0 0.33442175170730049 0.35218858713626039 0 0.34269927497721508 0.34493512072036142 0 0.33318390910610529 0.34358855052096038 0 0.33442175170730049 0.35218858713626039 0 0.34269927497721508 0.34493512072036142 0 0.34270248502322931 0.38427053755298168 0 0.35268350372385993 0.36328223724825232 0 0.33389487655237682 0.3658352592629312 0 0.33442175170730049 0.35218858713626039 0 0.33389487655237682 0.3658352592629312 0 0.32437013183195901 0.3602157298059272 0 0.31661607539452802 0.37905951313608538 0 0.33389487655237682 0.3658352592629312 0 0.32437013183195901 0.3602157298059272 0 0.31661607539452802 0.37905951313608538 0 0.31355388928080707 0.35546570062290778 0 0.32437013183195901 0.3602157298059272 0 0.31661607539452802 0.37905951313608538 0 0.31355388928080707 0.35546570062290778 0 0.31661607539452802 0.37905951313608538 0 0.31355388928080707 0.35546570062290778 0 0.30541822204374358 0.36584678197342768 0 0.2987730087010142 0.37934426936791982 0 0.31661607539452802 0.37905951313608538 0 0.30541822204374358 0.36584678197342768 0 0.30541822204374358 0.36584678197342768 0 0.30393955747459928 0.35096595789874813 0 0.29215410451095353 0.36543341035917859 0 0.2987730087010142 0.37934426936791982 0 0.30541822204374358 0.36584678197342768 0 0.29215410451095353 0.36543341035917859 0 0.31315570067328902 0.3464643712977632 0 0.30393955747459928 0.35096595789874813 0 0.30654896287530792 0.34033791233229299 0 0.31315570067328902 0.3464643712977632 0 0.31355388928080707 0.35546570062290778 0 0.30393955747459928 0.35096595789874813 0 0.31355388928080707 0.35546570062290778 0 0.30541822204374358 0.36584678197342768 0 0.30393955747459928 0.35096595789874813 0 0.30393955747459928 0.35096595789874813 0 0.29215410451095353 0.36543341035917859 0 0.30393955747459928 0.35096595789874813 0 0.29720735802849829 0.34424744790442102 0 0.29027641861796738 0.35164951467646482 0 0.30393955747459928 0.35096595789874813 0 0.29720735802849829 0.34424744790442102 0 0.30654896287530792 0.34033791233229299 0 0.29720735802849829 0.34424744790442102 0 0.29027641861796738 0.35164951467646482 0 0.28998304713239348 0.34105976447064218 0 0.30393955747459928 0.35096595789874813 0 0.29027641861796738 0.35164951467646482 0 0.29215410451095353 0.36543341035917859 0 0.29027641861796738 0.35164951467646482 0 0.29215410451095353 0.36543341035917859 0 0.27920137084664282 0.3573603676334649 0 0.29027641861796738 0.35164951467646482 0 0.27920137084664282 0.3573603676334649 0 0.28068773357058369 0.34198453751068081 0 0.29027641861796738 0.35164951467646482 0 0.28068773357058369 0.34198453751068081 0 0.28998304713239348 0.34105976447064218 0 0.28036865154730628 0.37990086281960789 0 0.29215410451095353 0.36543341035917859 0 0.27920137084664282 0.3573603676334649 0 0.28036865154730628 0.37990086281960789 0 0.2987730087010142 0.37934426936791982 0 0.29215410451095353 0.36543341035917859 0 0.28036865154730628 0.37990086281960789 0 0.29215410451095353 0.36543341035917859 0 0.28036865154730628 0.37990086281960789 0 0.27920137084664282 0.3573603676334649 0 0.26173146881309822 0.35734024057335978 0 0.28036865154730628 0.37990086281960789 0 0.26173146881309822 0.35734024057335978 0 0.28036865154730628 0.37990086281960789 0 0.26173146881309822 0.35734024057335978 0 0.2641967246118288 0.36596915937278562 0 0.27920137084664282 0.3573603676334649 0 0.27030047393074008 0.3474963096498429 0 0.26173146881309822 0.35734024057335978 0 0.27920137084664282 0.3573603676334649 0 0.27030047393074008 0.3474963096498429 0 0.28068773357058369 0.34198453751068081 0 0.2430942860788903 0.33477961832711151 0 0.26173146881309822 0.35734024057335978 0 0.27030047393074008 0.3474963096498429 0 0.26173146881309822 0.35734024057335978 0 0.26240083601839698 0.33727672217147331 0 0.23816107804029091 0.35120524212074949 0 0.26173146881309822 0.35734024057335978 0 0.2641967246118288 0.36596915937278562 0 0.23816107804029091 0.35120524212074949 0 0.2641967246118288 0.36596915937278562 0 0.2492643002430574 0.365916522193315 0 0.24311907173897271 0.36013203008567057 0 0.2641967246118288 0.36596915937278562 0 0.2492643002430574 0.365916522193315 0 0.25710864090743918 0.37145542319719338 0 0.2641967246118288 0.36596915937278562 0 0.2492643002430574 0.365916522193315 0 0.25383912625151372 0.37755129754335942 0 0.25710864090743918 0.37145542319719338 0 0.26350653962281989 0.38010735630523079 0 0.25710864090743918 0.37145542319719338 0 0.2641967246118288 0.36596915937278562 0 0.2484846271056145 0.31037308609574782 0 0.25508783524565293 0.32209220201309929 0 0.26836904206483531 0.31075971332937607 0 0.25508783524565293 0.32209220201309929 0 0.26240083601839698 0.33727672217147331 0 0.26677092012209491 0.32204036282613252 0 0.25508783524565293 0.32209220201309929 0 0.26677092012209491 0.32204036282613252 0 0.26836904206483531 0.31075971332937607 0 0.2430942860788903 0.33477961832711151 0 0.25508783524565293 0.32209220201309929 0 0.26240083601839698 0.33727672217147331 0 0.2430942860788903 0.33477961832711151 0 0.26173146881309822 0.35734024057335978 0 0.26240083601839698 0.33727672217147331 0 0.26240083601839698 0.33727672217147331 0 0.27184092000699639 0.33891315949469752 0 0.27388917516664008 0.32964775149744319 0 0.26240083601839698 0.33727672217147331 0 0.27388917516664008 0.32964775149744319 0 0.26677092012209491 0.32204036282613252 0 0.27030047393074008 0.3474963096498429 0 0.26240083601839698 0.33727672217147331 0 0.27184092000699639 0.33891315949469752 0 0.27030047393074008 0.3474963096498429 0 0.27184092000699639 0.33891315949469752 0 0.28068773357058369 0.34198453751068081 0 0.27184092000699639 0.33891315949469752 0 0.28068773357058369 0.34198453751068081 0 0.27388917516664008 0.32964775149744319 0 0.28068773357058369 0.34198453751068081 0 0.27388917516664008 0.32964775149744319 0 0.28570907475377572 0.33188311037056872 0 0.27388917516664008 0.32964775149744319 0 0.26677092012209491 0.32204036282613252 0 0.28178409254690689 0.31684790712797722 0 0.27388917516664008 0.32964775149744319 0 0.28178409254690689 0.31684790712797722 0 0.28570907475377572 0.33188311037056872 0 0.26677092012209491 0.32204036282613252 0 0.28178409254690689 0.31684790712797722 0 0.26836904206483531 0.31075971332937607 0 0.28178409254690689 0.31684790712797722 0 0.29262159606390598 0.32453461147271162 0 0.29660332646403359 0.30785121346786842 0 0.28178409254690689 0.31684790712797722 0 0.29262159606390598 0.32453461147271162 0 0.28570907475377572 0.33188311037056872 0 0.28068773357058369 0.34198453751068081 0 0.28570907475377572 0.33188311037056872 0 0.28998304713239348 0.34105976447064218 0 0.29262159606390598 0.32453461147271162 0 0.28570907475377572 0.33188311037056872 0 0.29603465069114282 0.33553421189107618 0 0.29720735802849829 0.34424744790442102 0 0.29603465069114282 0.33553421189107618 0 0.28998304713239348 0.34105976447064218 0 0.28570907475377572 0.33188311037056872 0 0.29603465069114282 0.33553421189107618 0 0.28998304713239348 0.34105976447064218 0 0.29720735802849829 0.34424744790442102 0 0.29603465069114282 0.33553421189107618 0 0.30654896287530792 0.34033791233229299 0 0.29603465069114282 0.33553421189107618 0 0.30654896287530792 0.34033791233229299 0 0.30445412428221041 0.32558903425911379 0 0.29262159606390598 0.32453461147271162 0 0.29603465069114282 0.33553421189107618 0 0.30445412428221041 0.32558903425911379 0 0.31484893044661 0.32778579360563193 0 0.30654896287530792 0.34033791233229299 0 0.30445412428221041 0.32558903425911379 0 0.31767498628904178 0.33862919533695518 0 0.31315570067328902 0.3464643712977632 0 0.30654896287530792 0.34033791233229299 0 0.30445412428221041 0.32558903425911379 0 0.29660332646403359 0.30785121346786842 0 0.31440941436971798 0.31242774502049953 0 0.29262159606390598 0.32453461147271162 0 0.30445412428221041 0.32558903425911379 0 0.29660332646403359 0.30785121346786842 0 0.31484893044661 0.32778579360563193 0 0.30445412428221041 0.32558903425911379 0 0.31440941436971798 0.31242774502049953 0 0.30822946874662033 0.29998271616579031 0 0.29660332646403359 0.30785121346786842 0 0.31440941436971798 0.31242774502049953 0 0.30822946874662033 0.29998271616579031 0 0.30055108247350393 0.28416894361273021 0 0.29660332646403359 0.30785121346786842 0 0.30822946874662033 0.29998271616579031 0 0.30055108247350393 0.28416894361273021 0 0.32109763140443309 0.29547610107375327 0 0.30055108247350393 0.28416894361273021 0 0.29660332646403359 0.30785121346786842 0 0.27430616976337108 0.29100628718303567 0 0.30055108247350393 0.28416894361273021 0 0.27430616976337108 0.29100628718303567 0 0.28443506245096839 0.27205148705280008 0 0.30055108247350393 0.28416894361273021 0 0.27430616976337108 0.29100628718303567 0 0.28178409254690689 0.31684790712797722 0 0.29660332646403359 0.30785121346786842 0 0.27430616976337108 0.29100628718303567 0 0.28178409254690689 0.31684790712797722 0 0.26836904206483531 0.31075971332937607 0 0.27430616976337108 0.29100628718303567 0 0.28178409254690689 0.31684790712797722 0 0.27430616976337108 0.29100628718303567 0 0.27430616976337108 0.29100628718303567 0 0.25121587924780342 0.29702178630611242 0 0.27430616976337108 0.29100628718303567 0 0.25953152444998728 0.28294166139542631 0 0.25121587924780342 0.29702178630611242 0 0.26836904206483531 0.31075971332937607 0 0.27430616976337108 0.29100628718303567 0 0.25121587924780342 0.29702178630611242 0 0.26836904206483531 0.31075971332937607 0 0.25121587924780342 0.29702178630611242 0 0.2484846271056145 0.31037308609574782 0 0.26836904206483531 0.31075971332937607 0 0.25121587924780342 0.29702178630611242 0 0.25102838231212438 0.26850893423506528 0 0.26790857605335527 0.26889798384773289 0 0.26221447651104962 0.2479993693513689 0 0.26790857605335527 0.26889798384773289 0 0.26221447651104962 0.2479993693513689 0 0.25953152444998728 0.28294166139542631 0 0.25102838231212438 0.26850893423506528 0 0.26790857605335527 0.26889798384773289 0 0.27430616976337108 0.29100628718303567 0 0.26790857605335527 0.26889798384773289 0 0.28443506245096839 0.27205148705280008 0 0.27430616976337108 0.29100628718303567 0 0.25953152444998728 0.28294166139542631 0 0.26790857605335527 0.26889798384773289 0 0.27430616976337108 0.29100628718303567 0 0.26790857605335527 0.26889798384773289 0 0.26790857605335527 0.26889798384773289 0 0.28119448123381058 0.25405304303149878 0 0.26221447651104962 0.2479993693513689 0 0.26790857605335527 0.26889798384773289 0 0.28119448123381058 0.25405304303149878 0 0.28443506245096839 0.27205148705280008 0 0.28119448123381058 0.25405304303149878 0 0.28443506245096839 0.27205148705280008 0 0.2982150027308012 0.26213117758900317 0 0.28119448123381058 0.25405304303149878 0 0.2982150027308012 0.26213117758900317 0 0.30328699804120918 0.24394477185791469 0 0.30055108247350393 0.28416894361273021 0 0.28443506245096839 0.27205148705280008 0 0.2982150027308012 0.26213117758900317 0 0.30055108247350393 0.28416894361273021 0 0.2982150027308012 0.26213117758900317 0 0.31879452400631653 0.25919465198291952 0 0.2982150027308012 0.26213117758900317 0 0.31879452400631653 0.25919465198291952 0 0.30328699804120918 0.24394477185791469 0 0.31879452400631653 0.25919465198291952 0 0.33092809789354199 0.24744869965648561 0 0.31845456220733243 0.24449663650262579 0 0.31879452400631653 0.25919465198291952 0 0.33565265393095528 0.25675142138279861 0 0.33982225619875311 0.26765994074234428 0 0.31879452400631653 0.25919465198291952 0 0.33982225619875311 0.26765994074234428 0 0.31879452400631653 0.25919465198291952 0 0.33565265393095528 0.25675142138279861 0 0.33092809789354199 0.24744869965648561 0 0.33565265393095528 0.25675142138279861 0 0.33982225619875311 0.26765994074234428 0 0.34536281311255052 0.25941060478944128 0 0.33565265393095528 0.25675142138279861 0 0.3433555784436142 0.25004320974280247 0 0.33092809789354199 0.24744869965648561 0 0.33565265393095528 0.25675142138279861 0 0.3433555784436142 0.25004320974280247 0 0.34536281311255052 0.25941060478944128 0 0.31879452400631653 0.25919465198291952 0 0.33982225619875311 0.26765994074234428 0 0.32679599518363661 0.27733160004242491 0 0.33982225619875311 0.26765994074234428 0 0.32679599518363661 0.27733160004242491 0 0.34056182851336592 0.28206143899133118 0 0.30055108247350393 0.28416894361273021 0 0.32679599518363661 0.27733160004242491 0 0.30055108247350393 0.28416894361273021 0 0.31879452400631653 0.25919465198291952 0 0.32679599518363661 0.27733160004242491 0 0.32679599518363661 0.27733160004242491 0 0.32109763140443309 0.29547610107375327 0 0.33248404658197278 0.28876668272462419 0 0.30055108247350393 0.28416894361273021 0 0.32679599518363661 0.27733160004242491 0 0.32109763140443309 0.29547610107375327 0 0.32109763140443309 0.29547610107375327 0 0.31440941436971798 0.31242774502049953 0 0.32867162081685902 0.31028670060733149 0 0.30822946874662033 0.29998271616579031 0 0.32109763140443309 0.29547610107375327 0 0.31440941436971798 0.31242774502049953 0 0.32867162081685902 0.31028670060733149 0 0.33472549883669622 0.29791121211074773 0 0.34192449374142192 0.30753297203612773 0 0.32109763140443309 0.29547610107375327 0 0.32867162081685902 0.31028670060733149 0 0.33472549883669622 0.29791121211074773 0 0.33472549883669622 0.29791121211074773 0 0.34281583705185747 0.29966479619329672 0 0.34192449374142192 0.30753297203612773 0 0.33769186663180051 0.31814262317354819 0 0.32867162081685902 0.31028670060733149 0 0.34192449374142192 0.30753297203612773 0 0.32679599518363661 0.27733160004242491 0 0.33248404658197278 0.28876668272462419 0 0.34056182851336592 0.28206143899133118 0 0.32109763140443309 0.29547610107375327 0 0.33472549883669622 0.29791121211074773 0 0.33248404658197278 0.28876668272462419 0 0.33472549883669622 0.29791121211074773 0 0.33248404658197278 0.28876668272462419 0 0.34417327957572558 0.29277050597204329 0 0.33472549883669622 0.29791121211074773 0 0.34281583705185747 0.29966479619329672 0 0.34417327957572558 0.29277050597204329 0 0.33248404658197278 0.28876668272462419 0 0.34056182851336592 0.28206143899133118 0 0.34417327957572558 0.29277050597204329 0 0.34056182851336592 0.28206143899133118 0 0.34979868535227071 0.28728326233729501 0 0.34417327957572558 0.29277050597204329 0 0.34056182851336592 0.28206143899133118 0 0.34979868535227071 0.28728326233729501 0 0.35183199075491411 0.27966461044832719 0 0.34417327957572558 0.29277050597204329 0 0.35334053836337709 0.29410458558147129 0 0.34972900846361488 0.30172704795696642 0 0.34979868535227071 0.28728326233729501 0 0.34417327957572558 0.29277050597204329 0 0.35334053836337709 0.29410458558147129 0 0.34979868535227071 0.28728326233729501 0 0.35334053836337709 0.29410458558147129 0 0.35722235408413222 0.28831366276426512 0 0.35334053836337709 0.29410458558147129 0 0.35826071325737319 0.3003277240158499 0 0.36091512844171192 0.29433704443458902 0 0.35334053836337709 0.29410458558147129 0 0.35722235408413222 0.28831366276426512 0 0.36091512844171192 0.29433704443458902 0 0.34979868535227071 0.28728326233729501 0 0.35722235408413222 0.28831366276426512 0 0.35183199075491411 0.27966461044832719 0 0.35722235408413222 0.28831366276426512 0 0.36152496379752869 0.28359539021876212 0 0.35183199075491411 0.27966461044832719 0 0.34480088275632298 0.31606258733578418 0 0.34192449374142192 0.30753297203612773 0 0.35090510471213721 0.31152713165908658 0 0.34192449374142192 0.30753297203612773 0 0.35090510471213721 0.31152713165908658 0 0.34972900846361488 0.30172704795696642 0 0.34281583705185747 0.29966479619329672 0 0.34417327957572558 0.29277050597204329 0 0.34972900846361488 0.30172704795696642 0 0.34281583705185747 0.29966479619329672 0 0.34192449374142192 0.30753297203612773 0 0.34972900846361488 0.30172704795696642 0 0.34972900846361488 0.30172704795696642 0 0.35826071325737319 0.3003277240158499 0 0.35721607615581658 0.30656573559573969 0 0.35334053836337709 0.29410458558147129 0 0.34972900846361488 0.30172704795696642 0 0.35826071325737319 0.3003277240158499 0 0.35090510471213721 0.31152713165908658 0 0.34972900846361488 0.30172704795696642 0 0.35721607615581658 0.30656573559573969 0 0.35878641637012221 0.31305233625990619 0 0.35090510471213721 0.31152713165908658 0 0.35721607615581658 0.30656573559573969 0 0.37014896644917339 0.316543878568457 0 0.37763341047385651 0.29079382019339128 0 0.37014896644917339 0.316543878568457 0 0.37108481648816682 0.30013899891886681 0 0.36845835323010317 0.30596496181531441 0 0.37014896644917339 0.316543878568457 0 0.37763341047385651 0.29079382019339128 0 0.37695808612291098 0.31120865645681561 0 0.37014896644917339 0.316543878568457 0 0.37108481648816682 0.30013899891886681 0 0.37763341047385651 0.29079382019339128 0 0.36630954626425261 0.31087512405144152 0 0.36228941999803421 0.30896529616435242 0 0.36543096483439103 0.3064802843427199 0 0.36331333565659901 0.31283202127524651 0 0.36630954626425261 0.31087512405144152 0 0.36228941999803421 0.30896529616435242 0 0.36331333565659901 0.31283202127524651 0 0.35878641637012221 0.31305233625990619 0 0.36228941999803421 0.30896529616435242 0 0.35878641637012221 0.31305233625990619 0 0.35721607615581658 0.30656573559573969 0 0.36228941999803421 0.30896529616435242 0 0.35721607615581658 0.30656573559573969 0 0.36228941999803421 0.30896529616435242 0 0.36268018070702418 0.30398627546106088 0 0.36630954626425261 0.31087512405144152 0 0.36543096483439103 0.3064802843427199 0 0.36845835323010317 0.30596496181531441 0 0.36228941999803421 0.30896529616435242 0 0.36543096483439103 0.3064802843427199 0 0.36268018070702418 0.30398627546106088 0 0.36543096483439103 0.3064802843427199 0 0.36607900901995372 0.30349396637540749 0 0.36845835323010317 0.30596496181531441 0 0.36607900901995372 0.30349396637540749 0 0.36268018070702418 0.30398627546106088 0 0.36558719123160882 0.29969948119116269 0 0.36607900901995372 0.30349396637540749 0 0.36558719123160882 0.29969948119116269 0 0.36823835509664099 0.30133882906677939 0 0.36543096483439103 0.3064802843427199 0 0.36607900901995372 0.30349396637540749 0 0.36268018070702418 0.30398627546106088 0 0.35826071325737319 0.3003277240158499 0 0.35721607615581658 0.30656573559573969 0 0.36268018070702418 0.30398627546106088 0 0.35826071325737319 0.3003277240158499 0 0.36268018070702418 0.30398627546106088 0 0.36558719123160882 0.29969948119116269 0 0.35826071325737319 0.3003277240158499 0 0.36558719123160882 0.29969948119116269 0 0.36091512844171192 0.29433704443458902 0 0.36871223371641282 0.29817542324200702 0 0.37108481648816682 0.30013899891886681 0 0.37014933742706652 0.29575476169949788 0 0.36558719123160882 0.29969948119116269 0 0.36871223371641282 0.29817542324200702 0 0.36734652779664789 0.29411680932906442 0 0.36558719123160882 0.29969948119116269 0 0.36871223371641282 0.29817542324200702 0 0.36823835509664099 0.30133882906677939 0 0.36871223371641282 0.29817542324200702 0 0.37108481648816682 0.30013899891886681 0 0.36823835509664099 0.30133882906677939 0 0.37108481648816682 0.30013899891886681 0 0.36823835509664099 0.30133882906677939 0 0.36845835323010317 0.30596496181531441 0 0.36607900901995372 0.30349396637540749 0 0.36823835509664099 0.30133882906677939 0 0.36845835323010317 0.30596496181531441 0 0.37014896644917339 0.316543878568457 0 0.36630954626425261 0.31087512405144152 0 0.36845835323010317 0.30596496181531441 0 0.36812955944888692 0.28419813691800921 0 0.36084998839118931 0.2761252295017701 0 0.37969218042614078 0.28371066929036243 0 0.36152496379752869 0.28359539021876212 0 0.36812955944888692 0.28419813691800921 0 0.36084998839118931 0.2761252295017701 0 0.36414496955441777 0.28941104037434479 0 0.36911771796651938 0.28986917351547109 0 0.36812955944888692 0.28419813691800921 0 0.36152496379752869 0.28359539021876212 0 0.36414496955441777 0.28941104037434479 0 0.36812955944888692 0.28419813691800921 0 0.35722235408413222 0.28831366276426512 0 0.36152496379752869 0.28359539021876212 0 0.36414496955441777 0.28941104037434479 0 0.35722235408413222 0.28831366276426512 0 0.36091512844171192 0.29433704443458902 0 0.36414496955441777 0.28941104037434479 0 0.36558719123160882 0.29969948119116269 0 0.36091512844171192 0.29433704443458902 0 0.36734652779664789 0.29411680932906442 0 0.36091512844171192 0.29433704443458902 0 0.36414496955441777 0.28941104037434479 0 0.36734652779664789 0.29411680932906442 0 0.36414496955441777 0.28941104037434479 0 0.36911771796651938 0.28986917351547109 0 0.36734652779664789 0.29411680932906442 0 0.36911771796651938 0.28986917351547109 0 0.37026464520563152 0.29279186409727531 0 0.36734652779664789 0.29411680932906442 0 0.37108481648816682 0.30013899891886681 0 0.37306860395079622 0.29341917559567809 0 0.37763341047385651 0.29079382019339128 0 0.36911771796651938 0.28986917351547109 0 0.37026464520563152 0.29279186409727531 0 0.37237913536365119 0.29056320862162688 0 0.36871223371641282 0.29817542324200702 0 0.36734652779664789 0.29411680932906442 0 0.37014933742706652 0.29575476169949788 0 0.37026464520563152 0.29279186409727531 0 0.36734652779664789 0.29411680932906442 0 0.37014933742706652 0.29575476169949788 0 0.37108481648816682 0.30013899891886681 0 0.37014933742706652 0.29575476169949788 0 0.37306860395079622 0.29341917559567809 0 0.37026464520563152 0.29279186409727531 0 0.37014933742706652 0.29575476169949788 0 0.37306860395079622 0.29341917559567809 0 0.36911771796651938 0.28986917351547109 0 0.37237913536365119 0.29056320862162688 0 0.37333201972158658 0.2878654242033048 0 0.37306860395079622 0.29341917559567809 0 0.37237913536365119 0.29056320862162688 0 0.37763341047385651 0.29079382019339128 0 0.37237913536365119 0.29056320862162688 0 0.37333201972158658 0.2878654242033048 0 0.37763341047385651 0.29079382019339128 0 0.37026464520563152 0.29279186409727531 0 0.37306860395079622 0.29341917559567809 0 0.37237913536365119 0.29056320862162688 0 0.37333201972158658 0.2878654242033048 0 0.36812955944888692 0.28419813691800921 0 0.37969218042614078 0.28371066929036243 0 0.36911771796651938 0.28986917351547109 0 0.37333201972158658 0.2878654242033048 0 0.36812955944888692 0.28419813691800921 0 0.36084998839118931 0.2761252295017701 0 0.37969218042614078 0.28371066929036243 0 0.36084998839118931 0.2761252295017701 0 0.37017340450925651 0.266060206293324 0 0.3539366042426153 0.26554047293381039 0 0.36084998839118931 0.2761252295017701 0 0.38460708535355081 0.26680105137204091 0 0.36084998839118931 0.2761252295017701 0 0.37017340450925651 0.266060206293324 0 0.38460708535355081 0.26680105137204091 0 0.3539366042426153 0.26554047293381039 0 0.38129994004966872 0.25577407136566988 0 0.37169426656027921 0.24972740256563611 0 0.37017340450925651 0.266060206293324 0 0.3539366042426153 0.26554047293381039 0 0.38129994004966872 0.25577407136566988 0 0.3539366042426153 0.26554047293381039 0 0.37169426656027921 0.24972740256563611 0 0.36205361842742478 0.24882498742118489 0 0.3539366042426153 0.26554047293381039 0 0.38129994004966872 0.25577407136566988 0 0.3539366042426153 0.26554047293381039 0 0.35175757775775729 0.2532797976346674 0 0.36205361842742478 0.24882498742118489 0 0.3433555784436142 0.25004320974280247 0 0.35175757775775729 0.2532797976346674 0 0.34536281311255052 0.25941060478944128 0 0.33982225619875311 0.26765994074234428 0 0.3539366042426153 0.26554047293381039 0 0.34536281311255052 0.25941060478944128 0 0.3539366042426153 0.26554047293381039 0 0.35175757775775729 0.2532797976346674 0 0.34536281311255052 0.25941060478944128 0 0.33982225619875311 0.26765994074234428 0 0.36084998839118931 0.2761252295017701 0 0.33982225619875311 0.26765994074234428 0 0.36084998839118931 0.2761252295017701 0 0.3539366042426153 0.26554047293381039 0 0.33982225619875311 0.26765994074234428 0 0.36084998839118931 0.2761252295017701 0 0.35183199075491411 0.27966461044832719 0 0.33982225619875311 0.26765994074234428 0 0.34056182851336592 0.28206143899133118 0 0.35183199075491411 0.27966461044832719 0 0.36152496379752869 0.28359539021876212 0 0.36084998839118931 0.2761252295017701 0 0.35183199075491411 0.27966461044832719 0 0.36084998839118931 0.2761252295017701 0 0.35183199075491411 0.27966461044832719 0 0.39945440726228237 0.27350419034528239 0 0.38460708535355081 0.26680105137204091 0 0.40768566828284042 0.25774317622192677 0 0.39945440726228237 0.27350419034528239 0 0.4092682188351508 0.26816031590002881 0 0.40768566828284042 0.25774317622192677 0 0.39945440726228237 0.27350419034528239 0 0.38460708535355081 0.26680105137204091 0 0.3904751567012596 0.27530993325585928 0 0.39945440726228237 0.27350419034528239 0 0.3904751567012596 0.27530993325585928 0 0.39488150240831521 0.28173053148540511 0 0.39945440726228237 0.27350419034528239 0 0.40366985246608472 0.28285995447659418 0 0.40929088926209078 0.279020096056181 0 0.39945440726228237 0.27350419034528239 0 0.4092682188351508 0.26816031590002881 0 0.40929088926209078 0.279020096056181 0 0.39945440726228237 0.27350419034528239 0 0.39488150240831521 0.28173053148540511 0 0.40366985246608472 0.28285995447659418 0 0.38783836144724232 0.2556839199238965 0 0.38129994004966872 0.25577407136566988 0 0.40866327585672191 0.24600766979752939 0 0.38460708535355081 0.26680105137204091 0 0.40768566828284042 0.25774317622192677 0 0.38783836144724232 0.2556839199238965 0 0.40768566828284042 0.25774317622192677 0 0.40866327585672191 0.24600766979752939 0 0.38783836144724232 0.2556839199238965 0 0.38460708535355081 0.26680105137204091 0 0.40768566828284042 0.25774317622192677 0 0.38129994004966872 0.25577407136566988 0 0.40866327585672191 0.24600766979752939 0 0.38783836144724232 0.2556839199238965 0 0.38129994004966872 0.25577407136566988 0 0.38460708535355081 0.26680105137204091 0 0.38783836144724232 0.2556839199238965 0 0.38460708535355081 0.26680105137204091 0 0.38129994004966872 0.25577407136566988 0 0.37169426656027921 0.24972740256563611 0 0.38106847269238292 0.24536179082341181 0 0.37017340450925651 0.266060206293324 0 0.38129994004966872 0.25577407136566988 0 0.38460708535355081 0.26680105137204091 0 0.36084998839118931 0.2761252295017701 0 0.38460708535355081 0.26680105137204091 0 0.37969218042614078 0.28371066929036243 0 0.38460708535355081 0.26680105137204091 0 0.3904751567012596 0.27530993325585928 0 0.37969218042614078 0.28371066929036243 0 0.38460708535355081 0.26680105137204091 0 0.37969218042614078 0.28371066929036243 0 0.3904751567012596 0.27530993325585928 0 0.37969218042614078 0.28371066929036243 0 0.39488150240831521 0.28173053148540511 0 0.37969218042614078 0.28371066929036243 0 0.37763341047385651 0.29079382019339128 0 0.40259214502479168 0.29292967641552992 0 0.37763341047385651 0.29079382019339128 0 0.4027243230010164 0.30147339632314252 0 0.37969218042614078 0.28371066929036243 0 0.37763341047385651 0.29079382019339128 0 0.37333201972158658 0.2878654242033048 0 0.37969218042614078 0.28371066929036243 0 0.37763341047385651 0.29079382019339128 0 0.37763341047385651 0.29079382019339128 0 0.37695808612291098 0.31120865645681561 0 0.38599374742651271 0.30414296713942529 0 0.37763341047385651 0.29079382019339128 0 0.38599374742651271 0.30414296713942529 0 0.4027243230010164 0.30147339632314252 0 0.37695808612291098 0.31120865645681561 0 0.38599374742651271 0.30414296713942529 0 0.38754735899376969 0.31282171123814728 0 0.38599374742651271 0.30414296713942529 0 0.4027243230010164 0.30147339632314252 0 0.38754735899376969 0.31282171123814728 0 0.4027243230010164 0.30147339632314252 0 0.3956366020903157 0.32248231082130752 0 0.38754735899376969 0.31282171123814728 0 0.37969218042614078 0.28371066929036243 0 0.40259214502479168 0.29292967641552992 0 0.37969218042614078 0.28371066929036243 0 0.39488150240831521 0.28173053148540511 0 0.40259214502479168 0.29292967641552992 0 0.37763341047385651 0.29079382019339128 0 0.4027243230010164 0.30147339632314252 0 0.40259214502479168 0.29292967641552992 0 0.4027243230010164 0.30147339632314252 0 0.40259214502479168 0.29292967641552992 0 0.41139710839419091 0.29189735433941028 0 0.40259214502479168 0.29292967641552992 0 0.40366985246608472 0.28285995447659418 0 0.41139710839419091 0.29189735433941028 0 0.39488150240831521 0.28173053148540511 0 0.40259214502479168 0.29292967641552992 0 0.40366985246608472 0.28285995447659418 0 0.40366985246608472 0.28285995447659418 0 0.41139710839419091 0.29189735433941028 0 0.40929088926209078 0.279020096056181 0 0.41139710839419091 0.29189735433941028 0 0.42781523552817591 0.31215297245289481 0 0.42226183937510081 0.28327127115801121 0 0.41139710839419091 0.29189735433941028 0 0.42226183937510081 0.28327127115801121 0 0.40929088926209078 0.279020096056181 0 0.4027243230010164 0.30147339632314252 0 0.41139710839419091 0.29189735433941028 0 0.42781523552817591 0.31215297245289481 0 0.4027243230010164 0.30147339632314252 0 0.42781523552817591 0.31215297245289481 0 0.41357021602424721 0.32279281759874212 0 0.4027243230010164 0.30147339632314252 0 0.42781523552817591 0.31215297245289481 0 0.42781523552817591 0.31215297245289481 0 0.42226183937510081 0.28327127115801121 0 0.42781523552817591 0.31215297245289481 0 0.42226183937510081 0.28327127115801121 0 0.44120727567718632 0.28746005308771089 0 0.42226183937510081 0.28327127115801121 0 0.43023391716603732 0.27040224467912161 0 0.44120727567718632 0.28746005308771089 0 0.42226183937510081 0.28327127115801121 0 0.43023391716603732 0.27040224467912161 0 0.41664462513020523 0.25422696758609492 0 0.43023391716603732 0.27040224467912161 0 0.43692075095235122 0.26433370861442979 0 0.44373838257505849 0.27050131303512348 0 0.42226183937510081 0.28327127115801121 0 0.4092682188351508 0.26816031590002881 0 0.41664462513020523 0.25422696758609492 0 0.42226183937510081 0.28327127115801121 0 0.41664462513020523 0.25422696758609492 0 0.42226183937510081 0.28327127115801121 0 0.4092682188351508 0.26816031590002881 0 0.40929088926209078 0.279020096056181 0 0.40768566828284042 0.25774317622192677 0 0.41664462513020523 0.25422696758609492 0 0.40866327585672191 0.24600766979752939 0 0.40768566828284042 0.25774317622192677 0 0.41664462513020523 0.25422696758609492 0 0.4092682188351508 0.26816031590002881 0 0.40768566828284042 0.25774317622192677 0 0.41664462513020523 0.25422696758609492 0 0.42749544465446981 0.25699566217507153 0 0.45166362976964691 0.25106894999712381 0 0.43076425121212841 0.2486853010718087 0 0.41664462513020523 0.25422696758609492 0 0.42749544465446981 0.25699566217507153 0 0.43076425121212841 0.2486853010718087 0 0.43023391716603732 0.27040224467912161 0 0.41664462513020523 0.25422696758609492 0 0.42749544465446981 0.25699566217507153 0 0.41664462513020523 0.25422696758609492 0 0.43076425121212841 0.2486853010718087 0 0.42749544465446981 0.25699566217507153 0 0.43692075095235122 0.26433370861442979 0 0.44456450099631911 0.26043047377218492 0 0.43023391716603732 0.27040224467912161 0 0.42749544465446981 0.25699566217507153 0 0.43692075095235122 0.26433370861442979 0 0.42749544465446981 0.25699566217507153 0 0.45166362976964691 0.25106894999712381 0 0.42749544465446981 0.25699566217507153 0 0.44456450099631911 0.26043047377218492 0 0.45166362976964691 0.25106894999712381 0 0.43692075095235122 0.26433370861442979 0 0.44456450099631911 0.26043047377218492 0 0.44373838257505849 0.27050131303512348 0 0.44456450099631911 0.26043047377218492 0 0.44373838257505849 0.27050131303512348 0 0.45508065662597141 0.26402805921732958 0 0.44456450099631911 0.26043047377218492 0 0.45166362976964691 0.25106894999712381 0 0.45508065662597141 0.26402805921732958 0 0.44373838257505849 0.27050131303512348 0 0.45472874274978531 0.27586911806656422 0 0.44120727567718632 0.28746005308771089 0 0.43023391716603732 0.27040224467912161 0 0.44373838257505849 0.27050131303512348 0 0.44120727567718632 0.28746005308771089 0 0.44373838257505849 0.27050131303512348 0 0.45472874274978531 0.27586911806656422 0 0.45508065662597141 0.26402805921732958 0 0.45472874274978531 0.27586911806656422 0 0.46665275363318931 0.27127710252775639 0 0.46192346945889701 0.28817835066990299 0 0.45472874274978531 0.27586911806656422 0 0.46665275363318931 0.27127710252775639 0 0.45508065662597141 0.26402805921732958 0 0.45166362976964691 0.25106894999712381 0 0.46652816171208539 0.25830808769848879 0 0.47583181488482379 0.2451422378191761 0 0.45166362976964691 0.25106894999712381 0 0.45508065662597141 0.26402805921732958 0 0.46652816171208539 0.25830808769848879 0 0.46665275363318931 0.27127710252775639 0 0.45508065662597141 0.26402805921732958 0 0.46652816171208539 0.25830808769848879 0 0.46665275363318931 0.27127710252775639 0 0.46652816171208539 0.25830808769848879 0 0.48341195364679568 0.26002408893105827 0 0.46652816171208539 0.25830808769848879 0 0.48341195364679568 0.26002408893105827 0 0.47583181488482379 0.2451422378191761 0 0.46665275363318931 0.27127710252775639 0 0.48341195364679568 0.26002408893105827 0 0.48138518434246891 0.28130646820503019 0 0.46665275363318931 0.27127710252775639 0 0.48138518434246891 0.28130646820503019 0 0.46192346945889701 0.28817835066990299 0 0.5 0.26671351767664991 0 0.5 0.29421150971207138 0 0.48138518434246891 0.28130646820503019 0 0.48341195364679568 0.26002408893105827 0 0.5 0.26671351767664991 0 0.48138518434246891 0.28130646820503019 0 0.48341195364679568 0.26002408893105827 0 0.5 0.26671351767664991 0 0.50000000000000067 0.2392155256412283 0 0.5 0.29421150971207138 0 0.47556093647901088 0.30733800586058863 0 0.5 0.32170950174749302 0 0.5 0.29421150971207138 0 0.48138518434246891 0.28130646820503019 0 0.47556093647901088 0.30733800586058863 0 0.48138518434246891 0.28130646820503019 0 0.47556093647901088 0.30733800586058863 0 0.46192346945889701 0.28817835066990299 0 0.47556093647901088 0.30733800586058863 0 0.45214514511688908 0.30370412902975941 0 0.45421880844117613 0.32339126307769928 0 0.47556093647901088 0.30733800586058863 0 0.46192346945889701 0.28817835066990299 0 0.45214514511688908 0.30370412902975941 0 0.46192346945889701 0.28817835066990299 0 0.44120727567718632 0.28746005308771089 0 0.45214514511688908 0.30370412902975941 0 0.45472874274978531 0.27586911806656422 0 0.46192346945889701 0.28817835066990299 0 0.44120727567718632 0.28746005308771089 0 0.42781523552817591 0.31215297245289481 0 0.44120727567718632 0.28746005308771089 0 0.45214514511688908 0.30370412902975941 0 0.42781523552817591 0.31215297245289481 0 0.45421880844117613 0.32339126307769928 0 0.43298436918619881 0.33903622913929549 0 0.42781523552817591 0.31215297245289481 0 0.45214514511688908 0.30370412902975941 0 0.45421880844117613 0.32339126307769928 0 0.42781523552817591 0.31215297245289481 0 0.45421880844117613 0.32339126307769928 0 0.45421880844117613 0.32339126307769928 0 0.45970761232660212 0.34692044601787542 0 0.43298436918619881 0.33903622913929549 0 0.45421880844117613 0.32339126307769928 0 0.48062238135417568 0.33462955370250519 0 0.45421880844117613 0.32339126307769928 0 0.48062238135417568 0.33462955370250519 0 0.45970761232660212 0.34692044601787542 0 0.47556093647901088 0.30733800586058863 0 0.45421880844117613 0.32339126307769928 0 0.48062238135417568 0.33462955370250519 0 0.48062238135417568 0.33462955370250519 0 0.5 0.32170950174749302 0 0.5 0.34920749378291471 0 0.47556093647901088 0.30733800586058863 0 0.48062238135417568 0.33462955370250519 0 0.5 0.32170950174749302 0 0.5 0.34920749378291471 0 0.48254603458521478 0.3522402998402685 0 0.5 0.37670548581833618 0 0.48062238135417568 0.33462955370250519 0 0.5 0.34920749378291471 0 0.48254603458521478 0.3522402998402685 0 0.48254603458521478 0.3522402998402685 0 0.46972057754862501 0.36630584452178799 0 0.45970761232660212 0.34692044601787542 0 0.48062238135417568 0.33462955370250519 0 0.48254603458521478 0.3522402998402685 0 0.45970761232660212 0.34692044601787542 0 0.48254603458521478 0.3522402998402685 0 0.46972057754862501 0.36630584452178799 0 0.5 0.37670548581833618 0 0.46972057754862501 0.36630584452178799 0 0.43815350284422228 0.36591948582569622 0 0.45848938469160699 0.38276388730883248 0 0.46972057754862501 0.36630584452178799 0 0.45970761232660212 0.34692044601787542 0 0.43815350284422228 0.36591948582569622 0 0.45970761232660212 0.34692044601787542 0 0.43815350284422228 0.36591948582569622 0 0.43298436918619881 0.33903622913929549 0 0.43815350284422228 0.36591948582569622 0 0.4167242930516859 0.35972934744593471 0 0.42344095457037051 0.38268701701273461 0 0.4167242930516859 0.35972934744593471 0 0.40101385701800268 0.38518895784325291 0 0.4167242930516859 0.35972934744593471 0 0.40181680918128981 0.35947395412181382 0 0.40101385701800268 0.38518895784325291 0 0.4167242930516859 0.35972934744593471 0 0.40869055031553031 0.33881917925707022 0 0.40181680918128981 0.35947395412181382 0 0.4167242930516859 0.35972934744593471 0 0.43298436918619881 0.33903622913929549 0 0.40869055031553031 0.33881917925707022 0 0.43815350284422228 0.36591948582569622 0 0.4167242930516859 0.35972934744593471 0 0.43298436918619881 0.33903622913929549 0 0.43815350284422228 0.36591948582569622 0 0.43298436918619881 0.33903622913929549 0 0.42781523552817591 0.31215297245289481 0 0.43298436918619881 0.33903622913929549 0 0.42781523552817591 0.31215297245289481 0 0.43298436918619881 0.33903622913929549 0 0.41357021602424721 0.32279281759874212 0 0.43298436918619881 0.33903622913929549 0 0.41357021602424721 0.32279281759874212 0 0.40869055031553031 0.33881917925707022 0 0.40869055031553031 0.33881917925707022 0 0.39369601167170543 0.33564153172070438 0 0.39209274976778918 0.34814598654190299 0 0.40869055031553031 0.33881917925707022 0 0.39369601167170543 0.33564153172070438 0 0.3956366020903157 0.32248231082130752 0 0.39369601167170543 0.33564153172070438 0 0.3956366020903157 0.32248231082130752 0 0.38362385659697051 0.32926172455430031 0 0.39369601167170543 0.33564153172070438 0 0.38635485741833753 0.33883185827426582 0 0.39209274976778918 0.34814598654190299 0 0.41357021602424721 0.32279281759874212 0 0.40869055031553031 0.33881917925707022 0 0.3956366020903157 0.32248231082130752 0 0.4027243230010164 0.30147339632314252 0 0.41357021602424721 0.32279281759874212 0 0.3956366020903157 0.32248231082130752 0 0.3956366020903157 0.32248231082130752 0 0.38754735899376969 0.31282171123814728 0 0.38479800915553353 0.32074741934569512 0 0.38754735899376969 0.31282171123814728 0 0.38479800915553353 0.32074741934569512 0 0.37917338616632867 0.3168755173424983 0 0.3956366020903157 0.32248231082130752 0 0.38479800915553353 0.32074741934569512 0 0.38362385659697051 0.32926172455430031 0 0.38479800915553353 0.32074741934569512 0 0.37832625022041982 0.32264150287239662 0 0.38362385659697051 0.32926172455430031 0 0.37577016905582622 0.32787937856968757 0 0.37832625022041982 0.32264150287239662 0 0.38362385659697051 0.32926172455430031 0 0.37577016905582622 0.32787937856968757 0 0.37506056064123422 0.32471797871916308 0 0.37832625022041982 0.32264150287239662 0 0.37368960646642962 0.31911015363466272 0 0.37506056064123422 0.32471797871916308 0 0.37832625022041982 0.32264150287239662 0 0.37695808612291098 0.31120865645681561 0 0.38754735899376969 0.31282171123814728 0 0.37917338616632867 0.3168755173424983 0 0.38479800915553353 0.32074741934569512 0 0.37832625022041982 0.32264150287239662 0 0.37917338616632867 0.3168755173424983 0 0.37368960646642962 0.31911015363466272 0 0.37832625022041982 0.32264150287239662 0 0.37917338616632867 0.3168755173424983 0 0.37499251130121058 0.31593455150060828 0 0.37368960646642962 0.31911015363466272 0 0.37917338616632867 0.3168755173424983 0 0.37499251130121058 0.31593455150060828 0 0.37695808612291098 0.31120865645681561 0 0.37917338616632867 0.3168755173424983 0 0.38635485741833753 0.33883185827426582 0 0.3795813787571668 0.3363772241379393 0 0.38278029029805521 0.34473282441648212 0 0.39369601167170543 0.33564153172070438 0 0.38635485741833753 0.33883185827426582 0 0.38362385659697051 0.32926172455430031 0 0.38635485741833753 0.33883185827426582 0 0.38362385659697051 0.32926172455430031 0 0.3795813787571668 0.3363772241379393 0 0.37577016905582622 0.32787937856968757 0 0.38362385659697051 0.32926172455430031 0 0.37868435463470768 0.3315773541462857 0 0.38362385659697051 0.32926172455430031 0 0.37868435463470768 0.3315773541462857 0 0.3795813787571668 0.3363772241379393 0 0.37577016905582622 0.32787937856968757 0 0.37868435463470768 0.3315773541462857 0 0.375263113682131 0.33313320718557798 0 0.37868435463470768 0.3315773541462857 0 0.375263113682131 0.33313320718557798 0 0.3795813787571668 0.3363772241379393 0 0.37369311900952262 0.33836265764115908 0 0.3795813787571668 0.3363772241379393 0 0.37670219357667811 0.34177383067972761 0 0.3795813787571668 0.3363772241379393 0 0.37670219357667811 0.34177383067972761 0 0.38278029029805521 0.34473282441648212 0 0.37369311900952262 0.33836265764115908 0 0.375263113682131 0.33313320718557798 0 0.3795813787571668 0.3363772241379393 0 0.3809821990389497 0.35490418517770578 0 0.39056259575344082 0.36548629952090861 0 0.39209274976778918 0.34814598654190299 0 0.37486749369974542 0.34694596905823039 0 0.37670219357667811 0.34177383067972761 0 0.38278029029805521 0.34473282441648212 0 0.37486749369974542 0.34694596905823039 0 0.38278029029805521 0.34473282441648212 0 0.3809821990389497 0.35490418517770578 0 0.38278029029805521 0.34473282441648212 0 0.3809821990389497 0.35490418517770578 0 0.39209274976778918 0.34814598654190299 0 0.38635485741833753 0.33883185827426582 0 0.38278029029805521 0.34473282441648212 0 0.39209274976778918 0.34814598654190299 0 0.37228166628853332 0.35471301169251829 0 0.37486749369974542 0.34694596905823039 0 0.3809821990389497 0.35490418517770578 0 0.37414389550204002 0.36898578533419818 0 0.3809821990389497 0.35490418517770578 0 0.39056259575344082 0.36548629952090861 0 0.37414389550204002 0.36898578533419818 0 0.39056259575344082 0.36548629952090861 0 0.40101385701800268 0.38518895784325291 0 0.37414389550204002 0.36898578533419818 0 0.37228166628853332 0.35471301169251829 0 0.3809821990389497 0.35490418517770578 0 0.39056259575344082 0.36548629952090861 0 0.40181680918128981 0.35947395412181382 0 0.40101385701800268 0.38518895784325291 0 0.39056259575344082 0.36548629952090861 0 0.40181680918128981 0.35947395412181382 0 0.39209274976778918 0.34814598654190299 0 0.40869055031553031 0.33881917925707022 0 0.40181680918128981 0.35947395412181382 0 0.39209274976778918 0.34814598654190299 0 0.40101385701800268 0.38518895784325291 0 0.38530342098431941 0.41064856824057122 0 0.40101385701800268 0.38518895784325291 0 0.38530342098431941 0.41064856824057122 0 0.41521715527738928 0.40390661881175682 0 0.3736470799201031 0.39378130610698531 0 0.37414389550204002 0.36898578533419818 0 0.40101385701800268 0.38518895784325291 0 0.3736470799201031 0.39378130610698531 0 0.40101385701800268 0.38518895784325291 0 0.38530342098431941 0.41064856824057122 0 0.36959298495063608 0.43610817863788948 0 0.38530342098431941 0.41064856824057122 0 0.36959298495063608 0.43610817863788948 0 0.38530342098431941 0.41064856824057122 0 0.3889231515195431 0.43141286456833011 0 0.3889231515195431 0.43141286456833011 0 0.40362265567455102 0.42304679086704539 0 0.39942544658573009 0.43872588670818857 0 0.40362265567455102 0.42304679086704539 0 0.41248490446316177 0.43293377153942381 0 0.39942544658573009 0.43872588670818857 0 0.38530342098431941 0.41064856824057122 0 0.3889231515195431 0.43141286456833011 0 0.40362265567455102 0.42304679086704539 0 0.38530342098431941 0.41064856824057122 0 0.40362265567455102 0.42304679086704539 0 0.41521715527738928 0.40390661881175682 0 0.40362265567455102 0.42304679086704539 0 0.42233359500988371 0.42307221464191669 0 0.41521715527738928 0.40390661881175682 0 0.40362265567455102 0.42304679086704539 0 0.41248490446316177 0.43293377153942381 0 0.42233359500988371 0.42307221464191669 0 0.41248490446316177 0.43293377153942381 0 0.42233359500988371 0.42307221464191669 0 0.42326813014219627 0.43909650749986368 0 0.42233359500988371 0.42307221464191669 0 0.43681876433844857 0.43497208046478802 0 0.42326813014219627 0.43909650749986368 0 0.42233359500988371 0.42307221464191669 0 0.43681876433844857 0.43497208046478802 0 0.43655617137350622 0.42038510460191503 0 0.42233359500988371 0.42307221464191669 0 0.42830887421762198 0.41018013153495869 0 0.41521715527738928 0.40390661881175682 0 0.42233359500988371 0.42307221464191669 0 0.42830887421762198 0.41018013153495869 0 0.43655617137350622 0.42038510460191503 0 0.42830887421762198 0.41018013153495869 0 0.43655617137350622 0.42038510460191503 0 0.439625884597032 0.40642404903869822 0 0.42978568865087441 0.39901034440009059 0 0.42344095457037051 0.38268701701273461 0 0.4433226365022459 0.39280274251209668 0 0.42978568865087441 0.39901034440009059 0 0.41521715527738928 0.40390661881175682 0 0.42344095457037051 0.38268701701273461 0 0.42830887421762198 0.41018013153495869 0 0.42978568865087441 0.39901034440009059 0 0.439625884597032 0.40642404903869822 0 0.42830887421762198 0.41018013153495869 0 0.42978568865087441 0.39901034440009059 0 0.41521715527738928 0.40390661881175682 0 0.4167242930516859 0.35972934744593471 0 0.40101385701800268 0.38518895784325291 0 0.42344095457037051 0.38268701701273461 0 0.40101385701800268 0.38518895784325291 0 0.41521715527738928 0.40390661881175682 0 0.42344095457037051 0.38268701701273461 0 0.43815350284422228 0.36591948582569622 0 0.42344095457037051 0.38268701701273461 0 0.4433226365022459 0.39280274251209668 0 0.43815350284422228 0.36591948582569622 0 0.4433226365022459 0.39280274251209668 0 0.43815350284422228 0.36591948582569622 0 0.4433226365022459 0.39280274251209668 0 0.45848938469160699 0.38276388730883248 0 0.4433226365022459 0.39280274251209668 0 0.4587292321942566 0.40377894109977869 0 0.44849177016026981 0.41968599919849731 0 0.4433226365022459 0.39280274251209668 0 0.44849177016026981 0.41968599919849731 0 0.42978568865087441 0.39901034440009059 0 0.4433226365022459 0.39280274251209668 0 0.439625884597032 0.40642404903869822 0 0.4433226365022459 0.39280274251209668 0 0.4587292321942566 0.40377894109977869 0 0.45848938469160699 0.38276388730883248 0 0.4587292321942566 0.40377894109977869 0 0.45848938469160699 0.38276388730883248 0 0.47720201034463561 0.39055994944820821 0 0.46972057754862501 0.36630584452178799 0 0.45848938469160699 0.38276388730883248 0 0.47720201034463561 0.39055994944820821 0 0.46972057754862501 0.36630584452178799 0 0.47720201034463561 0.39055994944820821 0 0.5 0.37670548581833618 0 0.47720201034463561 0.39055994944820821 0 0.5 0.40420347785375749 0 0.47329291580914951 0.41490179660840648 0 0.4587292321942566 0.40377894109977869 0 0.47720201034463561 0.39055994944820821 0 0.47329291580914951 0.41490179660840648 0 0.47720201034463561 0.39055994944820821 0 0.5 0.40420347785375749 0 0.5 0.37670548581833618 0 0.48546521128148462 0.42572005307568972 0 0.49999999999999828 0.43170146988917901 0 0.48502495584706629 0.44181750450007778 0 0.49999999999999828 0.43170146988917901 0 0.48502495584706629 0.44181750450007778 0 0.5 0.40420347785375749 0 0.48546521128148462 0.42572005307568972 0 0.47329291580914951 0.41490179660840648 0 0.5 0.40420347785375749 0 0.48546521128148462 0.42572005307568972 0 0.49999999999999828 0.43170146988917901 0 0.48546521128148462 0.42572005307568972 0 0.47462076711180717 0.43403653248997731 0 0.48502495584706629 0.44181750450007778 0 0.47329291580914951 0.41490179660840648 0 0.47462076711180717 0.43403653248997731 0 0.45927084092720188 0.43580976915473651 0 0.48546521128148462 0.42572005307568972 0 0.47329291580914951 0.41490179660840648 0 0.47462076711180717 0.43403653248997731 0 0.45927084092720188 0.43580976915473651 0 0.44849177016026981 0.41968599919849731 0 0.47329291580914951 0.41490179660840648 0 0.45927084092720188 0.43580976915473651 0 0.44849177016026981 0.41968599919849731 0 0.45927084092720188 0.43580976915473651 0 0.44849177016026981 0.41968599919849731 0 0.45165089640657707 0.43611575462809582 0 0.4587292321942566 0.40377894109977869 0 0.47329291580914951 0.41490179660840648 0 0.44849177016026981 0.41968599919849731 0 0.4433226365022459 0.39280274251209668 0 0.44849177016026981 0.41968599919849731 0 0.439625884597032 0.40642404903869822 0 0.43655617137350622 0.42038510460191503 0 0.44849177016026981 0.41968599919849731 0 0.439625884597032 0.40642404903869822 0 0.44849177016026981 0.41968599919849731 0 0.439625884597032 0.40642404903869822 0 0.44849177016026981 0.41968599919849731 0 0.45165089640657707 0.43611575462809582 0 0.44386952542921521 0.4295111469185629 0 0.44849177016026981 0.41968599919849731 0 0.45165089640657707 0.43611575462809582 0 0.45165089640657707 0.43611575462809582 0 0.44386952542921521 0.4295111469185629 0 0.44519082659473158 0.43782150968735878 0 0.43655617137350622 0.42038510460191503 0 0.44849177016026981 0.41968599919849731 0 0.44386952542921521 0.4295111469185629 0 0.43681876433844857 0.43497208046478802 0 0.43655617137350622 0.42038510460191503 0 0.44386952542921521 0.4295111469185629 0 0.43681876433844857 0.43497208046478802 0 0.44386952542921521 0.4295111469185629 0 0.44519082659473158 0.43782150968735878 0 0.43681876433844857 0.43497208046478802 0 0.44519082659473158 0.43782150968735878 0 0.44362096681603608 0.44566090358066651 0 0.43681876433844857 0.43497208046478802 0 0.44362096681603608 0.44566090358066651 0 0.43343701099378978 0.44857281610427868 0 0.44362096681603608 0.44566090358066651 0 0.44110505044236059 0.45564825146568327 0 0.43343701099378978 0.44857281610427868 0 0.44362096681603608 0.44566090358066651 0 0.45255374853073171 0.45216262504332899 0 0.45221828903371142 0.44335246171580328 0 0.44362096681603608 0.44566090358066651 0 0.45255374853073171 0.45216262504332899 0 0.44110505044236059 0.45564825146568327 0 0.44519082659473158 0.43782150968735878 0 0.44362096681603608 0.44566090358066651 0 0.45221828903371142 0.44335246171580328 0 0.45165089640657707 0.43611575462809582 0 0.44519082659473158 0.43782150968735878 0 0.45221828903371142 0.44335246171580328 0 0.45255374853073171 0.45216262504332899 0 0.44518446721829791 0.46873079822848901 0 0.44110505044236059 0.45564825146568327 0 0.44518446721829791 0.46873079822848901 0 0.44110505044236059 0.45564825146568327 0 0.43072905865294731 0.46311411437165317 0 0.47284597636140308 0.45611600571247141 0 0.46302896313844299 0.47272331085799019 0 0.45255374853073171 0.45216262504332899 0 0.44518446721829791 0.46873079822848901 0 0.47004991169413368 0.45193353911097589 0 0.47004991169413368 0.45193353911097589 0 0.47284597636140308 0.45611600571247141 0 0.46302896313844299 0.47272331085799019 0 0.44518446721829791 0.46873079822848901 0 0.47004991169413368 0.45193353911097589 0 0.46302896313844299 0.47272331085799019 0 0.44518446721829791 0.46873079822848901 0 0.47004991169413368 0.45193353911097589 0 0.45927084092720188 0.43580976915473651 0 0.47004991169413368 0.45193353911097589 0 0.45927084092720188 0.43580976915473651 0 0.45930684530103161 0.44617181272829648 0 0.47004991169413368 0.45193353911097589 0 0.47462076711180717 0.43403653248997731 0 0.45927084092720188 0.43580976915473651 0 0.47004991169413368 0.45193353911097589 0 0.45255374853073171 0.45216262504332899 0 0.45930684530103161 0.44617181272829648 0 0.47004991169413368 0.45193353911097589 0 0.45927084092720188 0.43580976915473651 0 0.45221828903371142 0.44335246171580328 0 0.45930684530103161 0.44617181272829648 0 0.45927084092720188 0.43580976915473651 0 0.45165089640657707 0.43611575462809582 0 0.45221828903371142 0.44335246171580328 0 0.45255374853073171 0.45216262504332899 0 0.45221828903371142 0.44335246171580328 0 0.45930684530103161 0.44617181272829648 0 0.47462076711180717 0.43403653248997731 0 0.47004991169413368 0.45193353911097589 0 0.48502495584706629 0.44181750450007778 0 0.48189680466807888 0.45106209462173341 0 0.47450081081676521 0.45331654521044668 0 0.48502495584706629 0.44181750450007778 0 0.47004991169413368 0.45193353911097589 0 0.48502495584706629 0.44181750450007778 0 0.47004991169413368 0.45193353911097589 0 0.47450081081676521 0.45331654521044668 0 0.48502495584706629 0.44181750450007778 0 0.47284597636140308 0.45611600571247141 0 0.48050552008400071 0.46757346096286262 0 0.46302896313844299 0.47272331085799019 0 0.47004991169413368 0.45193353911097589 0 0.47284597636140308 0.45611600571247141 0 0.47004991169413368 0.45193353911097589 0 0.47450081081676521 0.45331654521044668 0 0.47284597636140308 0.45611600571247141 0 0.47450081081676521 0.45331654521044668 0 0.47284597636140308 0.45611600571247141 0 0.47951191807974908 0.45654698881850991 0 0.47450081081676521 0.45331654521044668 0 0.47284597636140308 0.45611600571247141 0 0.47284597636140308 0.45611600571247141 0 0.48050552008400071 0.46757346096286262 0 0.47284597636140308 0.45611600571247141 0 0.48050552008400071 0.46757346096286262 0 0.47951191807974908 0.45654698881850991 0 0.48189680466807888 0.45106209462173341 0 0.47951191807974908 0.45654698881850991 0 0.4878104784684959 0.4546668375850359 0 0.48050552008400071 0.46757346096286262 0 0.47951191807974908 0.45654698881850991 0 0.4878104784684959 0.4546668375850359 0 0.48189680466807888 0.45106209462173341 0 0.47450081081676521 0.45331654521044668 0 0.47951191807974908 0.45654698881850991 0 0.48050552008400071 0.46757346096286262 0 0.4878104784684959 0.4546668375850359 0 0.49999999999999928 0.46182898591187349 0 0.48050552008400071 0.46757346096286262 0 0.49999999999999928 0.46182898591187349 0 0.49999999999999828 0.43170146988917901 0 0.4878104784684959 0.4546668375850359 0 0.49999999999999928 0.46182898591187349 0 0.49999999999999828 0.43170146988917901 0 0.4878104784684959 0.4546668375850359 0 0.48502495584706629 0.44181750450007778 0 0.48189680466807888 0.45106209462173341 0 0.4878104784684959 0.4546668375850359 0 0.48502495584706629 0.44181750450007778 0 0.49999999999999928 0.46182898591187349 0 0.5 0.5 0 0.49753071700976492 0.4930404390193398 0 0.5 0.5 0 0.47501141284236448 0.48698608464618232 0 0.44690499747156931 0.4999999999999995 0 0.5 0.5 0 0.49753071700976492 0.4930404390193398 0 0.47501141284236448 0.48698608464618232 0 0.49753071700976492 0.4930404390193398 0 0.48901811854688337 0.4803069499911008 0 0.47501141284236448 0.48698608464618232 0 0.49753071700976492 0.4930404390193398 0 0.48901811854688337 0.4803069499911008 0 0.48050552008400071 0.46757346096286262 0 0.49999999999999928 0.46182898591187349 0 0.48901811854688337 0.4803069499911008 0 0.49999999999999928 0.46182898591187349 0 0.49753071700976492 0.4930404390193398 0 0.48901811854688337 0.4803069499911008 0 0.48050552008400071 0.46757346096286262 0 0.48901811854688337 0.4803069499911008 0 0.48050552008400071 0.46757346096286262 0 0.46302896313844299 0.47272331085799019 0 0.48901811854688337 0.4803069499911008 0 0.47689100365292297 0.47689745161453417 0 0.47501141284236448 0.48698608464618232 0 0.48050552008400071 0.46757346096286262 0 0.47689100365292297 0.47689745161453417 0 0.46302896313844299 0.47272331085799019 0 0.48050552008400071 0.46757346096286262 0 0.48901811854688337 0.4803069499911008 0 0.47689100365292297 0.47689745161453417 0 0.47689100365292297 0.47689745161453417 0 0.47501141284236448 0.48698608464618232 0 0.46302896313844299 0.47272331085799019 0 0.47501141284236448 0.48698608464618232 0 0.45496698030500621 0.48636165542899479 0 0.44690499747156931 0.4999999999999995 0 0.47501141284236448 0.48698608464618232 0 0.45496698030500621 0.48636165542899479 0 0.46302896313844299 0.47272331085799019 0 0.45496698030500621 0.48636165542899479 0 0.46302896313844299 0.47272331085799019 0 0.46302896313844299 0.47272331085799019 0 0.43620850627812668 0.48062654530969717 0 0.44518446721829791 0.46873079822848901 0 0.46302896313844299 0.47272331085799019 0 0.43620850627812668 0.48062654530969717 0 0.45496698030500621 0.48636165542899479 0 0.46302896313844299 0.47272331085799019 0 0.43620850627812668 0.48062654530969717 0 0.45496698030500621 0.48636165542899479 0 0.44690499747156931 0.4999999999999995 0 0.43620850627812668 0.48062654530969717 0 0.45496698030500621 0.48636165542899479 0 0.44690499747156931 0.4999999999999995 0 0.42031902274246069 0.48552805734600057 0 0.41743852268843429 0.5 0 0.43620850627812668 0.48062654530969717 0 0.44690499747156931 0.4999999999999995 0 0.41743852268843429 0.5 0 0.43620850627812668 0.48062654530969717 0 0.42031902274246069 0.48552805734600057 0 0.41743852268843429 0.5 0 0.40134209412993838 0.48520307466421098 0 0.42031902274246069 0.48552805734600057 0 0.40973563488985532 0.47579104778557152 0 0.40134209412993838 0.48520307466421098 0 0.42031902274246069 0.48552805734600057 0 0.40973563488985532 0.47579104778557152 0 0.41789473538963601 0.46705380048502582 0 0.44518446721829791 0.46873079822848901 0 0.42031902274246069 0.48552805734600057 0 0.43072905865294731 0.46311411437165317 0 0.44518446721829791 0.46873079822848901 0 0.42031902274246069 0.48552805734600057 0 0.43620850627812668 0.48062654530969717 0 0.44518446721829791 0.46873079822848901 0 0.42031902274246069 0.48552805734600057 0 0.42031902274246069 0.48552805734600057 0 0.43072905865294731 0.46311411437165317 0 0.41789473538963601 0.46705380048502582 0 0.44110505044236059 0.45564825146568327 0 0.43072905865294731 0.46311411437165317 0 0.43343701099378978 0.44857281610427868 0 0.43072905865294731 0.46311411437165317 0 0.43343701099378978 0.44857281610427868 0 0.42053980660522761 0.45341513910658388 0 0.43072905865294731 0.46311411437165317 0 0.41789473538963601 0.46705380048502582 0 0.42053980660522761 0.45341513910658388 0 0.43681876433844857 0.43497208046478802 0 0.43343701099378978 0.44857281610427868 0 0.42326813014219627 0.43909650749986368 0 0.43343701099378978 0.44857281610427868 0 0.42326813014219627 0.43909650749986368 0 0.42053980660522761 0.45341513910658388 0 0.41248490446316177 0.43293377153942381 0 0.42326813014219627 0.43909650749986368 0 0.41215324011006321 0.44426916471351768 0 0.42326813014219627 0.43909650749986368 0 0.41215324011006321 0.44426916471351768 0 0.42053980660522761 0.45341513910658388 0 0.41215324011006321 0.44426916471351768 0 0.42053980660522761 0.45341513910658388 0 0.40575666434273311 0.45838443146516472 0 0.41248490446316177 0.43293377153942381 0 0.41215324011006321 0.44426916471351768 0 0.39942544658573009 0.43872588670818857 0 0.40973563488985532 0.47579104778557152 0 0.41789473538963601 0.46705380048502582 0 0.40575666434273311 0.45838443146516472 0 0.41789473538963601 0.46705380048502582 0 0.42053980660522761 0.45341513910658388 0 0.40575666434273311 0.45838443146516472 0 0.40973563488985532 0.47579104778557152 0 0.40575666434273311 0.45838443146516472 0 0.39457326129307041 0.46924519202038539 0 0.40575666434273311 0.45838443146516472 0 0.38748492612950952 0.44892285829301931 0 0.39457326129307041 0.46924519202038539 0 0.40575666434273311 0.45838443146516472 0 0.39942544658573009 0.43872588670818857 0 0.38748492612950952 0.44892285829301931 0 0.3889231515195431 0.43141286456833011 0 0.39942544658573009 0.43872588670818857 0 0.38748492612950952 0.44892285829301931 0 0.41215324011006321 0.44426916471351768 0 0.40575666434273311 0.45838443146516472 0 0.39942544658573009 0.43872588670818857 0 0.36980735363827261 0.46050290225189661 0 0.36959298495063608 0.43610817863788948 0 0.38748492612950952 0.44892285829301931 0 0.36959298495063608 0.43610817863788948 0 0.3889231515195431 0.43141286456833011 0 0.38748492612950952 0.44892285829301931 0 0.36980735363827261 0.46050290225189661 0 0.38748492612950952 0.44892285829301931 0 0.39457326129307041 0.46924519202038539 0 0.36980735363827261 0.46050290225189661 0 0.37801407526051067 0.48065415083330842 0 0.39457326129307041 0.46924519202038539 0 0.37801407526051067 0.48065415083330842 0 0.38797204790529932 0.5 0 0.40134209412993838 0.48520307466421098 0 0.41743852268843429 0.5 0 0.38797204790529932 0.5 0 0.40134209412993838 0.48520307466421098 0 0.40973563488985532 0.47579104778557152 0 0.40134209412993838 0.48520307466421098 0 0.39457326129307041 0.46924519202038539 0 0.37801407526051067 0.48065415083330842 0 0.40134209412993838 0.48520307466421098 0 0.39457326129307041 0.46924519202038539 0 0.33471388977496319 0.083869725553476451 0 0.32003772732572838 0.080925826065863432 0 0.34163206045391592 0.099703108374672819 0 0.32003772732572838 0.080925826065863432 0 0.34163206045391592 0.099703108374672819 0 0.33471388977496319 0.083869725553476451 0 0.34163206045391592 0.099703108374672819 0 0.35085433501378249 0.086695181415402722 0 0.33471388977496319 0.083869725553476451 0 0.34209731100959018 0.06531632876058778 0 0.3490795063897344 0.076610282135673974 0 0.33471388977496319 0.083869725553476451 0 0.34209731100959018 0.06531632876058778 0 0.32721969837032222 0.069259436753723466 0 0.33471388977496319 0.083869725553476451 0 0.32721969837032222 0.069259436753723466 0 0.32003772732572838 0.080925826065863432 0 0.31518448171420999 0.065085558788002928 0 0.32721969837032222 0.069259436753723466 0 0.32003772732572838 0.080925826065863432 0 0.32003772732572838 0.080925826065863432 0 0.31657863646219547 0.093324099257994786 0 0.34163206045391592 0.099703108374672819 0 0.32003772732572838 0.080925826065863432 0 0.31657863646219547 0.093324099257994786 0 0.30227411453462139 0.089652133027170247 0 0.33471388977496319 0.083869725553476451 0 0.32003772732572838 0.080925826065863432 0 0.31657863646219547 0.093324099257994786 0 0.32025759602694659 0.1047776340902011 0 0.34163206045391592 0.099703108374672819 0 0.31657863646219547 0.093324099257994786 0 0.32025759602694659 0.1047776340902011 0 0.30640852481201453 0.1024735992044304 0 0.32025759602694659 0.1047776340902011 0 0.31114536757858358 0.11742006929579971 0 0.30640852481201453 0.1024735992044304 0 0.32606950933900308 0.1158177097477945 0 0.31114536757858358 0.11742006929579971 0 0.3195478300457561 0.1332621056988223 0 0.32025759602694659 0.1047776340902011 0 0.32606950933900308 0.1158177097477945 0 0.31114536757858358 0.11742006929579971 0 0.33761965874988609 0.1186889285033586 0 0.34163206045391592 0.099703108374672819 0 0.34956654336434939 0.1234914401014125 0 0.32606950933900308 0.1158177097477945 0 0.33761965874988609 0.1186889285033586 0 0.34163206045391592 0.099703108374672819 0 0.32606950933900308 0.1158177097477945 0 0.33761965874988609 0.1186889285033586 0 0.33436770153514289 0.13112975471366969 0 0.33761965874988609 0.1186889285033586 0 0.34956654336434939 0.1234914401014125 0 0.33436770153514289 0.13112975471366969 0 0.32025759602694659 0.1047776340902011 0 0.32606950933900308 0.1158177097477945 0 0.34163206045391592 0.099703108374672819 0 0.34163206045391592 0.099703108374672819 0 0.35755874922647762 0.098360434014750309 0 0.36322639358210312 0.11848039068348271 0 0.34163206045391592 0.099703108374672819 0 0.36322639358210312 0.11848039068348271 0 0.34163206045391592 0.099703108374672819 0 0.35755874922647762 0.098360434014750309 0 0.35085433501378249 0.086695181415402722 0 0.34163206045391592 0.099703108374672819 0 0.34956654336434939 0.1234914401014125 0 0.36322639358210312 0.11848039068348271 0 0.36322639358210312 0.11848039068348271 0 0.37045299287494049 0.09679375479102828 0 0.38005682511468147 0.12140739343396729 0 0.35755874922647762 0.098360434014750309 0 0.36322639358210312 0.11848039068348271 0 0.37045299287494049 0.09679375479102828 0 0.35755874922647762 0.098360434014750309 0 0.37045299287494049 0.09679375479102828 0 0.35979627253246887 0.087956112087811941 0 0.37045299287494049 0.09679375479102828 0 0.36986657419494789 0.075759843690150083 0 0.37682589963749002 0.081332762740894418 0 0.37045299287494049 0.09679375479102828 0 0.35979627253246887 0.087956112087811941 0 0.36084916063519962 0.072180116148089279 0 0.37045299287494049 0.09679375479102828 0 0.36084916063519962 0.072180116148089279 0 0.36986657419494789 0.075759843690150083 0 0.37045299287494049 0.09679375479102828 0 0.36084916063519962 0.072180116148089279 0 0.35755874922647762 0.098360434014750309 0 0.35979627253246887 0.087956112087811941 0 0.35085433501378249 0.086695181415402722 0 0.35979627253246887 0.087956112087811941 0 0.35560274156159061 0.081403828627082772 0 0.36084916063519962 0.072180116148089279 0 0.33471388977496319 0.083869725553476451 0 0.35085433501378249 0.086695181415402722 0 0.3490795063897344 0.076610282135673974 0 0.35979627253246887 0.087956112087811941 0 0.35560274156159061 0.081403828627082772 0 0.35085433501378249 0.086695181415402722 0 0.35560274156159061 0.081403828627082772 0 0.35085433501378249 0.086695181415402722 0 0.3490795063897344 0.076610282135673974 0 0.34209731100959018 0.06531632876058778 0 0.3490795063897344 0.076610282135673974 0 0.36084916063519962 0.072180116148089279 0 0.36448270712015302 0.068442951443566186 0 0.36084916063519962 0.072180116148089279 0 0.35124532839545858 0.047566477505150237 0 0.35560274156159061 0.081403828627082772 0 0.3490795063897344 0.076610282135673974 0 0.36084916063519962 0.072180116148089279 0 0.36448270712015302 0.068442951443566186 0 0.36084916063519962 0.072180116148089279 0 0.36986657419494789 0.075759843690150083 0 0.36986657419494789 0.075759843690150083 0 0.37596532967213542 0.069868995675824025 0 0.37682589963749002 0.081332762740894418 0 0.36448270712015302 0.068442951443566186 0 0.36986657419494789 0.075759843690150083 0 0.37084641292541748 0.06878424193773866 0 0.36986657419494789 0.075759843690150083 0 0.37084641292541748 0.06878424193773866 0 0.37596532967213542 0.069868995675824025 0 0.36448270712015302 0.068442951443566186 0 0.37084641292541748 0.06878424193773866 0 0.37307104071443398 0.061065176941414383 0 0.37084641292541748 0.06878424193773866 0 0.37307104071443398 0.061065176941414383 0 0.37596532967213542 0.069868995675824025 0 0.36448270712015302 0.068442951443566186 0 0.37307104071443398 0.061065176941414383 0 0.37146335928247548 0.04052602251159599 0 0.36448270712015302 0.068442951443566186 0 0.37146335928247548 0.04052602251159599 0 0.35124532839545858 0.047566477505150237 0 0.36448270712015302 0.068442951443566186 0 0.37146335928247548 0.04052602251159599 0 0.37146335928247548 0.04052602251159599 0 0.35572529983931911 0.032753521421585163 0 0.36312657459820519 0.022962182453169309 0 0.37146335928247548 0.04052602251159599 0 0.35572529983931911 0.032753521421585163 0 0.35124532839545858 0.047566477505150237 0 0.35572529983931911 0.032753521421585163 0 0.35124532839545858 0.047566477505150237 0 0.3321968515854315 0.028027004478648001 0 0.36084916063519962 0.072180116148089279 0 0.35124532839545858 0.047566477505150237 0 0.34209731100959018 0.06531632876058778 0 0.36084916063519962 0.072180116148089279 0 0.35124532839545858 0.047566477505150237 0 0.36312657459820519 0.022962182453169309 0 0.35936362748920009 0.0091271431172253586 0 0.37844401144479839 0.012609093579625891 0 0.35936362748920009 0.0091271431172253586 0 0.37844401144479839 0.012609093579625891 0 0.36665723294200347 -0.001883505129568449 0 0.35936362748920009 0.0091271431172253586 0 0.36665723294200347 -0.001883505129568449 0 0.35531676971978082 -0.0033532784323768001 0 0.37146335928247548 0.04052602251159599 0 0.36312657459820519 0.022962182453169309 0 0.37844401144479839 0.012609093579625891 0 0.37146335928247548 0.04052602251159599 0 0.37844401144479839 0.012609093579625891 0 0.35572529983931911 0.032753521421585163 0 0.35063657493523293 0.0197951316358141 0 0.3321968515854315 0.028027004478648001 0 0.35572529983931911 0.032753521421585163 0 0.36312657459820519 0.022962182453169309 0 0.35063657493523293 0.0197951316358141 0 0.36312657459820519 0.022962182453169309 0 0.35063657493523293 0.0197951316358141 0 0.35936362748920009 0.0091271431172253586 0 0.35936362748920009 0.0091271431172253586 0 0.33689267375143878 0.0039255003288513873 0 0.35531676971978082 -0.0033532784323768001 0 0.35063657493523293 0.0197951316358141 0 0.35936362748920009 0.0091271431172253586 0 0.33689267375143878 0.0039255003288513873 0 0.33689267375143878 0.0039255003288513873 0 0.3321968515854315 0.028027004478648001 0 0.30352242257352219 0.0039185454548519476 0 0.35063657493523293 0.0197951316358141 0 0.33689267375143878 0.0039255003288513873 0 0.3321968515854315 0.028027004478648001 0 0.3321968515854315 0.028027004478648001 0 0.32406508202711942 0.05109974460068676 0 0.30086563814790429 0.035038583275740692 0 0.34209731100959018 0.06531632876058778 0 0.32721969837032222 0.069259436753723466 0 0.32406508202711942 0.05109974460068676 0 0.34209731100959018 0.06531632876058778 0 0.35124532839545858 0.047566477505150237 0 0.32406508202711942 0.05109974460068676 0 0.35124532839545858 0.047566477505150237 0 0.3321968515854315 0.028027004478648001 0 0.32406508202711942 0.05109974460068676 0 0.31518448171420999 0.065085558788002928 0 0.32721969837032222 0.069259436753723466 0 0.32406508202711942 0.05109974460068676 0 0.31518448171420999 0.065085558788002928 0 0.32406508202711942 0.05109974460068676 0 0.29882370077581188 0.062479238108283437 0 0.32406508202711942 0.05109974460068676 0 0.29882370077581188 0.062479238108283437 0 0.30086563814790429 0.035038583275740692 0 0.32406508202711942 0.05109974460068676 0 0.30086563814790429 0.035038583275740692 0 0.30086563814790429 0.035038583275740692 0 0.28350496565293731 0.043820562147367653 0 0.27766619426868899 0.018977421950794569 0 0.29882370077581188 0.062479238108283437 0 0.30086563814790429 0.035038583275740692 0 0.28350496565293731 0.043820562147367653 0 0.29882370077581188 0.062479238108283437 0 0.28350496565293731 0.043820562147367653 0 0.28339325744793759 0.061338593161917712 0 0.3321968515854315 0.028027004478648001 0 0.30086563814790429 0.035038583275740692 0 0.30352242257352219 0.0039185454548519476 0 0.30086563814790429 0.035038583275740692 0 0.27766619426868899 0.018977421950794569 0 0.30086563814790429 0.035038583275740692 0 0.30352242257352219 0.0039185454548519476 0 0.27766619426868899 0.018977421950794569 0 0.30352242257352219 0.0039185454548519476 0 0.27766619426868899 0.018977421950794569 0 0.27708695819087842 -0.0025378708656911609 0 0.27766619426868899 0.018977421950794569 0 0.25446675038947358 0.0029162606258486688 0 0.27766619426868899 0.018977421950794569 0 0.26047117107291767 -0.0019720443344692288 0 0.27708695819087842 -0.0025378708656911609 0 0.27766619426868899 0.018977421950794569 0 0.2600935707136679 0.019574361616358959 0 0.26464981823601458 0.038183209123269009 0 0.2600935707136679 0.019574361616358959 0 0.26464981823601458 0.038183209123269009 0 0.25044211127373811 0.032849993626191502 0 0.27766619426868899 0.018977421950794569 0 0.2600935707136679 0.019574361616358959 0 0.25446675038947358 0.0029162606258486688 0 0.27766619426868899 0.018977421950794569 0 0.25446675038947358 0.0029162606258486688 0 0.26047117107291767 -0.0019720443344692288 0 0.25446675038947358 0.0029162606258486688 0 0.26047117107291767 -0.0019720443344692288 0 0.28339325744793759 0.061338593161917712 0 0.2699795556074106 0.054659435659755229 0 0.26514968559830832 0.069915803624621298 0 0.28350496565293731 0.043820562147367653 0 0.28339325744793759 0.061338593161917712 0 0.2699795556074106 0.054659435659755229 0 0.28350496565293731 0.043820562147367653 0 0.27766619426868899 0.018977421950794569 0 0.26464981823601458 0.038183209123269009 0 0.28350496565293731 0.043820562147367653 0 0.2699795556074106 0.054659435659755229 0 0.26464981823601458 0.038183209123269009 0 0.26464981823601458 0.038183209123269009 0 0.25174039047255609 0.044464402284776217 0 0.2585751734657834 0.052327775232976027 0 0.26464981823601458 0.038183209123269009 0 0.25044211127373811 0.032849993626191502 0 0.25174039047255609 0.044464402284776217 0 0.25174039047255609 0.044464402284776217 0 0.25102243244437311 0.053297338652025752 0 0.2585751734657834 0.052327775232976027 0 0.2699795556074106 0.054659435659755229 0 0.26464981823601458 0.038183209123269009 0 0.2585751734657834 0.052327775232976027 0 0.2699795556074106 0.054659435659755229 0 0.2585751734657834 0.052327775232976027 0 0.26000268679747079 0.061003988239662958 0 0.2699795556074106 0.054659435659755229 0 0.26000268679747079 0.061003988239662958 0 0.26514968559830832 0.069915803624621298 0 0.2585751734657834 0.052327775232976027 0 0.26000268679747079 0.061003988239662958 0 0.2530174900015254 0.0600809219264858 0 0.25102243244437311 0.053297338652025752 0 0.2585751734657834 0.052327775232976027 0 0.2530174900015254 0.0600809219264858 0 0.24751669685985911 0.059618880130872708 0 0.25102243244437311 0.053297338652025752 0 0.2530174900015254 0.0600809219264858 0 0.24853219730195361 0.063845178725116872 0 0.2530174900015254 0.0600809219264858 0 0.25274476311700622 0.067427493409812952 0 0.2530174900015254 0.0600809219264858 0 0.25274476311700622 0.067427493409812952 0 0.26000268679747079 0.061003988239662958 0 0.2530174900015254 0.0600809219264858 0 0.25274476311700622 0.067427493409812952 0 0.25274476311700622 0.067427493409812952 0 0.25243039498113262 0.075895774732197205 0 0.24842415088314279 0.069033451464499671 0 0.25274476311700622 0.067427493409812952 0 0.25243039498113262 0.075895774732197205 0 0.25274476311700622 0.067427493409812952 0 0.25243039498113262 0.075895774732197205 0 0.26514968559830832 0.069915803624621298 0 0.25243039498113262 0.075895774732197205 0 0.26514968559830832 0.069915803624621298 0 0.26417250328098718 0.085299079350852347 0 0.25243039498113262 0.075895774732197205 0 0.26514968559830832 0.069915803624621298 0 0.26000268679747079 0.061003988239662958 0 0.25274476311700622 0.067427493409812952 0 0.26514968559830832 0.069915803624621298 0 0.25274476311700622 0.067427493409812952 0 0.26514968559830832 0.069915803624621298 0 0.25243039498113262 0.075895774732197205 0 0.26417250328098718 0.085299079350852347 0 0.25158482098595109 0.098673396421397969 0 0.25243039498113262 0.075895774732197205 0 0.25158482098595109 0.098673396421397969 0 0.26417250328098718 0.085299079350852347 0 0.27563544099652842 0.091217529053328833 0 0.26597619666038957 0.098681263799979324 0 0.26417250328098718 0.085299079350852347 0 0.27658940398852799 0.081360569412953818 0 0.27563544099652842 0.091217529053328833 0 0.26514968559830832 0.069915803624621298 0 0.26417250328098718 0.085299079350852347 0 0.27658940398852799 0.081360569412953818 0 0.27658940398852799 0.081360569412953818 0 0.27563544099652842 0.091217529053328833 0 0.28742128170162778 0.087331448045782731 0 0.28339325744793759 0.061338593161917712 0 0.26514968559830832 0.069915803624621298 0 0.29259370646201821 0.075420814845242989 0 0.26514968559830832 0.069915803624621298 0 0.27658940398852799 0.081360569412953818 0 0.29259370646201821 0.075420814845242989 0 0.28339325744793759 0.061338593161917712 0 0.26514968559830832 0.069915803624621298 0 0.26514968559830832 0.069915803624621298 0 0.29259370646201821 0.075420814845242989 0 0.29882370077581188 0.062479238108283437 0 0.28339325744793759 0.061338593161917712 0 0.29259370646201821 0.075420814845242989 0 0.27658940398852799 0.081360569412953818 0 0.29259370646201821 0.075420814845242989 0 0.28742128170162778 0.087331448045782731 0 0.27563544099652842 0.091217529053328833 0 0.28742128170162778 0.087331448045782731 0 0.29001374252644291 0.099006193890217781 0 0.28742128170162778 0.087331448045782731 0 0.30227411453462139 0.089652133027170247 0 0.29001374252644291 0.099006193890217781 0 0.29259370646201821 0.075420814845242989 0 0.28742128170162778 0.087331448045782731 0 0.30227411453462139 0.089652133027170247 0 0.32003772732572838 0.080925826065863432 0 0.29259370646201821 0.075420814845242989 0 0.30227411453462139 0.089652133027170247 0 0.32003772732572838 0.080925826065863432 0 0.29259370646201821 0.075420814845242989 0 0.32003772732572838 0.080925826065863432 0 0.29882370077581188 0.062479238108283437 0 0.29259370646201821 0.075420814845242989 0 0.32003772732572838 0.080925826065863432 0 0.29882370077581188 0.062479238108283437 0 0.31518448171420999 0.065085558788002928 0 0.32003772732572838 0.080925826065863432 0 0.29882370077581188 0.062479238108283437 0 0.29818169174329712 0.11066146566519899 0 0.31114536757858358 0.11742006929579971 0 0.294250496481684 0.12267566802032639 0 0.31114536757858358 0.11742006929579971 0 0.294250496481684 0.12267566802032639 0 0.30313841955192899 0.13260249050964579 0 0.29818169174329712 0.11066146566519899 0 0.31114536757858358 0.11742006929579971 0 0.30640852481201453 0.1024735992044304 0 0.30227411453462139 0.089652133027170247 0 0.30640852481201453 0.1024735992044304 0 0.29001374252644291 0.099006193890217781 0 0.29818169174329712 0.11066146566519899 0 0.30640852481201453 0.1024735992044304 0 0.29001374252644291 0.099006193890217781 0 0.31657863646219547 0.093324099257994786 0 0.30227411453462139 0.089652133027170247 0 0.30640852481201453 0.1024735992044304 0 0.29818169174329712 0.11066146566519899 0 0.29001374252644291 0.099006193890217781 0 0.28729541733308872 0.1128284558108848 0 0.29001374252644291 0.099006193890217781 0 0.28729541733308872 0.1128284558108848 0 0.27577858748266387 0.1072301355245756 0 0.29818169174329712 0.11066146566519899 0 0.28729541733308872 0.1128284558108848 0 0.294250496481684 0.12267566802032639 0 0.28729541733308872 0.1128284558108848 0 0.294250496481684 0.12267566802032639 0 0.28067449336876182 0.1220521091494646 0 0.28067449336876182 0.1220521091494646 0 0.26956705708048567 0.1198361090660386 0 0.27577858748266387 0.1072301355245756 0 0.28729541733308872 0.1128284558108848 0 0.28067449336876182 0.1220521091494646 0 0.27577858748266387 0.1072301355245756 0 0.26956705708048567 0.1198361090660386 0 0.27577858748266387 0.1072301355245756 0 0.26270963055581759 0.11098617864974181 0 0.27563544099652842 0.091217529053328833 0 0.27577858748266387 0.1072301355245756 0 0.26597619666038957 0.098681263799979324 0 0.27563544099652842 0.091217529053328833 0 0.29001374252644291 0.099006193890217781 0 0.27577858748266387 0.1072301355245756 0 0.27577858748266387 0.1072301355245756 0 0.26597619666038957 0.098681263799979324 0 0.26270963055581759 0.11098617864974181 0 0.25158482098595109 0.098673396421397969 0 0.25094552198087999 0.11589449234768209 0 0.25158482098595109 0.098673396421397969 0 0.26270963055581759 0.11098617864974181 0 0.25094552198087999 0.11589449234768209 0 0.26417250328098718 0.085299079350852347 0 0.26597619666038957 0.098681263799979324 0 0.25158482098595109 0.098673396421397969 0 0.26597619666038957 0.098681263799979324 0 0.25158482098595109 0.098673396421397969 0 0.26270963055581759 0.11098617864974181 0 0.25158482098595109 0.098673396421397969 0 0.26270963055581759 0.11098617864974181 0 0.25094552198087999 0.11589449234768209 0 0.25030622297580962 0.13311558827396619 0 0.26022612795132161 0.12333036834530881 0 0.25094552198087999 0.11589449234768209 0 0.25030622297580962 0.13311558827396619 0 0.26956705708048567 0.1198361090660386 0 0.26022612795132161 0.12333036834530881 0 0.26270963055581759 0.11098617864974181 0 0.26022612795132161 0.12333036834530881 0 0.26270963055581759 0.11098617864974181 0 0.25094552198087999 0.11589449234768209 0 0.26956705708048567 0.1198361090660386 0 0.26022612795132161 0.12333036834530881 0 0.26675796828336718 0.1380571931171293 0 0.26022612795132161 0.12333036834530881 0 0.25030622297580962 0.13311558827396619 0 0.26675796828336718 0.1380571931171293 0 0.25030622297580962 0.13311558827396619 0 0.26675796828336718 0.1380571931171293 0 0.25030622297580962 0.13311558827396619 0 0.26675796828336718 0.1380571931171293 0 0.25638724149227848 0.14295410589973731 0 0.25004344172447263 0.14019424959050239 0 0.25030622297580962 0.13311558827396619 0 0.25638724149227848 0.14295410589973731 0 0.25004344172447263 0.14019424959050239 0 0.25030622297580962 0.13311558827396619 0 0.26675796828336718 0.1380571931171293 0 0.28320971359092417 0.1429987979602943 0 0.26675796828336718 0.1380571931171293 0 0.28666270206708028 0.1324408374186071 0 0.28320971359092417 0.1429987979602943 0 0.28067449336876182 0.1220521091494646 0 0.26956705708048567 0.1198361090660386 0 0.26675796828336718 0.1380571931171293 0 0.28067449336876182 0.1220521091494646 0 0.26675796828336718 0.1380571931171293 0 0.28666270206708028 0.1324408374186071 0 0.26675796828336718 0.1380571931171293 0 0.27436529468354132 0.15433220537778311 0 0.26010861073109098 0.15248373785575309 0 0.26675796828336718 0.1380571931171293 0 0.27436529468354132 0.15433220537778311 0 0.28320971359092417 0.1429987979602943 0 0.26675796828336718 0.1380571931171293 0 0.26010861073109098 0.15248373785575309 0 0.25638724149227848 0.14295410589973731 0 0.2496536413094039 0.15044712256699261 0 0.25004344172447263 0.14019424959050239 0 0.25638724149227848 0.14295410589973731 0 0.24653130607993951 0.16237692388552691 0 0.2496536413094039 0.15044712256699261 0 0.26010861073109098 0.15248373785575309 0 0.2496536413094039 0.15044712256699261 0 0.26010861073109098 0.15248373785575309 0 0.25638724149227848 0.14295410589973731 0 0.24653130607993951 0.16237692388552691 0 0.25292738168467233 0.17649485219682931 0 0.26638423851283249 0.16867758561061549 0 0.24653130607993951 0.16237692388552691 0 0.26010861073109098 0.15248373785575309 0 0.26638423851283249 0.16867758561061549 0 0.24528107816237801 0.1907036486386274 0 0.25292738168467233 0.17649485219682931 0 0.26633433714882182 0.18577592949096661 0 0.25292738168467233 0.17649485219682931 0 0.26633433714882182 0.18577592949096661 0 0.26638423851283249 0.16867758561061549 0 0.27723266788850742 0.181048228772968 0 0.26638423851283249 0.16867758561061549 0 0.28391425324491287 0.17071999404263091 0 0.26633433714882182 0.18577592949096661 0 0.27723266788850742 0.181048228772968 0 0.26638423851283249 0.16867758561061549 0 0.27436529468354132 0.15433220537778311 0 0.26010861073109098 0.15248373785575309 0 0.26638423851283249 0.16867758561061549 0 0.27436529468354132 0.15433220537778311 0 0.26638423851283249 0.16867758561061549 0 0.28391425324491287 0.17071999404263091 0 0.27436529468354132 0.15433220537778311 0 0.28391425324491287 0.17071999404263091 0 0.29097703849613438 0.15773848939083679 0 0.28391425324491287 0.17071999404263091 0 0.2931647794093819 0.16879209887591959 0 0.29097703849613438 0.15773848939083679 0 0.2931647794093819 0.16879209887591959 0 0.29097703849613438 0.15773848939083679 0 0.30040947706207388 0.16512632217721829 0 0.28391425324491287 0.17071999404263091 0 0.28743664533084129 0.187357279865842 0 0.29743995151898561 0.17866098634217961 0 0.27723266788850742 0.181048228772968 0 0.28391425324491287 0.17071999404263091 0 0.28743664533084129 0.187357279865842 0 0.28391425324491287 0.17071999404263091 0 0.2931647794093819 0.16879209887591959 0 0.29743995151898561 0.17866098634217961 0 0.28743664533084129 0.187357279865842 0 0.29743995151898561 0.17866098634217961 0 0.29971043857951379 0.19298806906372529 0 0.29743995151898561 0.17866098634217961 0 0.30929675685570829 0.1858318568065235 0 0.29971043857951379 0.19298806906372529 0 0.29743995151898561 0.17866098634217961 0 0.3101655001798202 0.17563615506282959 0 0.30040947706207388 0.16512632217721829 0 0.29743995151898561 0.17866098634217961 0 0.3101655001798202 0.17563615506282959 0 0.30929675685570829 0.1858318568065235 0 0.30040947706207388 0.16512632217721829 0 0.30453528129870422 0.15487579661148021 0 0.32848741365188411 0.1727716232507491 0 0.29097703849613438 0.15773848939083679 0 0.30040947706207388 0.16512632217721829 0 0.30453528129870422 0.15487579661148021 0 0.2931647794093819 0.16879209887591959 0 0.29743995151898561 0.17866098634217961 0 0.30040947706207388 0.16512632217721829 0 0.29097703849613438 0.15773848939083679 0 0.30453528129870422 0.15487579661148021 0 0.29618567382365713 0.14404403195872001 0 0.30453528129870422 0.15487579661148021 0 0.30873747279203018 0.14281046260302349 0 0.29618567382365713 0.14404403195872001 0 0.30453528129870422 0.15487579661148021 0 0.30873747279203018 0.14281046260302349 0 0.32007589174333823 0.14676000458717811 0 0.30873747279203018 0.14281046260302349 0 0.30313841955192899 0.13260249050964579 0 0.3195478300457561 0.1332621056988223 0 0.31114536757858358 0.11742006929579971 0 0.30313841955192899 0.13260249050964579 0 0.3195478300457561 0.1332621056988223 0 0.30873747279203018 0.14281046260302349 0 0.30313841955192899 0.13260249050964579 0 0.29618567382365713 0.14404403195872001 0 0.294250496481684 0.12267566802032639 0 0.30313841955192899 0.13260249050964579 0 0.28666270206708028 0.1324408374186071 0 0.30313841955192899 0.13260249050964579 0 0.28666270206708028 0.1324408374186071 0 0.29618567382365713 0.14404403195872001 0 0.294250496481684 0.12267566802032639 0 0.28067449336876182 0.1220521091494646 0 0.28666270206708028 0.1324408374186071 0 0.28666270206708028 0.1324408374186071 0 0.28320971359092417 0.1429987979602943 0 0.29618567382365713 0.14404403195872001 0 0.27436529468354132 0.15433220537778311 0 0.29097703849613438 0.15773848939083679 0 0.28320971359092417 0.1429987979602943 0 0.29097703849613438 0.15773848939083679 0 0.28320971359092417 0.1429987979602943 0 0.29618567382365713 0.14404403195872001 0 0.28119448123381058 0.25405304303149878 0 0.26221447651104962 0.2479993693513689 0 0.28440499104296979 0.23439140090611099 0 0.26221447651104962 0.2479993693513689 0 0.26853130556434218 0.23400660741274959 0 0.28440499104296979 0.23439140090611099 0 0.26221447651104962 0.2479993693513689 0 0.28440499104296979 0.23439140090611099 0 0.2457442494512444 0.24022391879071339 0 0.26221447651104962 0.2479993693513689 0 0.25511338863332461 0.22468137717712711 0 0.26221447651104962 0.2479993693513689 0 0.25511338863332461 0.22468137717712711 0 0.26853130556434218 0.23400660741274959 0 0.26221447651104962 0.2479993693513689 0 0.25511338863332461 0.22468137717712711 0 0.25511338863332461 0.22468137717712711 0 0.25242827713160498 0.21540237912569379 0 0.25511338863332461 0.22468137717712711 0 0.2794126892910288 0.21617120911671081 0 0.25511338863332461 0.22468137717712711 0 0.26853130556434218 0.23400660741274959 0 0.2794126892910288 0.21617120911671081 0 0.26853130556434218 0.23400660741274959 0 0.2794126892910288 0.21617120911671081 0 0.28440499104296979 0.23439140090611099 0 0.25511338863332461 0.22468137717712711 0 0.2794126892910288 0.21617120911671081 0 0.26644318031571418 0.20408753099865831 0 0.2794126892910288 0.21617120911671081 0 0.26644318031571418 0.20408753099865831 0 0.27722953884408802 0.19656269719262509 0 0.24528107816237801 0.1907036486386274 0 0.26644318031571418 0.20408753099865831 0 0.25242827713160498 0.21540237912569379 0 0.25511338863332461 0.22468137717712711 0 0.26644318031571418 0.20408753099865831 0 0.25242827713160498 0.21540237912569379 0 0.26644318031571418 0.20408753099865831 0 0.25242827713160498 0.21540237912569379 0 0.24528107816237801 0.1907036486386274 0 0.26633433714882182 0.18577592949096661 0 0.26644318031571418 0.20408753099865831 0 0.26633433714882182 0.18577592949096661 0 0.26644318031571418 0.20408753099865831 0 0.27722953884408802 0.19656269719262509 0 0.27723266788850742 0.181048228772968 0 0.28743664533084129 0.187357279865842 0 0.27722953884408802 0.19656269719262509 0 0.26633433714882182 0.18577592949096661 0 0.27723266788850742 0.181048228772968 0 0.27722953884408802 0.19656269719262509 0 0.28743664533084129 0.187357279865842 0 0.27722953884408802 0.19656269719262509 0 0.28939512316467059 0.2005252056429343 0 0.28743664533084129 0.187357279865842 0 0.28939512316467059 0.2005252056429343 0 0.29971043857951379 0.19298806906372529 0 0.30929675685570829 0.1858318568065235 0 0.29971043857951379 0.19298806906372529 0 0.31162694501442678 0.19735313208654229 0 0.29971043857951379 0.19298806906372529 0 0.31162694501442678 0.19735313208654229 0 0.30371198994873311 0.20766104105629449 0 0.28939512316467059 0.2005252056429343 0 0.29971043857951379 0.19298806906372529 0 0.30371198994873311 0.20766104105629449 0 0.2794126892910288 0.21617120911671081 0 0.30371198994873311 0.20766104105629449 0 0.2794126892910288 0.21617120911671081 0 0.30371198994873311 0.20766104105629449 0 0.30659550557489001 0.220783432460853 0 0.2794126892910288 0.21617120911671081 0 0.27722953884408802 0.19656269719262509 0 0.28939512316467059 0.2005252056429343 0 0.2794126892910288 0.21617120911671081 0 0.28939512316467059 0.2005252056429343 0 0.30371198994873311 0.20766104105629449 0 0.30659550557489001 0.220783432460853 0 0.28440499104296979 0.23439140090611099 0 0.2794126892910288 0.21617120911671081 0 0.30659550557489001 0.220783432460853 0 0.28440499104296979 0.23439140090611099 0 0.30659550557489001 0.220783432460853 0 0.30328699804120918 0.24394477185791469 0 0.28440499104296979 0.23439140090611099 0 0.30659550557489001 0.220783432460853 0 0.30328699804120918 0.24394477185791469 0 0.31607427666693672 0.2331905299380852 0 0.28119448123381058 0.25405304303149878 0 0.30328699804120918 0.24394477185791469 0 0.28440499104296979 0.23439140090611099 0 0.3433555784436142 0.25004320974280247 0 0.34183468199228573 0.23727684870966961 0 0.33092809789354199 0.24744869965648561 0 0.34183468199228573 0.23727684870966961 0 0.3288410404878227 0.2348757256337824 0 0.33092809789354199 0.24744869965648561 0 0.3288410404878227 0.2348757256337824 0 0.33092809789354199 0.24744869965648561 0 0.31845456220733243 0.24449663650262579 0 0.31879452400631653 0.25919465198291952 0 0.30328699804120918 0.24394477185791469 0 0.31845456220733243 0.24449663650262579 0 0.30328699804120918 0.24394477185791469 0 0.31845456220733243 0.24449663650262579 0 0.31607427666693672 0.2331905299380852 0 0.3288410404878227 0.2348757256337824 0 0.31845456220733243 0.24449663650262579 0 0.31607427666693672 0.2331905299380852 0 0.3288410404878227 0.2348757256337824 0 0.31607427666693672 0.2331905299380852 0 0.32372534117020862 0.22390137225637691 0 0.30659550557489001 0.220783432460853 0 0.31607427666693672 0.2331905299380852 0 0.32372534117020862 0.22390137225637691 0 0.3288410404878227 0.2348757256337824 0 0.32372534117020862 0.22390137225637691 0 0.33832986301458301 0.22348170923356889 0 0.34183468199228573 0.23727684870966961 0 0.3288410404878227 0.2348757256337824 0 0.33832986301458301 0.22348170923356889 0 0.32372534117020862 0.22390137225637691 0 0.33832986301458301 0.22348170923356889 0 0.32878602010681029 0.20717546401559489 0 0.33832986301458301 0.22348170923356889 0 0.32878602010681029 0.20717546401559489 0 0.35089693608391498 0.21212819010674691 0 0.32878602010681029 0.20717546401559489 0 0.35097653463873058 0.19356749557033681 0 0.35089693608391498 0.21212819010674691 0 0.30659550557489001 0.220783432460853 0 0.32372534117020862 0.22390137225637691 0 0.32878602010681029 0.20717546401559489 0 0.31162694501442678 0.19735313208654229 0 0.30371198994873311 0.20766104105629449 0 0.32878602010681029 0.20717546401559489 0 0.30371198994873311 0.20766104105629449 0 0.30659550557489001 0.220783432460853 0 0.32878602010681029 0.20717546401559489 0 0.30659550557489001 0.220783432460853 0 0.32878602010681029 0.20717546401559489 0 0.32878602010681029 0.20717546401559489 0 0.31972446529152482 0.19052244909679969 0 0.3336272658304279 0.18895925974375941 0 0.31162694501442678 0.19735313208654229 0 0.32878602010681029 0.20717546401559489 0 0.31972446529152482 0.19052244909679969 0 0.30929675685570829 0.1858318568065235 0 0.31162694501442678 0.19735313208654229 0 0.31972446529152482 0.19052244909679969 0 0.32878602010681029 0.20717546401559489 0 0.3336272658304279 0.18895925974375941 0 0.35097653463873058 0.19356749557033681 0 0.32878602010681029 0.20717546401559489 0 0.35097653463873058 0.19356749557033681 0 0.3336272658304279 0.18895925974375941 0 0.35097653463873058 0.19356749557033681 0 0.35656535024169428 0.1804169243242798 0 0.35097653463873058 0.19356749557033681 0 0.35896651107905142 0.20360726904620211 0 0.35089693608391498 0.21212819010674691 0 0.35097653463873058 0.19356749557033681 0 0.36405518175537521 0.19484170215684679 0 0.35896651107905142 0.20360726904620211 0 0.35097653463873058 0.19356749557033681 0 0.36405518175537521 0.19484170215684679 0 0.35656535024169428 0.1804169243242798 0 0.36405518175537521 0.19484170215684679 0 0.35656535024169428 0.1804169243242798 0 0.38464328683150451 0.18806222539781059 0 0.36405518175537521 0.19484170215684679 0 0.36923798170140371 0.20928007436804161 0 0.38464328683150451 0.18806222539781059 0 0.36405518175537521 0.19484170215684679 0 0.36923798170140371 0.20928007436804161 0 0.35896651107905142 0.20360726904620211 0 0.36923798170140371 0.20928007436804161 0 0.36132702422268731 0.21787493872225441 0 0.35896651107905142 0.20360726904620211 0 0.36923798170140371 0.20928007436804161 0 0.36132702422268731 0.21787493872225441 0 0.37292139258550783 0.22672254500020811 0 0.36132702422268731 0.21787493872225441 0 0.35896651107905142 0.20360726904620211 0 0.35089693608391498 0.21212819010674691 0 0.34183468199228573 0.23727684870966961 0 0.33832986301458301 0.22348170923356889 0 0.35524969613090918 0.22837961108452459 0 0.36132702422268731 0.21787493872225441 0 0.35089693608391498 0.21212819010674691 0 0.35524969613090918 0.22837961108452459 0 0.33832986301458301 0.22348170923356889 0 0.35089693608391498 0.21212819010674691 0 0.35524969613090918 0.22837961108452459 0 0.36132702422268731 0.21787493872225441 0 0.35524969613090918 0.22837961108452459 0 0.37292139258550783 0.22672254500020811 0 0.35524969613090918 0.22837961108452459 0 0.37292139258550783 0.22672254500020811 0 0.36587213359177301 0.2378375665458646 0 0.37292139258550783 0.22672254500020811 0 0.36587213359177301 0.2378375665458646 0 0.3757768555661396 0.240133652284411 0 0.36587213359177301 0.2378375665458646 0 0.37169426656027921 0.24972740256563611 0 0.3757768555661396 0.240133652284411 0 0.36587213359177301 0.2378375665458646 0 0.37169426656027921 0.24972740256563611 0 0.36205361842742478 0.24882498742118489 0 0.36587213359177301 0.2378375665458646 0 0.36205361842742478 0.24882498742118489 0 0.35356337405553911 0.24205426642971811 0 0.35175757775775729 0.2532797976346674 0 0.36205361842742478 0.24882498742118489 0 0.35356337405553911 0.24205426642971811 0 0.35524969613090918 0.22837961108452459 0 0.36587213359177301 0.2378375665458646 0 0.35356337405553911 0.24205426642971811 0 0.34183468199228573 0.23727684870966961 0 0.35524969613090918 0.22837961108452459 0 0.35356337405553911 0.24205426642971811 0 0.3433555784436142 0.25004320974280247 0 0.34183468199228573 0.23727684870966961 0 0.35356337405553911 0.24205426642971811 0 0.3433555784436142 0.25004320974280247 0 0.35175757775775729 0.2532797976346674 0 0.35356337405553911 0.24205426642971811 0 0.33379856680907583 0.1437068241164389 0 0.32007589174333823 0.14676000458717811 0 0.33365817402274128 0.15789089208148979 0 0.33379856680907583 0.1437068241164389 0 0.33365817402274128 0.15789089208148979 0 0.34780073530519279 0.14835628742565241 0 0.33379856680907583 0.1437068241164389 0 0.34780073530519279 0.14835628742565241 0 0.34586764947947463 0.1362539899128139 0 0.33379856680907583 0.1437068241164389 0 0.33436770153514289 0.13112975471366969 0 0.34586764947947463 0.1362539899128139 0 0.34956654336434939 0.1234914401014125 0 0.33436770153514289 0.13112975471366969 0 0.34586764947947463 0.1362539899128139 0 0.33379856680907583 0.1437068241164389 0 0.33436770153514289 0.13112975471366969 0 0.3195478300457561 0.1332621056988223 0 0.32606950933900308 0.1158177097477945 0 0.33436770153514289 0.13112975471366969 0 0.3195478300457561 0.1332621056988223 0 0.30873747279203018 0.14281046260302349 0 0.3195478300457561 0.1332621056988223 0 0.32007589174333823 0.14676000458717811 0 0.30453528129870422 0.15487579661148021 0 0.32007589174333823 0.14676000458717811 0 0.33365817402274128 0.15789089208148979 0 0.33379856680907583 0.1437068241164389 0 0.3195478300457561 0.1332621056988223 0 0.32007589174333823 0.14676000458717811 0 0.30453528129870422 0.15487579661148021 0 0.33365817402274128 0.15789089208148979 0 0.30453528129870422 0.15487579661148021 0 0.32848741365188411 0.1727716232507491 0 0.33365817402274128 0.15789089208148979 0 0.30040947706207388 0.16512632217721829 0 0.32848741365188411 0.1727716232507491 0 0.3101655001798202 0.17563615506282959 0 0.30040947706207388 0.16512632217721829 0 0.32848741365188411 0.1727716232507491 0 0.3101655001798202 0.17563615506282959 0 0.31983557186529732 0.18171103000860481 0 0.32848741365188411 0.1727716232507491 0 0.3336272658304279 0.18895925974375941 0 0.31983557186529732 0.18171103000860481 0 0.32848741365188411 0.1727716232507491 0 0.3101655001798202 0.17563615506282959 0 0.30929675685570829 0.1858318568065235 0 0.31983557186529732 0.18171103000860481 0 0.30929675685570829 0.1858318568065235 0 0.31972446529152482 0.19052244909679969 0 0.31983557186529732 0.18171103000860481 0 0.31972446529152482 0.19052244909679969 0 0.3336272658304279 0.18895925974375941 0 0.31983557186529732 0.18171103000860481 0 0.32848741365188411 0.1727716232507491 0 0.34507730906385942 0.16855187839241309 0 0.35656535024169428 0.1804169243242798 0 0.3336272658304279 0.18895925974375941 0 0.32848741365188411 0.1727716232507491 0 0.35656535024169428 0.1804169243242798 0 0.32848741365188411 0.1727716232507491 0 0.35656535024169428 0.1804169243242798 0 0.32848741365188411 0.1727716232507491 0 0.33365817402274128 0.15789089208148979 0 0.34507730906385942 0.16855187839241309 0 0.33365817402274128 0.15789089208148979 0 0.34507730906385942 0.16855187839241309 0 0.36278106674677829 0.1609059875514994 0 0.34507730906385942 0.16855187839241309 0 0.35656535024169428 0.1804169243242798 0 0.36278106674677829 0.1609059875514994 0 0.33365817402274128 0.15789089208148979 0 0.36278106674677829 0.1609059875514994 0 0.35656535024169428 0.1804169243242798 0 0.37356219856206202 0.1741215612114578 0 0.38464328683150451 0.18806222539781059 0 0.35656535024169428 0.1804169243242798 0 0.38464328683150451 0.18806222539781059 0 0.35656535024169428 0.1804169243242798 0 0.37356219856206202 0.1741215612114578 0 0.36278106674677829 0.1609059875514994 0 0.36278106674677829 0.1609059875514994 0 0.36531512046589693 0.1378839500987098 0 0.37680076681991098 0.15092733218095339 0 0.36278106674677829 0.1609059875514994 0 0.34780073530519279 0.14835628742565241 0 0.36531512046589693 0.1378839500987098 0 0.34780073530519279 0.14835628742565241 0 0.34586764947947463 0.1362539899128139 0 0.36531512046589693 0.1378839500987098 0 0.33365817402274128 0.15789089208148979 0 0.36278106674677829 0.1609059875514994 0 0.34780073530519279 0.14835628742565241 0 0.34956654336434939 0.1234914401014125 0 0.34586764947947463 0.1362539899128139 0 0.36531512046589693 0.1378839500987098 0 0.34956654336434939 0.1234914401014125 0 0.36322639358210312 0.11848039068348271 0 0.36531512046589693 0.1378839500987098 0 0.36322639358210312 0.11848039068348271 0 0.36531512046589693 0.1378839500987098 0 0.38482072671029011 0.13725767299229241 0 0.36322639358210312 0.11848039068348271 0 0.38482072671029011 0.13725767299229241 0 0.36322639358210312 0.11848039068348271 0 0.38482072671029011 0.13725767299229241 0 0.38005682511468147 0.12140739343396729 0 0.38482072671029011 0.13725767299229241 0 0.39398634319161102 0.12556361147638159 0 0.38005682511468147 0.12140739343396729 0 0.38482072671029011 0.13725767299229241 0 0.39398634319161102 0.12556361147638159 0 0.40386822996399702 0.1370092008917044 0 0.39398634319161102 0.12556361147638159 0 0.40386822996399702 0.1370092008917044 0 0.40630256149234217 0.12337914253670321 0 0.38482072671029011 0.13725767299229241 0 0.40641505983847698 0.15603495530110209 0 0.38482072671029011 0.13725767299229241 0 0.40386822996399702 0.1370092008917044 0 0.40641505983847698 0.15603495530110209 0 0.38482072671029011 0.13725767299229241 0 0.39190395947081519 0.16392108302150901 0 0.40641505983847698 0.15603495530110209 0 0.36531512046589693 0.1378839500987098 0 0.38482072671029011 0.13725767299229241 0 0.37680076681991098 0.15092733218095339 0 0.38482072671029011 0.13725767299229241 0 0.37680076681991098 0.15092733218095339 0 0.39190395947081519 0.16392108302150901 0 0.36278106674677829 0.1609059875514994 0 0.39190395947081519 0.16392108302150901 0 0.36278106674677829 0.1609059875514994 0 0.37680076681991098 0.15092733218095339 0 0.39190395947081519 0.16392108302150901 0 0.37356219856206202 0.1741215612114578 0 0.36278106674677829 0.1609059875514994 0 0.39190395947081519 0.16392108302150901 0 0.37356219856206202 0.1741215612114578 0 0.39190395947081519 0.16392108302150901 0 0.38464328683150451 0.18806222539781059 0 0.4059128807594603 0.17981630131623391 0 0.39190395947081519 0.16392108302150901 0 0.38464328683150451 0.18806222539781059 0 0.39190395947081519 0.16392108302150901 0 0.42102685219485209 0.16693617849151851 0 0.40641505983847698 0.15603495530110209 0 0.4059128807594603 0.17981630131623391 0 0.39190395947081519 0.16392108302150901 0 0.42102685219485209 0.16693617849151851 0 0.42102685219485209 0.16693617849151851 0 0.40641505983847698 0.15603495530110209 0 0.41490094777653419 0.14712571815411829 0 0.39190395947081519 0.16392108302150901 0 0.42102685219485209 0.16693617849151851 0 0.4059128807594603 0.17981630131623391 0 0.42102685219485209 0.16693617849151851 0 0.42759287120751482 0.1799189573059411 0 0.4059128807594603 0.17981630131623391 0 0.42759287120751482 0.1799189573059411 0 0.42045703890892938 0.19185412915784311 0 0.42102685219485209 0.16693617849151851 0 0.42759287120751482 0.1799189573059411 0 0.45014974491888898 0.16995127396152809 0 0.42759287120751482 0.1799189573059411 0 0.42045703890892938 0.19185412915784311 0 0.43799329450951457 0.1898848624547933 0 0.42102685219485209 0.16693617849151851 0 0.45014974491888898 0.16995127396152809 0 0.42102685219485209 0.16693617849151851 0 0.43641214087317609 0.15776157540708571 0 0.42820809332857229 0.14540676379554701 0 0.42102685219485209 0.16693617849151851 0 0.43641214087317609 0.15776157540708571 0 0.45014974491888898 0.16995127396152809 0 0.43641214087317609 0.15776157540708571 0 0.42820809332857229 0.14540676379554701 0 0.44305345270963392 0.14224085277467549 0 0.42820809332857229 0.14540676379554701 0 0.43267139290449452 0.12562392175117529 0 0.41815906511665779 0.13368892679480551 0 0.42820809332857229 0.14540676379554701 0 0.43267139290449452 0.12562392175117529 0 0.44305345270963392 0.14224085277467549 0 0.43267139290449452 0.12562392175117529 0 0.41815906511665779 0.13368892679480551 0 0.41840244549433692 0.1204435227777134 0 0.41815906511665779 0.13368892679480551 0 0.41840244549433692 0.1204435227777134 0 0.40630256149234217 0.12337914253670321 0 0.40386822996399702 0.1370092008917044 0 0.41815906511665779 0.13368892679480551 0 0.40630256149234217 0.12337914253670321 0 0.40386822996399702 0.1370092008917044 0 0.41815906511665779 0.13368892679480551 0 0.41490094777653419 0.14712571815411829 0 0.42102685219485209 0.16693617849151851 0 0.42820809332857229 0.14540676379554701 0 0.41490094777653419 0.14712571815411829 0 0.40386822996399702 0.1370092008917044 0 0.40641505983847698 0.15603495530110209 0 0.41490094777653419 0.14712571815411829 0 0.42820809332857229 0.14540676379554701 0 0.41815906511665779 0.13368892679480551 0 0.41490094777653419 0.14712571815411829 0 0.39196586341458151 0.242441409442547 0 0.40329821407583749 0.23025496453590971 0 0.40866327585672191 0.24600766979752939 0 0.38129994004966872 0.25577407136566988 0 0.39196586341458151 0.242441409442547 0 0.40866327585672191 0.24600766979752939 0 0.38129994004966872 0.25577407136566988 0 0.39196586341458151 0.242441409442547 0 0.38106847269238292 0.24536179082341181 0 0.37169426656027921 0.24972740256563611 0 0.38106847269238292 0.24536179082341181 0 0.3757768555661396 0.240133652284411 0 0.37292139258550783 0.22672254500020811 0 0.3757768555661396 0.240133652284411 0 0.38460543787124563 0.238732418458795 0 0.38106847269238292 0.24536179082341181 0 0.3757768555661396 0.240133652284411 0 0.38460543787124563 0.238732418458795 0 0.39196586341458151 0.242441409442547 0 0.38106847269238292 0.24536179082341181 0 0.38460543787124563 0.238732418458795 0 0.39196586341458151 0.242441409442547 0 0.38460543787124563 0.238732418458795 0 0.38844350160088592 0.2284985707660753 0 0.37292139258550783 0.22672254500020811 0 0.38460543787124563 0.238732418458795 0 0.38844350160088592 0.2284985707660753 0 0.37292139258550783 0.22672254500020811 0 0.38844350160088592 0.2284985707660753 0 0.38369130631537601 0.21297307403445409 0 0.38844350160088592 0.2284985707660753 0 0.39679964264504158 0.21937630878092959 0 0.38369130631537601 0.21297307403445409 0 0.38844350160088592 0.2284985707660753 0 0.39679964264504158 0.21937630878092959 0 0.40329821407583749 0.23025496453590971 0 0.39196586341458151 0.242441409442547 0 0.38844350160088592 0.2284985707660753 0 0.40329821407583749 0.23025496453590971 0 0.39679964264504158 0.21937630878092959 0 0.40329821407583749 0.23025496453590971 0 0.41066806580544729 0.2160617609406458 0 0.39598296716959969 0.20626700748070109 0 0.40513352984814438 0.19492560706685999 0 0.41066806580544729 0.2160617609406458 0 0.39679964264504158 0.21937630878092959 0 0.39598296716959969 0.20626700748070109 0 0.41066806580544729 0.2160617609406458 0 0.39679964264504158 0.21937630878092959 0 0.39598296716959969 0.20626700748070109 0 0.38369130631537601 0.21297307403445409 0 0.36923798170140371 0.20928007436804161 0 0.37292139258550783 0.22672254500020811 0 0.38369130631537601 0.21297307403445409 0 0.36923798170140371 0.20928007436804161 0 0.38369130631537601 0.21297307403445409 0 0.38464328683150451 0.18806222539781059 0 0.39598296716959969 0.20626700748070109 0 0.38369130631537601 0.21297307403445409 0 0.38464328683150451 0.18806222539781059 0 0.39598296716959969 0.20626700748070109 0 0.38464328683150451 0.18806222539781059 0 0.40513352984814438 0.19492560706685999 0 0.4059128807594603 0.17981630131623391 0 0.38464328683150451 0.18806222539781059 0 0.40513352984814438 0.19492560706685999 0 0.40513352984814438 0.19492560706685999 0 0.42045703890892938 0.19185412915784311 0 0.42444067869502011 0.20693424997503959 0 0.4059128807594603 0.17981630131623391 0 0.40513352984814438 0.19492560706685999 0 0.42045703890892938 0.19185412915784311 0 0.42045703890892938 0.19185412915784311 0 0.42444067869502011 0.20693424997503959 0 0.43799329450951457 0.1898848624547933 0 0.42444067869502011 0.20693424997503959 0 0.44184419378540352 0.2076794424592901 0 0.43799329450951457 0.1898848624547933 0 0.42444067869502011 0.20693424997503959 0 0.4302098735549707 0.2206458244329694 0 0.44184419378540352 0.2076794424592901 0 0.42444067869502011 0.20693424997503959 0 0.41066806580544729 0.2160617609406458 0 0.4302098735549707 0.2206458244329694 0 0.40513352984814438 0.19492560706685999 0 0.42444067869502011 0.20693424997503959 0 0.41066806580544729 0.2160617609406458 0 0.41066806580544729 0.2160617609406458 0 0.41777320819135039 0.22984229758728861 0 0.4302098735549707 0.2206458244329694 0 0.40329821407583749 0.23025496453590971 0 0.41066806580544729 0.2160617609406458 0 0.41777320819135039 0.22984229758728861 0 0.4302098735549707 0.2206458244329694 0 0.43602661166377499 0.2362412682293889 0 0.44584438813649652 0.2203436080528294 0 0.41777320819135039 0.22984229758728861 0 0.4302098735549707 0.2206458244329694 0 0.43602661166377499 0.2362412682293889 0 0.43602661166377499 0.2362412682293889 0 0.43076425121212841 0.2486853010718087 0 0.40866327585672191 0.24600766979752939 0 0.43602661166377499 0.2362412682293889 0 0.40866327585672191 0.24600766979752939 0 0.41777320819135039 0.22984229758728861 0 0.43602661166377499 0.2362412682293889 0 0.40866327585672191 0.24600766979752939 0 0.41664462513020523 0.25422696758609492 0 0.43076425121212841 0.2486853010718087 0 0.40866327585672191 0.24600766979752939 0 0.40329821407583749 0.23025496453590971 0 0.41777320819135039 0.22984229758728861 0 0.40866327585672191 0.24600766979752939 0 0.45166362976964691 0.25106894999712381 0 0.45384283414141641 0.23962742592169059 0 0.47583181488482379 0.2451422378191761 0 0.45166362976964691 0.25106894999712381 0 0.47583181488482379 0.2451422378191761 0 0.45384283414141641 0.23962742592169059 0 0.47692141707070451 0.23056955077157251 0 0.45166362976964691 0.25106894999712381 0 0.43076425121212841 0.2486853010718087 0 0.45384283414141641 0.23962742592169059 0 0.43602661166377499 0.2362412682293889 0 0.43076425121212841 0.2486853010718087 0 0.45384283414141641 0.23962742592169059 0 0.43076425121212841 0.2486853010718087 0 0.45384283414141641 0.23962742592169059 0 0.43602661166377499 0.2362412682293889 0 0.46338994747082818 0.22647486666124839 0 0.43602661166377499 0.2362412682293889 0 0.44584438813649652 0.2203436080528294 0 0.46338994747082818 0.22647486666124839 0 0.43602661166377499 0.2362412682293889 0 0.45384283414141641 0.23962742592169059 0 0.46338994747082818 0.22647486666124839 0 0.44584438813649652 0.2203436080528294 0 0.46338994747082818 0.22647486666124839 0 0.4574246187180494 0.20998202225832771 0 0.45384283414141641 0.23962742592169059 0 0.46338994747082818 0.22647486666124839 0 0.47692141707070451 0.23056955077157251 0 0.46338994747082818 0.22647486666124839 0 0.4574246187180494 0.20998202225832771 0 0.47311107537994651 0.21060674662752529 0 0.4574246187180494 0.20998202225832771 0 0.46861366351278472 0.19789432193598561 0 0.47311107537994651 0.21060674662752529 0 0.44584438813649652 0.2203436080528294 0 0.4574246187180494 0.20998202225832771 0 0.44184419378540352 0.2076794424592901 0 0.4302098735549707 0.2206458244329694 0 0.44584438813649652 0.2203436080528294 0 0.44184419378540352 0.2076794424592901 0 0.4574246187180494 0.20998202225832771 0 0.44184419378540352 0.2076794424592901 0 0.45120510308892831 0.19507838461398491 0 0.44184419378540352 0.2076794424592901 0 0.43799329450951457 0.1898848624547933 0 0.45120510308892831 0.19507838461398491 0 0.4574246187180494 0.20998202225832771 0 0.45120510308892831 0.19507838461398491 0 0.46861366351278472 0.19789432193598561 0 0.45120510308892831 0.19507838461398491 0 0.46861366351278472 0.19789432193598561 0 0.45014974491888898 0.16995127396152809 0 0.46861366351278472 0.19789432193598561 0 0.48377650321145821 0.20030440734603891 0 0.47890777313388699 0.17818810929941131 0 0.46861366351278472 0.19789432193598561 0 0.48377650321145821 0.20030440734603891 0 0.47311107537994651 0.21060674662752529 0 0.48377650321145821 0.20030440734603891 0 0.5 0.19442179120654851 0 0.47890777313388699 0.17818810929941131 0 0.48377650321145821 0.20030440734603891 0 0.5 0.19442179120654851 0 0.49075328327788142 0.2167084650931079 0 0.5 0.19442179120654851 0 0.49075328327788142 0.2167084650931079 0 0.49999999999999339 0.2215116756214566 0 0.48377650321145821 0.20030440734603891 0 0.49075328327788142 0.2167084650931079 0 0.47311107537994651 0.21060674662752529 0 0.46338994747082818 0.22647486666124839 0 0.49075328327788142 0.2167084650931079 0 0.47311107537994651 0.21060674662752529 0 0.46338994747082818 0.22647486666124839 0 0.49075328327788142 0.2167084650931079 0 0.46338994747082818 0.22647486666124839 0 0.49075328327788142 0.2167084650931079 0 0.47692141707070451 0.23056955077157251 0 0.47692141707070451 0.23056955077157251 0 0.49999999999999339 0.2215116756214566 0 0.50000000000000067 0.2392155256412283 0 0.49075328327788142 0.2167084650931079 0 0.47692141707070451 0.23056955077157251 0 0.49999999999999339 0.2215116756214566 0 0.47692141707070451 0.23056955077157251 0 0.49999999999999339 0.2215116756214566 0 0.50000000000000067 0.2392155256412283 0 0.47583181488482379 0.2451422378191761 0 0.48341195364679568 0.26002408893105827 0 0.50000000000000067 0.2392155256412283 0 0.47583181488482379 0.2451422378191761 0 0.47692141707070451 0.23056955077157251 0 0.50000000000000067 0.2392155256412283 0 0.47583181488482379 0.2451422378191761 0 0.45384283414141641 0.23962742592169059 0 0.47692141707070451 0.23056955077157251 0 0.47583181488482379 0.2451422378191761 0 0.46053260521531592 0.14091734283165991 0 0.45014974491888898 0.16995127396152809 0 0.47759274938693741 0.15337993901402261 0 0.46053260521531592 0.14091734283165991 0 0.47596637305353268 0.1236489788231635 0 0.45094723062946279 0.12208098845927939 0 0.46053260521531592 0.14091734283165991 0 0.44305345270963392 0.14224085277467549 0 0.45094723062946279 0.12208098845927939 0 0.43267139290449452 0.12562392175117529 0 0.44305345270963392 0.14224085277467549 0 0.45094723062946279 0.12208098845927939 0 0.46053260521531592 0.14091734283165991 0 0.44305345270963392 0.14224085277467549 0 0.45014974491888898 0.16995127396152809 0 0.43641214087317609 0.15776157540708571 0 0.44305345270963392 0.14224085277467549 0 0.45014974491888898 0.16995127396152809 0 0.42759287120751482 0.1799189573059411 0 0.43799329450951457 0.1898848624547933 0 0.45014974491888898 0.16995127396152809 0 0.43799329450951457 0.1898848624547933 0 0.45120510308892831 0.19507838461398491 0 0.45014974491888898 0.16995127396152809 0 0.46861366351278472 0.19789432193598561 0 0.45014974491888898 0.16995127396152809 0 0.47890777313388699 0.17818810929941131 0 0.45014974491888898 0.16995127396152809 0 0.47890777313388699 0.17818810929941131 0 0.47759274938693741 0.15337993901402261 0 0.5 0.19442179120654851 0 0.47890777313388699 0.17818810929941131 0 0.5 0.16733190679164031 0 0.47890777313388699 0.17818810929941131 0 0.5 0.16733190679164031 0 0.47759274938693741 0.15337993901402261 0 0.5 0.16733190679164031 0 0.47759274938693741 0.15337993901402261 0 0.5 0.14024202237673219 0 0.46053260521531592 0.14091734283165991 0 0.47759274938693741 0.15337993901402261 0 0.47596637305353268 0.1236489788231635 0 0.5 0.14024202237673219 0 0.5 0.11315213796182411 0 0.47596637305353268 0.1236489788231635 0 0.47759274938693741 0.15337993901402261 0 0.5 0.14024202237673219 0 0.47596637305353268 0.1236489788231635 0 0.5 0.11315213796182411 0 0.48146508414057748 0.097867616362435003 0 0.47596637305353268 0.1236489788231635 0 0.5 0.11315213796182411 0 0.48146508414057748 0.097867616362435003 0 0.5 0.08606225354691599 0 0.48146508414057748 0.097867616362435003 0 0.46684480345772023 0.083704774648097419 0 0.46085076100455152 0.1051260388446932 0 0.48146508414057748 0.097867616362435003 0 0.47596637305353268 0.1236489788231635 0 0.46085076100455152 0.1051260388446932 0 0.5 0.08606225354691599 0 0.48297411160829701 0.071419164250366693 0 0.5 0.058972369132007867 0 0.48146508414057748 0.097867616362435003 0 0.5 0.08606225354691599 0 0.48297411160829701 0.071419164250366693 0 0.48146508414057748 0.097867616362435003 0 0.48297411160829701 0.071419164250366693 0 0.46684480345772023 0.083704774648097419 0 0.48297411160829701 0.071419164250366693 0 0.46368779630991369 0.062884433647911922 0 0.46684480345772023 0.083704774648097419 0 0.46368779630991369 0.062884433647911922 0 0.4455316944648699 0.078385408113317706 0 0.46368779630991369 0.062884433647911922 0 0.46684480345772023 0.083704774648097419 0 0.4455316944648699 0.078385408113317706 0 0.46684480345772023 0.083704774648097419 0 0.4455316944648699 0.078385408113317706 0 0.46085076100455152 0.1051260388446932 0 0.4455316944648699 0.078385408113317706 0 0.46085076100455152 0.1051260388446932 0 0.43655847815144871 0.087567909291679069 0 0.4455316944648699 0.078385408113317706 0 0.43655847815144871 0.087567909291679069 0 0.43300293116684879 0.070359854062556224 0 0.4455316944648699 0.078385408113317706 0 0.43300293116684879 0.070359854062556224 0 0.44432728466234178 0.059795406129610977 0 0.46368779630991369 0.062884433647911922 0 0.4455316944648699 0.078385408113317706 0 0.44432728466234178 0.059795406129610977 0 0.47596637305353268 0.1236489788231635 0 0.46085076100455152 0.1051260388446932 0 0.45094723062946279 0.12208098845927939 0 0.46085076100455152 0.1051260388446932 0 0.43655847815144871 0.087567909291679069 0 0.46085076100455152 0.1051260388446932 0 0.43845481143497073 0.110031162788742 0 0.43302597451412722 0.09911942802672713 0 0.46085076100455152 0.1051260388446932 0 0.43302597451412722 0.09911942802672713 0 0.43655847815144871 0.087567909291679069 0 0.43267139290449452 0.12562392175117529 0 0.45094723062946279 0.12208098845927939 0 0.43845481143497073 0.110031162788742 0 0.46085076100455152 0.1051260388446932 0 0.45094723062946279 0.12208098845927939 0 0.43845481143497073 0.110031162788742 0 0.43267139290449452 0.12562392175117529 0 0.43845481143497073 0.110031162788742 0 0.42512360996164289 0.1101942667169049 0 0.43267139290449452 0.12562392175117529 0 0.42512360996164289 0.1101942667169049 0 0.41840244549433692 0.1204435227777134 0 0.42512360996164289 0.1101942667169049 0 0.41840244549433692 0.1204435227777134 0 0.41145911669595331 0.1096997076075869 0 0.41840244549433692 0.1204435227777134 0 0.41145911669595331 0.1096997076075869 0 0.40630256149234217 0.12337914253670321 0 0.41145911669595331 0.1096997076075869 0 0.41782870111656589 0.098086010242617663 0 0.40188519574572068 0.098349840232826835 0 0.41782870111656589 0.098086010242617663 0 0.41132824907511162 0.087668761689670915 0 0.40188519574572068 0.098349840232826835 0 0.42512360996164289 0.1101942667169049 0 0.41145911669595331 0.1096997076075869 0 0.41782870111656589 0.098086010242617663 0 0.41782870111656589 0.098086010242617663 0 0.43302597451412722 0.09911942802672713 0 0.42198136315300161 0.08812274721924529 0 0.42512360996164289 0.1101942667169049 0 0.41782870111656589 0.098086010242617663 0 0.43302597451412722 0.09911942802672713 0 0.43845481143497073 0.110031162788742 0 0.42512360996164289 0.1101942667169049 0 0.43302597451412722 0.09911942802672713 0 0.43655847815144871 0.087567909291679069 0 0.42198136315300161 0.08812274721924529 0 0.41226619529834591 0.070009779738664735 0 0.43655847815144871 0.087567909291679069 0 0.41226619529834591 0.070009779738664735 0 0.43302597451412722 0.09911942802672713 0 0.43655847815144871 0.087567909291679069 0 0.42198136315300161 0.08812274721924529 0 0.43300293116684879 0.070359854062556224 0 0.41226619529834591 0.070009779738664735 0 0.42739758089851382 0.054541393999090262 0 0.43655847815144871 0.087567909291679069 0 0.43300293116684879 0.070359854062556224 0 0.41226619529834591 0.070009779738664735 0 0.42198136315300161 0.08812274721924529 0 0.41226619529834591 0.070009779738664735 0 0.41132824907511162 0.087668761689670915 0 0.41226619529834591 0.070009779738664735 0 0.41132824907511162 0.087668761689670915 0 0.39992923875424519 0.082621500021195282 0 0.41782870111656589 0.098086010242617663 0 0.42198136315300161 0.08812274721924529 0 0.41132824907511162 0.087668761689670915 0 0.41132824907511162 0.087668761689670915 0 0.39992923875424519 0.082621500021195282 0 0.40188519574572068 0.098349840232826835 0 0.39992923875424519 0.082621500021195282 0 0.38759228221014619 0.095233220303727467 0 0.40188519574572068 0.098349840232826835 0 0.39992923875424519 0.082621500021195282 0 0.38759228221014619 0.095233220303727467 0 0.41226619529834591 0.070009779738664735 0 0.39707386889515511 0.070908779594843374 0 0.39683376059791597 0.058855427163935138 0 0.41226619529834591 0.070009779738664735 0 0.39683376059791597 0.058855427163935138 0 0.41226619529834591 0.070009779738664735 0 0.39992923875424519 0.082621500021195282 0 0.41226619529834591 0.070009779738664735 0 0.39992923875424519 0.082621500021195282 0 0.39707386889515511 0.070908779594843374 0 0.39992923875424519 0.082621500021195282 0 0.39707386889515511 0.070908779594843374 0 0.38583977896057609 0.075316135258006081 0 0.39707386889515511 0.070908779594843374 0 0.38282045226763678 0.060547433734587333 0 0.39683376059791597 0.058855427163935138 0 0.39707386889515511 0.070908779594843374 0 0.38583977896057609 0.075316135258006081 0 0.38282045226763678 0.060547433734587333 0 0.38583977896057609 0.075316135258006081 0 0.37596532967213542 0.069868995675824025 0 0.37682589963749002 0.081332762740894418 0 0.37307104071443398 0.061065176941414383 0 0.37596532967213542 0.069868995675824025 0 0.38282045226763678 0.060547433734587333 0 0.38583977896057609 0.075316135258006081 0 0.37596532967213542 0.069868995675824025 0 0.38282045226763678 0.060547433734587333 0 0.39992923875424519 0.082621500021195282 0 0.38412803848747967 0.086259474622970303 0 0.38759228221014619 0.095233220303727467 0 0.39992923875424519 0.082621500021195282 0 0.38583977896057609 0.075316135258006081 0 0.38412803848747967 0.086259474622970303 0 0.37045299287494049 0.09679375479102828 0 0.38412803848747967 0.086259474622970303 0 0.38759228221014619 0.095233220303727467 0 0.38583977896057609 0.075316135258006081 0 0.38412803848747967 0.086259474622970303 0 0.37682589963749002 0.081332762740894418 0 0.37045299287494049 0.09679375479102828 0 0.38412803848747967 0.086259474622970303 0 0.37682589963749002 0.081332762740894418 0 0.37045299287494049 0.09679375479102828 0 0.38005682511468147 0.12140739343396729 0 0.37045299287494049 0.09679375479102828 0 0.38759228221014619 0.095233220303727467 0 0.38890959528695412 0.1083938038889192 0 0.37045299287494049 0.09679375479102828 0 0.38890959528695412 0.1083938038889192 0 0.38005682511468147 0.12140739343396729 0 0.39398634319161102 0.12556361147638159 0 0.38890959528695412 0.1083938038889192 0 0.38005682511468147 0.12140739343396729 0 0.39398634319161102 0.12556361147638159 0 0.38890959528695412 0.1083938038889192 0 0.39948393258462489 0.11301500309558379 0 0.39398634319161102 0.12556361147638159 0 0.40630256149234217 0.12337914253670321 0 0.39948393258462489 0.11301500309558379 0 0.41145911669595331 0.1096997076075869 0 0.40630256149234217 0.12337914253670321 0 0.39948393258462489 0.11301500309558379 0 0.41145911669595331 0.1096997076075869 0 0.39948393258462489 0.11301500309558379 0 0.40188519574572068 0.098349840232826835 0 0.38759228221014619 0.095233220303727467 0 0.38890959528695412 0.1083938038889192 0 0.40188519574572068 0.098349840232826835 0 0.38890959528695412 0.1083938038889192 0 0.39948393258462489 0.11301500309558379 0 0.40188519574572068 0.098349840232826835 0 0.3912475249538237 0.025882868266216091 0 0.40325323122183843 0.024352223252143548 0 0.39536881189699241 0.01378873843063998 0 0.3912475249538237 0.025882868266216091 0 0.40325323122183843 0.024352223252143548 0 0.39805180056669343 0.032772735105760037 0 0.40325323122183843 0.024352223252143548 0 0.39805180056669343 0.032772735105760037 0 0.40655765028286611 0.035582104639029083 0 0.40325323122183843 0.024352223252143548 0 0.39536881189699241 0.01378873843063998 0 0.40720094273855439 0.01372602960598159 0 0.40060323373222451 0.0042547197705496897 0 0.39536881189699241 0.01378873843063998 0 0.40720094273855439 0.01372602960598159 0 0.40060323373222451 0.0042547197705496897 0 0.41081432206005303 0.0037114498956348132 0 0.4046584776842293 -0.0050702490882302163 0 0.40060323373222451 0.0042547197705496897 0 0.41081432206005303 0.0037114498956348132 0 0.40720094273855439 0.01372602960598159 0 0.40060323373222451 0.0042547197705496897 0 0.39025836247721268 0.0036292771787240202 0 0.39531848553630572 -0.0042569273994520467 0 0.40060323373222451 0.0042547197705496897 0 0.39536881189699241 0.01378873843063998 0 0.39025836247721268 0.0036292771787240202 0 0.37844401144479839 0.012609093579625891 0 0.38356146703633898 -0.0078565650350033434 0 0.37844401144479839 0.012609093579625891 0 0.39025836247721268 0.0036292771787240202 0 0.38356146703633898 -0.0078565650350033434 0 0.39536881189699241 0.01378873843063998 0 0.37844401144479839 0.012609093579625891 0 0.39025836247721268 0.0036292771787240202 0 0.3912475249538237 0.025882868266216091 0 0.37844401144479839 0.012609093579625891 0 0.38063223185621792 0.036578263657106522 0 0.37844401144479839 0.012609093579625891 0 0.38063223185621792 0.036578263657106522 0 0.37146335928247548 0.04052602251159599 0 0.37844401144479839 0.012609093579625891 0 0.38063223185621792 0.036578263657106522 0 0.3912475249538237 0.025882868266216091 0 0.39536881189699241 0.01378873843063998 0 0.37844401144479839 0.012609093579625891 0 0.37146335928247548 0.04052602251159599 0 0.38063223185621792 0.036578263657106522 0 0.38282045226763678 0.060547433734587333 0 0.3912475249538237 0.025882868266216091 0 0.38063223185621792 0.036578263657106522 0 0.3908528121234538 0.035995570554822158 0 0.38063223185621792 0.036578263657106522 0 0.38791705742610771 0.044539104287684539 0 0.3908528121234538 0.035995570554822158 0 0.38791705742610771 0.044539104287684539 0 0.38282045226763678 0.060547433734587333 0 0.39079668350586277 0.051215399393808793 0 0.37307104071443398 0.061065176941414383 0 0.37146335928247548 0.04052602251159599 0 0.38282045226763678 0.060547433734587333 0 0.38063223185621792 0.036578263657106522 0 0.38791705742610771 0.044539104287684539 0 0.38282045226763678 0.060547433734587333 0 0.38063223185621792 0.036578263657106522 0 0.38282045226763678 0.060547433734587333 0 0.38282045226763678 0.060547433734587333 0 0.39683376059791597 0.058855427163935138 0 0.39079668350586277 0.051215399393808793 0 0.41226619529834591 0.070009779738664735 0 0.39683376059791597 0.058855427163935138 0 0.40948896714378957 0.05055434744181983 0 0.39683376059791597 0.058855427163935138 0 0.39079668350586277 0.051215399393808793 0 0.39674782008621368 0.04348041067995833 0 0.39683376059791597 0.058855427163935138 0 0.39674782008621368 0.04348041067995833 0 0.40948896714378957 0.05055434744181983 0 0.3908528121234538 0.035995570554822158 0 0.39805180056669343 0.032772735105760037 0 0.39674782008621368 0.04348041067995833 0 0.3912475249538237 0.025882868266216091 0 0.3908528121234538 0.035995570554822158 0 0.39805180056669343 0.032772735105760037 0 0.38791705742610771 0.044539104287684539 0 0.3908528121234538 0.035995570554822158 0 0.39674782008621368 0.04348041067995833 0 0.38791705742610771 0.044539104287684539 0 0.39079668350586277 0.051215399393808793 0 0.39674782008621368 0.04348041067995833 0 0.39674782008621368 0.04348041067995833 0 0.40655765028286611 0.035582104639029083 0 0.40948896714378957 0.05055434744181983 0 0.39805180056669343 0.032772735105760037 0 0.39674782008621368 0.04348041067995833 0 0.40655765028286611 0.035582104639029083 0 0.40655765028286611 0.035582104639029083 0 0.41713079569888262 0.040856968430241461 0 0.41557099838193923 0.024039796491718179 0 0.41713079569888262 0.040856968430241461 0 0.42755741698364552 0.032815777208855347 0 0.41557099838193923 0.024039796491718179 0 0.40655765028286611 0.035582104639029083 0 0.41713079569888262 0.040856968430241461 0 0.40948896714378957 0.05055434744181983 0 0.41226619529834591 0.070009779738664735 0 0.40948896714378957 0.05055434744181983 0 0.42739758089851382 0.054541393999090262 0 0.41713079569888262 0.040856968430241461 0 0.40948896714378957 0.05055434744181983 0 0.42739758089851382 0.054541393999090262 0 0.41226619529834591 0.070009779738664735 0 0.42739758089851382 0.054541393999090262 0 0.43300293116684879 0.070359854062556224 0 0.42739758089851382 0.054541393999090262 0 0.44432728466234178 0.059795406129610977 0 0.41713079569888262 0.040856968430241461 0 0.42739758089851382 0.054541393999090262 0 0.42755741698364552 0.032815777208855347 0 0.42739758089851382 0.054541393999090262 0 0.42755741698364552 0.032815777208855347 0 0.44252896649868317 0.039073008259517338 0 0.42739758089851382 0.054541393999090262 0 0.44252896649868317 0.039073008259517338 0 0.42755741698364552 0.032815777208855347 0 0.4358194844604939 0.024219735287320941 0 0.44252896649868317 0.039073008259517338 0 0.42755741698364552 0.032815777208855347 0 0.41557099838193923 0.024039796491718179 0 0.4265644217351573 0.014684511896395219 0 0.4358194844604939 0.024219735287320941 0 0.4265644217351573 0.014684511896395219 0 0.44548351627008242 0.01642882659412407 0 0.42755741698364552 0.032815777208855347 0 0.4358194844604939 0.024219735287320941 0 0.4265644217351573 0.014684511896395219 0 0.41557099838193923 0.024039796491718179 0 0.4165272652869268 0.01155925859927168 0 0.4265644217351573 0.014684511896395219 0 0.41557099838193923 0.024039796491718179 0 0.40720094273855439 0.01372602960598159 0 0.4165272652869268 0.01155925859927168 0 0.40325323122183843 0.024352223252143548 0 0.41557099838193923 0.024039796491718179 0 0.40720094273855439 0.01372602960598159 0 0.40325323122183843 0.024352223252143548 0 0.40655765028286611 0.035582104639029083 0 0.41557099838193923 0.024039796491718179 0 0.41081432206005303 0.0037114498956348132 0 0.40720094273855439 0.01372602960598159 0 0.4165272652869268 0.01155925859927168 0 0.4165272652869268 0.01155925859927168 0 0.42248564151892998 0.0016345051066286029 0 0.4265644217351573 0.014684511896395219 0 0.41081432206005303 0.0037114498956348132 0 0.4165272652869268 0.01155925859927168 0 0.42248564151892998 0.0016345051066286029 0 0.42248564151892998 0.0016345051066286029 0 0.4265644217351573 0.014684511896395219 0 0.4382820622288856 -0.0014159552958160841 0 0.4265644217351573 0.014684511896395219 0 0.44548351627008242 0.01642882659412407 0 0.4382820622288856 -0.0014159552958160841 0 0.45100246047295739 0.0046664116742636159 0 0.44548351627008242 0.01642882659412407 0 0.4382820622288856 -0.0014159552958160841 0 0.45100246047295739 0.0046664116742636159 0 0.44548351627008242 0.01642882659412407 0 0.4580470330794123 0.0188547641718908 0 0.4358194844604939 0.024219735287320941 0 0.4514029071021442 0.02821869916314456 0 0.44548351627008242 0.01642882659412407 0 0.4358194844604939 0.024219735287320941 0 0.4514029071021442 0.02821869916314456 0 0.44252896649868317 0.039073008259517338 0 0.4514029071021442 0.02821869916314456 0 0.44548351627008242 0.01642882659412407 0 0.4580470330794123 0.0188547641718908 0 0.4514029071021442 0.02821869916314456 0 0.4580470330794123 0.0188547641718908 0 0.46553563141862692 0.027383902935855992 0 0.4580470330794123 0.0188547641718908 0 0.46553563141862692 0.027383902935855992 0 0.471035018561343 0.01684384088441979 0 0.4580470330794123 0.0188547641718908 0 0.4620271672997433 0.0081957990277541914 0 0.471035018561343 0.01684384088441979 0 0.4620271672997433 0.0081957990277541914 0 0.47207727543944228 0.0077163925679632076 0 0.45540766643685782 -0.0078732224449345398 0 0.4620271672997433 0.0081957990277541914 0 0.47207727543944228 0.0077163925679632076 0 0.471035018561343 0.01684384088441979 0 0.45100246047295739 0.0046664116742636159 0 0.4620271672997433 0.0081957990277541914 0 0.45540766643685782 -0.0078732224449345398 0 0.45100246047295739 0.0046664116742636159 0 0.4580470330794123 0.0188547641718908 0 0.4620271672997433 0.0081957990277541914 0 0.42739758089851382 0.054541393999090262 0 0.44432728466234178 0.059795406129610977 0 0.44252896649868317 0.039073008259517338 0 0.44432728466234178 0.059795406129610977 0 0.44252896649868317 0.039073008259517338 0 0.46100281088556699 0.043351957730158222 0 0.4514029071021442 0.02821869916314456 0 0.44252896649868317 0.039073008259517338 0 0.46100281088556699 0.043351957730158222 0 0.4514029071021442 0.02821869916314456 0 0.46553563141862692 0.027383902935855992 0 0.46100281088556699 0.043351957730158222 0 0.46553563141862692 0.027383902935855992 0 0.46100281088556699 0.043351957730158222 0 0.4764725540003833 0.035303178421407518 0 0.46368779630991369 0.062884433647911922 0 0.44432728466234178 0.059795406129610977 0 0.46100281088556699 0.043351957730158222 0 0.48297411160829701 0.071419164250366693 0 0.46368779630991369 0.062884433647911922 0 0.48184389815495748 0.047383459182506117 0 0.46368779630991369 0.062884433647911922 0 0.46100281088556699 0.043351957730158222 0 0.48184389815495748 0.047383459182506117 0 0.46368779630991369 0.062884433647911922 0 0.48184389815495748 0.047383459182506117 0 0.46100281088556699 0.043351957730158222 0 0.48184389815495748 0.047383459182506117 0 0.4764725540003833 0.035303178421407518 0 0.48184389815495748 0.047383459182506117 0 0.50000000000000089 0.031882484717099757 0 0.48184389815495748 0.047383459182506117 0 0.50000000000000089 0.031882484717099757 0 0.5 0.058972369132007867 0 0.48184389815495748 0.047383459182506117 0 0.4764725540003833 0.035303178421407518 0 0.50000000000000089 0.031882484717099757 0 0.48297411160829701 0.071419164250366693 0 0.48184389815495748 0.047383459182506117 0 0.5 0.058972369132007867 0 0.48173822001607031 0.002441982684480838 0 0.47207727543944228 0.0077163925679632076 0 0.45540766643685782 -0.0078732224449345398 0 0.48073089036299149 0.01447516008145705 0 0.48088876464914698 0.0066420825236524483 0 0.47207727543944228 0.0077163925679632076 0 0.48088876464914698 0.0066420825236524483 0 0.48173822001607031 0.002441982684480838 0 0.48944624590280772 0.014576472087587141 0 0.48073089036299149 0.01447516008145705 0 0.48088876464914698 0.0066420825236524483 0 0.48944624590280772 0.014576472087587141 0 0.48088876464914698 0.0066420825236524483 0 0.48173822001607031 0.002441982684480838 0 0.47207727543944228 0.0077163925679632076 0 0.48088876464914698 0.0066420825236524483 0 0.48173822001607031 0.002441982684480838 0 0.48073089036299149 0.01447516008145705 0 0.47207727543944228 0.0077163925679632076 0 0.471035018561343 0.01684384088441979 0 0.46553563141862692 0.027383902935855992 0 0.471035018561343 0.01684384088441979 0 0.48098968552297122 0.023479159592672289 0 0.46553563141862692 0.027383902935855992 0 0.4764725540003833 0.035303178421407518 0 0.48098968552297122 0.023479159592672289 0 0.48073089036299149 0.01447516008145705 0 0.471035018561343 0.01684384088441979 0 0.48098968552297122 0.023479159592672289 0 0.48073089036299149 0.01447516008145705 0 0.48098968552297122 0.023479159592672289 0 0.48944624590280772 0.014576472087587141 0 0.50000000000000089 0.031882484717099757 0 0.50000000000000044 0.0095961811708810997 0 0.48944624590280772 0.014576472087587141 0 0.4764725540003833 0.035303178421407518 0 0.50000000000000089 0.031882484717099757 0 0.48098968552297122 0.023479159592672289 0 0.50000000000000089 0.031882484717099757 0 0.48098968552297122 0.023479159592672289 0 0.48944624590280772 0.014576472087587141 0 0.48173822001607031 0.002441982684480838 0 0.50000000000000044 0.0095961811708810997 0 0.48944624590280772 0.014576472087587141 0 0.48173822001607031 0.002441982684480838 0 0.50000000000000044 0.0095961811708810997 0 0.48173822001607031 0.002441982684480838 0 0.50000000000000044 0.0095961811708810997 0 0.5 -0.01553848795347695 0 0.48173822001607031 0.002441982684480838 0 0.5 -0.01553848795347695 0 0.48723509010938909 -0.024737082977995831 0 0.48173822001607031 0.002441982684480838 0 0.48723509010938909 -0.024737082977995831 0 0.48173822001607031 0.002441982684480838 0 0.46944239540012012 -0.021901386132034111 0 0.45540766643685782 -0.0078732224449345398 0 0.48173822001607031 0.002441982684480838 0 0.46944239540012012 -0.021901386132034111 0 0.48723509010938909 -0.024737082977995831 0 0.46944239540012012 -0.021901386132034111 0 0.48723509010938909 -0.024737082977995831 0 0.47311684284700922 -0.039980301183512167 0 0.5 -0.01553848795347695 0 0.48723509010938909 -0.024737082977995831 0 0.5 -0.040673157077835087 0 0.48723509010938909 -0.024737082977995831 0 0.49273196020270971 -0.051916148640471983 0 0.48034048547664182 -0.050194577481915269 0 0.48723509010938909 -0.024737082977995831 0 0.49273196020270971 -0.051916148640471983 0 0.48723509010938909 -0.024737082977995831 0 0.5 -0.040673157077835087 0 0.49273196020270971 -0.051916148640471983 0 0.5 -0.040673157077835087 0 0.49273196020270971 -0.051916148640471983 0 0.5 -0.065807826202193331 0 0.49273196020270971 -0.051916148640471983 0 0.48384360039889979 -0.062204599920787272 0 0.48034048547664182 -0.050194577481915269 0 0.48034048547664182 -0.050194577481915269 0 0.47035120232490191 -0.060528185902064997 0 0.47311684284700922 -0.039980301183512167 0 0.47035120232490191 -0.060528185902064997 0 0.47311684284700922 -0.039980301183512167 0 0.48384360039889979 -0.062204599920787272 0 0.48034048547664182 -0.050194577481915269 0 0.47035120232490191 -0.060528185902064997 0 0.48723509010938909 -0.024737082977995831 0 0.48034048547664182 -0.050194577481915269 0 0.47311684284700922 -0.039980301183512167 0 0.46944239540012012 -0.021901386132034111 0 0.47311684284700922 -0.039980301183512167 0 0.44971415759127392 -0.039358306738208573 0 0.47035120232490191 -0.060528185902064997 0 0.47311684284700922 -0.039980301183512167 0 0.44971415759127392 -0.039358306738208573 0 0.47035120232490191 -0.060528185902064997 0 0.44971415759127392 -0.039358306738208573 0 0.47035120232490191 -0.060528185902064997 0 0.43963483674523918 -0.055334607978488382 0 0.44971415759127392 -0.039358306738208573 0 0.43963483674523918 -0.055334607978488382 0 0.44971415759127392 -0.039358306738208573 0 0.42419530264354072 -0.042652000491910397 0 0.46944239540012012 -0.021901386132034111 0 0.44971415759127392 -0.039358306738208573 0 0.45540766643685782 -0.0078732224449345398 0 0.44971415759127392 -0.039358306738208573 0 0.42907711285764621 -0.01818842757435184 0 0.44971415759127392 -0.039358306738208573 0 0.45540766643685782 -0.0078732224449345398 0 0.42907711285764621 -0.01818842757435184 0 0.45540766643685782 -0.0078732224449345398 0 0.42907711285764621 -0.01818842757435184 0 0.45100246047295739 0.0046664116742636159 0 0.4382820622288856 -0.0014159552958160841 0 0.45540766643685782 -0.0078732224449345398 0 0.4382820622288856 -0.0014159552958160841 0 0.45540766643685782 -0.0078732224449345398 0 0.42907711285764621 -0.01818842757435184 0 0.48173822001607031 0.002441982684480838 0 0.45540766643685782 -0.0078732224449345398 0 0.47129126618897188 -0.1223351355815797 0 0.47148248434309947 -0.114916285604633 0 0.48087269318342413 -0.1216818802472065 0 0.47148248434309947 -0.114916285604633 0 0.48087269318342413 -0.1216818802472065 0 0.47838814501791832 -0.1066654575105275 0 0.48087269318342413 -0.1216818802472065 0 0.48924328608656842 -0.1141618265083332 0 0.47838814501791832 -0.1066654575105275 0 0.5 -0.1122204549214597 0 0.48924328608656842 -0.1141618265083332 0 0.5 -0.13349841451636779 0 0.48087269318342413 -0.1216818802472065 0 0.48924328608656842 -0.1141618265083332 0 0.5 -0.13349841451636779 0 0.5 -0.1122204549214597 0 0.48924328608656842 -0.1141618265083332 0 0.48827073793524339 -0.097774102912636218 0 0.48924328608656842 -0.1141618265083332 0 0.48827073793524339 -0.097774102912636218 0 0.47838814501791832 -0.1066654575105275 0 0.5 -0.1122204549214597 0 0.48827073793524339 -0.097774102912636218 0 0.50000000000000266 -0.090942495326551576 0 0.47652975213937199 -0.091635549067057065 0 0.46683976751390588 -0.086617099886465918 0 0.46456669494636288 -0.10350535152343909 0 0.48827073793524339 -0.097774102912636218 0 0.47838814501791832 -0.1066654575105275 0 0.47652975213937199 -0.091635549067057065 0 0.47148248434309947 -0.114916285604633 0 0.47838814501791832 -0.1066654575105275 0 0.46456669494636288 -0.10350535152343909 0 0.47838814501791832 -0.1066654575105275 0 0.47652975213937199 -0.091635549067057065 0 0.46456669494636288 -0.10350535152343909 0 0.48827073793524339 -0.097774102912636218 0 0.47652975213937199 -0.091635549067057065 0 0.48517560116245317 -0.075735340614307423 0 0.47652975213937199 -0.091635549067057065 0 0.48517560116245317 -0.075735340614307423 0 0.46683976751390588 -0.086617099886465918 0 0.47652975213937199 -0.091635549067057065 0 0.46683976751390588 -0.086617099886465918 0 0.50000000000000266 -0.090942495326551576 0 0.49822883029603021 -0.079095214302948247 0 0.5 -0.065807826202193331 0 0.48827073793524339 -0.097774102912636218 0 0.50000000000000266 -0.090942495326551576 0 0.48517560116245317 -0.075735340614307423 0 0.50000000000000266 -0.090942495326551576 0 0.48517560116245317 -0.075735340614307423 0 0.50000000000000266 -0.090942495326551576 0 0.49822883029603021 -0.079095214302948247 0 0.48517560116245317 -0.075735340614307423 0 0.49273196020270971 -0.051916148640471983 0 0.49822883029603021 -0.079095214302948247 0 0.48384360039889979 -0.062204599920787272 0 0.49822883029603021 -0.079095214302948247 0 0.48517560116245317 -0.075735340614307423 0 0.49273196020270971 -0.051916148640471983 0 0.48384360039889979 -0.062204599920787272 0 0.49822883029603021 -0.079095214302948247 0 0.49273196020270971 -0.051916148640471983 0 0.49822883029603021 -0.079095214302948247 0 0.5 -0.065807826202193331 0 0.47035120232490191 -0.060528185902064997 0 0.48517560116245317 -0.075735340614307423 0 0.47035120232490191 -0.060528185902064997 0 0.48517560116245317 -0.075735340614307423 0 0.46683976751390588 -0.086617099886465918 0 0.48384360039889979 -0.062204599920787272 0 0.47035120232490191 -0.060528185902064997 0 0.48517560116245317 -0.075735340614307423 0 0.47035120232490191 -0.060528185902064997 0 0.46683976751390588 -0.086617099886465918 0 0.47035120232490191 -0.060528185902064997 0 0.44249197108241189 -0.074007360679063244 0 0.46683976751390588 -0.086617099886465918 0 0.47035120232490191 -0.060528185902064997 0 0.43963483674523918 -0.055334607978488382 0 0.44249197108241189 -0.074007360679063244 0 0.44249197108241189 -0.074007360679063244 0 0.46683976751390588 -0.086617099886465918 0 0.4490662803509099 -0.094083529251462475 0 0.44249197108241189 -0.074007360679063244 0 0.4490662803509099 -0.094083529251462475 0 0.42834270349958448 -0.099226311759436261 0 0.44249197108241189 -0.074007360679063244 0 0.46683976751390588 -0.086617099886465918 0 0.46683976751390588 -0.086617099886465918 0 0.46456669494636288 -0.10350535152343909 0 0.4490662803509099 -0.094083529251462475 0 0.46683976751390588 -0.086617099886465918 0 0.46456669494636288 -0.10350535152343909 0 0.46456669494636288 -0.10350535152343909 0 0.4490662803509099 -0.094083529251462475 0 0.44386094964032902 -0.11054798122052439 0 0.4490662803509099 -0.094083529251462475 0 0.44386094964032902 -0.11054798122052439 0 0.42834270349958448 -0.099226311759436261 0 0.44386094964032902 -0.11054798122052439 0 0.46257396642688631 -0.12529077885077469 0 0.45239247298790419 -0.125419693033265 0 0.44386094964032902 -0.11054798122052439 0 0.42916935431308728 -0.1205456085246996 0 0.4435038969132965 -0.12540022695152131 0 0.44386094964032902 -0.11054798122052439 0 0.45239247298790419 -0.125419693033265 0 0.4435038969132965 -0.12540022695152131 0 0.44386094964032902 -0.11054798122052439 0 0.46229362237882032 -0.1203936031604123 0 0.46257396642688631 -0.12529077885077469 0 0.46456669494636288 -0.10350535152343909 0 0.46229362237882032 -0.1203936031604123 0 0.46456669494636288 -0.10350535152343909 0 0.44386094964032902 -0.11054798122052439 0 0.46229362237882032 -0.1203936031604123 0 0.44386094964032902 -0.11054798122052439 0 0.46257396642688631 -0.12529077885077469 0 0.47148248434309947 -0.114916285604633 0 0.46456669494636288 -0.10350535152343909 0 0.46229362237882032 -0.1203936031604123 0 0.47129126618897188 -0.1223351355815797 0 0.46229362237882032 -0.1203936031604123 0 0.46257396642688631 -0.12529077885077469 0 0.47129126618897188 -0.1223351355815797 0 0.47148248434309947 -0.114916285604633 0 0.46229362237882032 -0.1203936031604123 0 0.44386094964032902 -0.11054798122052439 0 0.42916935431308728 -0.1205456085246996 0 0.42834270349958448 -0.099226311759436261 0 0.41143930547928681 -0.11934523636421419 0 0.42916935431308728 -0.1205456085246996 0 0.42834270349958448 -0.099226311759436261 0 0.41143930547928681 -0.11934523636421419 0 0.40555832972599831 -0.095826118330896617 0 0.41143930547928681 -0.11934523636421419 0 0.42834270349958448 -0.099226311759436261 0 0.40555832972599831 -0.095826118330896617 0 0.42834270349958448 -0.099226311759436261 0 0.41884290658632428 -0.080552882507727325 0 0.40555832972599831 -0.095826118330896617 0 0.41884290658632428 -0.080552882507727325 0 0.39967735397270959 -0.072307000297579083 0 0.40555832972599831 -0.095826118330896617 0 0.44249197108241189 -0.074007360679063244 0 0.42834270349958448 -0.099226311759436261 0 0.41884290658632428 -0.080552882507727325 0 0.44249197108241189 -0.074007360679063244 0 0.41814417465091752 -0.061397621471661459 0 0.43963483674523918 -0.055334607978488382 0 0.44249197108241189 -0.074007360679063244 0 0.41814417465091752 -0.061397621471661459 0 0.44249197108241189 -0.074007360679063244 0 0.41884290658632428 -0.080552882507727325 0 0.41814417465091752 -0.061397621471661459 0 0.41884290658632428 -0.080552882507727325 0 0.39967735397270959 -0.072307000297579083 0 0.41814417465091752 -0.061397621471661459 0 0.39967735397270959 -0.072307000297579083 0 0.38669795957132042 -0.057310603286660967 0 0.37240766699872252 -0.068318548019290964 0 0.39967735397270959 -0.072307000297579083 0 0.37781097748786241 -0.089314889372882261 0 0.37240766699872252 -0.068318548019290964 0 0.39967735397270959 -0.072307000297579083 0 0.37781097748786241 -0.089314889372882261 0 0.40555832972599831 -0.095826118330896617 0 0.39967735397270959 -0.072307000297579083 0 0.40555832972599831 -0.095826118330896617 0 0.40555832972599831 -0.095826118330896617 0 0.38953803654933628 -0.10754997095337659 0 0.39823574772599779 -0.11763079726210079 0 0.37781097748786241 -0.089314889372882261 0 0.40555832972599831 -0.095826118330896617 0 0.38953803654933628 -0.10754997095337659 0 0.37781097748786241 -0.089314889372882261 0 0.38953803654933628 -0.10754997095337659 0 0.37644505785585192 -0.1058120404938334 0 0.38953803654933628 -0.10754997095337659 0 0.37644505785585192 -0.1058120404938334 0 0.37720890243704291 -0.12310924361699779 0 0.38953803654933628 -0.10754997095337659 0 0.37720890243704291 -0.12310924361699779 0 0.38918813321375051 -0.12739880168557821 0 0.38953803654933628 -0.10754997095337659 0 0.39823574772599779 -0.11763079726210079 0 0.38918813321375051 -0.12739880168557821 0 0.41143930547928681 -0.11934523636421419 0 0.39823574772599779 -0.11763079726210079 0 0.40257569972698831 -0.13396225485532559 0 0.41143930547928681 -0.11934523636421419 0 0.40555832972599831 -0.095826118330896617 0 0.39823574772599779 -0.11763079726210079 0 0.42011428296152808 -0.02169968792975261 0 0.41401194260749391 -0.028450411104576211 0 0.41343304557213612 -0.018371446868227208 0 0.42011428296152808 -0.02169968792975261 0 0.41343304557213612 -0.018371446868227208 0 0.41928481904255338 -0.01548900553927589 0 0.42011428296152808 -0.02169968792975261 0 0.41928481904255338 -0.01548900553927589 0 0.42542521438275183 -0.0144422395697206 0 0.42011428296152808 -0.02169968792975261 0 0.41401194260749391 -0.028450411104576211 0 0.42742255973229643 -0.030069766767760062 0 0.41401194260749391 -0.028450411104576211 0 0.40522076275047969 -0.019933987949522329 0 0.40044964155059998 -0.029094842751199331 0 0.41401194260749391 -0.028450411104576211 0 0.41343304557213612 -0.018371446868227208 0 0.40522076275047969 -0.019933987949522329 0 0.41343304557213612 -0.018371446868227208 0 0.40806592415966281 -0.01253819616599721 0 0.40522076275047969 -0.019933987949522329 0 0.40806592415966281 -0.01253819616599721 0 0.4135204533098043 -0.0054466611181140526 0 0.41498054603746559 -0.011947546426581419 0 0.41343304557213612 -0.018371446868227208 0 0.40806592415966281 -0.01253819616599721 0 0.41498054603746559 -0.011947546426581419 0 0.41081432206005303 0.0037114498956348132 0 0.4135204533098043 -0.0054466611181140526 0 0.4046584776842293 -0.0050702490882302163 0 0.40806592415966281 -0.01253819616599721 0 0.4135204533098043 -0.0054466611181140526 0 0.4046584776842293 -0.0050702490882302163 0 0.41081432206005303 0.0037114498956348132 0 0.42248564151892998 0.0016345051066286029 0 0.4135204533098043 -0.0054466611181140526 0 0.42248564151892998 0.0016345051066286029 0 0.4135204533098043 -0.0054466611181140526 0 0.42119781252485211 -0.0083000839364812864 0 0.41343304557213612 -0.018371446868227208 0 0.41498054603746559 -0.011947546426581419 0 0.41928481904255338 -0.01548900553927589 0 0.4135204533098043 -0.0054466611181140526 0 0.41498054603746559 -0.011947546426581419 0 0.42119781252485211 -0.0083000839364812864 0 0.41498054603746559 -0.011947546426581419 0 0.42119781252485211 -0.0083000839364812864 0 0.41928481904255338 -0.01548900553927589 0 0.42542521438275183 -0.0144422395697206 0 0.42820760236351979 -0.0076976995852137747 0 0.42907711285764621 -0.01818842757435184 0 0.4382820622288856 -0.0014159552958160841 0 0.42820760236351979 -0.0076976995852137747 0 0.42907711285764621 -0.01818842757435184 0 0.42119781252485211 -0.0083000839364812864 0 0.41928481904255338 -0.01548900553927589 0 0.42542521438275183 -0.0144422395697206 0 0.42248564151892998 0.0016345051066286029 0 0.4382820622288856 -0.0014159552958160841 0 0.42820760236351979 -0.0076976995852137747 0 0.42119781252485211 -0.0083000839364812864 0 0.42542521438275183 -0.0144422395697206 0 0.42820760236351979 -0.0076976995852137747 0 0.42248564151892998 0.0016345051066286029 0 0.42119781252485211 -0.0083000839364812864 0 0.42820760236351979 -0.0076976995852137747 0 0.44971415759127392 -0.039358306738208573 0 0.42907711285764621 -0.01818842757435184 0 0.42742255973229643 -0.030069766767760062 0 0.42011428296152808 -0.02169968792975261 0 0.42907711285764621 -0.01818842757435184 0 0.42742255973229643 -0.030069766767760062 0 0.42011428296152808 -0.02169968792975261 0 0.42542521438275183 -0.0144422395697206 0 0.42907711285764621 -0.01818842757435184 0 0.42011428296152808 -0.02169968792975261 0 0.42907711285764621 -0.01818842757435184 0 0.42542521438275183 -0.0144422395697206 0 0.42907711285764621 -0.01818842757435184 0 0.44971415759127392 -0.039358306738208573 0 0.42742255973229643 -0.030069766767760062 0 0.42419530264354072 -0.042652000491910397 0 0.41401194260749391 -0.028450411104576211 0 0.42742255973229643 -0.030069766767760062 0 0.42419530264354072 -0.042652000491910397 0 0.43963483674523918 -0.055334607978488382 0 0.42419530264354072 -0.042652000491910397 0 0.41814417465091752 -0.061397621471661459 0 0.41814417465091752 -0.061397621471661459 0 0.41107184061272262 -0.047596707948501772 0 0.39379637821942232 -0.04878788226426127 0 0.42419530264354072 -0.042652000491910397 0 0.41814417465091752 -0.061397621471661459 0 0.41107184061272262 -0.047596707948501772 0 0.41401194260749391 -0.028450411104576211 0 0.42419530264354072 -0.042652000491910397 0 0.40815150693701141 -0.037549327566173699 0 0.42419530264354072 -0.042652000491910397 0 0.41107184061272262 -0.047596707948501772 0 0.40815150693701141 -0.037549327566173699 0 0.41401194260749391 -0.028450411104576211 0 0.40815150693701141 -0.037549327566173699 0 0.40044964155059998 -0.029094842751199331 0 0.41107184061272262 -0.047596707948501772 0 0.40815150693701141 -0.037549327566173699 0 0.39379637821942232 -0.04878788226426127 0 0.40815150693701141 -0.037549327566173699 0 0.39379637821942232 -0.04878788226426127 0 0.40044964155059998 -0.029094842751199331 0 0.39379637821942232 -0.04878788226426127 0 0.38867892262788012 -0.028322223649632432 0 0.39379637821942232 -0.04878788226426127 0 0.38867892262788012 -0.028322223649632432 0 0.40044964155059998 -0.029094842751199331 0 0.39967735397270959 -0.072307000297579083 0 0.39379637821942232 -0.04878788226426127 0 0.38669795957132042 -0.057310603286660967 0 0.41814417465091752 -0.061397621471661459 0 0.39379637821942232 -0.04878788226426127 0 0.39967735397270959 -0.072307000297579083 0 0.39379637821942232 -0.04878788226426127 0 0.39967735397270959 -0.072307000297579083 0 0.41814417465091752 -0.061397621471661459 0 0.39379637821942232 -0.04878788226426127 0 0.39379637821942232 -0.04878788226426127 0 0.38896036142985008 -0.046283306103098283 0 0.38669795957132042 -0.057310603286660967 0 0.37839056082150663 -0.050608978831784571 0 0.37240766699872252 -0.068318548019290964 0 0.38669795957132042 -0.057310603286660967 0 0.37839056082150663 -0.050608978831784571 0 0.38896036142985008 -0.046283306103098283 0 0.39379637821942232 -0.04878788226426127 0 0.38669795957132042 -0.057310603286660967 0 0.38896036142985008 -0.046283306103098283 0 0.39379637821942232 -0.04878788226426127 0 0.38896036142985008 -0.046283306103098283 0 0.38867892262788012 -0.028322223649632432 0 0.3834615598562825 -0.037386722635115492 0 0.38896036142985008 -0.046283306103098283 0 0.38867892262788012 -0.028322223649632432 0 0.37839056082150663 -0.050608978831784571 0 0.3834615598562825 -0.037386722635115492 0 0.38896036142985008 -0.046283306103098283 0 0.37839056082150663 -0.050608978831784571 0 0.3834615598562825 -0.037386722635115492 0 0.37356965880113402 -0.040783236975350308 0 0.38867892262788012 -0.028322223649632432 0 0.38356146703633898 -0.0078565650350033434 0 0.3834615598562825 -0.037386722635115492 0 0.37600683512296651 -0.014087071697862221 0 0.37356965880113402 -0.040783236975350308 0 0.3834615598562825 -0.037386722635115492 0 0.38867892262788012 -0.028322223649632432 0 0.37600683512296651 -0.014087071697862221 0 0.38867892262788012 -0.028322223649632432 0 0.37600683512296651 -0.014087071697862221 0 0.38356146703633898 -0.0078565650350033434 0 0.38867892262788012 -0.028322223649632432 0 0.39658225960386179 -0.014459285545308009 0 0.38356146703633898 -0.0078565650350033434 0 0.38867892262788012 -0.028322223649632432 0 0.40044964155059998 -0.029094842751199331 0 0.39658225960386179 -0.014459285545308009 0 0.40522076275047969 -0.019933987949522329 0 0.40044964155059998 -0.029094842751199331 0 0.39658225960386179 -0.014459285545308009 0 0.40806592415966281 -0.01253819616599721 0 0.40522076275047969 -0.019933987949522329 0 0.39658225960386179 -0.014459285545308009 0 0.40060323373222451 0.0042547197705496897 0 0.4046584776842293 -0.0050702490882302163 0 0.39531848553630572 -0.0042569273994520467 0 0.40806592415966281 -0.01253819616599721 0 0.4046584776842293 -0.0050702490882302163 0 0.39658225960386179 -0.014459285545308009 0 0.4046584776842293 -0.0050702490882302163 0 0.39658225960386179 -0.014459285545308009 0 0.39531848553630572 -0.0042569273994520467 0 0.39658225960386179 -0.014459285545308009 0 0.39531848553630572 -0.0042569273994520467 0 0.38356146703633898 -0.0078565650350033434 0 0.39025836247721268 0.0036292771787240202 0 0.39531848553630572 -0.0042569273994520467 0 0.38356146703633898 -0.0078565650350033434 0 0.37844401144479839 0.012609093579625891 0 0.37600683512296651 -0.014087071697862221 0 0.37844401144479839 0.012609093579625891 0 0.37600683512296651 -0.014087071697862221 0 0.38356146703633898 -0.0078565650350033434 0 0.37600683512296651 -0.014087071697862221 0 0.36665723294200347 -0.001883505129568449 0 0.35850646790810559 -0.01395473468271459 0 0.37844401144479839 0.012609093579625891 0 0.37600683512296651 -0.014087071697862221 0 0.36665723294200347 -0.001883505129568449 0 0.36665723294200347 -0.001883505129568449 0 0.35531676971978082 -0.0033532784323768001 0 0.35850646790810559 -0.01395473468271459 0 0.37600683512296651 -0.014087071697862221 0 0.37356965880113402 -0.040783236975350308 0 0.37600683512296651 -0.014087071697862221 0 0.36404947753274258 -0.026706798856440471 0 0.35850646790810559 -0.01395473468271459 0 0.37600683512296651 -0.014087071697862221 0 0.36404947753274258 -0.026706798856440471 0 0.37356965880113402 -0.040783236975350308 0 0.34748556133762742 -0.02738266599094942 0 0.35850646790810559 -0.01395473468271459 0 0.34370628527030811 -0.0115647124322744 0 0.36404947753274258 -0.026706798856440471 0 0.34748556133762742 -0.02738266599094942 0 0.35850646790810559 -0.01395473468271459 0 0.36404947753274258 -0.026706798856440471 0 0.34748556133762742 -0.02738266599094942 0 0.36012817770438982 -0.039413746555128387 0 0.33689267375143878 0.0039255003288513873 0 0.35531676971978082 -0.0033532784323768001 0 0.34370628527030811 -0.0115647124322744 0 0.35531676971978082 -0.0033532784323768001 0 0.35850646790810559 -0.01395473468271459 0 0.34370628527030811 -0.0115647124322744 0 0.33689267375143878 0.0039255003288513873 0 0.34370628527030811 -0.0115647124322744 0 0.32469666258817742 -0.019557632270551 0 0.33689267375143878 0.0039255003288513873 0 0.30352242257352219 0.0039185454548519476 0 0.32469666258817742 -0.019557632270551 0 0.34748556133762742 -0.02738266599094942 0 0.34370628527030811 -0.0115647124322744 0 0.32469666258817742 -0.019557632270551 0 0.34748556133762742 -0.02738266599094942 0 0.32469666258817742 -0.019557632270551 0 0.33457477032001748 -0.043965109755099818 0 0.31326255248553708 -0.043768501277314603 0 0.32924913997341337 -0.063603686862235317 0 0.31014365419524398 -0.06072536978512106 0 0.31326255248553708 -0.043768501277314603 0 0.32924913997341337 -0.063603686862235317 0 0.31326255248553708 -0.043768501277314603 0 0.33457477032001748 -0.043965109755099818 0 0.32924913997341337 -0.063603686862235317 0 0.32469666258817742 -0.019557632270551 0 0.31326255248553708 -0.043768501277314603 0 0.33457477032001748 -0.043965109755099818 0 0.33457477032001748 -0.043965109755099818 0 0.34313363496153881 -0.061193084728204693 0 0.35029003257871461 -0.048624574981710279 0 0.33457477032001748 -0.043965109755099818 0 0.34313363496153881 -0.061193084728204693 0 0.32924913997341337 -0.063603686862235317 0 0.35029003257871461 -0.048624574981710279 0 0.36524615827173029 -0.053571455971191423 0 0.35631850447425872 -0.066333179594821989 0 0.34313363496153881 -0.061193084728204693 0 0.35029003257871461 -0.048624574981710279 0 0.35631850447425872 -0.066333179594821989 0 0.35029003257871461 -0.048624574981710279 0 0.36012817770438982 -0.039413746555128387 0 0.36524615827173029 -0.053571455971191423 0 0.34748556133762742 -0.02738266599094942 0 0.33457477032001748 -0.043965109755099818 0 0.35029003257871461 -0.048624574981710279 0 0.34748556133762742 -0.02738266599094942 0 0.35029003257871461 -0.048624574981710279 0 0.36012817770438982 -0.039413746555128387 0 0.36404947753274258 -0.026706798856440471 0 0.36012817770438982 -0.039413746555128387 0 0.37356965880113402 -0.040783236975350308 0 0.36012817770438982 -0.039413746555128387 0 0.37356965880113402 -0.040783236975350308 0 0.36524615827173029 -0.053571455971191423 0 0.37839056082150663 -0.050608978831784571 0 0.36524615827173029 -0.053571455971191423 0 0.37240766699872252 -0.068318548019290964 0 0.37839056082150663 -0.050608978831784571 0 0.37356965880113402 -0.040783236975350308 0 0.36524615827173029 -0.053571455971191423 0 0.36524615827173029 -0.053571455971191423 0 0.37240766699872252 -0.068318548019290964 0 0.35631850447425872 -0.066333179594821989 0 0.37240766699872252 -0.068318548019290964 0 0.36259903827425999 -0.08213590949324566 0 0.35631850447425872 -0.066333179594821989 0 0.37781097748786241 -0.089314889372882261 0 0.37240766699872252 -0.068318548019290964 0 0.36259903827425999 -0.08213590949324566 0 0.37781097748786241 -0.089314889372882261 0 0.36259903827425999 -0.08213590949324566 0 0.3612223149491664 -0.1032740580320769 0 0.34523572746128989 -0.083438872447156087 0 0.3612223149491664 -0.1032740580320769 0 0.36259903827425999 -0.08213590949324566 0 0.34523572746128989 -0.083438872447156087 0 0.3612223149491664 -0.1032740580320769 0 0.34313363496153881 -0.061193084728204693 0 0.34523572746128989 -0.083438872447156087 0 0.35631850447425872 -0.066333179594821989 0 0.36259903827425999 -0.08213590949324566 0 0.34523572746128989 -0.083438872447156087 0 0.35631850447425872 -0.066333179594821989 0 0.37720890243704291 -0.12310924361699779 0 0.36253108037134668 -0.1248744885805331 0 0.3612223149491664 -0.1032740580320769 0 0.37644505785585192 -0.1058120404938334 0 0.37720890243704291 -0.12310924361699779 0 0.3612223149491664 -0.1032740580320769 0 0.37720890243704291 -0.12310924361699779 0 0.3612223149491664 -0.1032740580320769 0 0.37781097748786241 -0.089314889372882261 0 0.37644505785585192 -0.1058120404938334 0 0.3612223149491664 -0.1032740580320769 0 0.34523572746128989 -0.083438872447156087 0 0.3612223149491664 -0.1032740580320769 0 0.33932087337301742 -0.1007066993955318 0 0.3612223149491664 -0.1032740580320769 0 0.34941185211170689 -0.1127717253903176 0 0.33932087337301742 -0.1007066993955318 0 0.36253108037134668 -0.1248744885805331 0 0.33587402752894302 -0.122350175475488 0 0.36253108037134668 -0.1248744885805331 0 0.34941185211170689 -0.1127717253903176 0 0.33587402752894302 -0.122350175475488 0 0.36253108037134668 -0.1248744885805331 0 0.3612223149491664 -0.1032740580320769 0 0.34941185211170689 -0.1127717253903176 0 0.34941185211170689 -0.1127717253903176 0 0.33587402752894302 -0.122350175475488 0 0.33932087337301742 -0.1007066993955318 0 0.33587402752894302 -0.122350175475488 0 0.33932087337301742 -0.1007066993955318 0 0.31943204723016899 -0.10139701157958859 0 0.33932087337301742 -0.1007066993955318 0 0.31943204723016899 -0.10139701157958859 0 0.32474927095682959 -0.081008353448563344 0 0.33587402752894302 -0.122350175475488 0 0.31943204723016899 -0.10139701157958859 0 0.3092169746865393 -0.1198258623704429 0 0.33587402752894302 -0.122350175475488 0 0.3092169746865393 -0.1198258623704429 0 0.34523572746128989 -0.083438872447156087 0 0.32924913997341337 -0.063603686862235317 0 0.32474927095682959 -0.081008353448563344 0 0.34523572746128989 -0.083438872447156087 0 0.32924913997341337 -0.063603686862235317 0 0.34313363496153881 -0.061193084728204693 0 0.34523572746128989 -0.083438872447156087 0 0.32924913997341337 -0.063603686862235317 0 0.34523572746128989 -0.083438872447156087 0 0.33932087337301742 -0.1007066993955318 0 0.32474927095682959 -0.081008353448563344 0 0.31943204723016899 -0.10139701157958859 0 0.32474927095682959 -0.081008353448563344 0 0.31117343018006932 -0.08835554327446378 0 0.32474927095682959 -0.081008353448563344 0 0.30201438303726968 -0.075929904193525521 0 0.32474927095682959 -0.081008353448563344 0 0.30201438303726968 -0.075929904193525521 0 0.31117343018006932 -0.08835554327446378 0 0.32924913997341337 -0.063603686862235317 0 0.32474927095682959 -0.081008353448563344 0 0.31014365419524398 -0.06072536978512106 0 0.32474927095682959 -0.081008353448563344 0 0.30201438303726968 -0.075929904193525521 0 0.31014365419524398 -0.06072536978512106 0 0.30201438303726968 -0.075929904193525521 0 0.31014365419524398 -0.06072536978512106 0 0.29222542489931519 -0.060978945333093171 0 0.31117343018006932 -0.08835554327446378 0 0.29442961060618023 -0.089764156713605506 0 0.30306705175182019 -0.101009202806625 0 0.30201438303726968 -0.075929904193525521 0 0.31117343018006932 -0.08835554327446378 0 0.29442961060618023 -0.089764156713605506 0 0.29442961060618023 -0.089764156713605506 0 0.28691460331806928 -0.079185378374353493 0 0.27734124638624891 -0.089737863242296378 0 0.30201438303726968 -0.075929904193525521 0 0.29442961060618023 -0.089764156713605506 0 0.28691460331806928 -0.079185378374353493 0 0.30201438303726968 -0.075929904193525521 0 0.27927949511770961 -0.070851454938488739 0 0.29222542489931519 -0.060978945333093171 0 0.30201438303726968 -0.075929904193525521 0 0.27927949511770961 -0.070851454938488739 0 0.30201438303726968 -0.075929904193525521 0 0.28691460331806928 -0.079185378374353493 0 0.27927949511770961 -0.070851454938488739 0 0.28691460331806928 -0.079185378374353493 0 0.27927949511770961 -0.070851454938488739 0 0.27809334201771629 -0.079209584513290715 0 0.28691460331806928 -0.079185378374353493 0 0.27927949511770961 -0.070851454938488739 0 0.27927949511770961 -0.070851454938488739 0 0.27868582307562201 -0.055886184139343542 0 0.29222542489931519 -0.060978945333093171 0 0.31943204723016899 -0.10139701157958859 0 0.3092169746865393 -0.1198258623704429 0 0.30306705175182019 -0.101009202806625 0 0.3092169746865393 -0.1198258623704429 0 0.30306705175182019 -0.101009202806625 0 0.28879183359809052 -0.10393054527906551 0 0.31943204723016899 -0.10139701157958859 0 0.31117343018006932 -0.08835554327446378 0 0.30306705175182019 -0.101009202806625 0 0.28879183359809052 -0.10393054527906551 0 0.28255992184413548 -0.11730154926539781 0 0.27267591943638608 -0.1048970298088977 0 0.29442961060618023 -0.089764156713605506 0 0.28879183359809052 -0.10393054527906551 0 0.27734124638624891 -0.089737863242296378 0 0.29442961060618023 -0.089764156713605506 0 0.30306705175182019 -0.101009202806625 0 0.28879183359809052 -0.10393054527906551 0 0.3092169746865393 -0.1198258623704429 0 0.28255992184413548 -0.11730154926539781 0 0.3092169746865393 -0.1198258623704429 0 0.28879183359809052 -0.10393054527906551 0 0.28255992184413548 -0.11730154926539781 0 0.3092169746865393 -0.1198258623704429 0 0.28255992184413548 -0.11730154926539781 0 0.28721398294742878 -0.13035474923543569 0 0.28255992184413548 -0.11730154926539781 0 0.26776517015272971 -0.1222840496799191 0 0.28721398294742878 -0.13035474923543569 0 0.28255992184413548 -0.11730154926539781 0 0.26776517015272971 -0.1222840496799191 0 0.27267591943638608 -0.1048970298088977 0 0.26776517015272971 -0.1222840496799191 0 0.27267591943638608 -0.1048970298088977 0 0.26047800574605201 -0.11084537767631369 0 0.28879183359809052 -0.10393054527906551 0 0.27267591943638608 -0.1048970298088977 0 0.27734124638624891 -0.089737863242296378 0 0.27267591943638608 -0.1048970298088977 0 0.27734124638624891 -0.089737863242296378 0 0.26256105175446781 -0.092679464148907056 0 0.25771864553297669 -0.099620140202181948 0 0.26047800574605201 -0.11084537767631369 0 0.24375228786211539 -0.116580291014256 0 0.27267591943638608 -0.1048970298088977 0 0.25771864553297669 -0.099620140202181948 0 0.26256105175446781 -0.092679464148907056 0 0.25771864553297669 -0.099620140202181948 0 0.25304747237378489 -0.090741332181114118 0 0.24292322406264641 -0.096552741650977186 0 0.25771864553297669 -0.099620140202181948 0 0.26256105175446781 -0.092679464148907056 0 0.25304747237378489 -0.090741332181114118 0 0.27267591943638608 -0.1048970298088977 0 0.25771864553297669 -0.099620140202181948 0 0.26047800574605201 -0.11084537767631369 0 0.26776517015272971 -0.1222840496799191 0 0.26153006621115998 -0.13421007507225571 0 0.24375228786211539 -0.116580291014256 0 0.26776517015272971 -0.1222840496799191 0 0.24375228786211539 -0.116580291014256 0 0.26776517015272971 -0.1222840496799191 0 0.26047800574605201 -0.11084537767631369 0 0.24375228786211539 -0.116580291014256 0 0.27927949511770961 -0.070851454938488739 0 0.25811154610651499 -0.066123023671663908 0 0.26329678137076351 -0.053405898285071182 0 0.27927949511770961 -0.070851454938488739 0 0.25811154610651499 -0.066123023671663908 0 0.26883802324883782 -0.077063641498024305 0 0.27927949511770961 -0.070851454938488739 0 0.25811154610651499 -0.066123023671663908 0 0.26883802324883782 -0.077063641498024305 0 0.27927949511770961 -0.070851454938488739 0 0.27809334201771629 -0.079209584513290715 0 0.26883802324883782 -0.077063641498024305 0 0.27809334201771629 -0.079209584513290715 0 0.27734124638624891 -0.089737863242296378 0 0.26883802324883782 -0.077063641498024305 0 0.27734124638624891 -0.089737863242296378 0 0.25202197504294188 -0.078400955310045109 0 0.28691460331806928 -0.079185378374353493 0 0.27809334201771629 -0.079209584513290715 0 0.27734124638624891 -0.089737863242296378 0 0.27734124638624891 -0.089737863242296378 0 0.26256105175446781 -0.092679464148907056 0 0.25202197504294188 -0.078400955310045109 0 0.27734124638624891 -0.089737863242296378 0 0.25202197504294188 -0.078400955310045109 0 0.26256105175446781 -0.092679464148907056 0 0.25304747237378489 -0.090741332181114118 0 0.25202197504294188 -0.078400955310045109 0 0.25304747237378489 -0.090741332181114118 0 0.25202197504294188 -0.078400955310045109 0 0.24624903761231479 -0.086847438891893419 0 0.26883802324883782 -0.077063641498024305 0 0.25202197504294188 -0.078400955310045109 0 0.25811154610651499 -0.066123023671663908 0 0.25811154610651499 -0.066123023671663908 0 0.26329678137076351 -0.053405898285071182 0 0.24870160087168189 -0.052882304334001928 0 0.26329678137076351 -0.053405898285071182 0 0.24870160087168189 -0.052882304334001928 0 0.24731406762381819 -0.035960341631652723 0 0.27927949511770961 -0.070851454938488739 0 0.26329678137076351 -0.053405898285071182 0 0.27868582307562201 -0.055886184139343542 0 0.27927949511770961 -0.070851454938488739 0 0.26329678137076351 -0.053405898285071182 0 0.26329678137076351 -0.053405898285071182 0 0.27868582307562201 -0.055886184139343542 0 0.27337213238318842 -0.044040078526876879 0 0.27868582307562201 -0.055886184139343542 0 0.27337213238318842 -0.044040078526876879 0 0.28525528160713332 -0.050154543613187753 0 0.26329678137076351 -0.053405898285071182 0 0.27337213238318842 -0.044040078526876879 0 0.26311483972878968 -0.036713614733010089 0 0.27337213238318842 -0.044040078526876879 0 0.27217486102646721 -0.027861542379398439 0 0.28494473946257981 -0.034556038004921102 0 0.27337213238318842 -0.044040078526876879 0 0.26311483972878968 -0.036713614733010089 0 0.27217486102646721 -0.027861542379398439 0 0.27337213238318842 -0.044040078526876879 0 0.28525528160713332 -0.050154543613187753 0 0.28494473946257981 -0.034556038004921102 0 0.26311483972878968 -0.036713614733010089 0 0.25941635623971138 -0.02230021284205122 0 0.24731406762381819 -0.035960341631652723 0 0.26329678137076351 -0.053405898285071182 0 0.24731406762381819 -0.035960341631652723 0 0.26329678137076351 -0.053405898285071182 0 0.26311483972878968 -0.036713614733010089 0 0.24731406762381819 -0.035960341631652723 0 0.25941635623971138 -0.02230021284205122 0 0.24731406762381819 -0.035960341631652723 0 0.2482857443068576 -0.021714794414400052 0 0.25941635623971138 -0.02230021284205122 0 0.25508119948702751 -0.010083838205662381 0 0.2482857443068576 -0.021714794414400052 0 0.26311483972878968 -0.036713614733010089 0 0.25941635623971138 -0.02230021284205122 0 0.27217486102646721 -0.027861542379398439 0 0.2541426920980116 -0.0036136263454906951 0 0.25508119948702751 -0.010083838205662381 0 0.24138147174972829 -0.0061427828714447699 0 0.2541426920980116 -0.0036136263454906951 0 0.25508119948702751 -0.010083838205662381 0 0.26047117107291767 -0.0019720443344692288 0 0.25446675038947358 0.0029162606258486688 0 0.2541426920980116 -0.0036136263454906951 0 0.26047117107291767 -0.0019720443344692288 0 0.25941635623971138 -0.02230021284205122 0 0.25508119948702751 -0.010083838205662381 0 0.26474460583379889 -0.01023883548432745 0 0.25941635623971138 -0.02230021284205122 0 0.26474460583379889 -0.01023883548432745 0 0.27166734417845928 -0.01430021117376327 0 0.25508119948702751 -0.010083838205662381 0 0.26474460583379889 -0.01023883548432745 0 0.26047117107291767 -0.0019720443344692288 0 0.26474460583379889 -0.01023883548432745 0 0.26047117107291767 -0.0019720443344692288 0 0.27708695819087842 -0.0025378708656911609 0 0.26474460583379889 -0.01023883548432745 0 0.27166734417845928 -0.01430021117376327 0 0.27708695819087842 -0.0025378708656911609 0 0.27166734417845928 -0.01430021117376327 0 0.27708695819087842 -0.0025378708656911609 0 0.28469269166600031 -0.01545933141113482 0 0.27217486102646721 -0.027861542379398439 0 0.28469269166600031 -0.01545933141113482 0 0.28494473946257981 -0.034556038004921102 0 0.25941635623971138 -0.02230021284205122 0 0.27166734417845928 -0.01430021117376327 0 0.27217486102646721 -0.027861542379398439 0 0.27166734417845928 -0.01430021117376327 0 0.27217486102646721 -0.027861542379398439 0 0.28469269166600031 -0.01545933141113482 0 0.28469269166600031 -0.01545933141113482 0 0.29727596499766062 -0.023933315692393788 0 0.28494473946257981 -0.034556038004921102 0 0.30352242257352219 0.0039185454548519476 0 0.28469269166600031 -0.01545933141113482 0 0.29727596499766062 -0.023933315692393788 0 0.30352242257352219 0.0039185454548519476 0 0.27708695819087842 -0.0025378708656911609 0 0.28469269166600031 -0.01545933141113482 0 0.30352242257352219 0.0039185454548519476 0 0.32469666258817742 -0.019557632270551 0 0.29727596499766062 -0.023933315692393788 0 0.32469666258817742 -0.019557632270551 0 0.31326255248553708 -0.043768501277314603 0 0.29727596499766062 -0.023933315692393788 0 0.31326255248553708 -0.043768501277314603 0 0.29727596499766062 -0.023933315692393788 0 0.2968975050950291 -0.045887416406534938 0 0.31326255248553708 -0.043768501277314603 0 0.29727596499766062 -0.023933315692393788 0 0.31326255248553708 -0.043768501277314603 0 0.2968975050950291 -0.045887416406534938 0 0.31014365419524398 -0.06072536978512106 0 0.2968975050950291 -0.045887416406534938 0 0.31014365419524398 -0.06072536978512106 0 0.29222542489931519 -0.060978945333093171 0 0.2968975050950291 -0.045887416406534938 0 0.29222542489931519 -0.060978945333093171 0 0.28525528160713332 -0.050154543613187753 0 0.27868582307562201 -0.055886184139343542 0 0.29222542489931519 -0.060978945333093171 0 0.28525528160713332 -0.050154543613187753 0 0.2968975050950291 -0.045887416406534938 0 0.28525528160713332 -0.050154543613187753 0 0.28494473946257981 -0.034556038004921102 0 0.29727596499766062 -0.023933315692393788 0 0.2968975050950291 -0.045887416406534938 0 0.28494473946257981 -0.034556038004921102 0 0.29579617193404978 -0.19432558104056491 0 0.30588539897632072 -0.22256652654210629 0 0.2776594049058328 -0.2175861504380624 0 0.29579617193404978 -0.19432558104056491 0 0.2776594049058328 -0.2175861504380624 0 0.2764107852420567 -0.19644220614923899 0 0.29579617193404978 -0.19432558104056491 0 0.2764107852420567 -0.19644220614923899 0 0.2792899687438003 -0.18116405860585089 0 0.29579617193404978 -0.19432558104056491 0 0.31045946319455608 -0.20263901644370941 0 0.31057073564158039 -0.17760626025882659 0 0.29579617193404978 -0.19432558104056491 0 0.30588539897632072 -0.22256652654210629 0 0.31045946319455608 -0.20263901644370941 0 0.30588539897632072 -0.22256652654210629 0 0.32020032842118662 -0.2136972324735969 0 0.29579617193404978 -0.19432558104056491 0 0.31045946319455608 -0.20263901644370941 0 0.30588539897632072 -0.22256652654210629 0 0.29681701546221179 -0.23419681124085551 0 0.31597462601859122 -0.25080747204364812 0 0.30111904597271899 -0.2536098058489899 0 0.30588539897632072 -0.22256652654210629 0 0.29681701546221179 -0.23419681124085551 0 0.31597462601859122 -0.25080747204364812 0 0.30588539897632072 -0.22256652654210629 0 0.31597462601859122 -0.25080747204364812 0 0.29681701546221179 -0.23419681124085551 0 0.31597462601859122 -0.25080747204364812 0 0.29681701546221179 -0.23419681124085551 0 0.30111904597271899 -0.2536098058489899 0 0.28456511698073272 -0.25518130134833977 0 0.29681701546221179 -0.23419681124085551 0 0.27830026498091959 -0.23745462562099759 0 0.28456511698073272 -0.25518130134833977 0 0.30588539897632072 -0.22256652654210629 0 0.29681701546221179 -0.23419681124085551 0 0.2776594049058328 -0.2175861504380624 0 0.29681701546221179 -0.23419681124085551 0 0.27830026498091959 -0.23745462562099759 0 0.2776594049058328 -0.2175861504380624 0 0.29681701546221179 -0.23419681124085551 0 0.2776594049058328 -0.2175861504380624 0 0.26584409390649738 -0.23415831621220631 0 0.27830026498091959 -0.23745462562099759 0 0.2776594049058328 -0.2175861504380624 0 0.26584409390649738 -0.23415831621220631 0 0.25658827463044448 -0.2222138965281123 0 0.2776594049058328 -0.2175861504380624 0 0.27830026498091959 -0.23745462562099759 0 0.28456511698073272 -0.25518130134833977 0 0.26629969424128969 -0.25192769388052821 0 0.26584409390649738 -0.23415831621220631 0 0.27830026498091959 -0.23745462562099759 0 0.26629969424128969 -0.25192769388052821 0 0.26584409390649738 -0.23415831621220631 0 0.25037283077400019 -0.2416092145933311 0 0.26629969424128969 -0.25192769388052821 0 0.25037283077400019 -0.2416092145933311 0 0.25658827463044448 -0.2222138965281123 0 0.2446094219978813 -0.2276121794933563 0 0.26584409390649738 -0.23415831621220631 0 0.25037283077400019 -0.2416092145933311 0 0.25658827463044448 -0.2222138965281123 0 0.25658827463044448 -0.2222138965281123 0 0.2776594049058328 -0.2175861504380624 0 0.25850179434945381 -0.20097548963526929 0 0.25658827463044448 -0.2222138965281123 0 0.25850179434945381 -0.20097548963526929 0 0.23907695871134879 -0.21289681242661959 0 0.2776594049058328 -0.2175861504380624 0 0.25850179434945381 -0.20097548963526929 0 0.2776594049058328 -0.2175861504380624 0 0.2764107852420567 -0.19644220614923899 0 0.25850179434945381 -0.20097548963526929 0 0.2764107852420567 -0.19644220614923899 0 0.25850179434945381 -0.20097548963526929 0 0.26539786460737957 -0.18100391429238191 0 0.25850179434945381 -0.20097548963526929 0 0.26539786460737957 -0.18100391429238191 0 0.23934418379307471 -0.18436482883247621 0 0.26539786460737957 -0.18100391429238191 0 0.25449645062408999 -0.16331052089379791 0 0.23934418379307471 -0.18436482883247621 0 0.26539786460737957 -0.18100391429238191 0 0.25449645062408999 -0.16331052089379791 0 0.27043371620885309 -0.16438603764101259 0 0.25449645062408999 -0.16331052089379791 0 0.27043371620885309 -0.16438603764101259 0 0.2633734196266177 -0.15149826902969399 0 0.27043371620885309 -0.16438603764101259 0 0.2792899687438003 -0.18116405860585089 0 0.28570694489177878 -0.1660846355390232 0 0.27043371620885309 -0.16438603764101259 0 0.27930784456020519 -0.15183985913025491 0 0.28570694489177878 -0.1660846355390232 0 0.26539786460737957 -0.18100391429238191 0 0.27043371620885309 -0.16438603764101259 0 0.2792899687438003 -0.18116405860585089 0 0.2764107852420567 -0.19644220614923899 0 0.26539786460737957 -0.18100391429238191 0 0.2792899687438003 -0.18116405860585089 0 0.26153006621115998 -0.13421007507225571 0 0.24375228786211539 -0.116580291014256 0 0.24955680073527009 -0.143898101237383 0 0.26153006621115998 -0.13421007507225571 0 0.24375228786211539 -0.116580291014256 0 0.25449645062408999 -0.16331052089379791 0 0.2633734196266177 -0.15149826902969399 0 0.24955680073527009 -0.143898101237383 0 0.26153006621115998 -0.13421007507225571 0 0.2633734196266177 -0.15149826902969399 0 0.24955680073527009 -0.143898101237383 0 0.27043371620885309 -0.16438603764101259 0 0.2633734196266177 -0.15149826902969399 0 0.27930784456020519 -0.15183985913025491 0 0.27561771784950778 -0.13784369003748159 0 0.28570694489177878 -0.1660846355390232 0 0.26153006621115998 -0.13421007507225571 0 0.27930784456020519 -0.15183985913025491 0 0.27561771784950778 -0.13784369003748159 0 0.27930784456020519 -0.15183985913025491 0 0.27561771784950778 -0.13784369003748159 0 0.28570694489177878 -0.1660846355390232 0 0.26153006621115998 -0.13421007507225571 0 0.2633734196266177 -0.15149826902969399 0 0.27930784456020519 -0.15183985913025491 0 0.26153006621115998 -0.13421007507225571 0 0.27930784456020519 -0.15183985913025491 0 0.26776517015272971 -0.1222840496799191 0 0.27561771784950778 -0.13784369003748159 0 0.28721398294742878 -0.13035474923543569 0 0.26776517015272971 -0.1222840496799191 0 0.26153006621115998 -0.13421007507225571 0 0.27561771784950778 -0.13784369003748159 0 0.27561771784950778 -0.13784369003748159 0 0.28721398294742878 -0.13035474923543569 0 0.28891568690104508 -0.14625428249578579 0 0.28721398294742878 -0.13035474923543569 0 0.28891568690104508 -0.14625428249578579 0 0.29920842625061578 -0.1386190615635868 0 0.28891568690104508 -0.14625428249578579 0 0.29920842625061578 -0.1386190615635868 0 0.29789574789403661 -0.15876522012859751 0 0.27561771784950778 -0.13784369003748159 0 0.28891568690104508 -0.14625428249578579 0 0.28570694489177878 -0.1660846355390232 0 0.30985117626407932 -0.1486491484402036 0 0.29920842625061578 -0.1386190615635868 0 0.29789574789403661 -0.15876522012859751 0 0.30985117626407932 -0.1486491484402036 0 0.29789574789403661 -0.15876522012859751 0 0.3134799250960158 -0.16133035304856411 0 0.30985117626407932 -0.1486491484402036 0 0.29920842625061578 -0.1386190615635868 0 0.31980994510895661 -0.13408045692276491 0 0.3092169746865393 -0.1198258623704429 0 0.28721398294742878 -0.13035474923543569 0 0.29920842625061578 -0.1386190615635868 0 0.3092169746865393 -0.1198258623704429 0 0.29920842625061578 -0.1386190615635868 0 0.31980994510895661 -0.13408045692276491 0 0.29579617193404978 -0.19432558104056491 0 0.2792899687438003 -0.18116405860585089 0 0.28570694489177878 -0.1660846355390232 0 0.29579617193404978 -0.19432558104056491 0 0.28570694489177878 -0.1660846355390232 0 0.29579617193404978 -0.19432558104056491 0 0.28570694489177878 -0.1660846355390232 0 0.29784246694311001 -0.17248502473641619 0 0.28891568690104508 -0.14625428249578579 0 0.28570694489177878 -0.1660846355390232 0 0.29789574789403661 -0.15876522012859751 0 0.28570694489177878 -0.1660846355390232 0 0.29789574789403661 -0.15876522012859751 0 0.29784246694311001 -0.17248502473641619 0 0.29789574789403661 -0.15876522012859751 0 0.31057073564158039 -0.17760626025882659 0 0.3134799250960158 -0.16133035304856411 0 0.29789574789403661 -0.15876522012859751 0 0.31057073564158039 -0.17760626025882659 0 0.29784246694311001 -0.17248502473641619 0 0.29789574789403661 -0.15876522012859751 0 0.31057073564158039 -0.17760626025882659 0 0.29579617193404978 -0.19432558104056491 0 0.31057073564158039 -0.17760626025882659 0 0.29784246694311001 -0.17248502473641619 0 0.31057073564158039 -0.17760626025882659 0 0.33117051957001492 -0.16690810347740409 0 0.33960500058918919 -0.18923554211963439 0 0.31057073564158039 -0.17760626025882659 0 0.32324572338912438 -0.19644730038905581 0 0.3134799250960158 -0.16133035304856411 0 0.33117051957001492 -0.16690810347740409 0 0.32297156368297691 -0.15191279281852399 0 0.31057073564158039 -0.17760626025882659 0 0.3134799250960158 -0.16133035304856411 0 0.33117051957001492 -0.16690810347740409 0 0.33117051957001492 -0.16690810347740409 0 0.34312821131240068 -0.1490342399984359 0 0.35150112372442083 -0.17432517416681301 0 0.33117051957001492 -0.16690810347740409 0 0.35150112372442083 -0.17432517416681301 0 0.33960500058918919 -0.18923554211963439 0 0.33587402752894302 -0.122350175475488 0 0.3092169746865393 -0.1198258623704429 0 0.31980994510895661 -0.13408045692276491 0 0.30985117626407932 -0.1486491484402036 0 0.31980994510895661 -0.13408045692276491 0 0.32297156368297691 -0.15191279281852399 0 0.30985117626407932 -0.1486491484402036 0 0.3134799250960158 -0.16133035304856411 0 0.32297156368297691 -0.15191279281852399 0 0.33117051957001492 -0.16690810347740409 0 0.32297156368297691 -0.15191279281852399 0 0.34312821131240068 -0.1490342399984359 0 0.31980994510895661 -0.13408045692276491 0 0.32297156368297691 -0.15191279281852399 0 0.34312821131240068 -0.1490342399984359 0 0.33587402752894302 -0.122350175475488 0 0.31980994510895661 -0.13408045692276491 0 0.34312821131240068 -0.1490342399984359 0 0.36253108037134668 -0.1248744885805331 0 0.33587402752894302 -0.122350175475488 0 0.3555623608711499 -0.1359942506039106 0 0.33587402752894302 -0.122350175475488 0 0.34312821131240068 -0.1490342399984359 0 0.3555623608711499 -0.1359942506039106 0 0.34312821131240068 -0.1490342399984359 0 0.3555623608711499 -0.1359942506039106 0 0.36858459771950869 -0.15733985743645959 0 0.3555623608711499 -0.1359942506039106 0 0.36652086356581781 -0.12946943863695781 0 0.36858459771950869 -0.15733985743645959 0 0.36652086356581781 -0.12946943863695781 0 0.36858459771950869 -0.15733985743645959 0 0.36652086356581781 -0.12946943863695781 0 0.36858459771950869 -0.15733985743645959 0 0.3787995421462832 -0.1425544525875144 0 0.36652086356581781 -0.12946943863695781 0 0.37808333446084269 -0.1309391893982525 0 0.3787995421462832 -0.1425544525875144 0 0.36253108037134668 -0.1248744885805331 0 0.36652086356581781 -0.12946943863695781 0 0.37808333446084269 -0.1309391893982525 0 0.36253108037134668 -0.1248744885805331 0 0.3555623608711499 -0.1359942506039106 0 0.36652086356581781 -0.12946943863695781 0 0.35150112372442083 -0.17432517416681301 0 0.37064833187319962 -0.1852102762359614 0 0.35587008128221181 -0.19822302573298239 0 0.35150112372442083 -0.17432517416681301 0 0.35587008128221181 -0.19822302573298239 0 0.33960500058918919 -0.18923554211963439 0 0.34312821131240068 -0.1490342399984359 0 0.35150112372442083 -0.17432517416681301 0 0.36858459771950869 -0.15733985743645959 0 0.36858459771950869 -0.15733985743645959 0 0.37064833187319962 -0.1852102762359614 0 0.35150112372442083 -0.17432517416681301 0 0.36858459771950869 -0.15733985743645959 0 0.37064833187319962 -0.1852102762359614 0 0.36858459771950869 -0.15733985743645959 0 0.37064833187319962 -0.1852102762359614 0 0.3834788620725188 -0.17954848884060079 0 0.37064833187319962 -0.1852102762359614 0 0.37271206602689039 -0.21308069503546309 0 0.38139900114097952 -0.20469292352659629 0 0.37064833187319962 -0.1852102762359614 0 0.37271206602689039 -0.21308069503546309 0 0.37064833187319962 -0.1852102762359614 0 0.37271206602689039 -0.21308069503546309 0 0.35587008128221181 -0.19822302573298239 0 0.37271206602689039 -0.21308069503546309 0 0.35603419272415182 -0.2169366224123114 0 0.35587008128221181 -0.19822302573298239 0 0.35603419272415182 -0.2169366224123114 0 0.35587008128221181 -0.19822302573298239 0 0.33592071113666833 -0.21528834051928489 0 0.35587008128221181 -0.19822302573298239 0 0.33960500058918919 -0.18923554211963439 0 0.33592071113666833 -0.21528834051928489 0 0.33960500058918919 -0.18923554211963439 0 0.33592071113666833 -0.21528834051928489 0 0.32324572338912438 -0.19644730038905581 0 0.33592071113666833 -0.21528834051928489 0 0.32324572338912438 -0.19644730038905581 0 0.33592071113666833 -0.21528834051928489 0 0.32020032842118662 -0.2136972324735969 0 0.32324572338912438 -0.19644730038905581 0 0.31045946319455608 -0.20263901644370941 0 0.32020032842118662 -0.2136972324735969 0 0.32324572338912438 -0.19644730038905581 0 0.31057073564158039 -0.17760626025882659 0 0.33960500058918919 -0.18923554211963439 0 0.32324572338912438 -0.19644730038905581 0 0.31045946319455608 -0.20263901644370941 0 0.31057073564158039 -0.17760626025882659 0 0.32324572338912438 -0.19644730038905581 0 0.32549034540926353 -0.23154497847382799 0 0.33517615116993849 -0.24743488902137309 0 0.31597462601859122 -0.25080747204364812 0 0.30588539897632072 -0.22256652654210629 0 0.32549034540926353 -0.23154497847382799 0 0.31597462601859122 -0.25080747204364812 0 0.30588539897632072 -0.22256652654210629 0 0.32020032842118662 -0.2136972324735969 0 0.32549034540926353 -0.23154497847382799 0 0.33592071113666833 -0.21528834051928489 0 0.32020032842118662 -0.2136972324735969 0 0.32549034540926353 -0.23154497847382799 0 0.33592071113666833 -0.21528834051928489 0 0.32549034540926353 -0.23154497847382799 0 0.34859569888421221 -0.23412938064951411 0 0.33592071113666833 -0.21528834051928489 0 0.34859569888421221 -0.23412938064951411 0 0.32549034540926353 -0.23154497847382799 0 0.33517615116993849 -0.24743488902137309 0 0.34859569888421221 -0.23412938064951411 0 0.33517615116993849 -0.24743488902137309 0 0.34859569888421221 -0.23412938064951411 0 0.35185333732921159 -0.25428502110151557 0 0.34859569888421221 -0.23412938064951411 0 0.36075586336603621 -0.2426037127049111 0 0.35185333732921159 -0.25428502110151557 0 0.34859569888421221 -0.23412938064951411 0 0.36291464790978972 -0.22902601310760301 0 0.36075586336603621 -0.2426037127049111 0 0.35603419272415182 -0.2169366224123114 0 0.34859569888421221 -0.23412938064951411 0 0.36291464790978972 -0.22902601310760301 0 0.35603419272415182 -0.2169366224123114 0 0.33592071113666833 -0.21528834051928489 0 0.34859569888421221 -0.23412938064951411 0 0.37271206602689039 -0.21308069503546309 0 0.35603419272415182 -0.2169366224123114 0 0.36291464790978972 -0.22902601310760301 0 0.37271206602689039 -0.21308069503546309 0 0.37477580018058132 -0.24095111383496479 0 0.37555308153547928 -0.22286467051027881 0 0.37271206602689039 -0.21308069503546309 0 0.37477580018058132 -0.24095111383496479 0 0.37271206602689039 -0.21308069503546309 0 0.36291464790978972 -0.22902601310760301 0 0.37477580018058132 -0.24095111383496479 0 0.36075586336603621 -0.2426037127049111 0 0.37477580018058132 -0.24095111383496479 0 0.36563983252638571 -0.25462703483095822 0 0.36291464790978972 -0.22902601310760301 0 0.36075586336603621 -0.2426037127049111 0 0.37477580018058132 -0.24095111383496479 0 0.37477580018058132 -0.24095111383496479 0 0.39321551516580561 -0.23618023300957031 0 0.38725375881062551 -0.25185160038302579 0 0.39321551516580561 -0.23618023300957031 0 0.41087794879613182 -0.2494957955088617 0 0.40741230325918792 -0.23450562481703699 0 0.39321551516580561 -0.23618023300957031 0 0.41087794879613182 -0.2494957955088617 0 0.39321551516580561 -0.23618023300957031 0 0.38725375881062551 -0.25185160038302579 0 0.39640803358832022 -0.25154779433757402 0 0.39321551516580561 -0.23618023300957031 0 0.41087794879613182 -0.2494957955088617 0 0.39640803358832022 -0.25154779433757402 0 0.4055308246994358 -0.22407667781788709 0 0.39424069285124719 -0.22310079746779379 0 0.40434357831770951 -0.21487406561090469 0 0.4055308246994358 -0.22407667781788709 0 0.39424069285124719 -0.22310079746779379 0 0.40741230325918792 -0.23450562481703699 0 0.39321551516580561 -0.23618023300957031 0 0.39424069285124719 -0.22310079746779379 0 0.40741230325918792 -0.23450562481703699 0 0.37477580018058132 -0.24095111383496479 0 0.39321551516580561 -0.23618023300957031 0 0.37555308153547928 -0.22286467051027881 0 0.39424069285124719 -0.22310079746779379 0 0.37555308153547928 -0.22286467051027881 0 0.38300691860546521 -0.21527996176244341 0 0.39321551516580561 -0.23618023300957031 0 0.37555308153547928 -0.22286467051027881 0 0.39321551516580561 -0.23618023300957031 0 0.39424069285124719 -0.22310079746779379 0 0.37555308153547928 -0.22286467051027881 0 0.37271206602689039 -0.21308069503546309 0 0.37555308153547928 -0.22286467051027881 0 0.38300691860546521 -0.21527996176244341 0 0.37271206602689039 -0.21308069503546309 0 0.38139900114097952 -0.20469292352659629 0 0.38300691860546521 -0.21527996176244341 0 0.38139900114097952 -0.20469292352659629 0 0.39078770323730427 -0.19674260859680251 0 0.39112975147272949 -0.2126607222720846 0 0.38139900114097952 -0.20469292352659629 0 0.38300691860546521 -0.21527996176244341 0 0.39112975147272949 -0.2126607222720846 0 0.39424069285124719 -0.22310079746779379 0 0.38300691860546521 -0.21527996176244341 0 0.39112975147272949 -0.2126607222720846 0 0.37064833187319962 -0.1852102762359614 0 0.38139900114097952 -0.20469292352659629 0 0.39078770323730427 -0.19674260859680251 0 0.39078770323730427 -0.19674260859680251 0 0.40475141021500721 -0.1910589369573561 0 0.39510197637232292 -0.1839605883432579 0 0.39078770323730427 -0.19674260859680251 0 0.40426546228868082 -0.20108352786525729 0 0.397631623829106 -0.20634023108626229 0 0.39078770323730427 -0.19674260859680251 0 0.40426546228868082 -0.20108352786525729 0 0.40475141021500721 -0.1910589369573561 0 0.39078770323730427 -0.19674260859680251 0 0.39112975147272949 -0.2126607222720846 0 0.397631623829106 -0.20634023108626229 0 0.39112975147272949 -0.2126607222720846 0 0.397631623829106 -0.20634023108626229 0 0.40434357831770951 -0.21487406561090469 0 0.39424069285124719 -0.22310079746779379 0 0.39112975147272949 -0.2126607222720846 0 0.40434357831770951 -0.21487406561090469 0 0.40426546228868082 -0.20108352786525729 0 0.397631623829106 -0.20634023108626229 0 0.40434357831770951 -0.21487406561090469 0 0.40434357831770951 -0.21487406561090469 0 0.41713092845542321 -0.20900944133272009 0 0.41612672436959858 -0.22382622337581301 0 0.40426546228868082 -0.20108352786525729 0 0.40434357831770951 -0.21487406561090469 0 0.41713092845542321 -0.20900944133272009 0 0.41713092845542321 -0.20900944133272009 0 0.42330136258736267 -0.2174116668913772 0 0.41612672436959858 -0.22382622337581301 0 0.40475141021500721 -0.1910589369573561 0 0.41487892771890261 -0.19826025474908979 0 0.4146572714410397 -0.186958864794112 0 0.40426546228868082 -0.20108352786525729 0 0.41713092845542321 -0.20900944133272009 0 0.41487892771890261 -0.19826025474908979 0 0.40426546228868082 -0.20108352786525729 0 0.40475141021500721 -0.1910589369573561 0 0.41487892771890261 -0.19826025474908979 0 0.41713092845542321 -0.20900944133272009 0 0.41487892771890261 -0.19826025474908979 0 0.42701217502226602 -0.19751647228806199 0 0.41487892771890261 -0.19826025474908979 0 0.42053294087941678 -0.1923617771039739 0 0.42701217502226602 -0.19751647228806199 0 0.42053294087941678 -0.1923617771039739 0 0.4146572714410397 -0.186958864794112 0 0.42558338933545942 -0.1867115165846317 0 0.41487892771890261 -0.19826025474908979 0 0.42053294087941678 -0.1923617771039739 0 0.4146572714410397 -0.186958864794112 0 0.42701217502226602 -0.19751647228806199 0 0.43844209377108118 -0.18689286854296691 0 0.44355474576021348 -0.2050869029196882 0 0.42053294087941678 -0.1923617771039739 0 0.42701217502226602 -0.19751647228806199 0 0.42558338933545942 -0.1867115165846317 0 0.42701217502226602 -0.19751647228806199 0 0.42558338933545942 -0.1867115165846317 0 0.43844209377108118 -0.18689286854296691 0 0.42701217502226602 -0.19751647228806199 0 0.43006687167525981 -0.21185300334864521 0 0.44355474576021348 -0.2050869029196882 0 0.41713092845542321 -0.20900944133272009 0 0.42330136258736267 -0.2174116668913772 0 0.43006687167525981 -0.21185300334864521 0 0.42330136258736267 -0.2174116668913772 0 0.43006687167525981 -0.21185300334864521 0 0.42988092584916948 -0.2249579995083304 0 0.41713092845542321 -0.20900944133272009 0 0.42701217502226602 -0.19751647228806199 0 0.43006687167525981 -0.21185300334864521 0 0.43006687167525981 -0.21185300334864521 0 0.42988092584916948 -0.2249579995083304 0 0.44009267276725389 -0.2176624614444449 0 0.42330136258736267 -0.2174116668913772 0 0.42988092584916948 -0.2249579995083304 0 0.41612672436959858 -0.22382622337581301 0 0.42988092584916948 -0.2249579995083304 0 0.43458399188612801 -0.2397076170126072 0 0.42159465327244361 -0.23640953485310751 0 0.42988092584916948 -0.2249579995083304 0 0.42159465327244361 -0.23640953485310751 0 0.41612672436959858 -0.22382622337581301 0 0.42988092584916948 -0.2249579995083304 0 0.43458399188612801 -0.2397076170126072 0 0.44416109061426973 -0.22983272991065171 0 0.43458399188612801 -0.2397076170126072 0 0.42656562700980838 -0.24831468624349931 0 0.4372088962240912 -0.25169219704383999 0 0.43458399188612801 -0.2397076170126072 0 0.42656562700980838 -0.24831468624349931 0 0.42159465327244361 -0.23640953485310751 0 0.42656562700980838 -0.24831468624349931 0 0.42159465327244361 -0.23640953485310751 0 0.41087794879613182 -0.2494957955088617 0 0.42159465327244361 -0.23640953485310751 0 0.41087794879613182 -0.2494957955088617 0 0.40741230325918792 -0.23450562481703699 0 0.4055308246994358 -0.22407667781788709 0 0.40741230325918792 -0.23450562481703699 0 0.41612672436959858 -0.22382622337581301 0 0.4055308246994358 -0.22407667781788709 0 0.40434357831770951 -0.21487406561090469 0 0.41612672436959858 -0.22382622337581301 0 0.42159465327244361 -0.23640953485310751 0 0.40741230325918792 -0.23450562481703699 0 0.41612672436959858 -0.22382622337581301 0 0.39823574772599779 -0.11763079726210079 0 0.40257569972698831 -0.13396225485532559 0 0.38918813321375051 -0.12739880168557821 0 0.40257569972698831 -0.13396225485532559 0 0.38918813321375051 -0.12739880168557821 0 0.39017348084279901 -0.13955387731924049 0 0.38918813321375051 -0.12739880168557821 0 0.37808333446084269 -0.1309391893982525 0 0.39017348084279901 -0.13955387731924049 0 0.37720890243704291 -0.12310924361699779 0 0.36253108037134668 -0.1248744885805331 0 0.38918813321375051 -0.12739880168557821 0 0.36253108037134668 -0.1248744885805331 0 0.38918813321375051 -0.12739880168557821 0 0.37808333446084269 -0.1309391893982525 0 0.36253108037134668 -0.1248744885805331 0 0.38918813321375051 -0.12739880168557821 0 0.37808333446084269 -0.1309391893982525 0 0.39017348084279901 -0.13955387731924049 0 0.3787995421462832 -0.1425544525875144 0 0.36858459771950869 -0.15733985743645959 0 0.3787995421462832 -0.1425544525875144 0 0.38535727780346091 -0.1527557998392445 0 0.39017348084279901 -0.13955387731924049 0 0.3787995421462832 -0.1425544525875144 0 0.38535727780346091 -0.1527557998392445 0 0.40257569972698831 -0.13396225485532559 0 0.39822107621443897 -0.1501202070538992 0 0.41732028123257531 -0.14286435439753159 0 0.40257569972698831 -0.13396225485532559 0 0.39017348084279901 -0.13955387731924049 0 0.39822107621443897 -0.1501202070538992 0 0.39017348084279901 -0.13955387731924049 0 0.38535727780346091 -0.1527557998392445 0 0.39822107621443897 -0.1501202070538992 0 0.39822107621443897 -0.1501202070538992 0 0.39107178753907162 -0.16851380255406381 0 0.40713652226246821 -0.16744863749245631 0 0.39107178753907162 -0.16851380255406381 0 0.40713652226246821 -0.16744863749245631 0 0.38535727780346091 -0.1527557998392445 0 0.39822107621443897 -0.1501202070538992 0 0.39107178753907162 -0.16851380255406381 0 0.39107178753907162 -0.16851380255406381 0 0.40460499843718001 -0.17902112385493851 0 0.40713652226246821 -0.16744863749245631 0 0.36858459771950869 -0.15733985743645959 0 0.38535727780346091 -0.1527557998392445 0 0.39107178753907162 -0.16851380255406381 0 0.36858459771950869 -0.15733985743645959 0 0.39107178753907162 -0.16851380255406381 0 0.3834788620725188 -0.17954848884060079 0 0.39107178753907162 -0.16851380255406381 0 0.3834788620725188 -0.17954848884060079 0 0.39510197637232292 -0.1839605883432579 0 0.39078770323730427 -0.19674260859680251 0 0.3834788620725188 -0.17954848884060079 0 0.39510197637232292 -0.1839605883432579 0 0.37064833187319962 -0.1852102762359614 0 0.39078770323730427 -0.19674260859680251 0 0.3834788620725188 -0.17954848884060079 0 0.39107178753907162 -0.16851380255406381 0 0.39510197637232292 -0.1839605883432579 0 0.40460499843718001 -0.17902112385493851 0 0.40475141021500721 -0.1910589369573561 0 0.39510197637232292 -0.1839605883432579 0 0.40460499843718001 -0.17902112385493851 0 0.40475141021500721 -0.1910589369573561 0 0.40460499843718001 -0.17902112385493851 0 0.4146572714410397 -0.186958864794112 0 0.40460499843718001 -0.17902112385493851 0 0.41491102279317088 -0.17618591298838529 0 0.4146572714410397 -0.186958864794112 0 0.40460499843718001 -0.17902112385493851 0 0.41491102279317088 -0.17618591298838529 0 0.40713652226246821 -0.16744863749245631 0 0.41491102279317088 -0.17618591298838529 0 0.42527009306055918 -0.1746571334479238 0 0.4232012569858648 -0.16638347243084889 0 0.41491102279317088 -0.17618591298838529 0 0.42095079563492938 -0.18072636251124541 0 0.42527009306055918 -0.1746571334479238 0 0.41491102279317088 -0.17618591298838529 0 0.42095079563492938 -0.18072636251124541 0 0.4146572714410397 -0.186958864794112 0 0.42095079563492938 -0.18072636251124541 0 0.4146572714410397 -0.186958864794112 0 0.42558338933545942 -0.1867115165846317 0 0.43180268423531071 -0.1802632517690351 0 0.42527009306055918 -0.1746571334479238 0 0.44880083799057491 -0.164686103644653 0 0.42095079563492938 -0.18072636251124541 0 0.42558338933545942 -0.1867115165846317 0 0.43180268423531071 -0.1802632517690351 0 0.42558338933545942 -0.1867115165846317 0 0.43180268423531071 -0.1802632517690351 0 0.43844209377108118 -0.18689286854296691 0 0.42095079563492938 -0.18072636251124541 0 0.43180268423531071 -0.1802632517690351 0 0.42527009306055918 -0.1746571334479238 0 0.42527009306055918 -0.1746571334479238 0 0.4232012569858648 -0.16638347243084889 0 0.44880083799057491 -0.164686103644653 0 0.4232012569858648 -0.16638347243084889 0 0.43334283997313311 -0.15135273030925811 0 0.44880083799057491 -0.164686103644653 0 0.4232012569858648 -0.16638347243084889 0 0.44880083799057491 -0.164686103644653 0 0.42527009306055918 -0.1746571334479238 0 0.4232012569858648 -0.16638347243084889 0 0.4232012569858648 -0.16638347243084889 0 0.40713652226246821 -0.16744863749245631 0 0.41732028123257531 -0.14286435439753159 0 0.41491102279317088 -0.17618591298838529 0 0.4232012569858648 -0.16638347243084889 0 0.40713652226246821 -0.16744863749245631 0 0.4232012569858648 -0.16638347243084889 0 0.40713652226246821 -0.16744863749245631 0 0.4232012569858648 -0.16638347243084889 0 0.41732028123257531 -0.14286435439753159 0 0.39822107621443897 -0.1501202070538992 0 0.40713652226246821 -0.16744863749245631 0 0.41732028123257531 -0.14286435439753159 0 0.41732028123257531 -0.14286435439753159 0 0.43334283997313311 -0.15135273030925811 0 0.43763345530417341 -0.13584027725706749 0 0.4232012569858648 -0.16638347243084889 0 0.41732028123257531 -0.14286435439753159 0 0.43334283997313311 -0.15135273030925811 0 0.42916935431308728 -0.1205456085246996 0 0.41732028123257531 -0.14286435439753159 0 0.43763345530417341 -0.13584027725706749 0 0.42916935431308728 -0.1205456085246996 0 0.4435038969132965 -0.12540022695152131 0 0.43763345530417341 -0.13584027725706749 0 0.41143930547928681 -0.11934523636421419 0 0.42916935431308728 -0.1205456085246996 0 0.41732028123257531 -0.14286435439753159 0 0.41143930547928681 -0.11934523636421419 0 0.40257569972698831 -0.13396225485532559 0 0.41732028123257531 -0.14286435439753159 0 0.41143930547928681 -0.11934523636421419 0 0.41732028123257531 -0.14286435439753159 0 0.46257396642688631 -0.12529077885077469 0 0.46381730130484328 -0.1363472541609663 0 0.4585659370706795 -0.1308283620105129 0 0.46381730130484328 -0.1363472541609663 0 0.4585659370706795 -0.1308283620105129 0 0.45274550479158487 -0.1345999168850856 0 0.46381730130484328 -0.1363472541609663 0 0.45274550479158487 -0.1345999168850856 0 0.46138481906560302 -0.14686228775601681 0 0.46257396642688631 -0.12529077885077469 0 0.4585659370706795 -0.1308283620105129 0 0.45239247298790419 -0.125419693033265 0 0.4585659370706795 -0.1308283620105129 0 0.45239247298790419 -0.125419693033265 0 0.45274550479158487 -0.1345999168850856 0 0.45239247298790419 -0.125419693033265 0 0.4435038969132965 -0.12540022695152131 0 0.45274550479158487 -0.1345999168850856 0 0.4435038969132965 -0.12540022695152131 0 0.43763345530417341 -0.13584027725706749 0 0.45274550479158487 -0.1345999168850856 0 0.43763345530417341 -0.13584027725706749 0 0.45274550479158487 -0.1345999168850856 0 0.44678149142501389 -0.1466682631704162 0 0.43334283997313311 -0.15135273030925811 0 0.44678149142501389 -0.1466682631704162 0 0.44880083799057491 -0.164686103644653 0 0.44678149142501389 -0.1466682631704162 0 0.46138481906560302 -0.14686228775601681 0 0.44880083799057491 -0.164686103644653 0 0.43334283997313311 -0.15135273030925811 0 0.43763345530417341 -0.13584027725706749 0 0.44678149142501389 -0.1466682631704162 0 0.45274550479158487 -0.1345999168850856 0 0.44678149142501389 -0.1466682631704162 0 0.46138481906560302 -0.14686228775601681 0 0.46138481906560302 -0.14686228775601681 0 0.44880083799057491 -0.164686103644653 0 0.47440041899528501 -0.16298873485845719 0 0.44880083799057491 -0.164686103644653 0 0.46834799031954211 -0.17915452781490099 0 0.47440041899528501 -0.16298873485845719 0 0.44880083799057491 -0.164686103644653 0 0.47440041899528501 -0.16298873485845719 0 0.43180268423531071 -0.1802632517690351 0 0.44880083799057491 -0.164686103644653 0 0.43844209377108118 -0.18689286854296691 0 0.44880083799057491 -0.164686103644653 0 0.43844209377108118 -0.18689286854296691 0 0.45508032593701309 -0.1914137801830845 0 0.44880083799057491 -0.164686103644653 0 0.46834799031954211 -0.17915452781490099 0 0.45508032593701309 -0.1914137801830845 0 0.46834799031954211 -0.17915452781490099 0 0.48419704391512092 -0.17843144908975531 0 0.47440041899528501 -0.16298873485845719 0 0.46834799031954211 -0.17915452781490099 0 0.48419704391512092 -0.17843144908975531 0 0.47823681026078202 -0.19812675643970101 0 0.48419704391512092 -0.17843144908975531 0 0.49999999999999523 -0.16129136607226169 0 0.5 -0.1905958602634561 0 0.49999999999999523 -0.16129136607226169 0 0.47440041899528501 -0.16298873485845719 0 0.50000000000000067 -0.1547763741112759 0 0.48419704391512092 -0.17843144908975531 0 0.49999999999999523 -0.16129136607226169 0 0.47440041899528501 -0.16298873485845719 0 0.49999999999999523 -0.16129136607226169 0 0.47440041899528501 -0.16298873485845719 0 0.46138481906560302 -0.14686228775601681 0 0.47440041899528501 -0.16298873485845719 0 0.48128698321344371 -0.14003357648102521 0 0.46381730130484328 -0.1363472541609663 0 0.46138481906560302 -0.14686228775601681 0 0.48128698321344371 -0.14003357648102521 0 0.50000000000000067 -0.1547763741112759 0 0.48128698321344371 -0.14003357648102521 0 0.50000000000000067 -0.1547763741112759 0 0.5 -0.13349841451636779 0 0.48128698321344371 -0.14003357648102521 0 0.47440041899528501 -0.16298873485845719 0 0.50000000000000067 -0.1547763741112759 0 0.48128698321344371 -0.14003357648102521 0 0.48087269318342413 -0.1216818802472065 0 0.5 -0.13349841451636779 0 0.48128698321344371 -0.14003357648102521 0 0.46257396642688631 -0.12529077885077469 0 0.48128698321344371 -0.14003357648102521 0 0.46257396642688631 -0.12529077885077469 0 0.46381730130484328 -0.1363472541609663 0 0.48128698321344371 -0.14003357648102521 0 0.47129126618897188 -0.1223351355815797 0 0.48087269318342413 -0.1216818802472065 0 0.48128698321344371 -0.14003357648102521 0 0.47129126618897188 -0.1223351355815797 0 0.46257396642688631 -0.12529077885077469 0 0.48128698321344371 -0.14003357648102521 0 0.46029750420545162 -0.23134667767863379 0 0.45079963313025367 -0.219495204315066 0 0.46126535540865482 -0.21094244298034759 0 0.46029750420545162 -0.23134667767863379 0 0.46126535540865482 -0.21094244298034759 0 0.47937109712497578 -0.22608105856418539 0 0.46029750420545162 -0.23134667767863379 0 0.44856132313442931 -0.24393079079591279 0 0.47387431588802909 -0.25499376211151131 0 0.46029750420545162 -0.23134667767863379 0 0.44856132313442931 -0.24393079079591279 0 0.44416109061426973 -0.22983272991065171 0 0.43458399188612801 -0.2397076170126072 0 0.44856132313442931 -0.24393079079591279 0 0.4372088962240912 -0.25169219704383999 0 0.43458399188612801 -0.2397076170126072 0 0.44856132313442931 -0.24393079079591279 0 0.44416109061426973 -0.22983272991065171 0 0.46029750420545162 -0.23134667767863379 0 0.44416109061426973 -0.22983272991065171 0 0.45079963313025367 -0.219495204315066 0 0.44416109061426973 -0.22983272991065171 0 0.45079963313025367 -0.219495204315066 0 0.44009267276725389 -0.2176624614444449 0 0.42988092584916948 -0.2249579995083304 0 0.44416109061426973 -0.22983272991065171 0 0.44009267276725389 -0.2176624614444449 0 0.45079963313025367 -0.219495204315066 0 0.44355474576021348 -0.2050869029196882 0 0.46126535540865482 -0.21094244298034759 0 0.43006687167525981 -0.21185300334864521 0 0.44009267276725389 -0.2176624614444449 0 0.44355474576021348 -0.2050869029196882 0 0.45079963313025367 -0.219495204315066 0 0.44009267276725389 -0.2176624614444449 0 0.44355474576021348 -0.2050869029196882 0 0.43844209377108118 -0.18689286854296691 0 0.44355474576021348 -0.2050869029196882 0 0.45508032593701309 -0.1914137801830845 0 0.46834799031954211 -0.17915452781490099 0 0.45508032593701309 -0.1914137801830845 0 0.47823681026078202 -0.19812675643970101 0 0.44355474576021348 -0.2050869029196882 0 0.45508032593701309 -0.1914137801830845 0 0.46126535540865482 -0.21094244298034759 0 0.45508032593701309 -0.1914137801830845 0 0.46126535540865482 -0.21094244298034759 0 0.47823681026078202 -0.19812675643970101 0 0.46126535540865482 -0.21094244298034759 0 0.47823681026078202 -0.19812675643970101 0 0.47937109712497578 -0.22608105856418539 0 0.48419704391512092 -0.17843144908975531 0 0.47823681026078202 -0.19812675643970101 0 0.5 -0.1905958602634561 0 0.47823681026078202 -0.19812675643970101 0 0.5 -0.1905958602634561 0 0.5 -0.21990035445465039 0 0.47823681026078202 -0.19812675643970101 0 0.5 -0.21990035445465039 0 0.47937109712497578 -0.22608105856418539 0 0.5 -0.21990035445465039 0 0.47937109712497578 -0.22608105856418539 0 0.50000000000000444 -0.24920484864584491 0 0.46029750420545162 -0.23134667767863379 0 0.47937109712497578 -0.22608105856418539 0 0.47387431588802909 -0.25499376211151131 0 0.47937109712497578 -0.22608105856418539 0 0.50000000000000444 -0.24920484864584491 0 0.47387431588802909 -0.25499376211151131 0 0.50000000000000444 -0.24920484864584491 0 0.4915669900217115 -0.25615479242606781 0 0.5 -0.27170772691138367 0 0.50000000000000444 -0.24920484864584491 0 0.4915669900217115 -0.25615479242606781 0 0.47387431588802909 -0.25499376211151131 0 0.50000000000000444 -0.24920484864584491 0 0.47387431588802909 -0.25499376211151131 0 0.4915669900217115 -0.25615479242606781 0 0.48280749151585822 -0.27129304150170008 0 0.47954864786353962 -0.26301133191085868 0 0.4915669900217115 -0.25615479242606781 0 0.5 -0.27170772691138367 0 0.48280749151585822 -0.27129304150170008 0 0.5 -0.27170772691138367 0 0.48280749151585822 -0.27129304150170008 0 0.48951500520952212 -0.28458010338455908 0 0.48280749151585822 -0.27129304150170008 0 0.47474596181800061 -0.28621450290334632 0 0.48951500520952212 -0.28458010338455908 0 0.48280749151585822 -0.27129304150170008 0 0.47416229901770612 -0.26612875971404459 0 0.47954864786353962 -0.26301133191085868 0 0.48280749151585822 -0.27129304150170008 0 0.47416229901770612 -0.26612875971404459 0 0.47052118473631321 -0.27447720361836658 0 0.47416229901770612 -0.26612875971404459 0 0.47052118473631321 -0.27447720361836658 0 0.46319689217890331 -0.26835660325056299 0 0.48280749151585822 -0.27129304150170008 0 0.47052118473631321 -0.27447720361836658 0 0.47474596181800061 -0.28621450290334632 0 0.4915669900217115 -0.25615479242606781 0 0.46965781089888248 -0.25846873400162218 0 0.4915669900217115 -0.25615479242606781 0 0.47387431588802909 -0.25499376211151131 0 0.46965781089888248 -0.25846873400162218 0 0.4915669900217115 -0.25615479242606781 0 0.47954864786353962 -0.26301133191085868 0 0.46965781089888248 -0.25846873400162218 0 0.47416229901770612 -0.26612875971404459 0 0.47954864786353962 -0.26301133191085868 0 0.46965781089888248 -0.25846873400162218 0 0.47416229901770612 -0.26612875971404459 0 0.46965781089888248 -0.25846873400162218 0 0.46319689217890331 -0.26835660325056299 0 0.46965781089888248 -0.25846873400162218 0 0.46319689217890331 -0.26835660325056299 0 0.4477486317760534 -0.26078267557717671 0 0.44856132313442931 -0.24393079079591279 0 0.47387431588802909 -0.25499376211151131 0 0.4477486317760534 -0.26078267557717671 0 0.47387431588802909 -0.25499376211151131 0 0.4477486317760534 -0.26078267557717671 0 0.46965781089888248 -0.25846873400162218 0 0.4477486317760534 -0.26078267557717671 0 0.47387431588802909 -0.25499376211151131 0 0.46965781089888248 -0.25846873400162218 0 0.4477486317760534 -0.26078267557717671 0 0.47052118473631321 -0.27447720361836658 0 0.45389453446556111 -0.28192564334160541 0 0.47474596181800061 -0.28621450290334632 0 0.47052118473631321 -0.27447720361836658 0 0.46319689217890331 -0.26835660325056299 0 0.45389453446556111 -0.28192564334160541 0 0.46319689217890331 -0.26835660325056299 0 0.4477486317760534 -0.26078267557717671 0 0.45389453446556111 -0.28192564334160541 0 0.45389453446556111 -0.28192564334160541 0 0.430823863629894 -0.26453285558412298 0 0.45389453446556111 -0.28192564334160541 0 0.430823863629894 -0.26453285558412298 0 0.43570592202634773 -0.28205449164250063 0 0.4477486317760534 -0.26078267557717671 0 0.45389453446556111 -0.28192564334160541 0 0.430823863629894 -0.26453285558412298 0 0.4477486317760534 -0.26078267557717671 0 0.42854038242645709 -0.26281135800815408 0 0.44856132313442931 -0.24393079079591279 0 0.4477486317760534 -0.26078267557717671 0 0.4372088962240912 -0.25169219704383999 0 0.4477486317760534 -0.26078267557717671 0 0.42854038242645709 -0.26281135800815408 0 0.4372088962240912 -0.25169219704383999 0 0.4477486317760534 -0.26078267557717671 0 0.430823863629894 -0.26453285558412298 0 0.44815314542162782 -0.30273998798419938 0 0.44271266904340639 -0.31513600928105973 0 0.43092107089682352 -0.30573631325696571 0 0.44815314542162782 -0.30273998798419938 0 0.43874415768382158 -0.29310671547163403 0 0.43092107089682352 -0.30573631325696571 0 0.43874415768382158 -0.29310671547163403 0 0.45389453446556111 -0.28192564334160541 0 0.43570592202634773 -0.28205449164250063 0 0.44815314542162782 -0.30273998798419938 0 0.43874415768382158 -0.29310671547163403 0 0.45389453446556111 -0.28192564334160541 0 0.45389453446556111 -0.28192564334160541 0 0.46668010371271101 -0.29937682325086112 0 0.47474596181800061 -0.28621450290334632 0 0.44815314542162782 -0.30273998798419938 0 0.45389453446556111 -0.28192564334160541 0 0.46668010371271101 -0.29937682325086112 0 0.46668010371271101 -0.29937682325086112 0 0.45907432653114449 -0.32014896664993769 0 0.44815314542162782 -0.30273998798419938 0 0.46668010371271101 -0.29937682325086112 0 0.45907432653114449 -0.32014896664993769 0 0.46668010371271101 -0.29937682325086112 0 0.48375110351916628 -0.30725513966339157 0 0.45907432653114449 -0.32014896664993769 0 0.46668010371271101 -0.29937682325086112 0 0.48375110351916628 -0.30725513966339157 0 0.47474596181800061 -0.28621450290334632 0 0.48375110351916628 -0.30725513966339157 0 0.47474596181800061 -0.28621450290334632 0 0.48951500520952212 -0.28458010338455908 0 0.48375110351916628 -0.30725513966339157 0 0.5 -0.29421060517692271 0 0.48951500520952212 -0.28458010338455908 0 0.5 -0.27170772691138367 0 0.5 -0.29421060517692271 0 0.48951500520952212 -0.28458010338455908 0 0.48375110351916628 -0.30725513966339157 0 0.5 -0.29421060517692271 0 0.49999999999999972 -0.31671348344246159 0 0.48375110351916628 -0.30725513966339157 0 0.49999999999999972 -0.31671348344246159 0 0.48658745812515303 -0.32591538654610069 0 0.49999999999999972 -0.31671348344246159 0 0.49107839048707969 -0.33844651150006611 0 0.49999999999999972 -0.31671348344246159 0 0.48658745812515303 -0.32591538654610069 0 0.49107839048707969 -0.33844651150006611 0 0.49999999999999972 -0.31671348344246159 0 0.5 -0.34354646621870782 0 0.49107839048707969 -0.33844651150006611 0 0.48658745812515303 -0.32591538654610069 0 0.49107839048707969 -0.33844651150006611 0 0.48013111160135669 -0.33592777501669763 0 0.48658745812515303 -0.32591538654610069 0 0.48013111160135669 -0.33592777501669763 0 0.47588582758327369 -0.32632043512378739 0 0.48013111160135669 -0.33592777501669763 0 0.46883970942210401 -0.33989811375075968 0 0.47588582758327369 -0.32632043512378739 0 0.48375110351916628 -0.30725513966339157 0 0.48658745812515303 -0.32591538654610069 0 0.47588582758327369 -0.32632043512378739 0 0.48375110351916628 -0.30725513966339157 0 0.47588582758327369 -0.32632043512378739 0 0.45907432653114449 -0.32014896664993769 0 0.5 -0.37037944899495368 0 0.48466784746851571 -0.3739080713738358 0 0.48215678097416009 -0.36017953955767068 0 0.5 -0.34354646621870782 0 0.49107839048707969 -0.33844651150006611 0 0.48215678097416009 -0.36017953955767068 0 0.49107839048707969 -0.33844651150006611 0 0.48013111160135669 -0.33592777501669763 0 0.48215678097416009 -0.36017953955767068 0 0.5 -0.34354646621870782 0 0.5 -0.37037944899495368 0 0.48215678097416009 -0.36017953955767068 0 0.49107839048707969 -0.33844651150006611 0 0.48215678097416009 -0.36017953955767068 0 0.48013111160135669 -0.33592777501669763 0 0.46883970942210401 -0.33989811375075968 0 0.48215678097416009 -0.36017953955767068 0 0.46883970942210401 -0.33989811375075968 0 0.48215678097416009 -0.36017953955767068 0 0.46166172922915721 -0.35810144835948332 0 0.48215678097416009 -0.36017953955767068 0 0.47323517146124039 -0.38191256761527542 0 0.48215678097416009 -0.36017953955767068 0 0.4671179630262795 -0.37324494563770522 0 0.47323517146124039 -0.38191256761527542 0 0.48466784746851571 -0.3739080713738358 0 0.48215678097416009 -0.36017953955767068 0 0.47323517146124039 -0.38191256761527542 0 0.48215678097416009 -0.36017953955767068 0 0.4671179630262795 -0.37324494563770522 0 0.46166172922915721 -0.35810144835948332 0 0.45652460043480969 -0.37267172771365881 0 0.46166172922915721 -0.35810144835948332 0 0.44386277216801179 -0.36169325344809122 0 0.45652460043480969 -0.37267172771365881 0 0.4671179630262795 -0.37324494563770522 0 0.46166172922915721 -0.35810144835948332 0 0.46883970942210401 -0.33989811375075968 0 0.46166172922915721 -0.35810144835948332 0 0.45146854934957792 -0.34092111004901438 0 0.43963091224731599 -0.34751792105314822 0 0.44386277216801179 -0.36169325344809122 0 0.45146854934957792 -0.34092111004901438 0 0.44386277216801179 -0.36169325344809122 0 0.45146854934957792 -0.34092111004901438 0 0.46166172922915721 -0.35810144835948332 0 0.44386277216801179 -0.36169325344809122 0 0.45146854934957792 -0.34092111004901438 0 0.44386277216801179 -0.36169325344809122 0 0.43376943787959182 -0.36708850497004442 0 0.43808065797110041 -0.37748478958974491 0 0.45652460043480969 -0.37267172771365881 0 0.44386277216801179 -0.36169325344809122 0 0.44783900322824399 -0.38008781189722518 0 0.44386277216801179 -0.36169325344809122 0 0.43808065797110041 -0.37748478958974491 0 0.44386277216801179 -0.36169325344809122 0 0.43808065797110041 -0.37748478958974491 0 0.44783900322824399 -0.38008781189722518 0 0.45652460043480969 -0.37267172771365881 0 0.44386277216801179 -0.36169325344809122 0 0.46883970942210401 -0.33989811375075968 0 0.45907432653114449 -0.32014896664993769 0 0.45146854934957792 -0.34092111004901438 0 0.45907432653114449 -0.32014896664993769 0 0.45146854934957792 -0.34092111004901438 0 0.46883970942210401 -0.33989811375075968 0 0.47588582758327369 -0.32632043512378739 0 0.45907432653114449 -0.32014896664993769 0 0.43963091224731599 -0.34751792105314822 0 0.45146854934957792 -0.34092111004901438 0 0.43565299676263758 -0.3352386806192425 0 0.45146854934957792 -0.34092111004901438 0 0.44493724809618768 -0.32603283426431229 0 0.43565299676263758 -0.3352386806192425 0 0.45907432653114449 -0.32014896664993769 0 0.45146854934957792 -0.34092111004901438 0 0.44493724809618768 -0.32603283426431229 0 0.45907432653114449 -0.32014896664993769 0 0.44493724809618768 -0.32603283426431229 0 0.44271266904340639 -0.31513600928105973 0 0.44493724809618768 -0.32603283426431229 0 0.44271266904340639 -0.31513600928105973 0 0.43047755427124879 -0.32102194424988317 0 0.44815314542162782 -0.30273998798419938 0 0.45907432653114449 -0.32014896664993769 0 0.44271266904340639 -0.31513600928105973 0 0.44271266904340639 -0.31513600928105973 0 0.43047755427124879 -0.32102194424988317 0 0.43092107089682352 -0.30573631325696571 0 0.43047755427124879 -0.32102194424988317 0 0.41919911313656122 -0.31385112706466711 0 0.41739686236043672 -0.32199345155319897 0 0.43047755427124879 -0.32102194424988317 0 0.41919911313656122 -0.31385112706466711 0 0.43092107089682352 -0.30573631325696571 0 0.43047755427124879 -0.32102194424988317 0 0.42053718701310799 -0.32957674384091618 0 0.41739686236043672 -0.32199345155319897 0 0.44493724809618768 -0.32603283426431229 0 0.43047755427124879 -0.32102194424988317 0 0.43565299676263758 -0.3352386806192425 0 0.43565299676263758 -0.3352386806192425 0 0.42053718701310799 -0.32957674384091618 0 0.4250793590774925 -0.34540704162396091 0 0.43963091224731599 -0.34751792105314822 0 0.43565299676263758 -0.3352386806192425 0 0.4250793590774925 -0.34540704162396091 0 0.43047755427124879 -0.32102194424988317 0 0.43565299676263758 -0.3352386806192425 0 0.42053718701310799 -0.32957674384091618 0 0.4062959459869725 -0.32912082979983148 0 0.4250793590774925 -0.34540704162396091 0 0.41055923831377589 -0.34398547157316572 0 0.42053718701310799 -0.32957674384091618 0 0.4062959459869725 -0.32912082979983148 0 0.4250793590774925 -0.34540704162396091 0 0.4062959459869725 -0.32912082979983148 0 0.4250793590774925 -0.34540704162396091 0 0.42053718701310799 -0.32957674384091618 0 0.4062959459869725 -0.32912082979983148 0 0.40802480504278882 -0.32457497099322458 0 0.4062959459869725 -0.32912082979983148 0 0.40802480504278882 -0.32457497099322458 0 0.4062959459869725 -0.32912082979983148 0 0.40802480504278882 -0.32457497099322458 0 0.40572459905769331 -0.31910551143285631 0 0.40802480504278882 -0.32457497099322458 0 0.4119015194344513 -0.31818912214386269 0 0.41739686236043672 -0.32199345155319897 0 0.40802480504278882 -0.32457497099322458 0 0.4119015194344513 -0.31818912214386269 0 0.40572459905769331 -0.31910551143285631 0 0.4119015194344513 -0.31818912214386269 0 0.41919911313656122 -0.31385112706466711 0 0.40916221757477672 -0.31142054967536659 0 0.4119015194344513 -0.31818912214386269 0 0.40572459905769331 -0.31910551143285631 0 0.40916221757477672 -0.31142054967536659 0 0.4119015194344513 -0.31818912214386269 0 0.41919911313656122 -0.31385112706466711 0 0.41739686236043672 -0.32199345155319897 0 0.42053718701310799 -0.32957674384091618 0 0.40802480504278882 -0.32457497099322458 0 0.41739686236043672 -0.32199345155319897 0 0.44386277216801179 -0.36169325344809122 0 0.43376943787959182 -0.36708850497004442 0 0.42728564025893462 -0.35958684797927032 0 0.42489657602010461 -0.37065940299189432 0 0.43376943787959182 -0.36708850497004442 0 0.43808065797110041 -0.37748478958974491 0 0.42489657602010461 -0.37065940299189432 0 0.43376943787959182 -0.36708850497004442 0 0.42728564025893462 -0.35958684797927032 0 0.44386277216801179 -0.36169325344809122 0 0.4250793590774925 -0.34540704162396091 0 0.43963091224731599 -0.34751792105314822 0 0.44386277216801179 -0.36169325344809122 0 0.4250793590774925 -0.34540704162396091 0 0.44386277216801179 -0.36169325344809122 0 0.42728564025893462 -0.35958684797927032 0 0.4250793590774925 -0.34540704162396091 0 0.42728564025893462 -0.35958684797927032 0 0.4250793590774925 -0.34540704162396091 0 0.41069622259092692 -0.35617360609135817 0 0.4250793590774925 -0.34540704162396091 0 0.41055923831377589 -0.34398547157316572 0 0.41069622259092692 -0.35617360609135817 0 0.41055923831377589 -0.34398547157316572 0 0.41069622259092692 -0.35617360609135817 0 0.40016542559971202 -0.34524040877751239 0 0.42489657602010461 -0.37065940299189432 0 0.42728564025893462 -0.35958684797927032 0 0.41069622259092692 -0.35617360609135817 0 0.42489657602010461 -0.37065940299189432 0 0.41069622259092692 -0.35617360609135817 0 0.4070765621089808 -0.37107032214525337 0 0.42489657602010461 -0.37065940299189432 0 0.41069622259092692 -0.35617360609135817 0 0.39585190457779329 -0.37201308858561799 0 0.3940349052124521 -0.36135998775519362 0 0.38601585554704992 -0.38244526212700758 0 0.41069622259092692 -0.35617360609135817 0 0.4070765621089808 -0.37107032214525337 0 0.3940349052124521 -0.36135998775519362 0 0.4070765621089808 -0.37107032214525337 0 0.39585190457779329 -0.37201308858561799 0 0.3940349052124521 -0.36135998775519362 0 0.39585190457779329 -0.37201308858561799 0 0.3940349052124521 -0.36135998775519362 0 0.3940349052124521 -0.36135998775519362 0 0.40016542559971202 -0.34524040877751239 0 0.38974443050024338 -0.33620485529262373 0 0.3940349052124521 -0.36135998775519362 0 0.38974443050024338 -0.33620485529262373 0 0.3940349052124521 -0.36135998775519362 0 0.40016542559971202 -0.34524040877751239 0 0.41069622259092692 -0.35617360609135817 0 0.3940349052124521 -0.36135998775519362 0 0.40016542559971202 -0.34524040877751239 0 0.3940349052124521 -0.36135998775519362 0 0.38974443050024338 -0.33620485529262373 0 0.37368731816096312 -0.34897020548070451 0 0.3940349052124521 -0.36135998775519362 0 0.38601585554704992 -0.38244526212700758 0 0.3940349052124521 -0.36135998775519362 0 0.38601585554704992 -0.38244526212700758 0 0.3689120952668708 -0.37284951495870189 0 0.3940349052124521 -0.36135998775519362 0 0.3689120952668708 -0.37284951495870189 0 0.37368731816096312 -0.34897020548070451 0 0.4062959459869725 -0.32912082979983148 0 0.40572459905769331 -0.31910551143285631 0 0.39816778062817881 -0.31191488097197773 0 0.4062959459869725 -0.32912082979983148 0 0.38974443050024338 -0.33620485529262373 0 0.38545395578803499 -0.31104972283005378 0 0.4062959459869725 -0.32912082979983148 0 0.38545395578803499 -0.31104972283005378 0 0.4062959459869725 -0.32912082979983148 0 0.38545395578803499 -0.31104972283005378 0 0.39816778062817881 -0.31191488097197773 0 0.40572459905769331 -0.31910551143285631 0 0.39816778062817881 -0.31191488097197773 0 0.40916221757477672 -0.31142054967536659 0 0.4062959459869725 -0.32912082979983148 0 0.40016542559971202 -0.34524040877751239 0 0.38974443050024338 -0.33620485529262373 0 0.4062959459869725 -0.32912082979983148 0 0.40016542559971202 -0.34524040877751239 0 0.4062959459869725 -0.32912082979983148 0 0.41055923831377589 -0.34398547157316572 0 0.40016542559971202 -0.34524040877751239 0 0.38974443050024338 -0.33620485529262373 0 0.36945761595668469 -0.32738841673247931 0 0.37368731816096312 -0.34897020548070451 0 0.38974443050024338 -0.33620485529262373 0 0.38545395578803499 -0.31104972283005378 0 0.36945761595668469 -0.32738841673247931 0 0.38974443050024338 -0.33620485529262373 0 0.38545395578803499 -0.31104972283005378 0 0.38545395578803499 -0.31104972283005378 0 0.38245755150739558 -0.29348174920317632 0 0.37101427446782781 -0.29852975601036341 0 0.38545395578803499 -0.31104972283005378 0 0.38245755150739558 -0.29348174920317632 0 0.38545395578803499 -0.31104972283005378 0 0.37101427446782781 -0.29852975601036341 0 0.38545395578803499 -0.31104972283005378 0 0.39567659353887108 -0.29306988619604551 0 0.38245755150739558 -0.29348174920317632 0 0.39816778062817881 -0.31191488097197773 0 0.40563314249086863 -0.30155395497769039 0 0.39567659353887108 -0.29306988619604551 0 0.38545395578803499 -0.31104972283005378 0 0.39816778062817881 -0.31191488097197773 0 0.39567659353887108 -0.29306988619604551 0 0.39816778062817881 -0.31191488097197773 0 0.40563314249086863 -0.30155395497769039 0 0.40916221757477672 -0.31142054967536659 0 0.39567659353887108 -0.29306988619604551 0 0.40514250542832608 -0.27022331558021301 0 0.41160024963212011 -0.28933460066763711 0 0.40563314249086863 -0.30155395497769039 0 0.39567659353887108 -0.29306988619604551 0 0.41160024963212011 -0.28933460066763711 0 0.38245755150739558 -0.29348174920317632 0 0.37946114722675722 -0.27591377557629859 0 0.39567659353887108 -0.29306988619604551 0 0.38245755150739558 -0.29348174920317632 0 0.37946114722675722 -0.27591377557629859 0 0.38245755150739558 -0.29348174920317632 0 0.37795999762798671 -0.28395322059410122 0 0.37946114722675722 -0.27591377557629859 0 0.37519981906117678 -0.29055939022370142 0 0.38245755150739558 -0.29348174920317632 0 0.37101427446782781 -0.29852975601036341 0 0.37519981906117678 -0.29055939022370142 0 0.38245755150739558 -0.29348174920317632 0 0.37795999762798671 -0.28395322059410122 0 0.37795999762798671 -0.28395322059410122 0 0.37946114722675722 -0.27591377557629859 0 0.37739853904771847 -0.27637080706343392 0 0.37739853904771847 -0.27637080706343392 0 0.37683953433427181 -0.26882153263446662 0 0.37273728942595791 -0.27740364396778311 0 0.37795999762798671 -0.28395322059410122 0 0.37739853904771847 -0.27637080706343392 0 0.37273728942595791 -0.27740364396778311 0 0.37946114722675722 -0.27591377557629859 0 0.38774772661347989 -0.26664574742688191 0 0.3964002279028962 -0.26984905957103239 0 0.37946114722675722 -0.27591377557629859 0 0.3964002279028962 -0.26984905957103239 0 0.37795999762798671 -0.28395322059410122 0 0.37739853904771847 -0.27637080706343392 0 0.37739853904771847 -0.27637080706343392 0 0.37273728942595791 -0.27740364396778311 0 0.37946114722675722 -0.27591377557629859 0 0.37739853904771847 -0.27637080706343392 0 0.37683953433427181 -0.26882153263446662 0 0.37946114722675722 -0.27591377557629859 0 0.37739853904771847 -0.27637080706343392 0 0.37946114722675722 -0.27591377557629859 0 0.37843581040967561 -0.26746760801825881 0 0.38284686623937531 -0.26497045393317709 0 0.37946114722675722 -0.27591377557629859 0 0.37683953433427181 -0.26882153263446662 0 0.37843581040967561 -0.26746760801825881 0 0.37739853904771847 -0.27637080706343392 0 0.37683953433427181 -0.26882153263446662 0 0.37683953433427181 -0.26882153263446662 0 0.37843581040967561 -0.26746760801825881 0 0.37946114722675722 -0.27591377557629859 0 0.38774772661347989 -0.26664574742688191 0 0.38284686623937531 -0.26497045393317709 0 0.37477580018058132 -0.24095111383496479 0 0.37683953433427181 -0.26882153263446662 0 0.38107906364546162 -0.25934379353391329 0 0.37477580018058132 -0.24095111383496479 0 0.37683953433427181 -0.26882153263446662 0 0.37477580018058132 -0.24095111383496479 0 0.38107906364546162 -0.25934379353391329 0 0.38725375881062551 -0.25185160038302579 0 0.37843581040967561 -0.26746760801825881 0 0.38107906364546162 -0.25934379353391329 0 0.38284686623937531 -0.26497045393317709 0 0.37683953433427181 -0.26882153263446662 0 0.37843581040967561 -0.26746760801825881 0 0.38107906364546162 -0.25934379353391329 0 0.38107906364546162 -0.25934379353391329 0 0.38632261189823958 -0.26200045239958702 0 0.38284686623937531 -0.26497045393317709 0 0.38774772661347989 -0.26664574742688191 0 0.38632261189823958 -0.26200045239958702 0 0.38284686623937531 -0.26497045393317709 0 0.38774772661347989 -0.26664574742688191 0 0.38955528694719099 -0.2630172622662057 0 0.39295554709344072 -0.26445586107842978 0 0.38774772661347989 -0.26664574742688191 0 0.38632261189823958 -0.26200045239958702 0 0.38955528694719099 -0.2630172622662057 0 0.38632261189823958 -0.26200045239958702 0 0.38955528694719099 -0.2630172622662057 0 0.39119526218360401 -0.25896698815992442 0 0.38632261189823958 -0.26200045239958702 0 0.38725375881062551 -0.25185160038302579 0 0.39119526218360401 -0.25896698815992442 0 0.38107906364546162 -0.25934379353391329 0 0.38632261189823958 -0.26200045239958702 0 0.38725375881062551 -0.25185160038302579 0 0.40314688718896508 -0.2619981766022052 0 0.39707581272688741 -0.26613449373937459 0 0.41345304600685079 -0.26440480953867462 0 0.39707581272688741 -0.26613449373937459 0 0.41345304600685079 -0.26440480953867462 0 0.38725375881062551 -0.25185160038302579 0 0.39640803358832022 -0.25154779433757402 0 0.39119526218360401 -0.25896698815992442 0 0.39640803358832022 -0.25154779433757402 0 0.39702034872720737 -0.26014738253762237 0 0.39119526218360401 -0.25896698815992442 0 0.39702034872720737 -0.26014738253762237 0 0.39119526218360401 -0.25896698815992442 0 0.39295554709344072 -0.26445586107842978 0 0.38955528694719099 -0.2630172622662057 0 0.39119526218360401 -0.25896698815992442 0 0.39295554709344072 -0.26445586107842978 0 0.39702034872720737 -0.26014738253762237 0 0.39295554709344072 -0.26445586107842978 0 0.39707581272688741 -0.26613449373937459 0 0.39702034872720737 -0.26014738253762237 0 0.40314688718896508 -0.2619981766022052 0 0.39707581272688741 -0.26613449373937459 0 0.40314688718896508 -0.2619981766022052 0 0.40257909468765629 -0.25704117102420471 0 0.40998094690083942 -0.2590606397541646 0 0.39702034872720737 -0.26014738253762237 0 0.40314688718896508 -0.2619981766022052 0 0.40257909468765629 -0.25704117102420471 0 0.39640803358832022 -0.25154779433757402 0 0.39702034872720737 -0.26014738253762237 0 0.40257909468765629 -0.25704117102420471 0 0.41087794879613182 -0.2494957955088617 0 0.39640803358832022 -0.25154779433757402 0 0.40257909468765629 -0.25704117102420471 0 0.40514250542832608 -0.27022331558021301 0 0.3964002279028962 -0.26984905957103239 0 0.41345304600685079 -0.26440480953867462 0 0.37946114722675722 -0.27591377557629859 0 0.40514250542832608 -0.27022331558021301 0 0.3964002279028962 -0.26984905957103239 0 0.39707581272688741 -0.26613449373937459 0 0.3964002279028962 -0.26984905957103239 0 0.41345304600685079 -0.26440480953867462 0 0.37946114722675722 -0.27591377557629859 0 0.40514250542832608 -0.27022331558021301 0 0.3964002279028962 -0.26984905957103239 0 0.41345304600685079 -0.26440480953867462 0 0.39567659353887108 -0.29306988619604551 0 0.37946114722675722 -0.27591377557629859 0 0.40514250542832608 -0.27022331558021301 0 0.38774772661347989 -0.26664574742688191 0 0.39295554709344072 -0.26445586107842978 0 0.3964002279028962 -0.26984905957103239 0 0.39295554709344072 -0.26445586107842978 0 0.39707581272688741 -0.26613449373937459 0 0.3964002279028962 -0.26984905957103239 0 0.40514250542832608 -0.27022331558021301 0 0.41345304600685079 -0.26440480953867462 0 0.430823863629894 -0.26453285558412298 0 0.40514250542832608 -0.27022331558021301 0 0.430823863629894 -0.26453285558412298 0 0.40514250542832608 -0.27022331558021301 0 0.42166373126508722 -0.27984448092147479 0 0.41160024963212011 -0.28933460066763711 0 0.40514250542832608 -0.27022331558021301 0 0.42166373126508722 -0.27984448092147479 0 0.430823863629894 -0.26453285558412298 0 0.41087794879613182 -0.2494957955088617 0 0.41984775782459283 -0.2623632460968765 0 0.42854038242645709 -0.26281135800815408 0 0.41087794879613182 -0.2494957955088617 0 0.42854038242645709 -0.26281135800815408 0 0.41087794879613182 -0.2494957955088617 0 0.40257909468765629 -0.25704117102420471 0 0.40998094690083942 -0.2590606397541646 0 0.41087794879613182 -0.2494957955088617 0 0.40998094690083942 -0.2590606397541646 0 0.41984775782459283 -0.2623632460968765 0 0.40314688718896508 -0.2619981766022052 0 0.40998094690083942 -0.2590606397541646 0 0.41345304600685079 -0.26440480953867462 0 0.41345304600685079 -0.26440480953867462 0 0.41984775782459283 -0.2623632460968765 0 0.42854038242645709 -0.26281135800815408 0 0.40998094690083942 -0.2590606397541646 0 0.41345304600685079 -0.26440480953867462 0 0.41984775782459283 -0.2623632460968765 0 0.41345304600685079 -0.26440480953867462 0 0.42854038242645709 -0.26281135800815408 0 0.41345304600685079 -0.26440480953867462 0 0.41984775782459283 -0.2623632460968765 0 0.42656562700980838 -0.24831468624349931 0 0.41087794879613182 -0.2494957955088617 0 0.42854038242645709 -0.26281135800815408 0 0.4477486317760534 -0.26078267557717671 0 0.42854038242645709 -0.26281135800815408 0 0.430823863629894 -0.26453285558412298 0 0.41345304600685079 -0.26440480953867462 0 0.42854038242645709 -0.26281135800815408 0 0.430823863629894 -0.26453285558412298 0 0.42854038242645709 -0.26281135800815408 0 0.430823863629894 -0.26453285558412298 0 0.42656562700980838 -0.24831468624349931 0 0.42854038242645709 -0.26281135800815408 0 0.4372088962240912 -0.25169219704383999 0 0.42166373126508722 -0.27984448092147479 0 0.430823863629894 -0.26453285558412298 0 0.43570592202634773 -0.28205449164250063 0 0.42166373126508722 -0.27984448092147479 0 0.43570592202634773 -0.28205449164250063 0 0.42504611560874761 -0.29307714113289868 0 0.43874415768382158 -0.29310671547163403 0 0.43570592202634773 -0.28205449164250063 0 0.42504611560874761 -0.29307714113289868 0 0.43874415768382158 -0.29310671547163403 0 0.42504611560874761 -0.29307714113289868 0 0.43092107089682352 -0.30573631325696571 0 0.41919911313656122 -0.31385112706466711 0 0.43092107089682352 -0.30573631325696571 0 0.41692698488998292 -0.30249561446253759 0 0.42504611560874761 -0.29307714113289868 0 0.43092107089682352 -0.30573631325696571 0 0.41692698488998292 -0.30249561446253759 0 0.41919911313656122 -0.31385112706466711 0 0.41692698488998292 -0.30249561446253759 0 0.40916221757477672 -0.31142054967536659 0 0.40563314249086863 -0.30155395497769039 0 0.41692698488998292 -0.30249561446253759 0 0.40916221757477672 -0.31142054967536659 0 0.40563314249086863 -0.30155395497769039 0 0.41692698488998292 -0.30249561446253759 0 0.41160024963212011 -0.28933460066763711 0 0.42166373126508722 -0.27984448092147479 0 0.42504611560874761 -0.29307714113289868 0 0.41160024963212011 -0.28933460066763711 0 0.42504611560874761 -0.29307714113289868 0 0.41692698488998292 -0.30249561446253759 0 0.41160024963212011 -0.28933460066763711 0 0.5 -0.5 0 0.47532784176218862 -0.47257481327436679 0 0.43264288253940292 -0.48275234633568048 0 0.5 -0.5 0 0.41749257905485199 -0.50000000000000033 0 0.43264288253940292 -0.48275234633568048 0 0.47532784176218862 -0.47257481327436679 0 0.44779318602395363 -0.46550469267136052 0 0.43264288253940292 -0.48275234633568048 0 0.44779318602395363 -0.46550469267136052 0 0.43264288253940292 -0.48275234633568048 0 0.5 -0.5 0 0.47532784176218862 -0.47257481327436679 0 0.49999999999999828 -0.44642064777577001 0 0.47532784176218862 -0.47257481327436679 0 0.47918453573141367 -0.4495963838019249 0 0.46294348950850428 -0.44825703900704061 0 0.47532784176218862 -0.47257481327436679 0 0.49999999999999828 -0.44642064777577001 0 0.47918453573141367 -0.4495963838019249 0 0.49999999999999828 -0.44642064777577001 0 0.47846681165496419 -0.4311330351505217 0 0.49999999999999828 -0.44642064777577001 0 0.47918453573141367 -0.4495963838019249 0 0.47846681165496419 -0.4311330351505217 0 0.47918453573141367 -0.4495963838019249 0 0.46294348950850428 -0.44825703900704061 0 0.47846681165496419 -0.4311330351505217 0 0.46294348950850428 -0.44825703900704061 0 0.44442683605218691 -0.44583817528272968 0 0.45721208074107311 -0.43281318479414382 0 0.46294348950850428 -0.44825703900704061 0 0.44779318602395363 -0.46550469267136052 0 0.47532784176218862 -0.47257481327436679 0 0.46294348950850428 -0.44825703900704061 0 0.44779318602395363 -0.46550469267136052 0 0.44779318602395363 -0.46550469267136052 0 0.44442683605218691 -0.44583817528272968 0 0.43057418754349119 -0.46211781715143319 0 0.46294348950850428 -0.44825703900704061 0 0.44779318602395363 -0.46550469267136052 0 0.44442683605218691 -0.44583817528272968 0 0.44442683605218691 -0.44583817528272968 0 0.44324354583686831 -0.42153379012121539 0 0.45721208074107311 -0.43281318479414382 0 0.44442683605218691 -0.44583817528272968 0 0.44324354583686831 -0.42153379012121539 0 0.42653452723640378 -0.44279137365393179 0 0.44324354583686831 -0.42153379012121539 0 0.45693362330993059 -0.41584542252527262 0 0.45721208074107311 -0.43281318479414382 0 0.45693362330993059 -0.41584542252527262 0 0.4354004349648965 -0.40055780990002432 0 0.44324354583686831 -0.42153379012121539 0 0.45693362330993059 -0.41584542252527262 0 0.4354004349648965 -0.40055780990002432 0 0.45693362330993059 -0.41584542252527262 0 0.46461049463358839 -0.41117161714406408 0 0.47846681165496419 -0.4311330351505217 0 0.45693362330993059 -0.41584542252527262 0 0.46461049463358839 -0.41117161714406408 0 0.45329728287846061 -0.39963099679296588 0 0.46294348950850428 -0.44825703900704061 0 0.45721208074107311 -0.43281318479414382 0 0.47846681165496419 -0.4311330351505217 0 0.45693362330993059 -0.41584542252527262 0 0.45721208074107311 -0.43281318479414382 0 0.47846681165496419 -0.4311330351505217 0 0.45693362330993059 -0.41584542252527262 0 0.47846681165496419 -0.4311330351505217 0 0.49999999999999828 -0.44642064777577001 0 0.47846681165496419 -0.4311330351505217 0 0.5 -0.42181653977348488 0 0.5 -0.42181653977348488 0 0.48394518954555588 -0.41195106762427058 0 0.49999999999999789 -0.3972124317711998 0 0.47846681165496419 -0.4311330351505217 0 0.5 -0.42181653977348488 0 0.48394518954555588 -0.41195106762427058 0 0.46461049463358839 -0.41117161714406408 0 0.47846681165496419 -0.4311330351505217 0 0.48394518954555588 -0.41195106762427058 0 0.46461049463358839 -0.41117161714406408 0 0.48394518954555588 -0.41195106762427058 0 0.47664864143922919 -0.39842171428208217 0 0.47664864143922919 -0.39842171428208217 0 0.47975395238035062 -0.3854291032725421 0 0.46812846895096999 -0.38912968091376021 0 0.47664864143922919 -0.39842171428208217 0 0.49999999999999789 -0.3972124317711998 0 0.48779058149940679 -0.38751051868815611 0 0.48394518954555588 -0.41195106762427058 0 0.47664864143922919 -0.39842171428208217 0 0.49999999999999789 -0.3972124317711998 0 0.47664864143922919 -0.39842171428208217 0 0.49999999999999789 -0.3972124317711998 0 0.5 -0.37037944899495368 0 0.49999999999999789 -0.3972124317711998 0 0.48779058149940679 -0.38751051868815611 0 0.5 -0.37037944899495368 0 0.48466784746851571 -0.3739080713738358 0 0.48779058149940679 -0.38751051868815611 0 0.48466784746851571 -0.3739080713738358 0 0.47975395238035062 -0.3854291032725421 0 0.47323517146124039 -0.38191256761527542 0 0.48466784746851571 -0.3739080713738358 0 0.48779058149940679 -0.38751051868815611 0 0.47975395238035062 -0.3854291032725421 0 0.47664864143922919 -0.39842171428208217 0 0.48779058149940679 -0.38751051868815611 0 0.47975395238035062 -0.3854291032725421 0 0.47975395238035062 -0.3854291032725421 0 0.47323517146124039 -0.38191256761527542 0 0.46812846895096999 -0.38912968091376021 0 0.46918642870160698 -0.38365020197922722 0 0.47323517146124039 -0.38191256761527542 0 0.46812846895096999 -0.38912968091376021 0 0.4671179630262795 -0.37324494563770522 0 0.46918642870160698 -0.38365020197922722 0 0.47323517146124039 -0.38191256761527542 0 0.45652460043480969 -0.37267172771365881 0 0.4671179630262795 -0.37324494563770522 0 0.46918642870160698 -0.38365020197922722 0 0.45652460043480969 -0.37267172771365881 0 0.46918642870160698 -0.38365020197922722 0 0.45652460043480969 -0.37267172771365881 0 0.45606522570456098 -0.38599652494351028 0 0.44783900322824399 -0.38008781189722518 0 0.45652460043480969 -0.37267172771365881 0 0.46918642870160698 -0.38365020197922722 0 0.45606522570456098 -0.38599652494351028 0 0.46918642870160698 -0.38365020197922722 0 0.45606522570456098 -0.38599652494351028 0 0.46812846895096999 -0.38912968091376021 0 0.46461049463358839 -0.41117161714406408 0 0.47664864143922919 -0.39842171428208217 0 0.45329728287846061 -0.39963099679296588 0 0.47664864143922919 -0.39842171428208217 0 0.45329728287846061 -0.39963099679296588 0 0.47664864143922919 -0.39842171428208217 0 0.46812846895096999 -0.38912968091376021 0 0.45329728287846061 -0.39963099679296588 0 0.46461049463358839 -0.41117161714406408 0 0.45329728287846061 -0.39963099679296588 0 0.45606522570456098 -0.38599652494351028 0 0.46812846895096999 -0.38912968091376021 0 0.45329728287846061 -0.39963099679296588 0 0.45693362330993059 -0.41584542252527262 0 0.45329728287846061 -0.39963099679296588 0 0.4354004349648965 -0.40055780990002432 0 0.45329728287846061 -0.39963099679296588 0 0.4354004349648965 -0.40055780990002432 0 0.45329728287846061 -0.39963099679296588 0 0.4390969294492823 -0.3851451998924304 0 0.4354004349648965 -0.40055780990002432 0 0.45329728287846061 -0.39963099679296588 0 0.4390969294492823 -0.3851451998924304 0 0.45606522570456098 -0.38599652494351028 0 0.4390969294492823 -0.3851451998924304 0 0.44783900322824399 -0.38008781189722518 0 0.45606522570456098 -0.38599652494351028 0 0.45329728287846061 -0.39963099679296588 0 0.4390969294492823 -0.3851451998924304 0 0.4390969294492823 -0.3851451998924304 0 0.43808065797110041 -0.37748478958974491 0 0.44783900322824399 -0.38008781189722518 0 0.42782015831496062 -0.38505662608606978 0 0.4354004349648965 -0.40055780990002432 0 0.41188669282555868 -0.38386409155992901 0 0.42489657602010461 -0.37065940299189432 0 0.4390969294492823 -0.3851451998924304 0 0.42782015831496062 -0.38505662608606978 0 0.42489657602010461 -0.37065940299189432 0 0.4390969294492823 -0.3851451998924304 0 0.43808065797110041 -0.37748478958974491 0 0.42489657602010461 -0.37065940299189432 0 0.4390969294492823 -0.3851451998924304 0 0.4390969294492823 -0.3851451998924304 0 0.42782015831496062 -0.38505662608606978 0 0.4354004349648965 -0.40055780990002432 0 0.4354004349648965 -0.40055780990002432 0 0.41188669282555868 -0.38386409155992901 0 0.4354004349648965 -0.40055780990002432 0 0.40669862042327182 -0.40204417319942209 0 0.4354004349648965 -0.40055780990002432 0 0.40669862042327182 -0.40204417319942209 0 0.41188669282555868 -0.38386409155992901 0 0.42489657602010461 -0.37065940299189432 0 0.42782015831496062 -0.38505662608606978 0 0.41188669282555868 -0.38386409155992901 0 0.42489657602010461 -0.37065940299189432 0 0.4070765621089808 -0.37107032214525337 0 0.41188669282555868 -0.38386409155992901 0 0.4070765621089808 -0.37107032214525337 0 0.39585190457779329 -0.37201308858561799 0 0.39886607975096749 -0.38470810625682389 0 0.40669862042327182 -0.40204417319942209 0 0.41188669282555868 -0.38386409155992901 0 0.39886607975096749 -0.38470810625682389 0 0.4070765621089808 -0.37107032214525337 0 0.41188669282555868 -0.38386409155992901 0 0.39886607975096749 -0.38470810625682389 0 0.39585190457779329 -0.37201308858561799 0 0.39886607975096749 -0.38470810625682389 0 0.38601585554704992 -0.38244526212700758 0 0.39886607975096749 -0.38470810625682389 0 0.38601585554704992 -0.38244526212700758 0 0.37799680588164719 -0.40353053649882148 0 0.38601585554704992 -0.38244526212700758 0 0.37799680588164719 -0.40353053649882148 0 0.38601585554704992 -0.38244526212700758 0 0.37799680588164719 -0.40353053649882148 0 0.36816388811638329 -0.39545065246060412 0 0.37799680588164719 -0.40353053649882148 0 0.37635446215448021 -0.40784891206015261 0 0.37799680588164719 -0.40353053649882148 0 0.37505152225636262 -0.40368306209891941 0 0.37635446215448021 -0.40784891206015261 0 0.37799680588164719 -0.40353053649882148 0 0.37505152225636262 -0.40368306209891941 0 0.40669862042327182 -0.40204417319942209 0 0.39886607975096749 -0.38470810625682389 0 0.37799680588164719 -0.40353053649882148 0 0.40669862042327182 -0.40204417319942209 0 0.37799680588164719 -0.40353053649882148 0 0.40669862042327182 -0.40204417319942209 0 0.38553791301154328 -0.41840677215457472 0 0.40567792500840172 -0.4277251834563135 0 0.40669862042327182 -0.40204417319942209 0 0.37799680588164719 -0.40353053649882148 0 0.38553791301154328 -0.41840677215457472 0 0.38553791301154328 -0.41840677215457472 0 0.36905142820508552 -0.42917232846767789 0 0.37241381966677689 -0.417360225696081 0 0.38553791301154328 -0.41840677215457472 0 0.37635446215448021 -0.40784891206015261 0 0.37241381966677689 -0.417360225696081 0 0.37799680588164719 -0.40353053649882148 0 0.38553791301154328 -0.41840677215457472 0 0.37635446215448021 -0.40784891206015261 0 0.38553791301154328 -0.41840677215457472 0 0.38807715457860831 -0.4388905332329941 0 0.36905142820508552 -0.42917232846767789 0 0.38553791301154328 -0.41840677215457472 0 0.40567792500840172 -0.4277251834563135 0 0.38807715457860831 -0.4388905332329941 0 0.40567792500840172 -0.4277251834563135 0 0.42351101069396863 -0.41893046606618117 0 0.42653452723640378 -0.44279137365393179 0 0.4354004349648965 -0.40055780990002432 0 0.40669862042327182 -0.40204417319942209 0 0.42351101069396863 -0.41893046606618117 0 0.40669862042327182 -0.40204417319942209 0 0.40567792500840172 -0.4277251834563135 0 0.42351101069396863 -0.41893046606618117 0 0.44324354583686831 -0.42153379012121539 0 0.4354004349648965 -0.40055780990002432 0 0.42351101069396863 -0.41893046606618117 0 0.44324354583686831 -0.42153379012121539 0 0.42653452723640378 -0.44279137365393179 0 0.44324354583686831 -0.42153379012121539 0 0.42351101069396863 -0.41893046606618117 0 0.42653452723640378 -0.44279137365393179 0 0.44442683605218691 -0.44583817528272968 0 0.42653452723640378 -0.44279137365393179 0 0.43057418754349119 -0.46211781715143319 0 0.42653452723640378 -0.44279137365393179 0 0.43057418754349119 -0.46211781715143319 0 0.40982550863593931 -0.46404895718664829 0 0.42653452723640378 -0.44279137365393179 0 0.40982550863593931 -0.46404895718664829 0 0.42653452723640378 -0.44279137365393179 0 0.40982550863593931 -0.46404895718664829 0 0.4036378289262339 -0.44671034290208689 0 0.40567792500840172 -0.4277251834563135 0 0.42653452723640378 -0.44279137365393179 0 0.4036378289262339 -0.44671034290208689 0 0.40567792500840172 -0.4277251834563135 0 0.4036378289262339 -0.44671034290208689 0 0.38807715457860831 -0.4388905332329941 0 0.4036378289262339 -0.44671034290208689 0 0.38807715457860831 -0.4388905332329941 0 0.38807402917181633 -0.46009566698054732 0 0.38807715457860831 -0.4388905332329941 0 0.3733961412993268 -0.45022493016754961 0 0.36905142820508552 -0.42917232846767789 0 0.38807715457860831 -0.4388905332329941 0 0.38807402917181633 -0.46009566698054732 0 0.3733961412993268 -0.45022493016754961 0 0.38807402917181633 -0.46009566698054732 0 0.36593927904035028 -0.47432204071884282 0 0.3733961412993268 -0.45022493016754961 0 0.40982550863593931 -0.46404895718664829 0 0.4036378289262339 -0.44671034290208689 0 0.38807402917181633 -0.46009566698054732 0 0.40982550863593931 -0.46404895718664829 0 0.39311649003547477 -0.48530654071936469 0 0.40982550863593931 -0.46404895718664829 0 0.38807402917181633 -0.46009566698054732 0 0.39311649003547477 -0.48530654071936469 0 0.38807402917181633 -0.46009566698054732 0 0.39311649003547477 -0.48530654071936469 0 0.36593927904035028 -0.47432204071884282 0 0.37603974257992701 -0.49999999999999978 0 0.39311649003547477 -0.48530654071936469 0 0.36593927904035028 -0.47432204071884282 0 0.37603974257992701 -0.49999999999999978 0 0.39676616081738958 -0.5 0 0.39311649003547477 -0.48530654071936469 0 0.39676616081738958 -0.5 0 0.39311649003547477 -0.48530654071936469 0 0.41749257905485199 -0.50000000000000033 0 0.40982550863593931 -0.46404895718664829 0 0.41749257905485199 -0.50000000000000033 0 0.43264288253940292 -0.48275234633568048 0 0.40982550863593931 -0.46404895718664829 0 0.39311649003547477 -0.48530654071936469 0 0.41749257905485199 -0.50000000000000033 0 0.43057418754349119 -0.46211781715143319 0 0.40982550863593931 -0.46404895718664829 0 0.43264288253940292 -0.48275234633568048 0 0.44779318602395363 -0.46550469267136052 0 0.43057418754349119 -0.46211781715143319 0 0.43264288253940292 -0.48275234633568048 0 0.41749257905485199 -0.50000000000000033 0 0.43264288253940292 -0.48275234633568048 0 0.32215468257820618 -0.5 0 0.33760568703239408 -0.47417818032706111 0 0.31005432530219129 -0.48106067464861729 0 0.33760568703239408 -0.47417818032706111 0 0.3189449745883719 -0.46117016543644002 0 0.31005432530219129 -0.48106067464861729 0 0.32215468257820618 -0.5 0 0.33760568703239408 -0.47417818032706111 0 0.34909721257906662 -0.5 0 0.37603974257992701 -0.49999999999999978 0 0.34909721257906662 -0.5 0 0.36593927904035028 -0.47432204071884282 0 0.37603974257992701 -0.49999999999999978 0 0.36593927904035028 -0.47432204071884282 0 0.33760568703239408 -0.47417818032706111 0 0.34909721257906662 -0.5 0 0.36593927904035028 -0.47432204071884282 0 0.33760568703239408 -0.47417818032706111 0 0.36593927904035028 -0.47432204071884282 0 0.35583881550077368 -0.44864408143768569 0 0.36593927904035028 -0.47432204071884282 0 0.35583881550077368 -0.44864408143768569 0 0.36593927904035028 -0.47432204071884282 0 0.3733961412993268 -0.45022493016754961 0 0.35583881550077368 -0.44864408143768569 0 0.3733961412993268 -0.45022493016754961 0 0.35583881550077368 -0.44864408143768569 0 0.36905142820508552 -0.42917232846767789 0 0.35583881550077368 -0.44864408143768569 0 0.33540415989768779 -0.44905252560006492 0 0.34573835196119679 -0.42296612215652868 0 0.33760568703239408 -0.47417818032706111 0 0.35583881550077368 -0.44864408143768569 0 0.33540415989768779 -0.44905252560006492 0 0.33760568703239408 -0.47417818032706111 0 0.33540415989768779 -0.44905252560006492 0 0.3189449745883719 -0.46117016543644002 0 0.33540415989768779 -0.44905252560006492 0 0.3189449745883719 -0.46117016543644002 0 0.32126124445813709 -0.43429719032362252 0 0.3189449745883719 -0.46117016543644002 0 0.32126124445813709 -0.43429719032362252 0 0.30480654487456732 -0.44641521679941309 0 0.32126124445813709 -0.43429719032362252 0 0.3193156137706864 -0.40941365839269389 0 0.29937418247959258 -0.41817563384508599 0 0.3193156137706864 -0.40941365839269389 0 0.34573835196119679 -0.42296612215652868 0 0.33563788842162012 -0.39728816287537172 0 0.34573835196119679 -0.42296612215652868 0 0.33563788842162012 -0.39728816287537172 0 0.33540415989768779 -0.44905252560006492 0 0.32126124445813709 -0.43429719032362252 0 0.34573835196119679 -0.42296612215652868 0 0.32126124445813709 -0.43429719032362252 0 0.3193156137706864 -0.40941365839269389 0 0.34573835196119679 -0.42296612215652868 0 0.35583881550077368 -0.44864408143768569 0 0.34573835196119679 -0.42296612215652868 0 0.36905142820508552 -0.42917232846767789 0 0.35583881550077368 -0.44864408143768569 0 0.34573835196119679 -0.42296612215652868 0 0.36905142820508552 -0.42917232846767789 0 0.37241381966677689 -0.417360225696081 0 0.36195200988480669 -0.41065981681110758 0 0.36990343230398692 -0.40830781576793279 0 0.37241381966677689 -0.417360225696081 0 0.36195200988480669 -0.41065981681110758 0 0.37635446215448021 -0.40784891206015261 0 0.36990343230398692 -0.40830781576793279 0 0.37241381966677689 -0.417360225696081 0 0.37505152225636262 -0.40368306209891941 0 0.37635446215448021 -0.40784891206015261 0 0.36990343230398692 -0.40830781576793279 0 0.36990343230398692 -0.40830781576793279 0 0.36195200988480669 -0.41065981681110758 0 0.36876771314038492 -0.40452533678464098 0 0.34573835196119679 -0.42296612215652868 0 0.36195200988480669 -0.41065981681110758 0 0.35211107663302149 -0.40015425695529971 0 0.34573835196119679 -0.42296612215652868 0 0.36905142820508552 -0.42917232846767789 0 0.36195200988480669 -0.41065981681110758 0 0.34573835196119679 -0.42296612215652868 0 0.35211107663302149 -0.40015425695529971 0 0.33563788842162012 -0.39728816287537172 0 0.35211107663302149 -0.40015425695529971 0 0.35352794608594401 -0.38791341326287138 0 0.33563788842162012 -0.39728816287537172 0 0.35211107663302149 -0.40015425695529971 0 0.36816388811638329 -0.39545065246060412 0 0.35352794608594401 -0.38791341326287138 0 0.36195200988480669 -0.41065981681110758 0 0.36816388811638329 -0.39545065246060412 0 0.36876771314038492 -0.40452533678464098 0 0.36195200988480669 -0.41065981681110758 0 0.35211107663302149 -0.40015425695529971 0 0.36816388811638329 -0.39545065246060412 0 0.37505152225636262 -0.40368306209891941 0 0.36816388811638329 -0.39545065246060412 0 0.36876771314038492 -0.40452533678464098 0 0.37799680588164719 -0.40353053649882148 0 0.37505152225636262 -0.40368306209891941 0 0.36816388811638329 -0.39545065246060412 0 0.37505152225636262 -0.40368306209891941 0 0.36990343230398692 -0.40830781576793279 0 0.36876771314038492 -0.40452533678464098 0 0.38601585554704992 -0.38244526212700758 0 0.36816388811638329 -0.39545065246060412 0 0.3689120952668708 -0.37284951495870189 0 0.36816388811638329 -0.39545065246060412 0 0.35352794608594401 -0.38791341326287138 0 0.3689120952668708 -0.37284951495870189 0 0.35352794608594401 -0.38791341326287138 0 0.33563788842162012 -0.39728816287537172 0 0.34467783115022588 -0.37252705130409253 0 0.35352794608594401 -0.38791341326287138 0 0.3689120952668708 -0.37284951495870189 0 0.34467783115022588 -0.37252705130409253 0 0.33563788842162012 -0.39728816287537172 0 0.3255374248820434 -0.37161020359421471 0 0.33563788842162012 -0.39728816287537172 0 0.34467783115022588 -0.37252705130409253 0 0.3255374248820434 -0.37161020359421471 0 0.3193156137706864 -0.40941365839269389 0 0.33563788842162012 -0.39728816287537172 0 0.30534853388527528 -0.38930881101125692 0 0.33563788842162012 -0.39728816287537172 0 0.30534853388527528 -0.38930881101125692 0 0.3255374248820434 -0.37161020359421471 0 0.30534853388527528 -0.38930881101125692 0 0.3255374248820434 -0.37161020359421471 0 0.30525369772634148 -0.37164386163485291 0 0.30534853388527528 -0.38930881101125692 0 0.28783989868818821 -0.37644057584389279 0 0.30525369772634148 -0.37164386163485291 0 0.3193156137706864 -0.40941365839269389 0 0.30534853388527528 -0.38930881101125692 0 0.29937418247959258 -0.41817563384508599 0 0.30534853388527528 -0.38930881101125692 0 0.28922044672054198 -0.39637746652331562 0 0.29937418247959258 -0.41817563384508599 0 0.28922044672054198 -0.39637746652331562 0 0.27510086349567708 -0.39798721671617321 0 0.28320928432356041 -0.41012407252970262 0 0.28922044672054198 -0.39637746652331562 0 0.28783989868818821 -0.37644057584389279 0 0.27924907625512951 -0.38731579260330862 0 0.30534853388527528 -0.38930881101125692 0 0.28922044672054198 -0.39637746652331562 0 0.28783989868818821 -0.37644057584389279 0 0.30534853388527528 -0.38930881101125692 0 0.28783989868818821 -0.37644057584389279 0 0.28783989868818821 -0.37644057584389279 0 0.27447250226623809 -0.37821124143188289 0 0.27924907625512951 -0.38731579260330862 0 0.27447250226623809 -0.37821124143188289 0 0.27924907625512951 -0.38731579260330862 0 0.26961167010500181 -0.38756246250127813 0 0.27447250226623809 -0.37821124143188289 0 0.26961167010500181 -0.38756246250127813 0 0.26423397132697279 -0.37890457124200982 0 0.26961167010500181 -0.38756246250127813 0 0.26423397132697279 -0.37890457124200982 0 0.25687819372407023 -0.38903915957053298 0 0.26423397132697279 -0.37890457124200982 0 0.25687819372407023 -0.38903915957053298 0 0.24987622704845311 -0.37613765202982719 0 0.25108303853213881 -0.40002667887407228 0 0.26390234922262928 -0.39930308446362528 0 0.256136481120742 -0.41447562176841068 0 0.25687819372407023 -0.38903915957053298 0 0.25108303853213881 -0.40002667887407228 0 0.24309899287842279 -0.39271330151873202 0 0.25687819372407023 -0.38903915957053298 0 0.25108303853213881 -0.40002667887407228 0 0.26390234922262928 -0.39930308446362528 0 0.26961167010500181 -0.38756246250127813 0 0.25687819372407023 -0.38903915957053298 0 0.26390234922262928 -0.39930308446362528 0 0.26390234922262928 -0.39930308446362528 0 0.27510086349567708 -0.39798721671617321 0 0.2708804648698091 -0.41009655218672442 0 0.26961167010500181 -0.38756246250127813 0 0.26390234922262928 -0.39930308446362528 0 0.27510086349567708 -0.39798721671617321 0 0.28922044672054198 -0.39637746652331562 0 0.27924907625512951 -0.38731579260330862 0 0.27510086349567708 -0.39798721671617321 0 0.27924907625512951 -0.38731579260330862 0 0.26961167010500181 -0.38756246250127813 0 0.27510086349567708 -0.39798721671617321 0 0.27510086349567708 -0.39798721671617321 0 0.2708804648698091 -0.41009655218672442 0 0.28320928432356041 -0.41012407252970262 0 0.2708804648698091 -0.41009655218672442 0 0.256136481120742 -0.41447562176841068 0 0.27433621812851161 -0.42550461519375637 0 0.2708804648698091 -0.41009655218672442 0 0.27433621812851161 -0.42550461519375637 0 0.28320928432356041 -0.41012407252970262 0 0.26390234922262928 -0.39930308446362528 0 0.2708804648698091 -0.41009655218672442 0 0.256136481120742 -0.41447562176841068 0 0.25108303853213881 -0.40002667887407228 0 0.256136481120742 -0.41447562176841068 0 0.24629253832767661 -0.41022035877505542 0 0.256136481120742 -0.41447562176841068 0 0.25513396950241118 -0.43290986753561628 0 0.2453827316299185 -0.42192330194190181 0 0.256136481120742 -0.41447562176841068 0 0.25513396950241118 -0.43290986753561628 0 0.27433621812851161 -0.42550461519375637 0 0.25513396950241118 -0.43290986753561628 0 0.27433621812851161 -0.42550461519375637 0 0.26752346795397081 -0.44788636482661331 0 0.27433621812851161 -0.42550461519375637 0 0.29937418247959258 -0.41817563384508599 0 0.28546596250580908 -0.44246723239800262 0 0.29937418247959258 -0.41817563384508599 0 0.30480654487456732 -0.44641521679941309 0 0.28546596250580908 -0.44246723239800262 0 0.28922044672054198 -0.39637746652331562 0 0.28320928432356041 -0.41012407252970262 0 0.29937418247959258 -0.41817563384508599 0 0.27433621812851161 -0.42550461519375637 0 0.28320928432356041 -0.41012407252970262 0 0.29937418247959258 -0.41817563384508599 0 0.32126124445813709 -0.43429719032362252 0 0.29937418247959258 -0.41817563384508599 0 0.30480654487456732 -0.44641521679941309 0 0.3189449745883719 -0.46117016543644002 0 0.30480654487456732 -0.44641521679941309 0 0.28880919487484108 -0.4658549053918814 0 0.30480654487456732 -0.44641521679941309 0 0.28880919487484108 -0.4658549053918814 0 0.28546596250580908 -0.44246723239800262 0 0.27433621812851161 -0.42550461519375637 0 0.28546596250580908 -0.44246723239800262 0 0.26752346795397081 -0.44788636482661331 0 0.28880919487484108 -0.4658549053918814 0 0.28546596250580908 -0.44246723239800262 0 0.26752346795397081 -0.44788636482661331 0 0.25513396950241118 -0.43290986753561628 0 0.26752346795397081 -0.44788636482661331 0 0.24480843210435321 -0.45079661158300749 0 0.26752346795397081 -0.44788636482661331 0 0.2588368117714554 -0.46700690363883102 0 0.24480843210435321 -0.45079661158300749 0 0.28880919487484108 -0.4658549053918814 0 0.26752346795397081 -0.44788636482661331 0 0.2588368117714554 -0.46700690363883102 0 0.28880919487484108 -0.4658549053918814 0 0.2588368117714554 -0.46700690363883102 0 0.27227655507569209 -0.48076744006000099 0 0.2588368117714554 -0.46700690363883102 0 0.27227655507569209 -0.48076744006000099 0 0.25270961841775552 -0.48460016746525392 0 0.2588368117714554 -0.46700690363883102 0 0.25270961841775552 -0.48460016746525392 0 0.23949561189523169 -0.47426551941090739 0 0.25270961841775552 -0.48460016746525392 0 0.26826962257648529 -0.5 0 0.2413270925756249 -0.5 0 0.27227655507569209 -0.48076744006000099 0 0.25270961841775552 -0.48460016746525392 0 0.26826962257648529 -0.5 0 0.27227655507569209 -0.48076744006000099 0 0.26826962257648529 -0.5 0 0.29521215257734579 -0.5 0 0.28880919487484108 -0.4658549053918814 0 0.27227655507569209 -0.48076744006000099 0 0.29521215257734579 -0.5 0 0.28880919487484108 -0.4658549053918814 0 0.29521215257734579 -0.5 0 0.31005432530219129 -0.48106067464861729 0 0.3189449745883719 -0.46117016543644002 0 0.28880919487484108 -0.4658549053918814 0 0.31005432530219129 -0.48106067464861729 0 0.32215468257820618 -0.5 0 0.29521215257734579 -0.5 0 0.31005432530219129 -0.48106067464861729 0 0.33463237856908817 -0.28956894479377399 0 0.33485830675890288 -0.30442904333306592 0 0.35657459314761941 -0.2860097891906741 0 0.33463237856908817 -0.28956894479377399 0 0.32894302133540282 -0.28710755170783531 0 0.35195887039823659 -0.28200771363307098 0 0.32894302133540282 -0.28710755170783531 0 0.35195887039823659 -0.28200771363307098 0 0.32894302133540282 -0.28710755170783531 0 0.33255663915089151 -0.29722249741805129 0 0.33463237856908817 -0.28956894479377399 0 0.32894302133540282 -0.28710755170783531 0 0.33255663915089151 -0.29722249741805129 0 0.32894302133540282 -0.28710755170783531 0 0.33255663915089151 -0.29722249741805129 0 0.32301709761150521 -0.2972128627914089 0 0.33485830675890288 -0.30442904333306592 0 0.34824447571033601 -0.30253517369681238 0 0.34533870308018377 -0.31598934501886372 0 0.33485830675890288 -0.30442904333306592 0 0.33255663915089151 -0.29722249741805129 0 0.32434770264142349 -0.30499280498860082 0 0.33463237856908817 -0.28956894479377399 0 0.33485830675890288 -0.30442904333306592 0 0.33255663915089151 -0.29722249741805129 0 0.32301709761150521 -0.2972128627914089 0 0.32434770264142349 -0.30499280498860082 0 0.3171485971304504 -0.30589952111326829 0 0.32434770264142349 -0.30499280498860082 0 0.3171485971304504 -0.30589952111326829 0 0.31314202037018413 -0.32284829747545468 0 0.33485830675890288 -0.30442904333306592 0 0.32434770264142349 -0.30499280498860082 0 0.31314202037018413 -0.32284829747545468 0 0.33255663915089151 -0.29722249741805129 0 0.32301709761150521 -0.2972128627914089 0 0.32434770264142349 -0.30499280498860082 0 0.3171485971304504 -0.30589952111326829 0 0.31208952779935789 -0.2908419387292881 0 0.30833746379913463 -0.30503745501229762 0 0.32301709761150521 -0.2972128627914089 0 0.3171485971304504 -0.30589952111326829 0 0.31208952779935789 -0.2908419387292881 0 0.32894302133540282 -0.28710755170783531 0 0.31611371382327402 -0.28007222207304999 0 0.31208952779935789 -0.2908419387292881 0 0.32894302133540282 -0.28710755170783531 0 0.32301709761150521 -0.2972128627914089 0 0.31208952779935789 -0.2908419387292881 0 0.32894302133540282 -0.28710755170783531 0 0.31208952779935789 -0.2908419387292881 0 0.32894302133540282 -0.28710755170783531 0 0.32245882367699719 -0.26895751187574157 0 0.32894302133540282 -0.28710755170783531 0 0.31611371382327402 -0.28007222207304999 0 0.32245882367699719 -0.26895751187574157 0 0.31611371382327402 -0.28007222207304999 0 0.32245882367699719 -0.26895751187574157 0 0.30706455279928557 -0.27339796693147528 0 0.32245882367699719 -0.26895751187574157 0 0.30981211567343969 -0.26250129009931661 0 0.30706455279928557 -0.27339796693147528 0 0.32245882367699719 -0.26895751187574157 0 0.31597462601859122 -0.25080747204364812 0 0.32245882367699719 -0.26895751187574157 0 0.31597462601859122 -0.25080747204364812 0 0.30981211567343969 -0.26250129009931661 0 0.32245882367699719 -0.26895751187574157 0 0.31597462601859122 -0.25080747204364812 0 0.33396674820841349 -0.26640759283836002 0 0.31597462601859122 -0.25080747204364812 0 0.33396674820841349 -0.26640759283836002 0 0.33517615116993849 -0.24743488902137309 0 0.33396674820841349 -0.26640759283836002 0 0.35185333732921159 -0.25428502110151557 0 0.33517615116993849 -0.24743488902137309 0 0.31597462601859122 -0.25080747204364812 0 0.33396674820841349 -0.26640759283836002 0 0.32894302133540282 -0.28710755170783531 0 0.32245882367699719 -0.26895751187574157 0 0.33396674820841349 -0.26640759283836002 0 0.33396674820841349 -0.26640759283836002 0 0.35195887039823659 -0.28200771363307098 0 0.32894302133540282 -0.28710755170783531 0 0.33396674820841349 -0.26640759283836002 0 0.35195887039823659 -0.28200771363307098 0 0.33396674820841349 -0.26640759283836002 0 0.35159414215374007 -0.26901089914998932 0 0.35195887039823659 -0.28200771363307098 0 0.35159414215374007 -0.26901089914998932 0 0.36459381448795669 -0.2792080702757721 0 0.35195887039823659 -0.28200771363307098 0 0.36459381448795669 -0.2792080702757721 0 0.35195887039823659 -0.28200771363307098 0 0.33396674820841349 -0.26640759283836002 0 0.35159414215374007 -0.26901089914998932 0 0.35185333732921159 -0.25428502110151557 0 0.35159414215374007 -0.26901089914998932 0 0.35185333732921159 -0.25428502110151557 0 0.36435388824524378 -0.26651308148643732 0 0.37477580018058132 -0.24095111383496479 0 0.37683953433427181 -0.26882153263446662 0 0.36563983252638571 -0.25462703483095822 0 0.36075586336603621 -0.2426037127049111 0 0.35185333732921159 -0.25428502110151557 0 0.36563983252638571 -0.25462703483095822 0 0.35185333732921159 -0.25428502110151557 0 0.36563983252638571 -0.25462703483095822 0 0.36435388824524378 -0.26651308148643732 0 0.37683953433427181 -0.26882153263446662 0 0.36563983252638571 -0.25462703483095822 0 0.36435388824524378 -0.26651308148643732 0 0.36459381448795669 -0.2792080702757721 0 0.36308990924476459 -0.28048364807874221 0 0.35195887039823659 -0.28200771363307098 0 0.36459381448795669 -0.2792080702757721 0 0.36308990924476459 -0.28048364807874221 0 0.37273728942595791 -0.27740364396778311 0 0.36459381448795669 -0.2792080702757721 0 0.36308990924476459 -0.28048364807874221 0 0.35159414215374007 -0.26901089914998932 0 0.36459381448795669 -0.2792080702757721 0 0.36435388824524378 -0.26651308148643732 0 0.37683953433427181 -0.26882153263446662 0 0.36459381448795669 -0.2792080702757721 0 0.36435388824524378 -0.26651308148643732 0 0.36459381448795669 -0.2792080702757721 0 0.37273728942595791 -0.27740364396778311 0 0.37683953433427181 -0.26882153263446662 0 0.36459381448795669 -0.2792080702757721 0 0.37273728942595791 -0.27740364396778311 0 0.37683953433427181 -0.26882153263446662 0 0.36459381448795669 -0.2792080702757721 0 0.36308990924476459 -0.28048364807874221 0 0.37273728942595791 -0.27740364396778311 0 0.37795999762798671 -0.28395322059410122 0 0.37273728942595791 -0.27740364396778311 0 0.36936745264149701 -0.28627283508716472 0 0.35657459314761941 -0.2860097891906741 0 0.35620629985463748 -0.30371251724464648 0 0.37101427446782781 -0.29852975601036341 0 0.36308990924476459 -0.28048364807874221 0 0.37273728942595791 -0.27740364396778311 0 0.36936745264149701 -0.28627283508716472 0 0.37519981906117678 -0.29055939022370142 0 0.37795999762798671 -0.28395322059410122 0 0.36936745264149701 -0.28627283508716472 0 0.37519981906117678 -0.29055939022370142 0 0.36936745264149701 -0.28627283508716472 0 0.37101427446782781 -0.29852975601036341 0 0.36936745264149701 -0.28627283508716472 0 0.35657459314761941 -0.2860097891906741 0 0.37101427446782781 -0.29852975601036341 0 0.35657459314761941 -0.2860097891906741 0 0.37101427446782781 -0.29852975601036341 0 0.36308990924476459 -0.28048364807874221 0 0.36936745264149701 -0.28627283508716472 0 0.35657459314761941 -0.2860097891906741 0 0.36308990924476459 -0.28048364807874221 0 0.35657459314761941 -0.2860097891906741 0 0.36308990924476459 -0.28048364807874221 0 0.35366972758071469 -0.28349111722646431 0 0.33463237856908817 -0.28956894479377399 0 0.35366972758071469 -0.28349111722646431 0 0.33463237856908817 -0.28956894479377399 0 0.35366972758071469 -0.28349111722646431 0 0.35195887039823659 -0.28200771363307098 0 0.36308990924476459 -0.28048364807874221 0 0.35366972758071469 -0.28349111722646431 0 0.35195887039823659 -0.28200771363307098 0 0.33485830675890288 -0.30442904333306592 0 0.35657459314761941 -0.2860097891906741 0 0.36308990924476459 -0.28048364807874221 0 0.35366972758071469 -0.28349111722646431 0 0.35657459314761941 -0.2860097891906741 0 0.33463237856908817 -0.28956894479377399 0 0.35366972758071469 -0.28349111722646431 0 0.35657459314761941 -0.2860097891906741 0 0.35366972758071469 -0.28349111722646431 0 0.35657459314761941 -0.2860097891906741 0 0.35366972758071469 -0.28349111722646431 0 0.35195887039823659 -0.28200771363307098 0 0.35620629985463748 -0.30371251724464648 0 0.36380134767337091 -0.31365371592763602 0 0.34533870308018377 -0.31598934501886372 0 0.35657459314761941 -0.2860097891906741 0 0.34824447571033601 -0.30253517369681238 0 0.35620629985463748 -0.30371251724464648 0 0.33485830675890288 -0.30442904333306592 0 0.35657459314761941 -0.2860097891906741 0 0.34824447571033601 -0.30253517369681238 0 0.34824447571033601 -0.30253517369681238 0 0.35620629985463748 -0.30371251724464648 0 0.34533870308018377 -0.31598934501886372 0 0.38545395578803499 -0.31104972283005378 0 0.37101427446782781 -0.29852975601036341 0 0.36380134767337091 -0.31365371592763602 0 0.35620629985463748 -0.30371251724464648 0 0.37101427446782781 -0.29852975601036341 0 0.36380134767337091 -0.31365371592763602 0 0.38545395578803499 -0.31104972283005378 0 0.36380134767337091 -0.31365371592763602 0 0.36945761595668469 -0.32738841673247931 0 0.36380134767337091 -0.31365371592763602 0 0.36945761595668469 -0.32738841673247931 0 0.35533723689285712 -0.32525253772940937 0 0.36945761595668469 -0.32738841673247931 0 0.35618710249729552 -0.34088690244721892 0 0.35533723689285712 -0.32525253772940937 0 0.36945761595668469 -0.32738841673247931 0 0.35618710249729552 -0.34088690244721892 0 0.37368731816096312 -0.34897020548070451 0 0.35618710249729552 -0.34088690244721892 0 0.33810128782584858 -0.35072533414536311 0 0.34064131712366241 -0.33181983138849169 0 0.35618710249729552 -0.34088690244721892 0 0.35533723689285712 -0.32525253772940937 0 0.34064131712366241 -0.33181983138849169 0 0.34533870308018377 -0.31598934501886372 0 0.35533723689285712 -0.32525253772940937 0 0.34064131712366241 -0.33181983138849169 0 0.36380134767337091 -0.31365371592763602 0 0.34533870308018377 -0.31598934501886372 0 0.35533723689285712 -0.32525253772940937 0 0.3689120952668708 -0.37284951495870189 0 0.37368731816096312 -0.34897020548070451 0 0.35738528973841999 -0.35772904562383351 0 0.35618710249729552 -0.34088690244721892 0 0.37368731816096312 -0.34897020548070451 0 0.35738528973841999 -0.35772904562383351 0 0.35618710249729552 -0.34088690244721892 0 0.35738528973841999 -0.35772904562383351 0 0.33810128782584858 -0.35072533414536311 0 0.35738528973841999 -0.35772904562383351 0 0.34467783115022588 -0.37252705130409253 0 0.33810128782584858 -0.35072533414536311 0 0.3689120952668708 -0.37284951495870189 0 0.35738528973841999 -0.35772904562383351 0 0.34467783115022588 -0.37252705130409253 0 0.34467783115022588 -0.37252705130409253 0 0.33810128782584858 -0.35072533414536311 0 0.3255374248820434 -0.37161020359421471 0 0.31543696134246668 -0.34593224431305769 0 0.3255374248820434 -0.37161020359421471 0 0.30900602422585888 -0.35865430802761772 0 0.31543696134246668 -0.34593224431305769 0 0.3255374248820434 -0.37161020359421471 0 0.33810128782584858 -0.35072533414536311 0 0.31543696134246668 -0.34593224431305769 0 0.3255374248820434 -0.37161020359421471 0 0.3255374248820434 -0.37161020359421471 0 0.30525369772634148 -0.37164386163485291 0 0.30900602422585888 -0.35865430802761772 0 0.34533870308018377 -0.31598934501886372 0 0.33130220335757699 -0.32186248444176119 0 0.34064131712366241 -0.33181983138849169 0 0.33485830675890288 -0.30442904333306592 0 0.34533870308018377 -0.31598934501886372 0 0.33130220335757699 -0.32186248444176119 0 0.33810128782584858 -0.35072533414536311 0 0.34064131712366241 -0.33181983138849169 0 0.3268430880468266 -0.33457206034663262 0 0.33130220335757699 -0.32186248444176119 0 0.34064131712366241 -0.33181983138849169 0 0.3268430880468266 -0.33457206034663262 0 0.31543696134246668 -0.34593224431305769 0 0.3268430880468266 -0.33457206034663262 0 0.31314202037018413 -0.32284829747545468 0 0.33810128782584858 -0.35072533414536311 0 0.31543696134246668 -0.34593224431305769 0 0.3268430880468266 -0.33457206034663262 0 0.33130220335757699 -0.32186248444176119 0 0.3268430880468266 -0.33457206034663262 0 0.31314202037018413 -0.32284829747545468 0 0.33485830675890288 -0.30442904333306592 0 0.31314202037018413 -0.32284829747545468 0 0.3171485971304504 -0.30589952111326829 0 0.31314202037018413 -0.32284829747545468 0 0.3109911447756647 -0.31350988965823029 0 0.33485830675890288 -0.30442904333306592 0 0.33130220335757699 -0.32186248444176119 0 0.31314202037018413 -0.32284829747545468 0 0.31314202037018413 -0.32284829747545468 0 0.30533649780288991 -0.32025428503190068 0 0.3109911447756647 -0.31350988965823029 0 0.30533649780288991 -0.32025428503190068 0 0.3109911447756647 -0.31350988965823029 0 0.30833746379913463 -0.30503745501229762 0 0.31543696134246668 -0.34593224431305769 0 0.30533649780288991 -0.32025428503190068 0 0.30314188851555429 -0.3464145030398364 0 0.30533649780288991 -0.32025428503190068 0 0.29792146783109758 -0.32077626486014349 0 0.30314188851555429 -0.3464145030398364 0 0.31543696134246668 -0.34593224431305769 0 0.31314202037018413 -0.32284829747545468 0 0.30533649780288991 -0.32025428503190068 0 0.29792146783109758 -0.32077626486014349 0 0.30314188851555429 -0.3464145030398364 0 0.31543696134246668 -0.34593224431305769 0 0.30533649780288991 -0.32025428503190068 0 0.29792146783109758 -0.32077626486014349 0 0.29422135484035322 -0.33366994296298719 0 0.30314188851555429 -0.3464145030398364 0 0.29422135484035322 -0.33366994296298719 0 0.29546103181119637 -0.34185893253319311 0 0.30314188851555429 -0.3464145030398364 0 0.29422135484035322 -0.33366994296298719 0 0.29546103181119637 -0.34185893253319311 0 0.28827175492889229 -0.34275780055790278 0 0.29546103181119637 -0.34185893253319311 0 0.28827175492889229 -0.34275780055790278 0 0.29811044553331972 -0.34650788457159087 0 0.29422135484035322 -0.33366994296298719 0 0.28827175492889229 -0.34275780055790278 0 0.27955848846152698 -0.33666113426449551 0 0.29422135484035322 -0.33366994296298719 0 0.28744860979629389 -0.32474860906702402 0 0.27955848846152698 -0.33666113426449551 0 0.28744860979629389 -0.32474860906702402 0 0.29019889155513462 -0.31620785207956748 0 0.28097437988070417 -0.31138482246715898 0 0.29792146783109758 -0.32077626486014349 0 0.29019889155513462 -0.31620785207956748 0 0.29244758100571983 -0.32385066724243061 0 0.29422135484035322 -0.33366994296298719 0 0.28744860979629389 -0.32474860906702402 0 0.29244758100571983 -0.32385066724243061 0 0.29792146783109758 -0.32077626486014349 0 0.29422135484035322 -0.33366994296298719 0 0.29244758100571983 -0.32385066724243061 0 0.28744860979629389 -0.32474860906702402 0 0.29019889155513462 -0.31620785207956748 0 0.29244758100571983 -0.32385066724243061 0 0.30525369772634148 -0.37164386163485291 0 0.30031449930387721 -0.36082981960256849 0 0.30900602422585888 -0.35865430802761772 0 0.30525369772634148 -0.37164386163485291 0 0.30031449930387721 -0.36082981960256849 0 0.29483415024835152 -0.36747827247447862 0 0.30080593951138668 -0.35381036279877531 0 0.30900602422585888 -0.35865430802761772 0 0.30314188851555429 -0.3464145030398364 0 0.30080593951138668 -0.35381036279877531 0 0.29811044553331972 -0.34650788457159087 0 0.29345683997832372 -0.35664529875226292 0 0.30031449930387721 -0.36082981960256849 0 0.30080593951138668 -0.35381036279877531 0 0.30900602422585888 -0.35865430802761772 0 0.30031449930387721 -0.36082981960256849 0 0.30080593951138668 -0.35381036279877531 0 0.29345683997832372 -0.35664529875226292 0 0.31543696134246668 -0.34593224431305769 0 0.30900602422585888 -0.35865430802761772 0 0.30314188851555429 -0.3464145030398364 0 0.30080593951138668 -0.35381036279877531 0 0.30314188851555429 -0.3464145030398364 0 0.29811044553331972 -0.34650788457159087 0 0.29546103181119637 -0.34185893253319311 0 0.30314188851555429 -0.3464145030398364 0 0.29811044553331972 -0.34650788457159087 0 0.29811044553331972 -0.34650788457159087 0 0.29345683997832372 -0.35664529875226292 0 0.28122462644821988 -0.35688066365974619 0 0.28827175492889229 -0.34275780055790278 0 0.29811044553331972 -0.34650788457159087 0 0.28122462644821988 -0.35688066365974619 0 0.28827175492889229 -0.34275780055790278 0 0.28122462644821988 -0.35688066365974619 0 0.27955848846152698 -0.33666113426449551 0 0.29811044553331972 -0.34650788457159087 0 0.28122462644821988 -0.35688066365974619 0 0.29345683997832372 -0.35664529875226292 0 0.28676543400443838 -0.36101512068260139 0 0.28122462644821988 -0.35688066365974619 0 0.28676543400443838 -0.36101512068260139 0 0.28122462644821988 -0.35688066365974619 0 0.28783989868818821 -0.37644057584389279 0 0.30525369772634148 -0.37164386163485291 0 0.29483415024835152 -0.36747827247447862 0 0.28783989868818821 -0.37644057584389279 0 0.28676543400443838 -0.36101512068260139 0 0.27033126349110148 -0.36357234067652822 0 0.29357505063040601 -0.36145191270551408 0 0.28676543400443838 -0.36101512068260139 0 0.29483415024835152 -0.36747827247447862 0 0.30031449930387721 -0.36082981960256849 0 0.29357505063040601 -0.36145191270551408 0 0.29483415024835152 -0.36747827247447862 0 0.30031449930387721 -0.36082981960256849 0 0.29345683997832372 -0.35664529875226292 0 0.29357505063040601 -0.36145191270551408 0 0.29345683997832372 -0.35664529875226292 0 0.29357505063040601 -0.36145191270551408 0 0.28676543400443838 -0.36101512068260139 0 0.28783989868818821 -0.37644057584389279 0 0.28676543400443838 -0.36101512068260139 0 0.29483415024835152 -0.36747827247447862 0 0.28783989868818821 -0.37644057584389279 0 0.27033126349110148 -0.36357234067652822 0 0.28783989868818821 -0.37644057584389279 0 0.27447250226623809 -0.37821124143188289 0 0.27033126349110148 -0.36357234067652822 0 0.28676543400443838 -0.36101512068260139 0 0.27033126349110148 -0.36357234067652822 0 0.28122462644821988 -0.35688066365974619 0 0.27447250226623809 -0.37821124143188289 0 0.26423397132697279 -0.37890457124200982 0 0.27033126349110148 -0.36357234067652822 0 0.27033126349110148 -0.36357234067652822 0 0.28122462644821988 -0.35688066365974619 0 0.28122462644821988 -0.35688066365974619 0 0.26082083375001269 -0.34165569813656432 0 0.27033126349110148 -0.36357234067652822 0 0.28122462644821988 -0.35688066365974619 0 0.26082083375001269 -0.34165569813656432 0 0.28122462644821988 -0.35688066365974619 0 0.27955848846152698 -0.33666113426449551 0 0.26082083375001269 -0.34165569813656432 0 0.27033126349110148 -0.36357234067652822 0 0.25099839141978419 -0.34936335514031408 0 0.27033126349110148 -0.36357234067652822 0 0.25099839141978419 -0.34936335514031408 0 0.26082083375001269 -0.34165569813656432 0 0.27033126349110148 -0.36357234067652822 0 0.25099839141978419 -0.34936335514031408 0 0.24534349961555019 -0.36253701182870851 0 0.26423397132697279 -0.37890457124200982 0 0.27033126349110148 -0.36357234067652822 0 0.24987622704845311 -0.37613765202982719 0 0.27033126349110148 -0.36357234067652822 0 0.24534349961555019 -0.36253701182870851 0 0.24987622704845311 -0.37613765202982719 0 0.27033126349110148 -0.36357234067652822 0 0.24987622704845311 -0.37613765202982719 0 0.28744860979629389 -0.32474860906702402 0 0.26598899428458778 -0.32103793389256657 0 0.27955848846152698 -0.33666113426449551 0 0.28744860979629389 -0.32474860906702402 0 0.26598899428458778 -0.32103793389256657 0 0.28097437988070417 -0.31138482246715898 0 0.26598899428458778 -0.32103793389256657 0 0.27955848846152698 -0.33666113426449551 0 0.26082083375001269 -0.34165569813656432 0 0.26082083375001269 -0.34165569813656432 0 0.2404170410518052 -0.32643073261338312 0 0.26598899428458778 -0.32103793389256657 0 0.26082083375001269 -0.34165569813656432 0 0.2404170410518052 -0.32643073261338312 0 0.25099839141978419 -0.34936335514031408 0 0.26082083375001269 -0.34165569813656432 0 0.2404170410518052 -0.32643073261338312 0 0.26598899428458778 -0.32103793389256657 0 0.24423538898563429 -0.30587701823941071 0 0.2404170410518052 -0.32643073261338312 0 0.26846821806613752 -0.30050752245993012 0 0.24423538898563429 -0.30587701823941071 0 0.25301376652256202 -0.2892367573709661 0 0.26846821806613752 -0.30050752245993012 0 0.24423538898563429 -0.30587701823941071 0 0.26598899428458778 -0.32103793389256657 0 0.26846821806613752 -0.30050752245993012 0 0.24423538898563429 -0.30587701823941071 0 0.25301376652256202 -0.2892367573709661 0 0.26500420865911251 -0.28331687632378699 0 0.26846821806613752 -0.30050752245993012 0 0.25301376652256202 -0.2892367573709661 0 0.26500420865911251 -0.28331687632378699 0 0.2507153324002197 -0.27704953531328702 0 0.26500420865911251 -0.28331687632378699 0 0.27805302037335089 -0.28584974436810762 0 0.26846821806613752 -0.30050752245993012 0 0.27805302037335089 -0.28584974436810762 0 0.26846821806613752 -0.30050752245993012 0 0.29270104714664102 -0.29513802668045069 0 0.26500420865911251 -0.28331687632378699 0 0.27805302037335089 -0.28584974436810762 0 0.27342558025451552 -0.27498979272208851 0 0.26598899428458778 -0.32103793389256657 0 0.26846821806613752 -0.30050752245993012 0 0.28097437988070417 -0.31138482246715898 0 0.26846821806613752 -0.30050752245993012 0 0.28097437988070417 -0.31138482246715898 0 0.29270104714664102 -0.29513802668045069 0 0.26846821806613752 -0.30050752245993012 0 0.29270104714664102 -0.29513802668045069 0 0.29792146783109758 -0.32077626486014349 0 0.29270104714664102 -0.29513802668045069 0 0.29019889155513462 -0.31620785207956748 0 0.28097437988070417 -0.31138482246715898 0 0.29270104714664102 -0.29513802668045069 0 0.29792146783109758 -0.32077626486014349 0 0.29019889155513462 -0.31620785207956748 0 0.29270104714664102 -0.29513802668045069 0 0.29792146783109758 -0.32077626486014349 0 0.29270104714664102 -0.29513802668045069 0 0.29523603426331357 -0.29457632575074338 0 0.27805302037335089 -0.28584974436810762 0 0.29026987947112831 -0.28319821192468808 0 0.29270104714664102 -0.29513802668045069 0 0.27805302037335089 -0.28584974436810762 0 0.29026987947112831 -0.28319821192468808 0 0.28863308206368682 -0.27515966401439529 0 0.29026987947112831 -0.28319821192468808 0 0.29523603426331357 -0.29457632575074338 0 0.29026987947112831 -0.28319821192468808 0 0.29523603426331357 -0.29457632575074338 0 0.30320790951940702 -0.28313078900162059 0 0.29026987947112831 -0.28319821192468808 0 0.29270104714664102 -0.29513802668045069 0 0.29523603426331357 -0.29457632575074338 0 0.29026987947112831 -0.28319821192468808 0 0.29270104714664102 -0.29513802668045069 0 0.29270104714664102 -0.29513802668045069 0 0.29523603426331357 -0.29457632575074338 0 0.29523603426331357 -0.29457632575074338 0 0.31208952779935789 -0.2908419387292881 0 0.29523603426331357 -0.29457632575074338 0 0.30320790951940702 -0.28313078900162059 0 0.31208952779935789 -0.2908419387292881 0 0.29523603426331357 -0.29457632575074338 0 0.31208952779935789 -0.2908419387292881 0 0.30833746379913463 -0.30503745501229762 0 0.31611371382327402 -0.28007222207304999 0 0.30320790951940702 -0.28313078900162059 0 0.31208952779935789 -0.2908419387292881 0 0.30533649780288991 -0.32025428503190068 0 0.29523603426331357 -0.29457632575074338 0 0.30833746379913463 -0.30503745501229762 0 0.30533649780288991 -0.32025428503190068 0 0.29792146783109758 -0.32077626486014349 0 0.29523603426331357 -0.29457632575074338 0 0.30533649780288991 -0.32025428503190068 0 0.29523603426331357 -0.29457632575074338 0 0.3171485971304504 -0.30589952111326829 0 0.3109911447756647 -0.31350988965823029 0 0.30833746379913463 -0.30503745501229762 0 0.29812220868357159 -0.26533402464574418 0 0.30111904597271899 -0.2536098058489899 0 0.30981211567343969 -0.26250129009931661 0 0.31597462601859122 -0.25080747204364812 0 0.30111904597271899 -0.2536098058489899 0 0.30981211567343969 -0.26250129009931661 0 0.29812220868357159 -0.26533402464574418 0 0.30981211567343969 -0.26250129009931661 0 0.30706455279928557 -0.27339796693147528 0 0.31611371382327402 -0.28007222207304999 0 0.30320790951940702 -0.28313078900162059 0 0.30706455279928557 -0.27339796693147528 0 0.29026987947112831 -0.28319821192468808 0 0.30320790951940702 -0.28313078900162059 0 0.29755036247591721 -0.27602563541609298 0 0.30320790951940702 -0.28313078900162059 0 0.30706455279928557 -0.27339796693147528 0 0.29755036247591721 -0.27602563541609298 0 0.29812220868357159 -0.26533402464574418 0 0.30706455279928557 -0.27339796693147528 0 0.29755036247591721 -0.27602563541609298 0 0.29812220868357159 -0.26533402464574418 0 0.29755036247591721 -0.27602563541609298 0 0.28863308206368682 -0.27515966401439529 0 0.29026987947112831 -0.28319821192468808 0 0.28863308206368682 -0.27515966401439529 0 0.29026987947112831 -0.28319821192468808 0 0.29755036247591721 -0.27602563541609298 0 0.28863308206368682 -0.27515966401439529 0 0.28863308206368682 -0.27515966401439529 0 0.28456511698073272 -0.25518130134833977 0 0.29812220868357159 -0.26533402464574418 0 0.28863308206368682 -0.27515966401439529 0 0.28456511698073272 -0.25518130134833977 0 0.29812220868357159 -0.26533402464574418 0 0.30111904597271899 -0.2536098058489899 0 0.28456511698073272 -0.25518130134833977 0 0.28863308206368682 -0.27515966401439529 0 0.28456511698073272 -0.25518130134833977 0 0.27223885194073971 -0.26265851400849172 0 0.28456511698073272 -0.25518130134833977 0 0.27223885194073971 -0.26265851400849172 0 0.26629969424128969 -0.25192769388052821 0 0.27223885194073971 -0.26265851400849172 0 0.26629969424128969 -0.25192769388052821 0 0.2629172406837702 -0.26740365320709081 0 0.26500420865911251 -0.28331687632378699 0 0.27342558025451552 -0.27498979272208851 0 0.2629172406837702 -0.26740365320709081 0 0.28863308206368682 -0.27515966401439529 0 0.27223885194073971 -0.26265851400849172 0 0.27342558025451552 -0.27498979272208851 0 0.27805302037335089 -0.28584974436810762 0 0.28863308206368682 -0.27515966401439529 0 0.27342558025451552 -0.27498979272208851 0 0.27223885194073971 -0.26265851400849172 0 0.27342558025451552 -0.27498979272208851 0 0.2629172406837702 -0.26740365320709081 0 0.26500420865911251 -0.28331687632378699 0 0.2629172406837702 -0.26740365320709081 0 0.2507153324002197 -0.27704953531328702 0 0.2629172406837702 -0.26740365320709081 0 0.2507153324002197 -0.27704953531328702 0 0.2466218950091964 -0.26012473444713258 0 0.25037283077400019 -0.2416092145933311 0 0.26629969424128969 -0.25192769388052821 0 0.2466218950091964 -0.26012473444713258 0 0.26629969424128969 -0.25192769388052821 0 0.2629172406837702 -0.26740365320709081 0 0.2466218950091964 -0.26012473444713258 0 0.25037283077400019 -0.2416092145933311 0 0.2466218950091964 -0.26012473444713258 0 0.2339549802858914 -0.24933471903745599 0 0.2466218950091964 -0.26012473444713258 0 0.22717476572977791 -0.26325637954660608 0 0.2339549802858914 -0.24933471903745599 0 0.2466218950091964 -0.26012473444713258 0 0.23628574795648369 -0.27498419313581679 0 0.22717476572977791 -0.26325637954660608 0 0.2507153324002197 -0.27704953531328702 0 0.2466218950091964 -0.26012473444713258 0 0.23628574795648369 -0.27498419313581679 0 0.2507153324002197 -0.27704953531328702 0 0.23628574795648369 -0.27498419313581679 0 0.24044913557019401 -0.28723099739492908 0 0.2247339410531527 -0.27667652802353632 0 0.21554844428562811 -0.26491471108287651 0 0.21653111649902579 -0.28712771180040292 0 0.23628574795648369 -0.27498419313581679 0 0.2247339410531527 -0.27667652802353632 0 0.22717476572977791 -0.26325637954660608 0 0.2247339410531527 -0.27667652802353632 0 0.22717476572977791 -0.26325637954660608 0 0.21554844428562811 -0.26491471108287651 0 0.22717476572977791 -0.26325637954660608 0 0.22331750647786899 -0.25281133177650322 0 0.2339549802858914 -0.24933471903745599 0 0.22717476572977791 -0.26325637954660608 0 0.22331750647786899 -0.25281133177650322 0 0.21554844428562811 -0.26491471108287651 0 0.2084475354763706 -0.25511513831035743 0 0.21554844428562811 -0.26491471108287651 0 0.1982966667633215 -0.26354120971092698 0 0.21554844428562811 -0.26491471108287651 0 0.21456577207223029 -0.24270171036535029 0 0.22331750647786899 -0.25281133177650322 0 0.21554844428562811 -0.26491471108287651 0 0.21456577207223029 -0.24270171036535029 0 0.2084475354763706 -0.25511513831035743 0 0.21554844428562811 -0.26491471108287651 0 0.21336353465090491 -0.24693864317134839 0 0.21554844428562811 -0.26491471108287651 0 0.21336353465090491 -0.24693864317134839 0 0.21456577207223029 -0.24270171036535029 0 0.2084475354763706 -0.25511513831035743 0 0.1982966667633215 -0.26354120971092698 0 0.2080714594183444 -0.2424179483002232 0 0.1982966667633215 -0.26354120971092698 0 0.2080714594183444 -0.2424179483002232 0 0.21554844428562811 -0.26491471108287651 0 0.21653111649902579 -0.28712771180040292 0 0.21554844428562811 -0.26491471108287651 0 0.20859607852913339 -0.28093905456482821 0 0.21653111649902579 -0.28712771180040292 0 0.21554844428562811 -0.26491471108287651 0 0.20859607852913339 -0.28093905456482821 0 0.2011380539128553 -0.27767933622792518 0 0.21554844428562811 -0.26491471108287651 0 0.2011380539128553 -0.27767933622792518 0 0.1982966667633215 -0.26354120971092698 0 0.1982966667633215 -0.26354120971092698 0 0.18852187410829821 -0.28466447112163068 0 0.1982966667633215 -0.26354120971092698 0 0.18852187410829821 -0.28466447112163068 0 0.1845366839674035 -0.26640487959885623 0 0.2011380539128553 -0.27767933622792518 0 0.1982966667633215 -0.26354120971092698 0 0.18852187410829821 -0.28466447112163068 0 0.1982966667633215 -0.26354120971092698 0 0.2080714594183444 -0.2424179483002232 0 0.19254414318066221 -0.24961624770678509 0 0.1982966667633215 -0.26354120971092698 0 0.18706352147094041 -0.25756661524031438 0 0.1845366839674035 -0.26640487959885623 0 0.1982966667633215 -0.26354120971092698 0 0.18706352147094041 -0.25756661524031438 0 0.19254414318066221 -0.24961624770678509 0 0.18706352147094041 -0.25756661524031438 0 0.19254414318066221 -0.24961624770678509 0 0.18399505531774341 -0.24981832115951039 0 0.20249447748908611 -0.29813355613580778 0 0.1976485991634879 -0.30796138879627621 0 0.19462594870140809 -0.30164723750547567 0 0.20249447748908611 -0.29813355613580778 0 0.19462594870140809 -0.30164723750547567 0 0.19392418081794471 -0.29575522021664652 0 0.20249447748908611 -0.29813355613580778 0 0.1976485991634879 -0.30796138879627621 0 0.20782414549410869 -0.30817847155873718 0 0.1976485991634879 -0.30796138879627621 0 0.20782414549410869 -0.30817847155873718 0 0.20282381327660201 -0.31505297042611552 0 0.1976485991634879 -0.30796138879627621 0 0.19009702279388629 -0.3064242775921906 0 0.18802618722583669 -0.31833181955932999 0 0.1976485991634879 -0.30796138879627621 0 0.19009702279388629 -0.3064242775921906 0 0.19462594870140809 -0.30164723750547567 0 0.19009702279388629 -0.3064242775921906 0 0.19462594870140809 -0.30164723750547567 0 0.1880606218677118 -0.30022154946313712 0 0.19462594870140809 -0.30164723750547567 0 0.19110113081553529 -0.29631368747161629 0 0.19392418081794471 -0.29575522021664652 0 0.1880606218677118 -0.30022154946313712 0 0.19110113081553529 -0.29631368747161629 0 0.18734834214976739 -0.29514628785519947 0 0.19462594870140809 -0.30164723750547567 0 0.1880606218677118 -0.30022154946313712 0 0.19110113081553529 -0.29631368747161629 0 0.20249447748908611 -0.29813355613580778 0 0.18747516626574931 -0.28692639975368628 0 0.20249447748908611 -0.29813355613580778 0 0.19392418081794471 -0.29575522021664652 0 0.18747516626574931 -0.28692639975368628 0 0.19110113081553529 -0.29631368747161629 0 0.19392418081794471 -0.29575522021664652 0 0.18747516626574931 -0.28692639975368628 0 0.19110113081553529 -0.29631368747161629 0 0.18747516626574931 -0.28692639975368628 0 0.18734834214976739 -0.29514628785519947 0 0.18852187410829821 -0.28466447112163068 0 0.19787122383615691 -0.29172525818392958 0 0.18852187410829821 -0.28466447112163068 0 0.19731262536099689 -0.28481999283041842 0 0.19787122383615691 -0.29172525818392958 0 0.18852187410829821 -0.28466447112163068 0 0.19787122383615691 -0.29172525818392958 0 0.18747516626574931 -0.28692639975368628 0 0.18852187410829821 -0.28466447112163068 0 0.18747516626574931 -0.28692639975368628 0 0.2011380539128553 -0.27767933622792518 0 0.18852187410829821 -0.28466447112163068 0 0.19731262536099689 -0.28481999283041842 0 0.201719349586677 -0.2852109057881882 0 0.19787122383615691 -0.29172525818392958 0 0.206049533411369 -0.28982701925762389 0 0.19731262536099689 -0.28481999283041842 0 0.201719349586677 -0.2852109057881882 0 0.19787122383615691 -0.29172525818392958 0 0.2011380539128553 -0.27767933622792518 0 0.19731262536099689 -0.28481999283041842 0 0.201719349586677 -0.2852109057881882 0 0.20249447748908611 -0.29813355613580778 0 0.19787122383615691 -0.29172525818392958 0 0.18747516626574931 -0.28692639975368628 0 0.20249447748908611 -0.29813355613580778 0 0.19787122383615691 -0.29172525818392958 0 0.206049533411369 -0.28982701925762389 0 0.20249447748908611 -0.29813355613580778 0 0.206049533411369 -0.28982701925762389 0 0.20903552332543929 -0.29406903275804652 0 0.206049533411369 -0.28982701925762389 0 0.20903552332543929 -0.29406903275804652 0 0.21653111649902579 -0.28712771180040292 0 0.20249447748908611 -0.29813355613580778 0 0.20903552332543929 -0.29406903275804652 0 0.2123558614978226 -0.29827812898856709 0 0.20859607852913339 -0.28093905456482821 0 0.206049533411369 -0.28982701925762389 0 0.21653111649902579 -0.28712771180040292 0 0.20859607852913339 -0.28093905456482821 0 0.201719349586677 -0.2852109057881882 0 0.206049533411369 -0.28982701925762389 0 0.20859607852913339 -0.28093905456482821 0 0.2011380539128553 -0.27767933622792518 0 0.201719349586677 -0.2852109057881882 0 0.20903552332543929 -0.29406903275804652 0 0.21653111649902579 -0.28712771180040292 0 0.2123558614978226 -0.29827812898856709 0 0.21653111649902579 -0.28712771180040292 0 0.2175137887124228 -0.30934071251792922 0 0.21653111649902579 -0.28712771180040292 0 0.2123558614978226 -0.29827812898856709 0 0.2175137887124228 -0.30934071251792922 0 0.20249447748908611 -0.29813355613580778 0 0.2123558614978226 -0.29827812898856709 0 0.2175137887124228 -0.30934071251792922 0 0.20249447748908611 -0.29813355613580778 0 0.2175137887124228 -0.30934071251792922 0 0.20782414549410869 -0.30817847155873718 0 0.2176214393273678 -0.31177412129290383 0 0.20282381327660201 -0.31505297042611552 0 0.20249447748908611 -0.29813355613580778 0 0.20782414549410869 -0.30817847155873718 0 0.2175137887124228 -0.30934071251792922 0 0.20782414549410869 -0.30817847155873718 0 0.2175137887124228 -0.30934071251792922 0 0.2176214393273678 -0.31177412129290383 0 0.2175137887124228 -0.30934071251792922 0 0.2176214393273678 -0.31177412129290383 0 0.2175137887124228 -0.30934071251792922 0 0.2176214393273678 -0.31177412129290383 0 0.21999804566891551 -0.31122614102315033 0 0.21999804566891551 -0.31122614102315033 0 0.24423538898563429 -0.30587701823941071 0 0.2175137887124228 -0.30934071251792922 0 0.21999804566891551 -0.31122614102315033 0 0.22812963079484819 -0.29309964455197901 0 0.21999804566891551 -0.31122614102315033 0 0.22812963079484819 -0.29309964455197901 0 0.21999804566891551 -0.31122614102315033 0 0.22812963079484819 -0.29309964455197901 0 0.24423538898563429 -0.30587701823941071 0 0.2176214393273678 -0.31177412129290383 0 0.21999804566891551 -0.31122614102315033 0 0.2175137887124228 -0.30934071251792922 0 0.21999804566891551 -0.31122614102315033 0 0.23628574795648369 -0.27498419313581679 0 0.22812963079484819 -0.29309964455197901 0 0.2247339410531527 -0.27667652802353632 0 0.21653111649902579 -0.28712771180040292 0 0.22812963079484819 -0.29309964455197901 0 0.23628574795648369 -0.27498419313581679 0 0.2247339410531527 -0.27667652802353632 0 0.22812963079484819 -0.29309964455197901 0 0.21653111649902579 -0.28712771180040292 0 0.2175137887124228 -0.30934071251792922 0 0.22812963079484819 -0.29309964455197901 0 0.23628574795648369 -0.27498419313581679 0 0.22812963079484819 -0.29309964455197901 0 0.24044913557019401 -0.28723099739492908 0 0.25301376652256202 -0.2892367573709661 0 0.24044913557019401 -0.28723099739492908 0 0.24423538898563429 -0.30587701823941071 0 0.22812963079484819 -0.29309964455197901 0 0.24044913557019401 -0.28723099739492908 0 0.24423538898563429 -0.30587701823941071 0 0.25301376652256202 -0.2892367573709661 0 0.2507153324002197 -0.27704953531328702 0 0.24044913557019401 -0.28723099739492908 0 0.21999804566891551 -0.31122614102315033 0 0.24423538898563429 -0.30587701823941071 0 0.2404170410518052 -0.32643073261338312 0 0.25099839141978419 -0.34936335514031408 0 0.2316655193484673 -0.33515436960409939 0 0.25099839141978419 -0.34936335514031408 0 0.2404170410518052 -0.32643073261338312 0 0.2316655193484673 -0.33515436960409939 0 0.2404170410518052 -0.32643073261338312 0 0.2316655193484673 -0.33515436960409939 0 0.2247705650129608 -0.32491873692320528 0 0.2316655193484673 -0.33515436960409939 0 0.22208049410379579 -0.34309390150507102 0 0.22867514261462599 -0.34782526071452929 0 0.2316655193484673 -0.33515436960409939 0 0.22208049410379579 -0.34309390150507102 0 0.220555537226792 -0.33578323097752499 0 0.22208049410379579 -0.34309390150507102 0 0.220555537226792 -0.33578323097752499 0 0.21451162402718699 -0.34512658597487872 0 0.220555537226792 -0.33578323097752499 0 0.2247705650129608 -0.32491873692320528 0 0.21820242441149371 -0.32490710899175251 0 0.2316655193484673 -0.33515436960409939 0 0.220555537226792 -0.33578323097752499 0 0.2247705650129608 -0.32491873692320528 0 0.21999804566891551 -0.31122614102315033 0 0.2404170410518052 -0.32643073261338312 0 0.2247705650129608 -0.32491873692320528 0 0.21999804566891551 -0.31122614102315033 0 0.2404170410518052 -0.32643073261338312 0 0.2247705650129608 -0.32491873692320528 0 0.21780935440599439 -0.31602188338433101 0 0.21820242441149371 -0.32490710899175251 0 0.21999804566891551 -0.31122614102315033 0 0.2247705650129608 -0.32491873692320528 0 0.21780935440599439 -0.31602188338433101 0 0.21999804566891551 -0.31122614102315033 0 0.21780935440599439 -0.31602188338433101 0 0.23679608458568241 -0.3713456781615978 0 0.24534349961555019 -0.36253701182870851 0 0.24987622704845311 -0.37613765202982719 0 0.23679608458568241 -0.3713456781615978 0 0.24534349961555019 -0.36253701182870851 0 0.23133102347449649 -0.35950822589080189 0 0.25099839141978419 -0.34936335514031408 0 0.2316655193484673 -0.33515436960409939 0 0.23760271529458479 -0.35087764463569071 0 0.24534349961555019 -0.36253701182870851 0 0.23760271529458479 -0.35087764463569071 0 0.23133102347449649 -0.35950822589080189 0 0.25099839141978419 -0.34936335514031408 0 0.24534349961555019 -0.36253701182870851 0 0.23760271529458479 -0.35087764463569071 0 0.2316655193484673 -0.33515436960409939 0 0.23760271529458479 -0.35087764463569071 0 0.22867514261462599 -0.34782526071452929 0 0.22208049410379579 -0.34309390150507102 0 0.22076837523631451 -0.35267920974236072 0 0.21451162402718699 -0.34512658597487872 0 0.22208049410379579 -0.34309390150507102 0 0.22867514261462599 -0.34782526071452929 0 0.22076837523631451 -0.35267920974236072 0 0.22076837523631451 -0.35267920974236072 0 0.22341137818785181 -0.36337688942730773 0 0.21609027172906259 -0.36087537471117581 0 0.22076837523631451 -0.35267920974236072 0 0.23133102347449649 -0.35950822589080189 0 0.22341137818785181 -0.36337688942730773 0 0.22867514261462599 -0.34782526071452929 0 0.22076837523631451 -0.35267920974236072 0 0.23133102347449649 -0.35950822589080189 0 0.23760271529458479 -0.35087764463569071 0 0.22867514261462599 -0.34782526071452929 0 0.23133102347449649 -0.35950822589080189 0 0.23133102347449649 -0.35950822589080189 0 0.22341137818785181 -0.36337688942730773 0 0.22699371624108439 -0.37103399677892651 0 0.22341137818785181 -0.36337688942730773 0 0.22699371624108439 -0.37103399677892651 0 0.21663927632257499 -0.37152038636996992 0 0.22699371624108439 -0.37103399677892651 0 0.21663927632257499 -0.37152038636996992 0 0.22189277223980711 -0.38054577212349588 0 0.23679608458568241 -0.3713456781615978 0 0.22699371624108439 -0.37103399677892651 0 0.23010576568282681 -0.37607478874810818 0 0.23679608458568241 -0.3713456781615978 0 0.23133102347449649 -0.35950822589080189 0 0.22699371624108439 -0.37103399677892651 0 0.21663927632257499 -0.37152038636996992 0 0.20683644217058031 -0.36558797855932218 0 0.20576161095015591 -0.37595213443190167 0 0.22341137818785181 -0.36337688942730773 0 0.21663927632257499 -0.37152038636996992 0 0.21609027172906259 -0.36087537471117581 0 0.21609027172906259 -0.36087537471117581 0 0.20683644217058031 -0.36558797855932218 0 0.21089823393406021 -0.35324530101306001 0 0.21663927632257499 -0.37152038636996992 0 0.21609027172906259 -0.36087537471117581 0 0.20683644217058031 -0.36558797855932218 0 0.19940837682496099 -0.35689206815154528 0 0.20777431361625601 -0.33831058893907762 0 0.21089823393406021 -0.35324530101306001 0 0.19940837682496099 -0.35689206815154528 0 0.20777431361625601 -0.33831058893907762 0 0.20683644217058031 -0.36558797855932218 0 0.21089823393406021 -0.35324530101306001 0 0.19940837682496099 -0.35689206815154528 0 0.22076837523631451 -0.35267920974236072 0 0.21609027172906259 -0.36087537471117581 0 0.21089823393406021 -0.35324530101306001 0 0.21089823393406021 -0.35324530101306001 0 0.21451162402718699 -0.34512658597487872 0 0.20777431361625601 -0.33831058893907762 0 0.22076837523631451 -0.35267920974236072 0 0.21089823393406021 -0.35324530101306001 0 0.21451162402718699 -0.34512658597487872 0 0.1971616983813648 -0.34495631128618592 0 0.19940837682496099 -0.35689206815154528 0 0.20777431361625601 -0.33831058893907762 0 0.1971616983813648 -0.34495631128618592 0 0.18787137947787569 -0.35180034780069419 0 0.18864170350563411 -0.33720407153827198 0 0.1971616983813648 -0.34495631128618592 0 0.18787137947787569 -0.35180034780069419 0 0.19940837682496099 -0.35689206815154528 0 0.20683644217058031 -0.36558797855932218 0 0.20576161095015591 -0.37595213443190167 0 0.1910424400336663 -0.37547354736401328 0 0.18787137947787569 -0.35180034780069419 0 0.19940837682496099 -0.35689206815154528 0 0.1910424400336663 -0.37547354736401328 0 0.19940837682496099 -0.35689206815154528 0 0.1910424400336663 -0.37547354736401328 0 0.20683644217058031 -0.36558797855932218 0 0.19940837682496099 -0.35689206815154528 0 0.1910424400336663 -0.37547354736401328 0 0.21780935440599439 -0.31602188338433101 0 0.20777431361625601 -0.33831058893907762 0 0.21780935440599439 -0.31602188338433101 0 0.20777431361625601 -0.33831058893907762 0 0.20282381327660201 -0.31505297042611552 0 0.21780935440599439 -0.31602188338433101 0 0.21820242441149371 -0.32490710899175251 0 0.20777431361625601 -0.33831058893907762 0 0.2176214393273678 -0.31177412129290383 0 0.20282381327660201 -0.31505297042611552 0 0.2176214393273678 -0.31177412129290383 0 0.21780935440599439 -0.31602188338433101 0 0.20282381327660201 -0.31505297042611552 0 0.2176214393273678 -0.31177412129290383 0 0.21780935440599439 -0.31602188338433101 0 0.2176214393273678 -0.31177412129290383 0 0.21999804566891551 -0.31122614102315033 0 0.21780935440599439 -0.31602188338433101 0 0.21780935440599439 -0.31602188338433101 0 0.21820242441149371 -0.32490710899175251 0 0.220555537226792 -0.33578323097752499 0 0.21820242441149371 -0.32490710899175251 0 0.20777431361625601 -0.33831058893907762 0 0.220555537226792 -0.33578323097752499 0 0.21451162402718699 -0.34512658597487872 0 0.20777431361625601 -0.33831058893907762 0 0.21451162402718699 -0.34512658597487872 0 0.20777431361625601 -0.33831058893907762 0 0.1971616983813648 -0.34495631128618592 0 0.20777431361625601 -0.33831058893907762 0 0.18864170350563411 -0.33720407153827198 0 0.20777431361625601 -0.33831058893907762 0 0.18802618722583669 -0.31833181955932999 0 0.20777431361625601 -0.33831058893907762 0 0.18864170350563411 -0.33720407153827198 0 0.18802618722583669 -0.31833181955932999 0 0.20777431361625601 -0.33831058893907762 0 0.20282381327660201 -0.31505297042611552 0 0.18802618722583669 -0.31833181955932999 0 0.20282381327660201 -0.31505297042611552 0 0.18802618722583669 -0.31833181955932999 0 0.1976485991634879 -0.30796138879627621 0 0.20282381327660201 -0.31505297042611552 0 0.18802618722583669 -0.31833181955932999 0 0.18802618722583669 -0.31833181955932999 0 0.1791507244663583 -0.32983729973660558 0 0.16791254130802971 -0.3227885891963716 0 0.18802618722583669 -0.31833181955932999 0 0.17151825735526699 -0.31325416760549368 0 0.16791254130802971 -0.3227885891963716 0 0.18802618722583669 -0.31833181955932999 0 0.16791254130802971 -0.3227885891963716 0 0.18864170350563411 -0.33720407153827198 0 0.18802618722583669 -0.31833181955932999 0 0.1791507244663583 -0.32983729973660558 0 0.17202246582593331 -0.34102471865244838 0 0.1791507244663583 -0.32983729973660558 0 0.16791254130802971 -0.3227885891963716 0 0.18787137947787569 -0.35180034780069419 0 0.18864170350563411 -0.33720407153827198 0 0.17202246582593331 -0.34102471865244838 0 0.18864170350563411 -0.33720407153827198 0 0.17202246582593331 -0.34102471865244838 0 0.1791507244663583 -0.32983729973660558 0 0.17202246582593331 -0.34102471865244838 0 0.1546435437787094 -0.34381338892778002 0 0.1557586906108582 -0.32786840018592928 0 0.17202246582593331 -0.34102471865244838 0 0.16791254130802971 -0.3227885891963716 0 0.1557586906108582 -0.32786840018592928 0 0.16791254130802971 -0.3227885891963716 0 0.1557586906108582 -0.32786840018592928 0 0.1602411687519314 -0.31190927739118429 0 0.17151825735526699 -0.31325416760549368 0 0.16791254130802971 -0.3227885891963716 0 0.1602411687519314 -0.31190927739118429 0 0.18787137947787569 -0.35180034780069419 0 0.17662324672053431 -0.35795823269279659 0 0.1910424400336663 -0.37547354736401328 0 0.17662324672053431 -0.35795823269279659 0 0.17035242753357599 -0.36877211446365682 0 0.1910424400336663 -0.37547354736401328 0 0.17035242753357599 -0.36877211446365682 0 0.1910424400336663 -0.37547354736401328 0 0.1737051017910701 -0.38004230502140057 0 0.18787137947787569 -0.35180034780069419 0 0.17202246582593331 -0.34102471865244838 0 0.17662324672053431 -0.35795823269279659 0 0.17202246582593331 -0.34102471865244838 0 0.17662324672053431 -0.35795823269279659 0 0.16265844046108829 -0.35526087104265458 0 0.17202246582593331 -0.34102471865244838 0 0.16265844046108829 -0.35526087104265458 0 0.1546435437787094 -0.34381338892778002 0 0.17662324672053431 -0.35795823269279659 0 0.16265844046108829 -0.35526087104265458 0 0.17035242753357599 -0.36877211446365682 0 0.16265844046108829 -0.35526087104265458 0 0.1569593121701936 -0.36832063090657668 0 0.17035242753357599 -0.36877211446365682 0 0.1569593121701936 -0.36832063090657668 0 0.17035242753357599 -0.36877211446365682 0 0.16307541855137739 -0.37743582412871929 0 0.14536400873927011 -0.3681220756701501 0 0.1426630499740982 -0.35652090160864008 0 0.13524945632583441 -0.37311377610700652 0 0.16265844046108829 -0.35526087104265458 0 0.1569593121701936 -0.36832063090657668 0 0.1426630499740982 -0.35652090160864008 0 0.14536400873927011 -0.3681220756701501 0 0.13524945632583441 -0.37311377610700652 0 0.14973869037300869 -0.38096853745143089 0 0.1569593121701936 -0.36832063090657668 0 0.14536400873927011 -0.3681220756701501 0 0.14973869037300869 -0.38096853745143089 0 0.1569593121701936 -0.36832063090657668 0 0.14536400873927011 -0.3681220756701501 0 0.1426630499740982 -0.35652090160864008 0 0.1546435437787094 -0.34381338892778002 0 0.1426630499740982 -0.35652090160864008 0 0.1424354920479888 -0.33775294740649747 0 0.16265844046108829 -0.35526087104265458 0 0.1546435437787094 -0.34381338892778002 0 0.1426630499740982 -0.35652090160864008 0 0.13449730155472761 -0.34743155680512378 0 0.12784456261830821 -0.36308533366748658 0 0.123981461538115 -0.35128285539313481 0 0.1426630499740982 -0.35652090160864008 0 0.13449730155472761 -0.34743155680512378 0 0.1424354920479888 -0.33775294740649747 0 0.1426630499740982 -0.35652090160864008 0 0.13449730155472761 -0.34743155680512378 0 0.12784456261830821 -0.36308533366748658 0 0.13449730155472761 -0.34743155680512378 0 0.13051916655351839 -0.33696304048325831 0 0.123981461538115 -0.35128285539313481 0 0.1426630499740982 -0.35652090160864008 0 0.12784456261830821 -0.36308533366748658 0 0.13524945632583441 -0.37311377610700652 0 0.12784456261830821 -0.36308533366748658 0 0.13524945632583441 -0.37311377610700652 0 0.12609635470998201 -0.38402791619100712 0 0.14855409589738661 -0.31441038212804873 0 0.1557586906108582 -0.32786840018592928 0 0.1602411687519314 -0.31190927739118429 0 0.1445015266660287 -0.32337949759917511 0 0.14855409589738661 -0.31441038212804873 0 0.13871327718005111 -0.31332369293528212 0 0.1445015266660287 -0.32337949759917511 0 0.14855409589738661 -0.31441038212804873 0 0.1557586906108582 -0.32786840018592928 0 0.1546435437787094 -0.34381338892778002 0 0.1557586906108582 -0.32786840018592928 0 0.1424354920479888 -0.33775294740649747 0 0.1445015266660287 -0.32337949759917511 0 0.1557586906108582 -0.32786840018592928 0 0.1424354920479888 -0.33775294740649747 0 0.1445015266660287 -0.32337949759917511 0 0.1424354920479888 -0.33775294740649747 0 0.13219802669416811 -0.32498852212276208 0 0.1424354920479888 -0.33775294740649747 0 0.13051916655351839 -0.33696304048325831 0 0.13219802669416811 -0.32498852212276208 0 0.13449730155472761 -0.34743155680512378 0 0.1424354920479888 -0.33775294740649747 0 0.13051916655351839 -0.33696304048325831 0 0.13051916655351839 -0.33696304048325831 0 0.13219802669416811 -0.32498852212276208 0 0.12260601330919629 -0.33072698382653798 0 0.1445015266660287 -0.32337949759917511 0 0.13219802669416811 -0.32498852212276208 0 0.13871327718005111 -0.31332369293528212 0 0.13219802669416811 -0.32498852212276208 0 0.1265219532001009 -0.3124330460259736 0 0.1192961391526948 -0.32261879728377291 0 0.13219802669416811 -0.32498852212276208 0 0.13871327718005111 -0.31332369293528212 0 0.1265219532001009 -0.3124330460259736 0 0.1265219532001009 -0.3124330460259736 0 0.1332586495603032 -0.30031372317270688 0 0.1198701537204314 -0.30089140532399938 0 0.1332586495603032 -0.30031372317270688 0 0.1242383748246253 -0.29131174999725179 0 0.1198701537204314 -0.30089140532399938 0 0.13871327718005111 -0.31332369293528212 0 0.1265219532001009 -0.3124330460259736 0 0.1332586495603032 -0.30031372317270688 0 0.13871327718005111 -0.31332369293528212 0 0.1332586495603032 -0.30031372317270688 0 0.147245411062319 -0.30441698656302629 0 0.14855409589738661 -0.31441038212804873 0 0.13871327718005111 -0.31332369293528212 0 0.147245411062319 -0.30441698656302629 0 0.147245411062319 -0.30441698656302629 0 0.15432967412725099 -0.29846298066074151 0 0.14327492933615671 -0.29425024746867751 0 0.1332586495603032 -0.30031372317270688 0 0.147245411062319 -0.30441698656302629 0 0.14327492933615671 -0.29425024746867751 0 0.147245411062319 -0.30441698656302629 0 0.15432967412725099 -0.29846298066074151 0 0.1602411687519314 -0.31190927739118429 0 0.14855409589738661 -0.31441038212804873 0 0.147245411062319 -0.30441698656302629 0 0.1602411687519314 -0.31190927739118429 0 0.15432967412725099 -0.29846298066074151 0 0.1517600770447052 -0.28164214899084639 0 0.14327492933615671 -0.29425024746867751 0 0.1517600770447052 -0.28164214899084639 0 0.14327492933615671 -0.29425024746867751 0 0.13646338677899769 -0.28546266283427663 0 0.1332586495603032 -0.30031372317270688 0 0.14327492933615671 -0.29425024746867751 0 0.13646338677899769 -0.28546266283427663 0 0.1332586495603032 -0.30031372317270688 0 0.13646338677899769 -0.28546266283427663 0 0.1242383748246253 -0.29131174999725179 0 0.13646338677899769 -0.28546266283427663 0 0.1233023238440631 -0.28097148456094378 0 0.1242383748246253 -0.29131174999725179 0 0.1517600770447052 -0.28164214899084639 0 0.13646338677899769 -0.28546266283427663 0 0.1311170075682456 -0.27142576198599933 0 0.1517600770447052 -0.28164214899084639 0 0.1311170075682456 -0.27142576198599933 0 0.1364827709165429 -0.26618641562940759 0 0.13646338677899769 -0.28546266283427663 0 0.1311170075682456 -0.27142576198599933 0 0.1233023238440631 -0.28097148456094378 0 0.1311170075682456 -0.27142576198599933 0 0.1364827709165429 -0.26618641562940759 0 0.1212054647883809 -0.25073068226796852 0 0.1364827709165429 -0.26618641562940759 0 0.13217397618885759 -0.25462043987800831 0 0.1212054647883809 -0.25073068226796852 0 0.1364827709165429 -0.26618641562940759 0 0.1212054647883809 -0.25073068226796852 0 0.1364827709165429 -0.26618641562940759 0 0.13217397618885759 -0.25462043987800831 0 0.14275904560399111 -0.25945725309375861 0 0.13217397618885759 -0.25462043987800831 0 0.1429630926125974 -0.2502577086919005 0 0.14275904560399111 -0.25945725309375861 0 0.1429630926125974 -0.2502577086919005 0 0.16574248336044761 -0.26746108990676593 0 0.1429630926125974 -0.2502577086919005 0 0.15128247879849499 -0.26292486595599002 0 0.16574248336044761 -0.26746108990676593 0 0.1429630926125974 -0.2502577086919005 0 0.16574248336044761 -0.26746108990676593 0 0.16001236861667459 -0.2513654190734112 0 0.1429630926125974 -0.2502577086919005 0 0.14275904560399111 -0.25945725309375861 0 0.15128247879849499 -0.26292486595599002 0 0.1364827709165429 -0.26618641562940759 0 0.14275904560399111 -0.25945725309375861 0 0.15128247879849499 -0.26292486595599002 0 0.1517600770447052 -0.28164214899084639 0 0.1364827709165429 -0.26618641562940759 0 0.15128247879849499 -0.26292486595599002 0 0.1517600770447052 -0.28164214899084639 0 0.15128247879849499 -0.26292486595599002 0 0.15776774232478771 -0.26956647822523339 0 0.1517600770447052 -0.28164214899084639 0 0.1311170075682456 -0.27142576198599933 0 0.1517600770447052 -0.28164214899084639 0 0.1364827709165429 -0.26618641562940759 0 0.1517600770447052 -0.28164214899084639 0 0.16209364730358741 -0.27452888323759039 0 0.16594555478614451 -0.28284233368471318 0 0.1517600770447052 -0.28164214899084639 0 0.16209364730358741 -0.27452888323759039 0 0.15776774232478771 -0.26956647822523339 0 0.16209364730358741 -0.27452888323759039 0 0.15776774232478771 -0.26956647822523339 0 0.16574248336044761 -0.26746108990676593 0 0.15128247879849499 -0.26292486595599002 0 0.15776774232478771 -0.26956647822523339 0 0.16574248336044761 -0.26746108990676593 0 0.16209364730358741 -0.27452888323759039 0 0.16574248336044761 -0.26746108990676593 0 0.16920230535812411 -0.27329149954452342 0 0.16209364730358741 -0.27452888323759039 0 0.16920230535812411 -0.27329149954452342 0 0.16594555478614451 -0.28284233368471318 0 0.16920230535812411 -0.27329149954452342 0 0.1710222018321049 -0.28124575318360368 0 0.16594555478614451 -0.28284233368471318 0 0.16574248336044761 -0.26746108990676593 0 0.16001236861667459 -0.2513654190734112 0 0.16988601458932601 -0.2589500224365659 0 0.16574248336044761 -0.26746108990676593 0 0.16988601458932601 -0.2589500224365659 0 0.17628584543496439 -0.26683535894776161 0 0.16001236861667459 -0.2513654190734112 0 0.16988601458932601 -0.2589500224365659 0 0.16978669848249819 -0.25098739912941831 0 0.1767458594742066 -0.25730285456071711 0 0.17619278994504239 -0.24587918172992959 0 0.18399505531774341 -0.24981832115951039 0 0.16978669848249819 -0.25098739912941831 0 0.1767458594742066 -0.25730285456071711 0 0.17619278994504239 -0.24587918172992959 0 0.16988601458932601 -0.2589500224365659 0 0.16978669848249819 -0.25098739912941831 0 0.1767458594742066 -0.25730285456071711 0 0.16988601458932601 -0.2589500224365659 0 0.1767458594742066 -0.25730285456071711 0 0.17628584543496439 -0.26683535894776161 0 0.1767458594742066 -0.25730285456071711 0 0.17628584543496439 -0.26683535894776161 0 0.1845366839674035 -0.26640487959885623 0 0.1767458594742066 -0.25730285456071711 0 0.18706352147094041 -0.25756661524031438 0 0.1845366839674035 -0.26640487959885623 0 0.1767458594742066 -0.25730285456071711 0 0.18706352147094041 -0.25756661524031438 0 0.18399505531774341 -0.24981832115951039 0 0.18852187410829821 -0.28466447112163068 0 0.17628584543496439 -0.26683535894776161 0 0.1845366839674035 -0.26640487959885623 0 0.18852187410829821 -0.28466447112163068 0 0.16574248336044761 -0.26746108990676593 0 0.18852187410829821 -0.28466447112163068 0 0.16574248336044761 -0.26746108990676593 0 0.17628584543496439 -0.26683535894776161 0 0.16920230535812411 -0.27329149954452342 0 0.18747516626574931 -0.28692639975368628 0 0.17602993407772211 -0.2832030986568283 0 0.18852187410829821 -0.28466447112163068 0 0.16574248336044761 -0.26746108990676593 0 0.16920230535812411 -0.27329149954452342 0 0.16920230535812411 -0.27329149954452342 0 0.18747516626574931 -0.28692639975368628 0 0.16920230535812411 -0.27329149954452342 0 0.1710222018321049 -0.28124575318360368 0 0.17602993407772211 -0.2832030986568283 0 0.18747516626574931 -0.28692639975368628 0 0.1806905449634813 -0.28832929748571318 0 0.17602993407772211 -0.2832030986568283 0 0.18852187410829821 -0.28466447112163068 0 0.16920230535812411 -0.27329149954452342 0 0.18747516626574931 -0.28692639975368628 0 0.18747516626574931 -0.28692639975368628 0 0.1806905449634813 -0.28832929748571318 0 0.18301660310609241 -0.29114958545392738 0 0.17291101310642881 -0.28564608084835003 0 0.17864991096044419 -0.29495009963706692 0 0.16594555478614451 -0.28284233368471318 0 0.1806905449634813 -0.28832929748571318 0 0.17602993407772211 -0.2832030986568283 0 0.17673138357400531 -0.28840876668861409 0 0.17602993407772211 -0.2832030986568283 0 0.17673138357400531 -0.28840876668861409 0 0.17291101310642881 -0.28564608084835003 0 0.1710222018321049 -0.28124575318360368 0 0.17602993407772211 -0.2832030986568283 0 0.17291101310642881 -0.28564608084835003 0 0.17673138357400531 -0.28840876668861409 0 0.17291101310642881 -0.28564608084835003 0 0.17864991096044419 -0.29495009963706692 0 0.17673138357400531 -0.28840876668861409 0 0.17909088347012619 -0.29088019083727579 0 0.17864991096044419 -0.29495009963706692 0 0.1806905449634813 -0.28832929748571318 0 0.17673138357400531 -0.28840876668861409 0 0.17909088347012619 -0.29088019083727579 0 0.17909088347012619 -0.29088019083727579 0 0.17864991096044419 -0.29495009963706692 0 0.18114425154506539 -0.29221912984395187 0 0.18747516626574931 -0.28692639975368628 0 0.18734834214976739 -0.29514628785519947 0 0.1827564496500734 -0.29712351473235832 0 0.18747516626574931 -0.28692639975368628 0 0.18301660310609241 -0.29114958545392738 0 0.1827564496500734 -0.29712351473235832 0 0.18114425154506539 -0.29221912984395187 0 0.18301660310609241 -0.29114958545392738 0 0.1827564496500734 -0.29712351473235832 0 0.17864991096044419 -0.29495009963706692 0 0.18114425154506539 -0.29221912984395187 0 0.1827564496500734 -0.29712351473235832 0 0.18747516626574931 -0.28692639975368628 0 0.1827564496500734 -0.29712351473235832 0 0.1806905449634813 -0.28832929748571318 0 0.18114425154506539 -0.29221912984395187 0 0.18301660310609241 -0.29114958545392738 0 0.1806905449634813 -0.28832929748571318 0 0.17909088347012619 -0.29088019083727579 0 0.18114425154506539 -0.29221912984395187 0 0.18802618722583669 -0.31833181955932999 0 0.18221347423979239 -0.30458962683289892 0 0.1698931321352706 -0.29998698427508858 0 0.1880606218677118 -0.30022154946313712 0 0.18734834214976739 -0.29514628785519947 0 0.1827564496500734 -0.29712351473235832 0 0.19009702279388629 -0.3064242775921906 0 0.1880606218677118 -0.30022154946313712 0 0.18221347423979239 -0.30458962683289892 0 0.18802618722583669 -0.31833181955932999 0 0.17151825735526699 -0.31325416760549368 0 0.1698931321352706 -0.29998698427508858 0 0.1880606218677118 -0.30022154946313712 0 0.18221347423979239 -0.30458962683289892 0 0.1827564496500734 -0.29712351473235832 0 0.18802618722583669 -0.31833181955932999 0 0.1698931321352706 -0.29998698427508858 0 0.17864991096044419 -0.29495009963706692 0 0.1827564496500734 -0.29712351473235832 0 0.17837824174639511 -0.29916255636935318 0 0.18221347423979239 -0.30458962683289892 0 0.1827564496500734 -0.29712351473235832 0 0.17837824174639511 -0.29916255636935318 0 0.19009702279388629 -0.3064242775921906 0 0.18802618722583669 -0.31833181955932999 0 0.18221347423979239 -0.30458962683289892 0 0.18221347423979239 -0.30458962683289892 0 0.17837824174639511 -0.29916255636935318 0 0.1698931321352706 -0.29998698427508858 0 0.17864991096044419 -0.29495009963706692 0 0.17837824174639511 -0.29916255636935318 0 0.1698931321352706 -0.29998698427508858 0 0.17151825735526699 -0.31325416760549368 0 0.1698931321352706 -0.29998698427508858 0 0.1602411687519314 -0.31190927739118429 0 0.15432967412725099 -0.29846298066074151 0 0.1698931321352706 -0.29998698427508858 0 0.1602411687519314 -0.31190927739118429 0 0.1517600770447052 -0.28164214899084639 0 0.17864991096044419 -0.29495009963706692 0 0.1698931321352706 -0.29998698427508858 0 0.1517600770447052 -0.28164214899084639 0 0.1698931321352706 -0.29998698427508858 0 0.15432967412725099 -0.29846298066074151 0 0.1517600770447052 -0.28164214899084639 0 0.1698931321352706 -0.29998698427508858 0 0.1517600770447052 -0.28164214899084639 0 0.17864991096044419 -0.29495009963706692 0 0.1517600770447052 -0.28164214899084639 0 0.17864991096044419 -0.29495009963706692 0 0.16594555478614451 -0.28284233368471318 0 0.1710222018321049 -0.28124575318360368 0 0.17291101310642881 -0.28564608084835003 0 0.16594555478614451 -0.28284233368471318 0 0.21438456257476449 -0.5 0 0.2048745361024723 -0.48472171768082351 0 0.18744203257390391 -0.5 0 0.19122796324104871 -0.48466606029959602 0 0.2048745361024723 -0.48472171768082351 0 0.18744203257390391 -0.5 0 0.19122796324104871 -0.48466606029959602 0 0.20365346230900849 -0.47086657296764728 0 0.1938641377332887 -0.4633108835168005 0 0.19122796324104871 -0.48466606029959602 0 0.20365346230900849 -0.47086657296764728 0 0.2048745361024723 -0.48472171768082351 0 0.21766866328091511 -0.47157360957620892 0 0.2048745361024723 -0.48472171768082351 0 0.22288060450936709 -0.48400008360299168 0 0.20365346230900849 -0.47086657296764728 0 0.21766866328091511 -0.47157360957620892 0 0.2048745361024723 -0.48472171768082351 0 0.21438456257476449 -0.5 0 0.2048745361024723 -0.48472171768082351 0 0.22288060450936709 -0.48400008360299168 0 0.21438456257476449 -0.5 0 0.23633351028628971 -0.48712361601618398 0 0.2413270925756249 -0.5 0 0.21438456257476449 -0.5 0 0.23633351028628971 -0.48712361601618398 0 0.22288060450936709 -0.48400008360299168 0 0.25270961841775552 -0.48460016746525392 0 0.23633351028628971 -0.48712361601618398 0 0.2413270925756249 -0.5 0 0.25270961841775552 -0.48460016746525392 0 0.23633351028628971 -0.48712361601618398 0 0.23949561189523169 -0.47426551941090739 0 0.23949561189523169 -0.47426551941090739 0 0.22288060450936709 -0.48400008360299168 0 0.22545312399173489 -0.46028769725088831 0 0.21766866328091511 -0.47157360957620892 0 0.22288060450936709 -0.48400008360299168 0 0.22545312399173489 -0.46028769725088831 0 0.23633351028628971 -0.48712361601618398 0 0.23949561189523169 -0.47426551941090739 0 0.22288060450936709 -0.48400008360299168 0 0.22288060450936709 -0.48400008360299168 0 0.22545312399173489 -0.46028769725088831 0 0.21766866328091511 -0.47157360957620892 0 0.22545312399173489 -0.46028769725088831 0 0.2186728293425339 -0.44755637628226819 0 0.2588368117714554 -0.46700690363883102 0 0.23949561189523169 -0.47426551941090739 0 0.2409729068143365 -0.46262444708906358 0 0.22545312399173489 -0.46028769725088831 0 0.2409729068143365 -0.46262444708906358 0 0.24480843210435321 -0.45079661158300749 0 0.2588368117714554 -0.46700690363883102 0 0.2409729068143365 -0.46262444708906358 0 0.24480843210435321 -0.45079661158300749 0 0.23949561189523169 -0.47426551941090739 0 0.22545312399173489 -0.46028769725088831 0 0.2409729068143365 -0.46262444708906358 0 0.24480843210435321 -0.45079661158300749 0 0.22802564347410281 -0.43657531089878487 0 0.2418992233321238 -0.43333026798624508 0 0.25513396950241118 -0.43290986753561628 0 0.24480843210435321 -0.45079661158300749 0 0.2418992233321238 -0.43333026798624508 0 0.22545312399173489 -0.46028769725088831 0 0.22802564347410281 -0.43657531089878487 0 0.2186728293425339 -0.44755637628226819 0 0.21246462128442831 -0.43168381348743168 0 0.22802564347410281 -0.43657531089878487 0 0.22545312399173489 -0.46028769725088831 0 0.2186728293425339 -0.44755637628226819 0 0.22802564347410281 -0.43657531089878487 0 0.22545312399173489 -0.46028769725088831 0 0.24480843210435321 -0.45079661158300749 0 0.22802564347410281 -0.43657531089878487 0 0.20442019459899149 -0.44533796874460208 0 0.2186728293425339 -0.44755637628226819 0 0.21246462128442831 -0.43168381348743168 0 0.21766866328091511 -0.47157360957620892 0 0.20442019459899149 -0.44533796874460208 0 0.21766866328091511 -0.47157360957620892 0 0.20442019459899149 -0.44533796874460208 0 0.2186728293425339 -0.44755637628226819 0 0.20365346230900849 -0.47086657296764728 0 0.21766866328091511 -0.47157360957620892 0 0.20442019459899149 -0.44533796874460208 0 0.20365346230900849 -0.47086657296764728 0 0.20442019459899149 -0.44533796874460208 0 0.1938641377332887 -0.4633108835168005 0 0.20442019459899149 -0.44533796874460208 0 0.18484232774876749 -0.43033534366960768 0 0.18590039067086719 -0.44115637567916172 0 0.20442019459899149 -0.44533796874460208 0 0.18923595964957429 -0.45067509688328122 0 0.18590039067086719 -0.44115637567916172 0 0.20442019459899149 -0.44533796874460208 0 0.1938641377332887 -0.4633108835168005 0 0.18923595964957429 -0.45067509688328122 0 0.20442019459899149 -0.44533796874460208 0 0.1911717259170673 -0.41910232791299562 0 0.20473537155931409 -0.42802668409371708 0 0.20442019459899149 -0.44533796874460208 0 0.1911717259170673 -0.41910232791299562 0 0.20442019459899149 -0.44533796874460208 0 0.1911717259170673 -0.41910232791299562 0 0.18484232774876749 -0.43033534366960768 0 0.1911717259170673 -0.41910232791299562 0 0.21088494443676881 -0.41598262622983972 0 0.20473537155931409 -0.42802668409371708 0 0.18851111772050869 -0.41383358608972459 0 0.208966154163157 -0.40126827473642579 0 0.1911717259170673 -0.41910232791299562 0 0.21088494443676881 -0.41598262622983972 0 0.1911717259170673 -0.41910232791299562 0 0.18851111772050869 -0.41383358608972459 0 0.21088494443676881 -0.41598262622983972 0 0.18851111772050869 -0.41383358608972459 0 0.21088494443676881 -0.41598262622983972 0 0.208966154163157 -0.40126827473642579 0 0.1911717259170673 -0.41910232791299562 0 0.18851111772050869 -0.41383358608972459 0 0.21088494443676881 -0.41598262622983972 0 0.22155668588658281 -0.40529615173032069 0 0.208966154163157 -0.40126827473642579 0 0.21088494443676881 -0.41598262622983972 0 0.20473537155931409 -0.42802668409371708 0 0.21246462128442831 -0.43168381348743168 0 0.21088494443676881 -0.41598262622983972 0 0.21246462128442831 -0.43168381348743168 0 0.21959695705502991 -0.42408781639437282 0 0.20442019459899149 -0.44533796874460208 0 0.20473537155931409 -0.42802668409371708 0 0.21246462128442831 -0.43168381348743168 0 0.21246462128442831 -0.43168381348743168 0 0.21959695705502991 -0.42408781639437282 0 0.22802564347410281 -0.43657531089878487 0 0.22802564347410281 -0.43657531089878487 0 0.23614533994983331 -0.4244462479719151 0 0.23059816295646979 -0.4128629245466815 0 0.22802564347410281 -0.43657531089878487 0 0.23059816295646979 -0.4128629245466815 0 0.21959695705502991 -0.42408781639437282 0 0.22802564347410281 -0.43657531089878487 0 0.23059816295646979 -0.4128629245466815 0 0.22802564347410281 -0.43657531089878487 0 0.2418992233321238 -0.43333026798624508 0 0.23614533994983331 -0.4244462479719151 0 0.2418992233321238 -0.43333026798624508 0 0.23614533994983331 -0.4244462479719151 0 0.2453827316299185 -0.42192330194190181 0 0.25513396950241118 -0.43290986753561628 0 0.2418992233321238 -0.43333026798624508 0 0.2453827316299185 -0.42192330194190181 0 0.256136481120742 -0.41447562176841068 0 0.2453827316299185 -0.42192330194190181 0 0.24629253832767661 -0.41022035877505542 0 0.2453827316299185 -0.42192330194190181 0 0.24629253832767661 -0.41022035877505542 0 0.2366098857920339 -0.41191154353144788 0 0.23614533994983331 -0.4244462479719151 0 0.2366098857920339 -0.41191154353144788 0 0.23059816295646979 -0.4128629245466815 0 0.23614533994983331 -0.4244462479719151 0 0.2453827316299185 -0.42192330194190181 0 0.2366098857920339 -0.41191154353144788 0 0.24629253832767661 -0.41022035877505542 0 0.2366098857920339 -0.41191154353144788 0 0.2422505545635501 -0.40276464775944387 0 0.21088494443676881 -0.41598262622983972 0 0.23059816295646979 -0.4128629245466815 0 0.2366098857920339 -0.41191154353144788 0 0.23059816295646979 -0.4128629245466815 0 0.23156745731421779 -0.4039283829592023 0 0.23059816295646979 -0.4128629245466815 0 0.22155668588658281 -0.40529615173032069 0 0.23156745731421779 -0.4039283829592023 0 0.23059816295646979 -0.4128629245466815 0 0.23156745731421779 -0.4039283829592023 0 0.21088494443676881 -0.41598262622983972 0 0.23059816295646979 -0.4128629245466815 0 0.22155668588658281 -0.40529615173032069 0 0.21088494443676881 -0.41598262622983972 0 0.21959695705502991 -0.42408781639437282 0 0.23059816295646979 -0.4128629245466815 0 0.2366098857920339 -0.41191154353144788 0 0.23059816295646979 -0.4128629245466815 0 0.22155668588658281 -0.40529615173032069 0 0.22942119060580499 -0.38870296338312649 0 0.208966154163157 -0.40126827473642579 0 0.22155668588658281 -0.40529615173032069 0 0.23156745731421779 -0.4039283829592023 0 0.22942119060580499 -0.38870296338312649 0 0.22942119060580499 -0.38870296338312649 0 0.208966154163157 -0.40126827473642579 0 0.23156745731421779 -0.4039283829592023 0 0.24309899287842279 -0.39271330151873202 0 0.2422505545635501 -0.40276464775944387 0 0.2366098857920339 -0.41191154353144788 0 0.23156745731421779 -0.4039283829592023 0 0.2422505545635501 -0.40276464775944387 0 0.23156745731421779 -0.4039283829592023 0 0.24309899287842279 -0.39271330151873202 0 0.22942119060580499 -0.38870296338312649 0 0.25108303853213881 -0.40002667887407228 0 0.24629253832767661 -0.41022035877505542 0 0.2422505545635501 -0.40276464775944387 0 0.25108303853213881 -0.40002667887407228 0 0.24309899287842279 -0.39271330151873202 0 0.2422505545635501 -0.40276464775944387 0 0.24987622704845311 -0.37613765202982719 0 0.22942119060580499 -0.38870296338312649 0 0.24309899287842279 -0.39271330151873202 0 0.24987622704845311 -0.37613765202982719 0 0.22942119060580499 -0.38870296338312649 0 0.24987622704845311 -0.37613765202982719 0 0.23474048966473349 -0.38137370792841258 0 0.22942119060580499 -0.38870296338312649 0 0.25687819372407023 -0.38903915957053298 0 0.24309899287842279 -0.39271330151873202 0 0.24987622704845311 -0.37613765202982719 0 0.23679608458568241 -0.3713456781615978 0 0.24987622704845311 -0.37613765202982719 0 0.23474048966473349 -0.38137370792841258 0 0.23474048966473349 -0.38137370792841258 0 0.23010576568282681 -0.37607478874810818 0 0.22189277223980711 -0.38054577212349588 0 0.23474048966473349 -0.38137370792841258 0 0.22189277223980711 -0.38054577212349588 0 0.20961824525516401 -0.3936281247522696 0 0.23474048966473349 -0.38137370792841258 0 0.22942119060580499 -0.38870296338312649 0 0.20961824525516401 -0.3936281247522696 0 0.23679608458568241 -0.3713456781615978 0 0.23474048966473349 -0.38137370792841258 0 0.23010576568282681 -0.37607478874810818 0 0.23474048966473349 -0.38137370792841258 0 0.20961824525516401 -0.3936281247522696 0 0.22699371624108439 -0.37103399677892651 0 0.23010576568282681 -0.37607478874810818 0 0.22189277223980711 -0.38054577212349588 0 0.21663927632257499 -0.37152038636996992 0 0.22189277223980711 -0.38054577212349588 0 0.21119602619295649 -0.38157571206759561 0 0.21663927632257499 -0.37152038636996992 0 0.21119602619295649 -0.38157571206759561 0 0.20576161095015591 -0.37595213443190167 0 0.21119602619295649 -0.38157571206759561 0 0.20576161095015591 -0.37595213443190167 0 0.20229958674085519 -0.38616776423662919 0 0.21119602619295649 -0.38157571206759561 0 0.20961824525516401 -0.3936281247522696 0 0.20229958674085519 -0.38616776423662919 0 0.22189277223980711 -0.38054577212349588 0 0.21119602619295649 -0.38157571206759561 0 0.20961824525516401 -0.3936281247522696 0 0.22942119060580499 -0.38870296338312649 0 0.208966154163157 -0.40126827473642579 0 0.20961824525516401 -0.3936281247522696 0 0.20961824525516401 -0.3936281247522696 0 0.18449600084559339 -0.40588254157612419 0 0.20961824525516401 -0.3936281247522696 0 0.19262774622386039 -0.39991289132556063 0 0.20229958674085519 -0.38616776423662919 0 0.18851111772050869 -0.41383358608972459 0 0.20961824525516401 -0.3936281247522696 0 0.18449600084559339 -0.40588254157612419 0 0.19262774622386039 -0.39991289132556063 0 0.193172237845981 -0.38760648281860499 0 0.20229958674085519 -0.38616776423662919 0 0.20961824525516401 -0.3936281247522696 0 0.19262774622386039 -0.39991289132556063 0 0.18449600084559339 -0.40588254157612419 0 0.18851111772050869 -0.41383358608972459 0 0.208966154163157 -0.40126827473642579 0 0.20961824525516401 -0.3936281247522696 0 0.19262774622386039 -0.39991289132556063 0 0.18963514604776821 -0.39361523539988952 0 0.193172237845981 -0.38760648281860499 0 0.19262774622386039 -0.39991289132556063 0 0.18963514604776821 -0.39361523539988952 0 0.18221634088723479 -0.40136818287387582 0 0.18963514604776821 -0.39361523539988952 0 0.193172237845981 -0.38760648281860499 0 0.18267650324237161 -0.39405502657648112 0 0.193172237845981 -0.38760648281860499 0 0.1910424400336663 -0.37547354736401328 0 0.18267650324237161 -0.39405502657648112 0 0.20576161095015591 -0.37595213443190167 0 0.1910424400336663 -0.37547354736401328 0 0.20229958674085519 -0.38616776423662919 0 0.193172237845981 -0.38760648281860499 0 0.1910424400336663 -0.37547354736401328 0 0.20229958674085519 -0.38616776423662919 0 0.1910424400336663 -0.37547354736401328 0 0.17822948803450961 -0.38676940160015832 0 0.1737051017910701 -0.38004230502140057 0 0.1910424400336663 -0.37547354736401328 0 0.18267650324237161 -0.39405502657648112 0 0.1910424400336663 -0.37547354736401328 0 0.17822948803450961 -0.38676940160015832 0 0.18267650324237161 -0.39405502657648112 0 0.17822948803450961 -0.38676940160015832 0 0.17910183421640119 -0.39520059623836468 0 0.1646215608890387 -0.38907553280053181 0 0.17822948803450961 -0.38676940160015832 0 0.1737051017910701 -0.38004230502140057 0 0.1646215608890387 -0.38907553280053181 0 0.17822948803450961 -0.38676940160015832 0 0.18267650324237161 -0.39405502657648112 0 0.17910183421640119 -0.39520059623836468 0 0.18221634088723479 -0.40136818287387582 0 0.17910183421640119 -0.39520059623836468 0 0.15805845094365739 -0.40474493864538458 0 0.18963514604776821 -0.39361523539988952 0 0.18267650324237161 -0.39405502657648112 0 0.18221634088723479 -0.40136818287387582 0 0.18267650324237161 -0.39405502657648112 0 0.18221634088723479 -0.40136818287387582 0 0.17910183421640119 -0.39520059623836468 0 0.18221634088723479 -0.40136818287387582 0 0.17910183421640119 -0.39520059623836468 0 0.19262774622386039 -0.39991289132556063 0 0.18221634088723479 -0.40136818287387582 0 0.19262774622386039 -0.39991289132556063 0 0.18449600084559339 -0.40588254157612419 0 0.18221634088723479 -0.40136818287387582 0 0.18449600084559339 -0.40588254157612419 0 0.18221634088723479 -0.40136818287387582 0 0.17910183421640119 -0.39520059623836468 0 0.15805845094365739 -0.40474493864538458 0 0.1646215608890387 -0.38907553280053181 0 0.18221634088723479 -0.40136818287387582 0 0.15805845094365739 -0.40474493864538458 0 0.15805845094365739 -0.40474493864538458 0 0.1646215608890387 -0.38907553280053181 0 0.14706277844018539 -0.39464292458295508 0 0.1737051017910701 -0.38004230502140057 0 0.1646215608890387 -0.38907553280053181 0 0.16307541855137739 -0.37743582412871929 0 0.17035242753357599 -0.36877211446365682 0 0.1737051017910701 -0.38004230502140057 0 0.16307541855137739 -0.37743582412871929 0 0.1569593121701936 -0.36832063090657668 0 0.16307541855137739 -0.37743582412871929 0 0.14973869037300869 -0.38096853745143089 0 0.1646215608890387 -0.38907553280053181 0 0.16307541855137739 -0.37743582412871929 0 0.14973869037300869 -0.38096853745143089 0 0.1646215608890387 -0.38907553280053181 0 0.14973869037300869 -0.38096853745143089 0 0.14706277844018539 -0.39464292458295508 0 0.14973869037300869 -0.38096853745143089 0 0.1375772795987745 -0.38493757303029391 0 0.14706277844018539 -0.39464292458295508 0 0.13524945632583441 -0.37311377610700652 0 0.14973869037300869 -0.38096853745143089 0 0.1375772795987745 -0.38493757303029391 0 0.13524945632583441 -0.37311377610700652 0 0.1375772795987745 -0.38493757303029391 0 0.12609635470998201 -0.38402791619100712 0 0.1375772795987745 -0.38493757303029391 0 0.12609635470998201 -0.38402791619100712 0 0.13569313113510631 -0.39589912548093298 0 0.12645644117523869 -0.39722706905544619 0 0.13569313113510631 -0.39589912548093298 0 0.1339005610000801 -0.40812169441689322 0 0.12645644117523869 -0.39722706905544619 0 0.1339005610000801 -0.40812169441689322 0 0.1250254850364893 -0.40936224001308058 0 0.12609635470998201 -0.38402791619100712 0 0.12645644117523869 -0.39722706905544619 0 0.13569313113510631 -0.39589912548093298 0 0.1375772795987745 -0.38493757303029391 0 0.13569313113510631 -0.39589912548093298 0 0.14706277844018539 -0.39464292458295508 0 0.13569313113510631 -0.39589912548093298 0 0.14706277844018539 -0.39464292458295508 0 0.1339005610000801 -0.40812169441689322 0 0.13569313113510631 -0.39589912548093298 0 0.1339005610000801 -0.40812169441689322 0 0.15805845094365739 -0.40474493864538458 0 0.14706277844018539 -0.39464292458295508 0 0.1339005610000801 -0.40812169441689322 0 0.15805845094365739 -0.40474493864538458 0 0.1339005610000801 -0.40812169441689322 0 0.15805845094365739 -0.40474493864538458 0 0.15398562739609989 -0.414436145328195 0 0.14500783119440661 -0.41410657591589572 0 0.15805845094365739 -0.40474493864538458 0 0.14500783119440661 -0.41410657591589572 0 0.1339005610000801 -0.40812169441689322 0 0.15398562739609989 -0.414436145328195 0 0.15088002640467921 -0.42009116626417142 0 0.14500783119440661 -0.41410657591589572 0 0.15088002640467921 -0.42009116626417142 0 0.15979138776423191 -0.42406840149736191 0 0.15636365466176849 -0.41960526040447821 0 0.15398562739609989 -0.414436145328195 0 0.15088002640467921 -0.42009116626417142 0 0.15636365466176849 -0.41960526040447821 0 0.15088002640467921 -0.42009116626417142 0 0.14500783119440661 -0.41410657591589572 0 0.14354831806896931 -0.42663893719234869 0 0.14500783119440661 -0.41410657591589572 0 0.1339005610000801 -0.40812169441689322 0 0.13212255532719441 -0.42024495614079282 0 0.14500783119440661 -0.41410657591589572 0 0.13212255532719441 -0.42024495614079282 0 0.14354831806896931 -0.42663893719234869 0 0.1339005610000801 -0.40812169441689322 0 0.13212255532719441 -0.42024495614079282 0 0.13212255532719441 -0.42024495614079282 0 0.1250254850364893 -0.40936224001308058 0 0.117866085899093 -0.41583132647739651 0 0.13212255532719441 -0.42024495614079282 0 0.1250254850364893 -0.40936224001308058 0 0.1339005610000801 -0.40812169441689322 0 0.13212255532719441 -0.42024495614079282 0 0.1250254850364893 -0.40936224001308058 0 0.1339005610000801 -0.40812169441689322 0 0.1250254850364893 -0.40936224001308058 0 0.13212255532719441 -0.42024495614079282 0 0.14354831806896931 -0.42663893719234869 0 0.1460535583969573 -0.44160689079445481 0 0.13212255532719441 -0.42024495614079282 0 0.128223579302082 -0.44682997076052833 0 0.13212255532719441 -0.42024495614079282 0 0.128223579302082 -0.44682997076052833 0 0.1159996351348133 -0.43474120747525058 0 0.13212255532719441 -0.42024495614079282 0 0.1460535583969573 -0.44160689079445481 0 0.13212255532719441 -0.42024495614079282 0 0.1460535583969573 -0.44160689079445481 0 0.128223579302082 -0.44682997076052833 0 0.15088002640467921 -0.42009116626417142 0 0.14354831806896931 -0.42663893719234869 0 0.15979138776423191 -0.42406840149736191 0 0.14354831806896931 -0.42663893719234869 0 0.15979138776423191 -0.42406840149736191 0 0.14354831806896931 -0.42663893719234869 0 0.15423293294423909 -0.43386412417913311 0 0.1460535583969573 -0.44160689079445481 0 0.14354831806896931 -0.42663893719234869 0 0.15423293294423909 -0.43386412417913311 0 0.15979138776423191 -0.42406840149736191 0 0.15423293294423909 -0.43386412417913311 0 0.16088991666547389 -0.43196094602310392 0 0.16557730454712019 -0.44172028084172121 0 0.1713980071398 -0.42434598792645378 0 0.15979138776423191 -0.42406840149736191 0 0.1760344574594947 -0.42149786580237669 0 0.15423293294423909 -0.43386412417913311 0 0.16088991666547389 -0.43196094602310392 0 0.15979138776423191 -0.42406840149736191 0 0.15979138776423191 -0.42406840149736191 0 0.1760344574594947 -0.42149786580237669 0 0.16626302434537371 -0.43076979168845952 0 0.17509911994716071 -0.43336510097506958 0 0.16557730454712019 -0.44172028084172121 0 0.16088991666547389 -0.43196094602310392 0 0.16626302434537371 -0.43076979168845952 0 0.16557730454712019 -0.44172028084172121 0 0.16626302434537371 -0.43076979168845952 0 0.1713980071398 -0.42434598792645378 0 0.17509911994716071 -0.43336510097506958 0 0.16626302434537371 -0.43076979168845952 0 0.1713980071398 -0.42434598792645378 0 0.15979138776423191 -0.42406840149736191 0 0.16088991666547389 -0.43196094602310392 0 0.16626302434537371 -0.43076979168845952 0 0.15979138776423191 -0.42406840149736191 0 0.15636365466176849 -0.41960526040447821 0 0.16176651730702801 -0.41283252991975622 0 0.17042982775368151 -0.41274390099030239 0 0.18221634088723479 -0.40136818287387582 0 0.15805845094365739 -0.40474493864538458 0 0.17042982775368151 -0.41274390099030239 0 0.15979138776423191 -0.42406840149736191 0 0.15636365466176849 -0.41960526040447821 0 0.17042982775368151 -0.41274390099030239 0 0.15636365466176849 -0.41960526040447821 0 0.17042982775368151 -0.41274390099030239 0 0.15979138776423191 -0.42406840149736191 0 0.17042982775368151 -0.41274390099030239 0 0.1760344574594947 -0.42149786580237669 0 0.15398562739609989 -0.414436145328195 0 0.15636365466176849 -0.41960526040447821 0 0.16176651730702801 -0.41283252991975622 0 0.15805845094365739 -0.40474493864538458 0 0.15398562739609989 -0.414436145328195 0 0.16176651730702801 -0.41283252991975622 0 0.15805845094365739 -0.40474493864538458 0 0.16176651730702801 -0.41283252991975622 0 0.17042982775368151 -0.41274390099030239 0 0.17042982775368151 -0.41274390099030239 0 0.1760344574594947 -0.42149786580237669 0 0.17986785094481991 -0.4134894736146324 0 0.18449600084559339 -0.40588254157612419 0 0.17042982775368151 -0.41274390099030239 0 0.18449600084559339 -0.40588254157612419 0 0.18221634088723479 -0.40136818287387582 0 0.17042982775368151 -0.41274390099030239 0 0.18449600084559339 -0.40588254157612419 0 0.17042982775368151 -0.41274390099030239 0 0.17986785094481991 -0.4134894736146324 0 0.18851111772050869 -0.41383358608972459 0 0.18449600084559339 -0.40588254157612419 0 0.18851111772050869 -0.41383358608972459 0 0.18449600084559339 -0.40588254157612419 0 0.17986785094481991 -0.4134894736146324 0 0.18851111772050869 -0.41383358608972459 0 0.1760344574594947 -0.42149786580237669 0 0.1911717259170673 -0.41910232791299562 0 0.1760344574594947 -0.42149786580237669 0 0.18851111772050869 -0.41383358608972459 0 0.1760344574594947 -0.42149786580237669 0 0.17986785094481991 -0.4134894736146324 0 0.1911717259170673 -0.41910232791299562 0 0.18851111772050869 -0.41383358608972459 0 0.1760344574594947 -0.42149786580237669 0 0.1911717259170673 -0.41910232791299562 0 0.1760344574594947 -0.42149786580237669 0 0.18484232774876749 -0.43033534366960768 0 0.18484232774876749 -0.43033534366960768 0 0.17509911994716071 -0.43336510097506958 0 0.18590039067086719 -0.44115637567916172 0 0.18484232774876749 -0.43033534366960768 0 0.17509911994716071 -0.43336510097506958 0 0.17653319474121221 -0.42750765242104072 0 0.1713980071398 -0.42434598792645378 0 0.17509911994716071 -0.43336510097506958 0 0.17653319474121221 -0.42750765242104072 0 0.1760344574594947 -0.42149786580237669 0 0.18484232774876749 -0.43033534366960768 0 0.17653319474121221 -0.42750765242104072 0 0.1713980071398 -0.42434598792645378 0 0.1760344574594947 -0.42149786580237669 0 0.17653319474121221 -0.42750765242104072 0 0.1713980071398 -0.42434598792645378 0 0.1760344574594947 -0.42149786580237669 0 0.17791556380287959 -0.4455361086535346 0 0.17376504419967539 -0.46076368888843938 0 0.16557730454712019 -0.44172028084172121 0 0.17509911994716071 -0.43336510097506958 0 0.17791556380287959 -0.4455361086535346 0 0.18590039067086719 -0.44115637567916172 0 0.17509911994716071 -0.43336510097506958 0 0.17791556380287959 -0.4455361086535346 0 0.16557730454712019 -0.44172028084172121 0 0.18923595964957429 -0.45067509688328122 0 0.17791556380287959 -0.4455361086535346 0 0.18590039067086719 -0.44115637567916172 0 0.18923595964957429 -0.45067509688328122 0 0.17791556380287959 -0.4455361086535346 0 0.17376504419967539 -0.46076368888843938 0 0.1938641377332887 -0.4633108835168005 0 0.18923595964957429 -0.45067509688328122 0 0.17376504419967539 -0.46076368888843938 0 0.1938641377332887 -0.4633108835168005 0 0.17376504419967539 -0.46076368888843938 0 0.17718182015316611 -0.48165544175840053 0 0.17376504419967539 -0.46076368888843938 0 0.15550290350416551 -0.45157236434768988 0 0.1539044029471725 -0.46809795184702829 0 0.17376504419967539 -0.46076368888843938 0 0.16557730454712019 -0.44172028084172121 0 0.15550290350416551 -0.45157236434768988 0 0.15423293294423909 -0.43386412417913311 0 0.16557730454712019 -0.44172028084172121 0 0.15550290350416551 -0.45157236434768988 0 0.15423293294423909 -0.43386412417913311 0 0.15550290350416551 -0.45157236434768988 0 0.1460535583969573 -0.44160689079445481 0 0.15550290350416551 -0.45157236434768988 0 0.1460535583969573 -0.44160689079445481 0 0.14153074802588431 -0.45654190970348868 0 0.1460535583969573 -0.44160689079445481 0 0.128223579302082 -0.44682997076052833 0 0.14153074802588431 -0.45654190970348868 0 0.128223579302082 -0.44682997076052833 0 0.12432460327697011 -0.47341498538026422 0 0.128223579302082 -0.44682997076052833 0 0.14153074802588431 -0.45654190970348868 0 0.12432460327697011 -0.47341498538026422 0 0.1539044029471725 -0.46809795184702829 0 0.14153074802588431 -0.45654190970348868 0 0.12432460327697011 -0.47341498538026422 0 0.15550290350416551 -0.45157236434768988 0 0.1539044029471725 -0.46809795184702829 0 0.14153074802588431 -0.45654190970348868 0 0.1539044029471725 -0.46809795184702829 0 0.15048103374274721 -0.48484579871078243 0 0.12432460327697011 -0.47341498538026422 0 0.1404625649124509 -0.5 0 0.15048103374274721 -0.48484579871078243 0 0.12432460327697011 -0.47341498538026422 0 0.1404625649124509 -0.5 0 0.12042562725185831 -0.49999999999999989 0 0.12432460327697011 -0.47341498538026422 0 0.1404625649124509 -0.5 0 0.15048103374274721 -0.48484579871078243 0 0.16049950257304349 -0.50000000000000033 0 0.16049950257304349 -0.50000000000000033 0 0.17718182015316611 -0.48165544175840053 0 0.15048103374274721 -0.48484579871078243 0 0.16049950257304349 -0.50000000000000033 0 0.17718182015316611 -0.48165544175840053 0 0.17376504419967539 -0.46076368888843938 0 0.1539044029471725 -0.46809795184702829 0 0.17718182015316611 -0.48165544175840053 0 0.1539044029471725 -0.46809795184702829 0 0.15048103374274721 -0.48484579871078243 0 0.17718182015316611 -0.48165544175840053 0 0.1938641377332887 -0.4633108835168005 0 0.17718182015316611 -0.48165544175840053 0 0.19122796324104871 -0.48466606029959602 0 0.1938641377332887 -0.4633108835168005 0 0.17718182015316611 -0.48165544175840053 0 0.16049950257304349 -0.50000000000000033 0 0.17718182015316611 -0.48165544175840053 0 0.18744203257390391 -0.5 0 0.19122796324104871 -0.48466606029959602 0 0.17718182015316611 -0.48165544175840053 0 0.18744203257390391 -0.5 0 0.072018957471098571 -0.48629524479662273 0 0.069142552082564368 -0.5 0 0.082735946582200875 -0.4892045976485363 0 0.072018957471098571 -0.48629524479662273 0 0.079568506083734697 -0.4785915255016745 0 0.082735946582200875 -0.4892045976485363 0 0.072018957471098571 -0.48629524479662273 0 0.062670741706174135 -0.48944359682069549 0 0.064881374578912687 -0.4815757870058418 0 0.072018957471098571 -0.48629524479662273 0 0.069142552082564368 -0.5 0 0.062670741706174135 -0.48944359682069549 0 0.073180054077148754 -0.46968413697177741 0 0.079568506083734697 -0.4785915255016745 0 0.081395248040860374 -0.46160025678040811 0 0.067447632246636219 -0.45716428258124142 0 0.05849497948899289 -0.47642287528831911 0 0.061758178687080389 -0.47580514524370598 0 0.072018957471098571 -0.48629524479662273 0 0.064881374578912687 -0.4815757870058418 0 0.070673492561877091 -0.4782128222507579 0 0.064881374578912687 -0.4815757870058418 0 0.066280053791524171 -0.47680462027284459 0 0.061758178687080389 -0.47580514524370598 0 0.064881374578912687 -0.4815757870058418 0 0.066280053791524171 -0.47680462027284459 0 0.070673492561877091 -0.4782128222507579 0 0.066280053791524171 -0.47680462027284459 0 0.067807169338226503 -0.47162472659107291 0 0.061758178687080389 -0.47580514524370598 0 0.066280053791524171 -0.47680462027284459 0 0.067807169338226503 -0.47162472659107291 0 0.070673492561877091 -0.4782128222507579 0 0.067807169338226503 -0.47162472659107291 0 0.073180054077148754 -0.46968413697177741 0 0.070673492561877091 -0.4782128222507579 0 0.073180054077148754 -0.46968413697177741 0 0.070673492561877091 -0.4782128222507579 0 0.079568506083734697 -0.4785915255016745 0 0.072018957471098571 -0.48629524479662273 0 0.070673492561877091 -0.4782128222507579 0 0.079568506083734697 -0.4785915255016745 0 0.096876661376123455 -0.48080012839020431 0 0.081395248040860374 -0.46160025678040811 0 0.096876661376123455 -0.48080012839020431 0 0.095349939854524335 -0.46404107218864848 0 0.081395248040860374 -0.46160025678040811 0 0.079568506083734697 -0.4785915255016745 0 0.082735946582200875 -0.4892045976485363 0 0.096876661376123455 -0.48080012839020431 0 0.079568506083734697 -0.4785915255016745 0 0.096876661376123455 -0.48080012839020431 0 0.081395248040860374 -0.46160025678040811 0 0.090750313396975479 -0.5 0 0.082735946582200875 -0.4892045976485363 0 0.096876661376123455 -0.48080012839020431 0 0.069142552082564368 -0.5 0 0.090750313396975479 -0.5 0 0.082735946582200875 -0.4892045976485363 0 0.1123580747113867 -0.50000000000000033 0 0.1124728586670535 -0.48406595427175642 0 0.096876661376123455 -0.48080012839020431 0 0.090750313396975479 -0.5 0 0.1123580747113867 -0.50000000000000033 0 0.096876661376123455 -0.48080012839020431 0 0.1123580747113867 -0.50000000000000033 0 0.096876661376123455 -0.48080012839020431 0 0.1123580747113867 -0.50000000000000033 0 0.12042562725185831 -0.49999999999999989 0 0.1124728586670535 -0.48406595427175642 0 0.12042562725185831 -0.49999999999999989 0 0.1124728586670535 -0.48406595427175642 0 0.12432460327697011 -0.47341498538026422 0 0.12042562725185831 -0.49999999999999989 0 0.12432460327697011 -0.47341498538026422 0 0.1124728586670535 -0.48406595427175642 0 0.12432460327697011 -0.47341498538026422 0 0.1082250197838846 -0.46311527911574241 0 0.096876661376123455 -0.48080012839020431 0 0.095349939854524335 -0.46404107218864848 0 0.1082250197838846 -0.46311527911574241 0 0.1124728586670535 -0.48406595427175642 0 0.096876661376123455 -0.48080012839020431 0 0.1082250197838846 -0.46311527911574241 0 0.095349939854524335 -0.46404107218864848 0 0.1082250197838846 -0.46311527911574241 0 0.094902830217228867 -0.45064862446823939 0 0.128223579302082 -0.44682997076052833 0 0.12432460327697011 -0.47341498538026422 0 0.1082250197838846 -0.46311527911574241 0 0.128223579302082 -0.44682997076052833 0 0.1069391861142964 -0.44299064961396012 0 0.1159996351348133 -0.43474120747525058 0 0.128223579302082 -0.44682997076052833 0 0.1082250197838846 -0.46311527911574241 0 0.1069391861142964 -0.44299064961396012 0 0.1082250197838846 -0.46311527911574241 0 0.1069391861142964 -0.44299064961396012 0 0.094902830217228867 -0.45064862446823939 0 0.1069391861142964 -0.44299064961396012 0 0.091812697424993442 -0.4386357446441016 0 0.098414951810672224 -0.43233268446502993 0 0.1069391861142964 -0.44299064961396012 0 0.094902830217228867 -0.45064862446823939 0 0.091812697424993442 -0.4386357446441016 0 0.094902830217228867 -0.45064862446823939 0 0.091812697424993442 -0.4386357446441016 0 0.082434724511159588 -0.44537142502386151 0 0.094902830217228867 -0.45064862446823939 0 0.082434724511159588 -0.44537142502386151 0 0.081395248040860374 -0.46160025678040811 0 0.091812697424993442 -0.4386357446441016 0 0.082434724511159588 -0.44537142502386151 0 0.078149012167117934 -0.43357211405594609 0 0.095349939854524335 -0.46404107218864848 0 0.094902830217228867 -0.45064862446823939 0 0.081395248040860374 -0.46160025678040811 0 0.067447632246636219 -0.45716428258124142 0 0.065913834705597293 -0.44240038517061198 0 0.057068655694905858 -0.46015288389510001 0 0.067447632246636219 -0.45716428258124142 0 0.05849497948899289 -0.47642287528831911 0 0.067807169338226503 -0.47162472659107291 0 0.067447632246636219 -0.45716428258124142 0 0.061758178687080389 -0.47580514524370598 0 0.081395248040860374 -0.46160025678040811 0 0.067447632246636219 -0.45716428258124142 0 0.065913834705597293 -0.44240038517061198 0 0.073180054077148754 -0.46968413697177741 0 0.081395248040860374 -0.46160025678040811 0 0.067447632246636219 -0.45716428258124142 0 0.067807169338226503 -0.47162472659107291 0 0.073180054077148754 -0.46968413697177741 0 0.067447632246636219 -0.45716428258124142 0 0.081395248040860374 -0.46160025678040811 0 0.065913834705597293 -0.44240038517061198 0 0.082434724511159588 -0.44537142502386151 0 0.081395248040860374 -0.46160025678040811 0 0.065913834705597293 -0.44240038517061198 0 0.082434724511159588 -0.44537142502386151 0 0.065913834705597293 -0.44240038517061198 0 0.078149012167117934 -0.43357211405594609 0 0.065921365320016911 -0.4273577277455588 0 0.073982485551444349 -0.42005290588181732 0 0.078149012167117934 -0.43357211405594609 0 0.065913834705597293 -0.44240038517061198 0 0.065921365320016911 -0.4273577277455588 0 0.078149012167117934 -0.43357211405594609 0 0.073982485551444349 -0.42005290588181732 0 0.069775570718114244 -0.40426700169235308 0 0.060774245729122177 -0.41691050055794487 0 0.065921365320016911 -0.4273577277455588 0 0.073982485551444349 -0.42005290588181732 0 0.060774245729122177 -0.41691050055794487 0 0.073982485551444349 -0.42005290588181732 0 0.086447448161059384 -0.41120764722282821 0 0.069775570718114244 -0.40426700169235308 0 0.073982485551444349 -0.42005290588181732 0 0.086447448161059384 -0.41120764722282821 0 0.088692331433278357 -0.42535053834926723 0 0.086447448161059384 -0.41120764722282821 0 0.093827427438274241 -0.41775801958915132 0 0.099702730965631758 -0.41290181884877419 0 0.086447448161059384 -0.41120764722282821 0 0.088692331433278357 -0.42535053834926723 0 0.093827427438274241 -0.41775801958915132 0 0.088692331433278357 -0.42535053834926723 0 0.097645949564215143 -0.42435504664253748 0 0.093827427438274241 -0.41775801958915132 0 0.073982485551444349 -0.42005290588181732 0 0.088692331433278357 -0.42535053834926723 0 0.078149012167117934 -0.43357211405594609 0 0.091812697424993442 -0.4386357446441016 0 0.088692331433278357 -0.42535053834926723 0 0.078149012167117934 -0.43357211405594609 0 0.091812697424993442 -0.4386357446441016 0 0.088692331433278357 -0.42535053834926723 0 0.098414951810672224 -0.43233268446502993 0 0.098414951810672224 -0.43233268446502993 0 0.097645949564215143 -0.42435504664253748 0 0.1061961683754654 -0.43004895598907111 0 0.088692331433278357 -0.42535053834926723 0 0.098414951810672224 -0.43233268446502993 0 0.097645949564215143 -0.42435504664253748 0 0.1061961683754654 -0.43004895598907111 0 0.11152958735588871 -0.42539382439527612 0 0.1045809803654715 -0.42051706085107571 0 0.097645949564215143 -0.42435504664253748 0 0.1061961683754654 -0.43004895598907111 0 0.1045809803654715 -0.42051706085107571 0 0.1069391861142964 -0.44299064961396012 0 0.098414951810672224 -0.43233268446502993 0 0.1061961683754654 -0.43004895598907111 0 0.1061961683754654 -0.43004895598907111 0 0.1159996351348133 -0.43474120747525058 0 0.11152958735588871 -0.42539382439527612 0 0.13212255532719441 -0.42024495614079282 0 0.1159996351348133 -0.43474120747525058 0 0.11851153239627241 -0.42275952171654291 0 0.1069391861142964 -0.44299064961396012 0 0.1061961683754654 -0.43004895598907111 0 0.1159996351348133 -0.43474120747525058 0 0.1159996351348133 -0.43474120747525058 0 0.11152958735588871 -0.42539382439527612 0 0.11851153239627241 -0.42275952171654291 0 0.11152958735588871 -0.42539382439527612 0 0.11851153239627241 -0.42275952171654291 0 0.1123596205074209 -0.41890237594444008 0 0.1250254850364893 -0.40936224001308058 0 0.117866085899093 -0.41583132647739651 0 0.1096180349996463 -0.41151587164058129 0 0.1250254850364893 -0.40936224001308058 0 0.1096180349996463 -0.41151587164058129 0 0.13212255532719441 -0.42024495614079282 0 0.11851153239627241 -0.42275952171654291 0 0.117866085899093 -0.41583132647739651 0 0.117866085899093 -0.41583132647739651 0 0.1123596205074209 -0.41890237594444008 0 0.1096180349996463 -0.41151587164058129 0 0.11851153239627241 -0.42275952171654291 0 0.117866085899093 -0.41583132647739651 0 0.1123596205074209 -0.41890237594444008 0 0.11152958735588871 -0.42539382439527612 0 0.1123596205074209 -0.41890237594444008 0 0.1045809803654715 -0.42051706085107571 0 0.1123596205074209 -0.41890237594444008 0 0.1096180349996463 -0.41151587164058129 0 0.1065506547415149 -0.41613106226330793 0 0.1096180349996463 -0.41151587164058129 0 0.1065506547415149 -0.41613106226330793 0 0.099702730965631758 -0.41290181884877419 0 0.1096180349996463 -0.41151587164058129 0 0.099702730965631758 -0.41290181884877419 0 0.1096180349996463 -0.41151587164058129 0 0.099702730965631758 -0.41290181884877419 0 0.1041447551606165 -0.40305668800175581 0 0.1123596205074209 -0.41890237594444008 0 0.1065506547415149 -0.41613106226330793 0 0.1045809803654715 -0.42051706085107571 0 0.1065506547415149 -0.41613106226330793 0 0.1045809803654715 -0.42051706085107571 0 0.099702730965631758 -0.41290181884877419 0 0.1045809803654715 -0.42051706085107571 0 0.093827427438274241 -0.41775801958915132 0 0.099702730965631758 -0.41290181884877419 0 0.097645949564215143 -0.42435504664253748 0 0.1045809803654715 -0.42051706085107571 0 0.093827427438274241 -0.41775801958915132 0 0.086447448161059384 -0.41120764722282821 0 0.099702730965631758 -0.41290181884877419 0 0.095691580682652475 -0.39908469234235189 0 0.095691580682652475 -0.39908469234235189 0 0.1041447551606165 -0.40305668800175581 0 0.1115666739945345 -0.38872436917531578 0 0.099702730965631758 -0.41290181884877419 0 0.095691580682652475 -0.39908469234235189 0 0.1041447551606165 -0.40305668800175581 0 0.1096180349996463 -0.41151587164058129 0 0.1041447551606165 -0.40305668800175581 0 0.1115666739945345 -0.38872436917531578 0 0.1250254850364893 -0.40936224001308058 0 0.1115666739945345 -0.38872436917531578 0 0.1096180349996463 -0.41151587164058129 0 0.1115666739945345 -0.38872436917531578 0 0.1250254850364893 -0.40936224001308058 0 0.1096180349996463 -0.41151587164058129 0 0.1115666739945345 -0.38872436917531578 0 0.12645644117523869 -0.39722706905544619 0 0.1250254850364893 -0.40936224001308058 0 0.1115666739945345 -0.38872436917531578 0 0.12609635470998201 -0.38402791619100712 0 0.1115666739945345 -0.38872436917531578 0 0.113745377556003 -0.36324200547299851 0 0.1115666739945345 -0.38872436917531578 0 0.113745377556003 -0.36324200547299851 0 0.12609635470998201 -0.38402791619100712 0 0.12645644117523869 -0.39722706905544619 0 0.1115666739945345 -0.38872436917531578 0 0.1115666739945345 -0.38872436917531578 0 0.096372132326470572 -0.36542491223168638 0 0.1115666739945345 -0.38872436917531578 0 0.089853218628298884 -0.38394717958202601 0 0.096372132326470572 -0.36542491223168638 0 0.095691580682652475 -0.39908469234235189 0 0.1115666739945345 -0.38872436917531578 0 0.089853218628298884 -0.38394717958202601 0 0.089853218628298884 -0.38394717958202601 0 0.082924844884061683 -0.39714926844771359 0 0.072939106935086151 -0.38728773006234168 0 0.089853218628298884 -0.38394717958202601 0 0.072939106935086151 -0.38728773006234168 0 0.07582030708563034 -0.37256671738353597 0 0.095691580682652475 -0.39908469234235189 0 0.089853218628298884 -0.38394717958202601 0 0.082924844884061683 -0.39714926844771359 0 0.086447448161059384 -0.41120764722282821 0 0.082924844884061683 -0.39714926844771359 0 0.069775570718114244 -0.40426700169235308 0 0.086447448161059384 -0.41120764722282821 0 0.095691580682652475 -0.39908469234235189 0 0.082924844884061683 -0.39714926844771359 0 0.069775570718114244 -0.40426700169235308 0 0.072939106935086151 -0.38728773006234168 0 0.058313699768321348 -0.39007371912844929 0 0.082924844884061683 -0.39714926844771359 0 0.069775570718114244 -0.40426700169235308 0 0.072939106935086151 -0.38728773006234168 0 0.072939106935086151 -0.38728773006234168 0 0.05933500968155693 -0.37671477575793533 0 0.058313699768321348 -0.39007371912844929 0 0.072939106935086151 -0.38728773006234168 0 0.05933500968155693 -0.37671477575793533 0 0.07582030708563034 -0.37256671738353597 0 0.05933500968155693 -0.37671477575793533 0 0.043300396670470892 -0.38581293046691678 0 0.039079294002052851 -0.37065651216905859 0 0.05933500968155693 -0.37671477575793533 0 0.058313699768321348 -0.39007371912844929 0 0.043300396670470892 -0.38581293046691678 0 0.058313699768321348 -0.39007371912844929 0 0.0466875803122518 -0.39705513158652528 0 0.054373060569327003 -0.40663711634463268 0 0.069775570718114244 -0.40426700169235308 0 0.058313699768321348 -0.39007371912844929 0 0.054373060569327003 -0.40663711634463268 0 0.058313699768321348 -0.39007371912844929 0 0.054373060569327003 -0.40663711634463268 0 0.0466875803122518 -0.39705513158652528 0 0.042121557959679479 -0.40689397827368962 0 0.054373060569327003 -0.40663711634463268 0 0.058313699768321348 -0.39007371912844929 0 0.0466875803122518 -0.39705513158652528 0 0.043300396670470892 -0.38581293046691678 0 0.0466875803122518 -0.39705513158652528 0 0.032645317368698572 -0.39721328630736241 0 0.043300396670470892 -0.38581293046691678 0 0.0466875803122518 -0.39705513158652528 0 0.032645317368698572 -0.39721328630736241 0 0.042121557959679479 -0.40689397827368962 0 0.032645317368698572 -0.39721328630736241 0 0.043300396670470892 -0.38581293046691678 0 0.025542853711361019 -0.38384675294920401 0 0.043300396670470892 -0.38581293046691678 0 0.025542853711361019 -0.38384675294920401 0 0.039079294002052851 -0.37065651216905859 0 0.025542853711361019 -0.38384675294920401 0 0.009690974369139977 -0.39295199195252922 0 0.016784443680880379 -0.36713146693108112 0 -0.0064694903547723136 -0.38059021958606692 0 0.009690974369139977 -0.39295199195252922 0 0.016784443680880379 -0.36713146693108112 0 0.032645317368698572 -0.39721328630736241 0 0.009690974369139977 -0.39295199195252922 0 0.030062121183744069 -0.41560348860952728 0 0.032645317368698572 -0.39721328630736241 0 0.025542853711361019 -0.38384675294920401 0 0.009690974369139977 -0.39295199195252922 0 0.009690974369139977 -0.39295199195252922 0 0.030062121183744069 -0.41560348860952728 0 0.01224976062295041 -0.42183763890738629 0 -0.0080625817845775948 -0.40608726553411861 0 0.009690974369139977 -0.39295199195252922 0 0.01224976062295041 -0.42183763890738629 0 0.009690974369139977 -0.39295199195252922 0 0.01224976062295041 -0.42183763890738629 0 0.01224976062295041 -0.42183763890738629 0 0.01480854687676085 -0.45072328586224342 0 0.030062121183744069 -0.41560348860952728 0 0.01224976062295041 -0.42183763890738629 0 0.028535899264767479 -0.43733174884408438 0 0.01224976062295041 -0.42183763890738629 0 0.028535899264767479 -0.43733174884408438 0 0.01480854687676085 -0.45072328586224342 0 0.030062121183744069 -0.41560348860952728 0 0.028535899264767479 -0.43733174884408438 0 0.039909128579099777 -0.42893709763038412 0 0.039909128579099777 -0.42893709763038412 0 0.050432421370333713 -0.42320051356081623 0 0.04400553312424714 -0.45021417746364167 0 0.039909128579099777 -0.42893709763038412 0 0.046509667952406512 -0.41833555967385072 0 0.050432421370333713 -0.42320051356081623 0 0.032645317368698572 -0.39721328630736241 0 0.030062121183744069 -0.41560348860952728 0 0.042121557959679479 -0.40689397827368962 0 0.030062121183744069 -0.41560348860952728 0 0.039909128579099777 -0.42893709763038412 0 0.046509667952406512 -0.41833555967385072 0 0.030062121183744069 -0.41560348860952728 0 0.042121557959679479 -0.40689397827368962 0 0.046509667952406512 -0.41833555967385072 0 0.054373060569327003 -0.40663711634463268 0 0.050432421370333713 -0.42320051356081623 0 0.046509667952406512 -0.41833555967385072 0 0.054373060569327003 -0.40663711634463268 0 0.050432421370333713 -0.42320051356081623 0 0.054373060569327003 -0.40663711634463268 0 0.060774245729122177 -0.41691050055794487 0 0.050432421370333713 -0.42320051356081623 0 0.046509667952406512 -0.41833555967385072 0 0.050432421370333713 -0.42320051356081623 0 0.042121557959679479 -0.40689397827368962 0 0.046509667952406512 -0.41833555967385072 0 0.054373060569327003 -0.40663711634463268 0 0.069775570718114244 -0.40426700169235308 0 0.054373060569327003 -0.40663711634463268 0 0.060774245729122177 -0.41691050055794487 0 0.050432421370333713 -0.42320051356081623 0 0.04400553312424714 -0.45021417746364167 0 0.065913834705597293 -0.44240038517061198 0 0.050432421370333713 -0.42320051356081623 0 0.065913834705597293 -0.44240038517061198 0 0.065921365320016911 -0.4273577277455588 0 0.050432421370333713 -0.42320051356081623 0 0.065921365320016911 -0.4273577277455588 0 0.060774245729122177 -0.41691050055794487 0 0.050432421370333713 -0.42320051356081623 0 0.065913834705597293 -0.44240038517061198 0 0.050432421370333713 -0.42320051356081623 0 0.04400553312424714 -0.45021417746364167 0 0.065913834705597293 -0.44240038517061198 0 0.057068655694905858 -0.46015288389510001 0 0.04400553312424714 -0.45021417746364167 0 0.057068655694905858 -0.46015288389510001 0 0.048043393468649283 -0.46676160836513853 0 0.04400553312424714 -0.45021417746364167 0 0.067447632246636219 -0.45716428258124142 0 0.057068655694905858 -0.46015288389510001 0 0.05849497948899289 -0.47642287528831911 0 0.057068655694905858 -0.46015288389510001 0 0.048043393468649283 -0.46676160836513853 0 0.052635520687858477 -0.47072247146996382 0 0.04400553312424714 -0.45021417746364167 0 0.037578644878161642 -0.47722784136646751 0 0.048043393468649283 -0.46676160836513853 0 0.04400553312424714 -0.45021417746364167 0 0.037578644878161642 -0.47722784136646751 0 0.04400553312424714 -0.45021417746364167 0 0.030366658319331299 -0.45781827645911538 0 0.037578644878161642 -0.47722784136646751 0 0.028535899264767479 -0.43733174884408438 0 0.039909128579099777 -0.42893709763038412 0 0.04400553312424714 -0.45021417746364167 0 0.028535899264767479 -0.43733174884408438 0 0.04400553312424714 -0.45021417746364167 0 0.030366658319331299 -0.45781827645911538 0 0.028535899264767479 -0.43733174884408438 0 0.01480854687676085 -0.45072328586224342 0 0.030366658319331299 -0.45781827645911538 0 -0.008216644178786571 -0.4466179140804285 0 0.01224976062295041 -0.42183763890738629 0 0.01480854687676085 -0.45072328586224342 0 0.01480854687676085 -0.45072328586224342 0 0.017367333130571299 -0.47960893281710049 0 0.0084119176919832291 -0.471974008478943 0 -0.0021957942935651631 -0.46571035637089769 0 0.01480854687676085 -0.45072328586224342 0 0.0084119176919832291 -0.471974008478943 0 -0.008216644178786571 -0.4466179140804285 0 -0.0021957942935651631 -0.46571035637089769 0 0.01480854687676085 -0.45072328586224342 0 0.01480854687676085 -0.45072328586224342 0 0.017367333130571299 -0.47960893281710049 0 0.01480854687676085 -0.45072328586224342 0 0.030366658319331299 -0.45781827645911538 0 0.0269046674527194 -0.47359432875914009 0 0.01480854687676085 -0.45072328586224342 0 0.0269046674527194 -0.47359432875914009 0 0.017367333130571299 -0.47960893281710049 0 0.017367333130571299 -0.47960893281710049 0 0.012735562036971701 -0.48508522326900949 0 0.035615270762982369 -0.48075404927866472 0 0.012735562036971701 -0.48508522326900949 0 0.035615270762982369 -0.48075404927866472 0 0.0269046674527194 -0.47359432875914009 0 0.017367333130571299 -0.47960893281710049 0 0.035615270762982369 -0.48075404927866472 0 0.017367333130571299 -0.47960893281710049 0 0.0084119176919832291 -0.471974008478943 0 0.012735562036971701 -0.48508522326900949 0 -0.00065605929082254884 -0.47874224407546379 0 0.0084119176919832291 -0.471974008478943 0 0.012735562036971701 -0.48508522326900949 0 -0.0021957942935651631 -0.46571035637089769 0 -0.00065605929082254884 -0.47874224407546379 0 0.0084119176919832291 -0.471974008478943 0 -0.010144146689038991 -0.48941639725935437 0 -0.00065605929082254884 -0.47874224407546379 0 0.012735562036971701 -0.48508522326900949 0 -0.010144146689038991 -0.48941639725935437 0 0.012735562036971701 -0.48508522326900949 0 -0.011489863113854141 -0.5 0 0.012735562036971701 -0.48508522326900949 0 0.01802246382714956 -0.5 0 0.01802246382714956 -0.5 0 0.025329369399590369 -0.48901546815995378 0 0.047534790768153173 -0.50000000000000044 0 0.012735562036971701 -0.48508522326900949 0 0.025329369399590369 -0.48901546815995378 0 0.035615270762982369 -0.48075404927866472 0 0.012735562036971701 -0.48508522326900949 0 0.01802246382714956 -0.5 0 0.025329369399590369 -0.48901546815995378 0 0.025329369399590369 -0.48901546815995378 0 0.035615270762982369 -0.48075404927866472 0 0.047534790768153173 -0.50000000000000044 0 0.030366658319331299 -0.45781827645911538 0 0.0269046674527194 -0.47359432875914009 0 0.037578644878161642 -0.47722784136646751 0 0.0269046674527194 -0.47359432875914009 0 0.037578644878161642 -0.47722784136646751 0 0.035615270762982369 -0.48075404927866472 0 0.048043393468649283 -0.46676160836513853 0 0.037578644878161642 -0.47722784136646751 0 0.046296380844488463 -0.47463440362945558 0 0.035615270762982369 -0.48075404927866472 0 0.046296380844488463 -0.47463440362945558 0 0.049693011087844949 -0.4756354888466594 0 0.037578644878161642 -0.47722784136646751 0 0.035615270762982369 -0.48075404927866472 0 0.046296380844488463 -0.47463440362945558 0 0.057068655694905858 -0.46015288389510001 0 0.052635520687858477 -0.47072247146996382 0 0.05849497948899289 -0.47642287528831911 0 0.035615270762982369 -0.48075404927866472 0 0.049693011087844949 -0.4756354888466594 0 0.05849497948899289 -0.47642287528831911 0 0.035615270762982369 -0.48075404927866472 0 0.05849497948899289 -0.47642287528831911 0 0.048043393468649283 -0.46676160836513853 0 0.046296380844488463 -0.47463440362945558 0 0.052635520687858477 -0.47072247146996382 0 0.049693011087844949 -0.4756354888466594 0 0.052635520687858477 -0.47072247146996382 0 0.05849497948899289 -0.47642287528831911 0 0.046296380844488463 -0.47463440362945558 0 0.049693011087844949 -0.4756354888466594 0 0.052635520687858477 -0.47072247146996382 0 0.05849497948899289 -0.47642287528831911 0 0.061758178687080389 -0.47580514524370598 0 0.062670741706174135 -0.48944359682069549 0 0.064881374578912687 -0.4815757870058418 0 0.05849497948899289 -0.47642287528831911 0 0.064881374578912687 -0.4815757870058418 0 0.05849497948899289 -0.47642287528831911 0 0.061758178687080389 -0.47580514524370598 0 0.069142552082564368 -0.5 0 0.062670741706174135 -0.48944359682069549 0 0.047534790768153173 -0.50000000000000044 0 0.05849497948899289 -0.47642287528831911 0 0.047534790768153173 -0.50000000000000044 0 0.035615270762982369 -0.48075404927866472 0 0.05849497948899289 -0.47642287528831911 0 0.047534790768153173 -0.50000000000000044 0 0.062670741706174135 -0.48944359682069549 0 0.05849497948899289 -0.47642287528831911 0 0.047534790768153173 -0.50000000000000044 0 0.089727975817252392 -0.29646224842349211 0 0.069967983226982527 -0.30495776272600778 0 0.075483032258224086 -0.28815868119130272 0 0.089727975817252392 -0.29646224842349211 0 0.088503230311337153 -0.27716835087377989 0 0.101883582619993 -0.28460947857741209 0 0.089727975817252392 -0.29646224842349211 0 0.075483032258224086 -0.28815868119130272 0 0.088503230311337153 -0.27716835087377989 0 0.089727975817252392 -0.29646224842349211 0 0.086214248119208581 -0.31193359067875348 0 0.069967983226982527 -0.30495776272600778 0 0.089727975817252392 -0.29646224842349211 0 0.086214248119208581 -0.31193359067875348 0 0.10049372866807189 -0.31082656242210721 0 0.069967983226982527 -0.30495776272600778 0 0.075483032258224086 -0.28815868119130272 0 0.059449054433483903 -0.28956707473318272 0 0.075483032258224086 -0.28815868119130272 0 0.0646939085167762 -0.2722383315448984 0 0.059449054433483903 -0.28956707473318272 0 0.0646939085167762 -0.2722383315448984 0 0.077350866508299074 -0.27549126298099152 0 0.080723294946858856 -0.26439968831398508 0 0.075483032258224086 -0.28815868119130272 0 0.0646939085167762 -0.2722383315448984 0 0.077350866508299074 -0.27549126298099152 0 0.0646939085167762 -0.2722383315448984 0 0.070005134957367529 -0.25889031236374099 0 0.080723294946858856 -0.26439968831398508 0 0.070005134957367529 -0.25889031236374099 0 0.061490933840310687 -0.25382890142296882 0 0.070069103552599196 -0.24823964670048029 0 0.0646939085167762 -0.2722383315448984 0 0.070005134957367529 -0.25889031236374099 0 0.060614126731859473 -0.2624009925450973 0 0.070005134957367529 -0.25889031236374099 0 0.061490933840310687 -0.25382890142296882 0 0.060614126731859473 -0.2624009925450973 0 0.070005134957367529 -0.25889031236374099 0 0.080071368274292315 -0.25145738896057979 0 0.080723294946858856 -0.26439968831398508 0 0.070005134957367529 -0.25889031236374099 0 0.080071368274292315 -0.25145738896057979 0 0.070069103552599196 -0.24823964670048029 0 0.080071368274292315 -0.25145738896057979 0 0.080723294946858856 -0.26439968831398508 0 0.090706365013478091 -0.25245448435890872 0 0.080723294946858856 -0.26439968831398508 0 0.090706365013478091 -0.25245448435890872 0 0.095060577752172304 -0.26241188567384149 0 0.075483032258224086 -0.28815868119130272 0 0.077350866508299074 -0.27549126298099152 0 0.088503230311337153 -0.27716835087377989 0 0.077350866508299074 -0.27549126298099152 0 0.080723294946858856 -0.26439968831398508 0 0.088503230311337153 -0.27716835087377989 0 0.080723294946858856 -0.26439968831398508 0 0.088503230311337153 -0.27716835087377989 0 0.095060577752172304 -0.26241188567384149 0 0.088503230311337153 -0.27716835087377989 0 0.1016952336099234 -0.27235330725820578 0 0.101883582619993 -0.28460947857741209 0 0.088503230311337153 -0.27716835087377989 0 0.1016952336099234 -0.27235330725820578 0 0.095060577752172304 -0.26241188567384149 0 0.1016952336099234 -0.27235330725820578 0 0.1104739380917857 -0.2612093749811526 0 0.1125548392743288 -0.27636744618484282 0 0.1016952336099234 -0.27235330725820578 0 0.1125548392743288 -0.27636744618484282 0 0.101883582619993 -0.28460947857741209 0 0.090706365013478091 -0.25245448435890872 0 0.099550463170151926 -0.25262580003909579 0 0.095060577752172304 -0.26241188567384149 0 0.1016952336099234 -0.27235330725820578 0 0.095060577752172304 -0.26241188567384149 0 0.1104739380917857 -0.2612093749811526 0 0.099550463170151926 -0.25262580003909579 0 0.095060577752172304 -0.26241188567384149 0 0.1104739380917857 -0.2612093749811526 0 0.099550463170151926 -0.25262580003909579 0 0.1104739380917857 -0.2612093749811526 0 0.1078238037173969 -0.24832262031645649 0 0.1311170075682456 -0.27142576198599933 0 0.1104739380917857 -0.2612093749811526 0 0.1212054647883809 -0.25073068226796852 0 0.1104739380917857 -0.2612093749811526 0 0.1212054647883809 -0.25073068226796852 0 0.1078238037173969 -0.24832262031645649 0 0.1311170075682456 -0.27142576198599933 0 0.1104739380917857 -0.2612093749811526 0 0.1311170075682456 -0.27142576198599933 0 0.1104739380917857 -0.2612093749811526 0 0.1193620271946058 -0.27249351692823448 0 0.1104739380917857 -0.2612093749811526 0 0.1125548392743288 -0.27636744618484282 0 0.1193620271946058 -0.27249351692823448 0 0.1125548392743288 -0.27636744618484282 0 0.1193620271946058 -0.27249351692823448 0 0.1233023238440631 -0.28097148456094378 0 0.1311170075682456 -0.27142576198599933 0 0.1193620271946058 -0.27249351692823448 0 0.1233023238440631 -0.28097148456094378 0 0.1233023238440631 -0.28097148456094378 0 0.1242383748246253 -0.29131174999725179 0 0.1141297936923768 -0.28878453930630188 0 0.1242383748246253 -0.29131174999725179 0 0.1141297936923768 -0.28878453930630188 0 0.1198701537204314 -0.30089140532399938 0 0.1141297936923768 -0.28878453930630188 0 0.10622170970645189 -0.29895353846799488 0 0.1198701537204314 -0.30089140532399938 0 0.1125548392743288 -0.27636744618484282 0 0.1233023238440631 -0.28097148456094378 0 0.1141297936923768 -0.28878453930630188 0 0.1125548392743288 -0.27636744618484282 0 0.1141297936923768 -0.28878453930630188 0 0.101883582619993 -0.28460947857741209 0 0.089727975817252392 -0.29646224842349211 0 0.101883582619993 -0.28460947857741209 0 0.10622170970645189 -0.29895353846799488 0 0.1141297936923768 -0.28878453930630188 0 0.101883582619993 -0.28460947857741209 0 0.10622170970645189 -0.29895353846799488 0 0.089727975817252392 -0.29646224842349211 0 0.10049372866807189 -0.31082656242210721 0 0.10622170970645189 -0.29895353846799488 0 0.10049372866807189 -0.31082656242210721 0 0.10622170970645189 -0.29895353846799488 0 0.1134387524627216 -0.31086840579325631 0 0.10622170970645189 -0.29895353846799488 0 0.1134387524627216 -0.31086840579325631 0 0.1198701537204314 -0.30089140532399938 0 0.1265219532001009 -0.3124330460259736 0 0.1134387524627216 -0.31086840579325631 0 0.1198701537204314 -0.30089140532399938 0 0.1265219532001009 -0.3124330460259736 0 0.1134387524627216 -0.31086840579325631 0 0.1192961391526948 -0.32261879728377291 0 0.1134387524627216 -0.31086840579325631 0 0.1192961391526948 -0.32261879728377291 0 0.1082288303285789 -0.31948708523568958 0 0.1192961391526948 -0.32261879728377291 0 0.1093748658769356 -0.32997486192450581 0 0.1082288303285789 -0.31948708523568958 0 0.1192961391526948 -0.32261879728377291 0 0.1168506625355451 -0.3296807312869221 0 0.1093748658769356 -0.32997486192450581 0 0.1192961391526948 -0.32261879728377291 0 0.12260601330919629 -0.33072698382653798 0 0.1168506625355451 -0.3296807312869221 0 0.13219802669416811 -0.32498852212276208 0 0.1192961391526948 -0.32261879728377291 0 0.12260601330919629 -0.33072698382653798 0 0.13051916655351839 -0.33696304048325831 0 0.12260601330919629 -0.33072698382653798 0 0.1159240811174677 -0.33775964177068091 0 0.12260601330919629 -0.33072698382653798 0 0.1159240811174677 -0.33775964177068091 0 0.1161256318033537 -0.33540228211287182 0 0.12260601330919629 -0.33072698382653798 0 0.1168506625355451 -0.3296807312869221 0 0.1161256318033537 -0.33540228211287182 0 0.13051916655351839 -0.33696304048325831 0 0.1159240811174677 -0.33775964177068091 0 0.13051916655351839 -0.33696304048325831 0 0.1159240811174677 -0.33775964177068091 0 0.123981461538115 -0.35128285539313481 0 0.1159240811174677 -0.33775964177068091 0 0.1161256318033537 -0.33540228211287182 0 0.1168506625355451 -0.3296807312869221 0 0.1161256318033537 -0.33540228211287182 0 0.1093748658769356 -0.32997486192450581 0 0.1159240811174677 -0.33775964177068091 0 0.1161256318033537 -0.33540228211287182 0 0.1093748658769356 -0.32997486192450581 0 0.1159240811174677 -0.33775964177068091 0 0.092335912071574502 -0.33904708650077298 0 0.1159240811174677 -0.33775964177068091 0 0.1093748658769356 -0.32997486192450581 0 0.092335912071574502 -0.33904708650077298 0 0.1093748658769356 -0.32997486192450581 0 0.096347407600029022 -0.32440529872184809 0 0.092335912071574502 -0.33904708650077298 0 0.1159240811174677 -0.33775964177068091 0 0.10211321446004019 -0.35101158716873732 0 0.092335912071574502 -0.33904708650077298 0 0.086214248119208581 -0.31193359067875348 0 0.10049372866807189 -0.31082656242210721 0 0.096347407600029022 -0.32440529872184809 0 0.10049372866807189 -0.31082656242210721 0 0.1134387524627216 -0.31086840579325631 0 0.1082288303285789 -0.31948708523568958 0 0.10049372866807189 -0.31082656242210721 0 0.096347407600029022 -0.32440529872184809 0 0.1082288303285789 -0.31948708523568958 0 0.1093748658769356 -0.32997486192450581 0 0.096347407600029022 -0.32440529872184809 0 0.1082288303285789 -0.31948708523568958 0 0.12784456261830821 -0.36308533366748658 0 0.12609635470998201 -0.38402791619100712 0 0.113745377556003 -0.36324200547299851 0 0.1159240811174677 -0.33775964177068091 0 0.113745377556003 -0.36324200547299851 0 0.123981461538115 -0.35128285539313481 0 0.1159240811174677 -0.33775964177068091 0 0.113745377556003 -0.36324200547299851 0 0.1159240811174677 -0.33775964177068091 0 0.113745377556003 -0.36324200547299851 0 0.10211321446004019 -0.35101158716873732 0 0.12784456261830821 -0.36308533366748658 0 0.113745377556003 -0.36324200547299851 0 0.123981461538115 -0.35128285539313481 0 0.1115666739945345 -0.38872436917531578 0 0.113745377556003 -0.36324200547299851 0 0.096372132326470572 -0.36542491223168638 0 0.113745377556003 -0.36324200547299851 0 0.10211321446004019 -0.35101158716873732 0 0.096372132326470572 -0.36542491223168638 0 0.089853218628298884 -0.38394717958202601 0 0.096372132326470572 -0.36542491223168638 0 0.07582030708563034 -0.37256671738353597 0 0.096372132326470572 -0.36542491223168638 0 0.082110249222110576 -0.35466523699539548 0 0.07582030708563034 -0.37256671738353597 0 0.10211321446004019 -0.35101158716873732 0 0.096372132326470572 -0.36542491223168638 0 0.082110249222110576 -0.35466523699539548 0 0.082110249222110576 -0.35466523699539548 0 0.092335912071574502 -0.33904708650077298 0 0.068747743025681235 -0.34033453123086538 0 0.10211321446004019 -0.35101158716873732 0 0.082110249222110576 -0.35466523699539548 0 0.092335912071574502 -0.33904708650077298 0 0.082110249222110576 -0.35466523699539548 0 0.068747743025681235 -0.34033453123086538 0 0.057272186363266697 -0.35960658745677498 0 0.082110249222110576 -0.35466523699539548 0 0.07582030708563034 -0.37256671738353597 0 0.057272186363266697 -0.35960658745677498 0 0.05933500968155693 -0.37671477575793533 0 0.07582030708563034 -0.37256671738353597 0 0.057272186363266697 -0.35960658745677498 0 0.086214248119208581 -0.31193359067875348 0 0.096347407600029022 -0.32440529872184809 0 0.078030795921920637 -0.32434601069550512 0 0.092335912071574502 -0.33904708650077298 0 0.068747743025681235 -0.34033453123086538 0 0.078030795921920637 -0.32434601069550512 0 0.092335912071574502 -0.33904708650077298 0 0.068747743025681235 -0.34033453123086538 0 0.096347407600029022 -0.32440529872184809 0 0.092335912071574502 -0.33904708650077298 0 0.078030795921920637 -0.32434601069550512 0 0.068747743025681235 -0.34033453123086538 0 0.078030795921920637 -0.32434601069550512 0 0.053863538987460123 -0.3232816795844588 0 0.069967983226982527 -0.30495776272600778 0 0.078030795921920637 -0.32434601069550512 0 0.053863538987460123 -0.3232816795844588 0 0.086214248119208581 -0.31193359067875348 0 0.069967983226982527 -0.30495776272600778 0 0.078030795921920637 -0.32434601069550512 0 0.068747743025681235 -0.34033453123086538 0 0.045159573979787898 -0.34162197596095778 0 0.068747743025681235 -0.34033453123086538 0 0.053863538987460123 -0.3232816795844588 0 0.045159573979787898 -0.34162197596095778 0 0.053863538987460123 -0.3232816795844588 0 0.034832013842728909 -0.33032259781876938 0 0.045159573979787898 -0.34162197596095778 0 0.034832013842728909 -0.33032259781876938 0 0.045159573979787898 -0.34162197596095778 0 0.02157140493389462 -0.34290942069105018 0 0.045159573979787898 -0.34162197596095778 0 0.02157140493389462 -0.34290942069105018 0 0.053863538987460123 -0.3232816795844588 0 0.034832013842728909 -0.33032259781876938 0 0.03621734991660093 -0.31670946998547028 0 0.053863538987460123 -0.3232816795844588 0 0.03621734991660093 -0.31670946998547028 0 0.048768037075517537 -0.30442990221103089 0 0.05933500968155693 -0.37671477575793533 0 0.057272186363266697 -0.35960658745677498 0 0.039079294002052851 -0.37065651216905859 0 0.068747743025681235 -0.34033453123086538 0 0.045159573979787898 -0.34162197596095778 0 0.057272186363266697 -0.35960658745677498 0 0.045159573979787898 -0.34162197596095778 0 0.034512899630155462 -0.3545258348651717 0 0.02157140493389462 -0.34290942069105018 0 0.045159573979787898 -0.34162197596095778 0 0.057272186363266697 -0.35960658745677498 0 0.034512899630155462 -0.3545258348651717 0 0.057272186363266697 -0.35960658745677498 0 0.034512899630155462 -0.3545258348651717 0 0.039079294002052851 -0.37065651216905859 0 0.025542853711361019 -0.38384675294920401 0 0.039079294002052851 -0.37065651216905859 0 0.016784443680880379 -0.36713146693108112 0 0.034512899630155462 -0.3545258348651717 0 0.039079294002052851 -0.37065651216905859 0 0.016784443680880379 -0.36713146693108112 0 0.034512899630155462 -0.3545258348651717 0 0.016784443680880379 -0.36713146693108112 0 0.02157140493389462 -0.34290942069105018 0 -0.0043130761299947744 -0.35643483176966217 0 0.016784443680880379 -0.36713146693108112 0 0.02157140493389462 -0.34290942069105018 0 -0.0038616663111063101 -0.33241552487502413 0 -0.0043130761299947744 -0.35643483176966217 0 0.02157140493389462 -0.34290942069105018 0 -0.0043130761299947744 -0.35643483176966217 0 -0.0064694903547723136 -0.38059021958606692 0 0.016784443680880379 -0.36713146693108112 0 0.03621734991660093 -0.31670946998547028 0 0.020048637459846991 -0.32439583124448262 0 0.029165048793799431 -0.30349547286963757 0 0.034832013842728909 -0.33032259781876938 0 0.03621734991660093 -0.31670946998547028 0 0.020048637459846991 -0.32439583124448262 0 0.020048637459846991 -0.32439583124448262 0 0.0094652366165251054 -0.31053241408104548 0 0.029165048793799431 -0.30349547286963757 0 0.034832013842728909 -0.33032259781876938 0 0.020048637459846991 -0.32439583124448262 0 0.02157140493389462 -0.34290942069105018 0 -0.0038616663111063101 -0.33241552487502413 0 0.020048637459846991 -0.32439583124448262 0 0.02157140493389462 -0.34290942069105018 0 -0.0038616663111063101 -0.33241552487502413 0 0.020048637459846991 -0.32439583124448262 0 0.0094652366165251054 -0.31053241408104548 0 -0.01007927323019326 -0.3103345258507364 0 0.0094652366165251054 -0.31053241408104548 0 0.0017563221397047381 -0.2997067901486577 0 0.0094652366165251054 -0.31053241408104548 0 0.0017563221397047381 -0.2997067901486577 0 0.017453688627786131 -0.29322190620108468 0 0.0017563221397047381 -0.2997067901486577 0 0.0066437179820165657 -0.2861171845936395 0 0.017453688627786131 -0.29322190620108468 0 -0.0080748459131490501 -0.2914060437848453 0 0.0017563221397047381 -0.2997067901486577 0 0.0066437179820165657 -0.2861171845936395 0 0.0066437179820165657 -0.2861171845936395 0 0.017453688627786131 -0.29322190620108468 0 0.01908241754038794 -0.28073467218482329 0 0.017453688627786131 -0.29322190620108468 0 0.029398966714908509 -0.28692964748338379 0 0.029165048793799431 -0.30349547286963757 0 0.017453688627786131 -0.29322190620108468 0 0.029398966714908509 -0.28692964748338379 0 0.01908241754038794 -0.28073467218482329 0 0.0094652366165251054 -0.31053241408104548 0 0.017453688627786131 -0.29322190620108468 0 0.029165048793799431 -0.30349547286963757 0 0.03621734991660093 -0.31670946998547028 0 0.029165048793799431 -0.30349547286963757 0 0.048768037075517537 -0.30442990221103089 0 0.029165048793799431 -0.30349547286963757 0 0.043029943860180789 -0.28970337243015992 0 0.048768037075517537 -0.30442990221103089 0 0.029398966714908509 -0.28692964748338379 0 0.029165048793799431 -0.30349547286963757 0 0.043029943860180789 -0.28970337243015992 0 0.029398966714908509 -0.28692964748338379 0 0.043029943860180789 -0.28970337243015992 0 0.038396769586432553 -0.27977596087564799 0 0.043029943860180789 -0.28970337243015992 0 0.051749435803858171 -0.27840569125857739 0 0.038396769586432553 -0.27977596087564799 0 0.043029943860180789 -0.28970337243015992 0 0.059449054433483903 -0.28956707473318272 0 0.051749435803858171 -0.27840569125857739 0 0.043029943860180789 -0.28970337243015992 0 0.059449054433483903 -0.28956707473318272 0 0.048768037075517537 -0.30442990221103089 0 0.069967983226982527 -0.30495776272600778 0 0.059449054433483903 -0.28956707473318272 0 0.048768037075517537 -0.30442990221103089 0 0.069967983226982527 -0.30495776272600778 0 0.053863538987460123 -0.3232816795844588 0 0.048768037075517537 -0.30442990221103089 0 0.053380735395516472 -0.25867595766617779 0 0.04428054005230446 -0.26275141268032309 0 0.045372505498807933 -0.25408090721008542 0 0.053380735395516472 -0.25867595766617779 0 0.053158010572478251 -0.26777612517812432 0 0.04428054005230446 -0.26275141268032309 0 0.053380735395516472 -0.25867595766617779 0 0.045372505498807933 -0.25408090721008542 0 0.05268811686830014 -0.24901610311096159 0 0.053380735395516472 -0.25867595766617779 0 0.061490933840310687 -0.25382890142296882 0 0.05268811686830014 -0.24901610311096159 0 0.053380735395516472 -0.25867595766617779 0 0.060614126731859473 -0.2624009925450973 0 0.053158010572478251 -0.26777612517812432 0 0.053380735395516472 -0.25867595766617779 0 0.061490933840310687 -0.25382890142296882 0 0.060614126731859473 -0.2624009925450973 0 0.0646939085167762 -0.2722383315448984 0 0.060614126731859473 -0.2624009925450973 0 0.053158010572478251 -0.26777612517812432 0 0.0646939085167762 -0.2722383315448984 0 0.059449054433483903 -0.28956707473318272 0 0.051749435803858171 -0.27840569125857739 0 0.0646939085167762 -0.2722383315448984 0 0.051749435803858171 -0.27840569125857739 0 0.053158010572478251 -0.26777612517812432 0 0.053158010572478251 -0.26777612517812432 0 0.044229316934554799 -0.27218436537367241 0 0.04428054005230446 -0.26275141268032309 0 0.051749435803858171 -0.27840569125857739 0 0.053158010572478251 -0.26777612517812432 0 0.044229316934554799 -0.27218436537367241 0 0.044229316934554799 -0.27218436537367241 0 0.031885251388666561 -0.26470215361104171 0 0.04428054005230446 -0.26275141268032309 0 0.051749435803858171 -0.27840569125857739 0 0.044229316934554799 -0.27218436537367241 0 0.038396769586432553 -0.27977596087564799 0 0.044229316934554799 -0.27218436537367241 0 0.038396769586432553 -0.27977596087564799 0 0.029696712261103771 -0.27487286106778819 0 0.029398966714908509 -0.28692964748338379 0 0.038396769586432553 -0.27977596087564799 0 0.029696712261103771 -0.27487286106778819 0 0.044229316934554799 -0.27218436537367241 0 0.031885251388666561 -0.26470215361104171 0 0.029696712261103771 -0.27487286106778819 0 0.037315510146954597 -0.25849363249326118 0 0.031885251388666561 -0.26470215361104171 0 0.04428054005230446 -0.26275141268032309 0 0.037315510146954597 -0.25849363249326118 0 0.031885251388666561 -0.26470215361104171 0 0.03069464768829987 -0.25176037071845259 0 0.037315510146954597 -0.25849363249326118 0 0.04428054005230446 -0.26275141268032309 0 0.045372505498807933 -0.25408090721008542 0 0.045372505498807933 -0.25408090721008542 0 0.03069464768829987 -0.25176037071845259 0 0.042588116356466379 -0.2448823624008481 0 0.037315510146954597 -0.25849363249326118 0 0.045372505498807933 -0.25408090721008542 0 0.03069464768829987 -0.25176037071845259 0 0.031885251388666561 -0.26470215361104171 0 0.021199614426200629 -0.26114166245967918 0 0.019908913466960752 -0.27058631964059482 0 0.031885251388666561 -0.26470215361104171 0 0.03069464768829987 -0.25176037071845259 0 0.021199614426200629 -0.26114166245967918 0 0.03069464768829987 -0.25176037071845259 0 0.021199614426200629 -0.26114166245967918 0 0.016145176335298529 -0.25210595968411048 0 0.029398966714908509 -0.28692964748338379 0 0.029696712261103771 -0.27487286106778819 0 0.01908241754038794 -0.28073467218482329 0 0.031885251388666561 -0.26470215361104171 0 0.029696712261103771 -0.27487286106778819 0 0.019908913466960752 -0.27058631964059482 0 0.019908913466960752 -0.27058631964059482 0 0.01908241754038794 -0.28073467218482329 0 0.01128192931255503 -0.27464126756021451 0 0.029696712261103771 -0.27487286106778819 0 0.019908913466960752 -0.27058631964059482 0 0.01908241754038794 -0.28073467218482329 0 -0.01145854626600548 -0.26602311564559261 0 0.01128192931255503 -0.27464126756021451 0 0.0057158633005241696 -0.26337829885565528 0 0.0066437179820165657 -0.2861171845936395 0 0.01908241754038794 -0.28073467218482329 0 0.01128192931255503 -0.27464126756021451 0 0.019908913466960752 -0.27058631964059482 0 0.01128192931255503 -0.27464126756021451 0 0.0057158633005241696 -0.26337829885565528 0 -0.002848760243290064 -0.27761611820401882 0 0.0066437179820165657 -0.2861171845936395 0 0.01128192931255503 -0.27464126756021451 0 0.016145176335298529 -0.25210595968411048 0 0.0057158633005241696 -0.26337829885565528 0 0.0054759062840018038 -0.25064707341720888 0 0.021199614426200629 -0.26114166245967918 0 0.019908913466960752 -0.27058631964059482 0 0.0057158633005241696 -0.26337829885565528 0 0.021199614426200629 -0.26114166245967918 0 0.016145176335298529 -0.25210595968411048 0 0.0057158633005241696 -0.26337829885565528 0 -0.0009620894167222515 -0.25496392916579452 0 0.0057158633005241696 -0.26337829885565528 0 0.0054759062840018038 -0.25064707341720888 0 -0.0009620894167222515 -0.25496392916579452 0 -0.0029313858115674811 -0.24854412401401971 0 0.0054759062840018038 -0.25064707341720888 0 0.0054759062840018038 -0.25064707341720888 0 0.0026199421412959989 -0.2430643023623929 0 0.011589873569895199 -0.24127835128668559 0 -0.0029313858115674811 -0.24854412401401971 0 0.0054759062840018038 -0.25064707341720888 0 0.0026199421412959989 -0.2430643023623929 0 0.016145176335298529 -0.25210595968411048 0 0.0054759062840018038 -0.25064707341720888 0 0.011589873569895199 -0.24127835128668559 0 0.011589873569895199 -0.24127835128668559 0 0.010668172172219499 -0.2272828987723072 0 0.020574075722817331 -0.2351284197632682 0 0.0026199421412959989 -0.2430643023623929 0 0.011589873569895199 -0.24127835128668559 0 0.0017465435191736189 -0.23378549097037141 0 -0.00080535468136348092 -0.21995366459000901 0 0.010668172172219499 -0.2272828987723072 0 0.01016515501406726 -0.20926501301563591 0 -0.00080535468136348092 -0.21995366459000901 0 0.0017465435191736189 -0.23378549097037141 0 0.010668172172219499 -0.2272828987723072 0 0.010668172172219499 -0.2272828987723072 0 0.02170661161633574 -0.22145314359659171 0 0.01016515501406726 -0.20926501301563591 0 0.011589873569895199 -0.24127835128668559 0 0.0017465435191736189 -0.23378549097037141 0 0.010668172172219499 -0.2272828987723072 0 0.010668172172219499 -0.2272828987723072 0 0.02170661161633574 -0.22145314359659171 0 0.020574075722817331 -0.2351284197632682 0 0.02170661161633574 -0.22145314359659171 0 0.02866695829179056 -0.22960637228307629 0 0.036392787169896093 -0.22322562645731159 0 0.02170661161633574 -0.22145314359659171 0 0.02866695829179056 -0.22960637228307629 0 0.020574075722817331 -0.2351284197632682 0 0.02866695829179056 -0.22960637228307629 0 0.020574075722817331 -0.2351284197632682 0 0.032071787069821417 -0.24054619649286721 0 0.022195152742869501 -0.2444300013669817 0 0.020574075722817331 -0.2351284197632682 0 0.032071787069821417 -0.24054619649286721 0 0.03069464768829987 -0.25176037071845259 0 0.022195152742869501 -0.2444300013669817 0 0.032071787069821417 -0.24054619649286721 0 0.03069464768829987 -0.25176037071845259 0 0.016145176335298529 -0.25210595968411048 0 0.022195152742869501 -0.2444300013669817 0 0.016145176335298529 -0.25210595968411048 0 0.011589873569895199 -0.24127835128668559 0 0.022195152742869501 -0.2444300013669817 0 0.011589873569895199 -0.24127835128668559 0 0.022195152742869501 -0.2444300013669817 0 0.020574075722817331 -0.2351284197632682 0 -0.003739977245034012 -0.19168309442994089 0 0.010514116253606281 -0.1925853606064957 0 0.01016515501406726 -0.20926501301563591 0 0.010514116253606281 -0.1925853606064957 0 0.01016515501406726 -0.20926501301563591 0 0.018596641755985681 -0.20049862993462389 0 0.02170661161633574 -0.22145314359659171 0 0.01016515501406726 -0.20926501301563591 0 0.028304225500431591 -0.20785134554231141 0 0.01016515501406726 -0.20926501301563591 0 0.028304225500431591 -0.20785134554231141 0 0.018596641755985681 -0.20049862993462389 0 0.02170661161633574 -0.22145314359659171 0 0.028304225500431591 -0.20785134554231141 0 0.036392787169896093 -0.22322562645731159 0 0.028304225500431591 -0.20785134554231141 0 0.018596641755985681 -0.20049862993462389 0 0.02540307025583758 -0.19229280057405279 0 0.010514116253606281 -0.1925853606064957 0 0.018596641755985681 -0.20049862993462389 0 0.02540307025583758 -0.19229280057405279 0 0.010514116253606281 -0.1925853606064957 0 0.02540307025583758 -0.19229280057405279 0 0.015764016274472759 -0.1812646672695073 0 0.02540307025583758 -0.19229280057405279 0 0.041440672425083092 -0.19607701236864419 0 0.030421272951226121 -0.1778391783376792 0 0.028304225500431591 -0.20785134554231141 0 0.02540307025583758 -0.19229280057405279 0 0.041440672425083092 -0.19607701236864419 0 0.041440672425083092 -0.19607701236864419 0 0.042310424588804782 -0.2140630995529598 0 0.055497750511994078 -0.2086068857692274 0 0.028304225500431591 -0.20785134554231141 0 0.041440672425083092 -0.19607701236864419 0 0.042310424588804782 -0.2140630995529598 0 0.028304225500431591 -0.20785134554231141 0 0.042310424588804782 -0.2140630995529598 0 0.036392787169896093 -0.22322562645731159 0 0.042310424588804782 -0.2140630995529598 0 0.055497750511994078 -0.2086068857692274 0 0.052955454276687589 -0.2198291654371925 0 0.062338921595789062 -0.21792006704763969 0 0.055497750511994078 -0.2086068857692274 0 0.052955454276687589 -0.2198291654371925 0 0.062338921595789062 -0.21792006704763969 0 0.055497750511994078 -0.2086068857692274 0 0.067863046951983474 -0.20503048868511209 0 0.055497750511994078 -0.2086068857692274 0 0.056257937900538298 -0.19577788601322099 0 0.067863046951983474 -0.20503048868511209 0 0.041440672425083092 -0.19607701236864419 0 0.056257937900538298 -0.19577788601322099 0 0.051449240160577621 -0.1762857105508405 0 0.041440672425083092 -0.19607701236864419 0 0.055497750511994078 -0.2086068857692274 0 0.056257937900538298 -0.19577788601322099 0 0.040491861427302538 -0.2355872617630255 0 0.042588116356466379 -0.2448823624008481 0 0.052307832003780613 -0.23884346229351339 0 0.040491861427302538 -0.2355872617630255 0 0.045866106706223042 -0.22907627795895011 0 0.052307832003780613 -0.23884346229351339 0 0.03069464768829987 -0.25176037071845259 0 0.042588116356466379 -0.2448823624008481 0 0.032071787069821417 -0.24054619649286721 0 0.040491861427302538 -0.2355872617630255 0 0.042588116356466379 -0.2448823624008481 0 0.032071787069821417 -0.24054619649286721 0 0.02866695829179056 -0.22960637228307629 0 0.040491861427302538 -0.2355872617630255 0 0.032071787069821417 -0.24054619649286721 0 0.02866695829179056 -0.22960637228307629 0 0.040491861427302538 -0.2355872617630255 0 0.036392787169896093 -0.22322562645731159 0 0.042310424588804782 -0.2140630995529598 0 0.036392787169896093 -0.22322562645731159 0 0.045866106706223042 -0.22907627795895011 0 0.040491861427302538 -0.2355872617630255 0 0.036392787169896093 -0.22322562645731159 0 0.045866106706223042 -0.22907627795895011 0 0.045866106706223042 -0.22907627795895011 0 0.058764067980626958 -0.22947949685718549 0 0.052307832003780613 -0.23884346229351339 0 0.045866106706223042 -0.22907627795895011 0 0.052955454276687589 -0.2198291654371925 0 0.058764067980626958 -0.22947949685718549 0 0.042310424588804782 -0.2140630995529598 0 0.045866106706223042 -0.22907627795895011 0 0.052955454276687589 -0.2198291654371925 0 0.062338921595789062 -0.21792006704763969 0 0.058764067980626958 -0.22947949685718549 0 0.065719467571416057 -0.22489822263154319 0 0.062338921595789062 -0.21792006704763969 0 0.052955454276687589 -0.2198291654371925 0 0.058764067980626958 -0.22947949685718549 0 0.058764067980626958 -0.22947949685718549 0 0.062159259289524899 -0.2368834247622158 0 0.052307832003780613 -0.23884346229351339 0 0.062159259289524899 -0.2368834247622158 0 0.052307832003780613 -0.23884346229351339 0 0.061229972926465738 -0.2445427902389527 0 0.045372505498807933 -0.25408090721008542 0 0.042588116356466379 -0.2448823624008481 0 0.05268811686830014 -0.24901610311096159 0 0.042588116356466379 -0.2448823624008481 0 0.052307832003780613 -0.23884346229351339 0 0.05268811686830014 -0.24901610311096159 0 0.061490933840310687 -0.25382890142296882 0 0.05268811686830014 -0.24901610311096159 0 0.061229972926465738 -0.2445427902389527 0 0.052307832003780613 -0.23884346229351339 0 0.05268811686830014 -0.24901610311096159 0 0.061229972926465738 -0.2445427902389527 0 0.061490933840310687 -0.25382890142296882 0 0.061229972926465738 -0.2445427902389527 0 0.070069103552599196 -0.24823964670048029 0 0.061229972926465738 -0.2445427902389527 0 0.070069103552599196 -0.24823964670048029 0 0.069856411684105391 -0.23913895996007839 0 0.062159259289524899 -0.2368834247622158 0 0.061229972926465738 -0.2445427902389527 0 0.069856411684105391 -0.23913895996007839 0 0.062159259289524899 -0.2368834247622158 0 0.069856411684105391 -0.23913895996007839 0 0.067142239376285745 -0.23139328163069281 0 0.069856411684105391 -0.23913895996007839 0 0.077788170153509889 -0.24196191377257101 0 0.076767606518392539 -0.23187249677345001 0 0.080071368274292315 -0.25145738896057979 0 0.070069103552599196 -0.24823964670048029 0 0.077788170153509889 -0.24196191377257101 0 0.070069103552599196 -0.24823964670048029 0 0.069856411684105391 -0.23913895996007839 0 0.077788170153509889 -0.24196191377257101 0 0.080071368274292315 -0.25145738896057979 0 0.090706365013478091 -0.25245448435890872 0 0.085906732882507178 -0.24385162082211831 0 0.080071368274292315 -0.25145738896057979 0 0.077788170153509889 -0.24196191377257101 0 0.085906732882507178 -0.24385162082211831 0 0.077788170153509889 -0.24196191377257101 0 0.085906732882507178 -0.24385162082211831 0 0.083256636250354649 -0.23616880796388259 0 0.077788170153509889 -0.24196191377257101 0 0.083256636250354649 -0.23616880796388259 0 0.076767606518392539 -0.23187249677345001 0 0.085906732882507178 -0.24385162082211831 0 0.089657973372422345 -0.23730775202069579 0 0.094006026236525903 -0.2441335510050745 0 0.085906732882507178 -0.24385162082211831 0 0.083256636250354649 -0.23616880796388259 0 0.089657973372422345 -0.23730775202069579 0 0.083256636250354649 -0.23616880796388259 0 0.089657973372422345 -0.23730775202069579 0 0.089763789457938253 -0.2306791647953326 0 0.089657973372422345 -0.23730775202069579 0 0.089763789457938253 -0.2306791647953326 0 0.096012267649498176 -0.23702186761809721 0 0.089657973372422345 -0.23730775202069579 0 0.094006026236525903 -0.2441335510050745 0 0.096012267649498176 -0.23702186761809721 0 0.090706365013478091 -0.25245448435890872 0 0.085906732882507178 -0.24385162082211831 0 0.094006026236525903 -0.2441335510050745 0 0.086446736705125371 -0.22420087797706609 0 0.091303359373345411 -0.22339335178318359 0 0.089763789457938253 -0.2306791647953326 0 0.086446736705125371 -0.22420087797706609 0 0.091303359373345411 -0.22339335178318359 0 0.086853981468707001 -0.2185547472363609 0 0.091303359373345411 -0.22339335178318359 0 0.086853981468707001 -0.2185547472363609 0 0.09077468002378962 -0.21857675351640271 0 0.091303359373345411 -0.22339335178318359 0 0.09077468002378962 -0.21857675351640271 0 0.094530837428433365 -0.22086489816084981 0 0.091303359373345411 -0.22339335178318359 0 0.089763789457938253 -0.2306791647953326 0 0.098670227838192195 -0.22970514568366851 0 0.086446736705125371 -0.22420087797706609 0 0.089763789457938253 -0.2306791647953326 0 0.083020570332336119 -0.22791650227557511 0 0.083256636250354649 -0.23616880796388259 0 0.083020570332336119 -0.22791650227557511 0 0.076767606518392539 -0.23187249677345001 0 0.083256636250354649 -0.23616880796388259 0 0.089763789457938253 -0.2306791647953326 0 0.083020570332336119 -0.22791650227557511 0 0.083020570332336119 -0.22791650227557511 0 0.077930889523722374 -0.22519622511208121 0 0.076767606518392539 -0.23187249677345001 0 0.083020570332336119 -0.22791650227557511 0 0.081291982893300085 -0.22046062379487821 0 0.077930889523722374 -0.22519622511208121 0 0.086446736705125371 -0.22420087797706609 0 0.083020570332336119 -0.22791650227557511 0 0.081291982893300085 -0.22046062379487821 0 0.086446736705125371 -0.22420087797706609 0 0.081291982893300085 -0.22046062379487821 0 0.086853981468707001 -0.2185547472363609 0 0.081291982893300085 -0.22046062379487821 0 0.077930889523722374 -0.22519622511208121 0 0.073706539318973169 -0.21796036257100029 0 0.072234091795087663 -0.22574485878751241 0 0.065719467571416057 -0.22489822263154319 0 0.073706539318973169 -0.21796036257100029 0 0.077930889523722374 -0.22519622511208121 0 0.072234091795087663 -0.22574485878751241 0 0.073706539318973169 -0.21796036257100029 0 0.069856411684105391 -0.23913895996007839 0 0.076767606518392539 -0.23187249677345001 0 0.067142239376285745 -0.23139328163069281 0 0.072234091795087663 -0.22574485878751241 0 0.076767606518392539 -0.23187249677345001 0 0.067142239376285745 -0.23139328163069281 0 0.077930889523722374 -0.22519622511208121 0 0.072234091795087663 -0.22574485878751241 0 0.076767606518392539 -0.23187249677345001 0 0.058764067980626958 -0.22947949685718549 0 0.062159259289524899 -0.2368834247622158 0 0.067142239376285745 -0.23139328163069281 0 0.058764067980626958 -0.22947949685718549 0 0.067142239376285745 -0.23139328163069281 0 0.065719467571416057 -0.22489822263154319 0 0.072234091795087663 -0.22574485878751241 0 0.067142239376285745 -0.23139328163069281 0 0.065719467571416057 -0.22489822263154319 0 0.062338921595789062 -0.21792006704763969 0 0.065719467571416057 -0.22489822263154319 0 0.073706539318973169 -0.21796036257100029 0 0.062338921595789062 -0.21792006704763969 0 0.067863046951983474 -0.20503048868511209 0 0.073706539318973169 -0.21796036257100029 0 0.067863046951983474 -0.20503048868511209 0 0.073706539318973169 -0.21796036257100029 0 0.079094442607528917 -0.20913243433380641 0 0.067863046951983474 -0.20503048868511209 0 0.081482512553192915 -0.1953056794767786 0 0.079094442607528917 -0.20913243433380641 0 0.056257937900538298 -0.19577788601322099 0 0.067863046951983474 -0.20503048868511209 0 0.066040058368007956 -0.18964665730407451 0 0.067863046951983474 -0.20503048868511209 0 0.066040058368007956 -0.18964665730407451 0 0.081482512553192915 -0.1953056794767786 0 0.081482512553192915 -0.1953056794767786 0 0.095454742848087734 -0.19451486061966669 0 0.093505174579280592 -0.1731787749771625 0 0.081482512553192915 -0.1953056794767786 0 0.08833530696517819 -0.21036332105093219 0 0.095454742848087734 -0.19451486061966669 0 0.08833530696517819 -0.21036332105093219 0 0.097404311116896569 -0.21585094626217091 0 0.095454742848087734 -0.19451486061966669 0 0.081291982893300085 -0.22046062379487821 0 0.073706539318973169 -0.21796036257100029 0 0.082946926161669862 -0.2149195339015407 0 0.082946926161669862 -0.2149195339015407 0 0.079094442607528917 -0.20913243433380641 0 0.08833530696517819 -0.21036332105093219 0 0.073706539318973169 -0.21796036257100029 0 0.082946926161669862 -0.2149195339015407 0 0.079094442607528917 -0.20913243433380641 0 0.081291982893300085 -0.22046062379487821 0 0.082946926161669862 -0.2149195339015407 0 0.086853981468707001 -0.2185547472363609 0 0.081482512553192915 -0.1953056794767786 0 0.079094442607528917 -0.20913243433380641 0 0.08833530696517819 -0.21036332105093219 0 0.082946926161669862 -0.2149195339015407 0 0.08833530696517819 -0.21036332105093219 0 0.086853981468707001 -0.2185547472363609 0 0.08833530696517819 -0.21036332105093219 0 0.086853981468707001 -0.2185547472363609 0 0.09077468002378962 -0.21857675351640271 0 0.08833530696517819 -0.21036332105093219 0 0.09077468002378962 -0.21857675351640271 0 0.092213447725184278 -0.21529843562297729 0 0.08833530696517819 -0.21036332105093219 0 0.092213447725184278 -0.21529843562297729 0 0.097404311116896569 -0.21585094626217091 0 0.09077468002378962 -0.21857675351640271 0 0.094501608789943028 -0.21679829355882299 0 0.094530837428433365 -0.22086489816084981 0 0.09077468002378962 -0.21857675351640271 0 0.092213447725184278 -0.21529843562297729 0 0.094501608789943028 -0.21679829355882299 0 0.094501608789943028 -0.21679829355882299 0 0.097404311116896569 -0.21585094626217091 0 0.094530837428433365 -0.22086489816084981 0 0.092213447725184278 -0.21529843562297729 0 0.094501608789943028 -0.21679829355882299 0 0.097404311116896569 -0.21585094626217091 0 0.097404311116896569 -0.21585094626217091 0 0.095454742848087734 -0.19451486061966669 0 0.097404311116896569 -0.21585094626217091 0 0.1059898830346106 -0.20430933332548051 0 0.095454742848087734 -0.19451486061966669 0 0.097404311116896569 -0.21585094626217091 0 0.1089347031997706 -0.21297733173581901 0 0.1146171121197104 -0.21980430615730401 0 0.097404311116896569 -0.21585094626217091 0 0.1059898830346106 -0.20430933332548051 0 0.1089347031997706 -0.21297733173581901 0 0.095454742848087734 -0.19451486061966669 0 0.1128143282819509 -0.19216489626002589 0 0.10772522460311169 -0.17968171223372481 0 0.1059898830346106 -0.20430933332548051 0 0.095454742848087734 -0.19451486061966669 0 0.1128143282819509 -0.19216489626002589 0 0.1128143282819509 -0.19216489626002589 0 0.1237689835273371 -0.19605207676116951 0 0.1178461100078927 -0.20838697738218431 0 0.1059898830346106 -0.20430933332548051 0 0.1128143282819509 -0.19216489626002589 0 0.1178461100078927 -0.20838697738218431 0 0.1128143282819509 -0.19216489626002589 0 0.1237689835273371 -0.19605207676116951 0 0.1232013989280239 -0.1819146573535104 0 0.1089347031997706 -0.21297733173581901 0 0.1178461100078927 -0.20838697738218431 0 0.1146171121197104 -0.21980430615730401 0 0.1059898830346106 -0.20430933332548051 0 0.1089347031997706 -0.21297733173581901 0 0.1178461100078927 -0.20838697738218431 0 0.1178461100078927 -0.20838697738218431 0 0.1146171121197104 -0.21980430615730401 0 0.12895394136930069 -0.22163642029703709 0 0.1146171121197104 -0.21980430615730401 0 0.12018370186474731 -0.23305432747703519 0 0.12895394136930069 -0.22163642029703709 0 0.097404311116896569 -0.21585094626217091 0 0.1146171121197104 -0.21980430615730401 0 0.12018370186474731 -0.23305432747703519 0 0.1212054647883809 -0.25073068226796852 0 0.12018370186474731 -0.23305432747703519 0 0.1059281586602189 -0.23527494890652931 0 0.13217397618885759 -0.25462043987800831 0 0.1212054647883809 -0.25073068226796852 0 0.12018370186474731 -0.23305432747703519 0 0.1212054647883809 -0.25073068226796852 0 0.1059281586602189 -0.23527494890652931 0 0.1078238037173969 -0.24832262031645649 0 0.1212054647883809 -0.25073068226796852 0 0.1059281586602189 -0.23527494890652931 0 0.099550463170151926 -0.25262580003909579 0 0.1078238037173969 -0.24832262031645649 0 0.10103467245524091 -0.24298905409433241 0 0.1059281586602189 -0.23527494890652931 0 0.1078238037173969 -0.24832262031645649 0 0.10103467245524091 -0.24298905409433241 0 0.099550463170151926 -0.25262580003909579 0 0.10103467245524091 -0.24298905409433241 0 0.094006026236525903 -0.2441335510050745 0 0.090706365013478091 -0.25245448435890872 0 0.099550463170151926 -0.25262580003909579 0 0.094006026236525903 -0.2441335510050745 0 0.1059281586602189 -0.23527494890652931 0 0.10103467245524091 -0.24298905409433241 0 0.096012267649498176 -0.23702186761809721 0 0.10103467245524091 -0.24298905409433241 0 0.094006026236525903 -0.2441335510050745 0 0.096012267649498176 -0.23702186761809721 0 0.1059281586602189 -0.23527494890652931 0 0.096012267649498176 -0.23702186761809721 0 0.098670227838192195 -0.22970514568366851 0 0.089763789457938253 -0.2306791647953326 0 0.096012267649498176 -0.23702186761809721 0 0.098670227838192195 -0.22970514568366851 0 0.097404311116896569 -0.21585094626217091 0 0.12018370186474731 -0.23305432747703519 0 0.097404311116896569 -0.21585094626217091 0 0.12018370186474731 -0.23305432747703519 0 0.1059281586602189 -0.23527494890652931 0 0.097404311116896569 -0.21585094626217091 0 0.1059281586602189 -0.23527494890652931 0 0.098670227838192195 -0.22970514568366851 0 0.091303359373345411 -0.22339335178318359 0 0.098670227838192195 -0.22970514568366851 0 0.094530837428433365 -0.22086489816084981 0 0.097404311116896569 -0.21585094626217091 0 0.098670227838192195 -0.22970514568366851 0 0.094530837428433365 -0.22086489816084981 0 0.097404311116896569 -0.21585094626217091 0 0.098670227838192195 -0.22970514568366851 0 0.1071373084330472 -0.14482826815459701 0 0.1035248479174861 -0.15311019857333261 0 0.098760878024456711 -0.14050656481393209 0 0.1071373084330472 -0.14482826815459701 0 0.1035248479174861 -0.15311019857333261 0 0.1121477659277255 -0.1503271840913511 0 0.1035248479174861 -0.15311019857333261 0 0.098760878024456711 -0.14050656481393209 0 0.091560400862706559 -0.15189516094014111 0 0.098760878024456711 -0.14050656481393209 0 0.099399694252258627 -0.1328638184600745 0 0.089615627146132512 -0.13061154690311971 0 0.099399694252258627 -0.1328638184600745 0 0.099525338641528904 -0.12611341339503321 0 0.089615627146132512 -0.13061154690311971 0 0.099525338641528904 -0.12611341339503321 0 0.1096969331969164 -0.13422374872821319 0 0.1121708616464093 -0.1216807098986791 0 0.099399694252258627 -0.1328638184600745 0 0.099525338641528904 -0.12611341339503321 0 0.1096969331969164 -0.13422374872821319 0 0.098760878024456711 -0.14050656481393209 0 0.099399694252258627 -0.1328638184600745 0 0.1096969331969164 -0.13422374872821319 0 0.1071373084330472 -0.14482826815459701 0 0.098760878024456711 -0.14050656481393209 0 0.1096969331969164 -0.13422374872821319 0 0.1096969331969164 -0.13422374872821319 0 0.1155243526086871 -0.14484298486410191 0 0.12532898621889721 -0.13663811256420449 0 0.1096969331969164 -0.13422374872821319 0 0.11997683785091839 -0.1276371159963853 0 0.12532898621889721 -0.13663811256420449 0 0.1096969331969164 -0.13422374872821319 0 0.11997683785091839 -0.1276371159963853 0 0.1121708616464093 -0.1216807098986791 0 0.1217036921304827 -0.1482443959076799 0 0.1155243526086871 -0.14484298486410191 0 0.12532898621889721 -0.13663811256420449 0 0.1217036921304827 -0.1482443959076799 0 0.1155243526086871 -0.14484298486410191 0 0.1179114041550178 -0.15136128022523329 0 0.1071373084330472 -0.14482826815459701 0 0.1155243526086871 -0.14484298486410191 0 0.1121477659277255 -0.1503271840913511 0 0.1071373084330472 -0.14482826815459701 0 0.1096969331969164 -0.13422374872821319 0 0.1155243526086871 -0.14484298486410191 0 0.1035248479174861 -0.15311019857333261 0 0.1121477659277255 -0.1503271840913511 0 0.1169082366172023 -0.15609331882735419 0 0.1155243526086871 -0.14484298486410191 0 0.1121477659277255 -0.1503271840913511 0 0.1179114041550178 -0.15136128022523329 0 0.1121477659277255 -0.1503271840913511 0 0.1169082366172023 -0.15609331882735419 0 0.1179114041550178 -0.15136128022523329 0 0.1169082366172023 -0.15609331882735419 0 0.1179114041550178 -0.15136128022523329 0 0.12324902196630889 -0.15465793599018671 0 0.1217036921304827 -0.1482443959076799 0 0.1179114041550178 -0.15136128022523329 0 0.12324902196630889 -0.15465793599018671 0 0.1217036921304827 -0.1482443959076799 0 0.12324902196630889 -0.15465793599018671 0 0.12831016946945831 -0.1492440347933528 0 0.1035248479174861 -0.15311019857333261 0 0.12443417021765769 -0.1709717485187108 0 0.1227471198665283 -0.15880086614903269 0 0.12098675462827781 -0.16200852072179159 0 0.1290045142054978 -0.1612372837293575 0 0.1035248479174861 -0.15311019857333261 0 0.12443417021765769 -0.1709717485187108 0 0.12083528946942131 -0.1711597280255607 0 0.1035248479174861 -0.15311019857333261 0 0.12098675462827781 -0.16200852072179159 0 0.12443417021765769 -0.1709717485187108 0 0.1035248479174861 -0.15311019857333261 0 0.1169082366172023 -0.15609331882735419 0 0.12098675462827781 -0.16200852072179159 0 0.1169082366172023 -0.15609331882735419 0 0.1227471198665283 -0.15880086614903269 0 0.12098675462827781 -0.16200852072179159 0 0.1169082366172023 -0.15609331882735419 0 0.12324902196630889 -0.15465793599018671 0 0.1227471198665283 -0.15880086614903269 0 0.12098675462827781 -0.16200852072179159 0 0.12443417021765769 -0.1709717485187108 0 0.12715697753007521 -0.16591248018761531 0 0.1128143282819509 -0.19216489626002589 0 0.1232013989280239 -0.1819146573535104 0 0.1157139550245927 -0.18029465614444529 0 0.12083528946942131 -0.1711597280255607 0 0.1232013989280239 -0.1819146573535104 0 0.1157139550245927 -0.18029465614444529 0 0.12443417021765769 -0.1709717485187108 0 0.12083528946942131 -0.1711597280255607 0 0.1232013989280239 -0.1819146573535104 0 0.12083528946942131 -0.1711597280255607 0 0.1157139550245927 -0.18029465614444529 0 0.10772522460311169 -0.17968171223372481 0 0.1128143282819509 -0.19216489626002589 0 0.1157139550245927 -0.18029465614444529 0 0.10772522460311169 -0.17968171223372481 0 0.095454742848087734 -0.19451486061966669 0 0.10772522460311169 -0.17968171223372481 0 0.093505174579280592 -0.1731787749771625 0 0.12083528946942131 -0.1711597280255607 0 0.093505174579280592 -0.1731787749771625 0 0.095454742848087734 -0.19451486061966669 0 0.093505174579280592 -0.1731787749771625 0 0.12083528946942131 -0.1711597280255607 0 0.10772522460311169 -0.17968171223372481 0 0.093505174579280592 -0.1731787749771625 0 0.1035248479174861 -0.15311019857333261 0 0.093505174579280592 -0.1731787749771625 0 0.091560400862706559 -0.15189516094014111 0 0.1035248479174861 -0.15311019857333261 0 0.12083528946942131 -0.1711597280255607 0 0.093505174579280592 -0.1731787749771625 0 0.078133883947979807 -0.15717501910519549 0 0.093505174579280592 -0.1731787749771625 0 0.091560400862706559 -0.15189516094014111 0 0.078133883947979807 -0.15717501910519549 0 0.093505174579280592 -0.1731787749771625 0 0.072477207369929117 -0.17473224276400179 0 0.093505174579280592 -0.1731787749771625 0 0.091560400862706559 -0.15189516094014111 0 0.081482512553192915 -0.1953056794767786 0 0.093505174579280592 -0.1731787749771625 0 0.072477207369929117 -0.17473224276400179 0 0.093505174579280592 -0.1731787749771625 0 0.072477207369929117 -0.17473224276400179 0 0.066040058368007956 -0.18964665730407451 0 0.072477207369929117 -0.17473224276400179 0 0.051449240160577621 -0.1762857105508405 0 0.066040058368007956 -0.18964665730407451 0 0.081482512553192915 -0.1953056794767786 0 0.072477207369929117 -0.17473224276400179 0 0.078133883947979807 -0.15717501910519549 0 0.072477207369929117 -0.17473224276400179 0 0.063878974636528515 -0.16401540189567099 0 0.072477207369929117 -0.17473224276400179 0 0.063878974636528515 -0.16401540189567099 0 0.051449240160577621 -0.1762857105508405 0 0.078133883947979807 -0.15717501910519549 0 0.063878974636528515 -0.16401540189567099 0 0.06522271263887458 -0.15305574504012881 0 0.06522271263887458 -0.15305574504012881 0 0.069316279952888193 -0.14186668388360371 0 0.075278834721760557 -0.14616760919767161 0 0.06522271263887458 -0.15305574504012881 0 0.069316279952888193 -0.14186668388360371 0 0.05757515479497001 -0.1486962131740798 0 0.069316279952888193 -0.14186668388360371 0 0.075278834721760557 -0.14616760919767161 0 0.079765110473415279 -0.13788087003968491 0 0.078133883947979807 -0.15717501910519549 0 0.06522271263887458 -0.15305574504012881 0 0.075278834721760557 -0.14616760919767161 0 0.098760878024456711 -0.14050656481393209 0 0.091560400862706559 -0.15189516094014111 0 0.089615627146132512 -0.13061154690311971 0 0.078133883947979807 -0.15717501910519549 0 0.083611330147541921 -0.14459745320402559 0 0.091560400862706559 -0.15189516094014111 0 0.091560400862706559 -0.15189516094014111 0 0.089615627146132512 -0.13061154690311971 0 0.078133883947979807 -0.15717501910519549 0 0.075278834721760557 -0.14616760919767161 0 0.083611330147541921 -0.14459745320402559 0 0.083611330147541921 -0.14459745320402559 0 0.091560400862706559 -0.15189516094014111 0 0.089615627146132512 -0.13061154690311971 0 0.075278834721760557 -0.14616760919767161 0 0.083611330147541921 -0.14459745320402559 0 0.079765110473415279 -0.13788087003968491 0 0.099525338641528904 -0.12611341339503321 0 0.089615627146132512 -0.13061154690311971 0 0.081894058627025895 -0.12584863130967919 0 0.083611330147541921 -0.14459745320402559 0 0.089615627146132512 -0.13061154690311971 0 0.079765110473415279 -0.13788087003968491 0 0.089615627146132512 -0.13061154690311971 0 0.079765110473415279 -0.13788087003968491 0 0.081894058627025895 -0.12584863130967919 0 0.081894058627025895 -0.12584863130967919 0 0.065576399090336079 -0.13067912082877309 0 0.057907204523981459 -0.13951585418161591 0 0.081894058627025895 -0.12584863130967919 0 0.057907204523981459 -0.13951585418161591 0 0.069316279952888193 -0.14186668388360371 0 0.081894058627025895 -0.12584863130967919 0 0.057907204523981459 -0.13951585418161591 0 0.081894058627025895 -0.12584863130967919 0 0.068207364780656948 -0.12563827965844471 0 0.065576399090336079 -0.13067912082877309 0 0.069316279952888193 -0.14186668388360371 0 0.079765110473415279 -0.13788087003968491 0 0.081894058627025895 -0.12584863130967919 0 0.068207364780656948 -0.12563827965844471 0 0.065576399090336079 -0.13067912082877309 0 0.054296968429680029 -0.13171371816535249 0 0.054296968429680029 -0.13171371816535249 0 0.057907204523981459 -0.13951585418161591 0 0.034849001543539322 -0.1503583031021323 0 0.054296968429680029 -0.13171371816535249 0 0.045553716665441668 -0.12681104972785159 0 0.052448498866582129 -0.1166826243517366 0 0.065576399090336079 -0.13067912082877309 0 0.054296968429680029 -0.13171371816535249 0 0.057907204523981459 -0.13951585418161591 0 0.069316279952888193 -0.14186668388360371 0 0.057907204523981459 -0.13951585418161591 0 0.05757515479497001 -0.1486962131740798 0 0.06522271263887458 -0.15305574504012881 0 0.05757515479497001 -0.1486962131740798 0 0.052111829065281459 -0.15882829201818821 0 0.046808539919221563 -0.15014413002933799 0 0.052111829065281459 -0.15882829201818821 0 0.043031393960321331 -0.1571354857308308 0 0.05757515479497001 -0.1486962131740798 0 0.046808539919221563 -0.15014413002933799 0 0.052111829065281459 -0.15882829201818821 0 0.057907204523981459 -0.13951585418161591 0 0.05757515479497001 -0.1486962131740798 0 0.046808539919221563 -0.15014413002933799 0 0.057907204523981459 -0.13951585418161591 0 0.046808539919221563 -0.15014413002933799 0 0.033920350420936912 -0.1531830770535528 0 0.057907204523981459 -0.13951585418161591 0 0.034849001543539322 -0.1503583031021323 0 0.033920350420936912 -0.1531830770535528 0 0.054296968429680029 -0.13171371816535249 0 0.034849001543539322 -0.1503583031021323 0 0.038558521200612962 -0.14006542407622449 0 0.054296968429680029 -0.13171371816535249 0 0.034849001543539322 -0.1503583031021323 0 0.057907204523981459 -0.13951585418161591 0 0.033920350420936912 -0.1531830770535528 0 0.046808539919221563 -0.15014413002933799 0 0.040219483271594643 -0.15466785876887121 0 0.033920350420936912 -0.1531830770535528 0 0.046808539919221563 -0.15014413002933799 0 0.040219483271594643 -0.15466785876887121 0 0.043031393960321331 -0.1571354857308308 0 0.040219483271594643 -0.15466785876887121 0 0.033920350420936912 -0.1531830770535528 0 0.037117648785898759 -0.15820874226176301 0 0.034849001543539322 -0.1503583031021323 0 0.031672068294339203 -0.14528428076340441 0 0.030051573782975471 -0.15027594372919439 0 0.034849001543539322 -0.1503583031021323 0 0.033920350420936912 -0.1531830770535528 0 0.030051573782975471 -0.15027594372919439 0 0.034849001543539322 -0.1503583031021323 0 0.031672068294339203 -0.14528428076340441 0 0.038558521200612962 -0.14006542407622449 0 0.031672068294339203 -0.14528428076340441 0 0.038558521200612962 -0.14006542407622449 0 0.030566093298411881 -0.13865773310914861 0 0.054296968429680029 -0.13171371816535249 0 0.038558521200612962 -0.14006542407622449 0 0.040644455285911409 -0.1338393175667463 0 0.038558521200612962 -0.14006542407622449 0 0.040644455285911409 -0.1338393175667463 0 0.030566093298411881 -0.13865773310914861 0 0.034824944079593127 -0.12500853882757099 0 0.040644455285911409 -0.1338393175667463 0 0.030566093298411881 -0.13865773310914861 0 0.034824944079593127 -0.12500853882757099 0 0.045553716665441668 -0.12681104972785159 0 0.040644455285911409 -0.1338393175667463 0 0.054296968429680029 -0.13171371816535249 0 0.045553716665441668 -0.12681104972785159 0 0.040644455285911409 -0.1338393175667463 0 0.072477207369929117 -0.17473224276400179 0 0.051449240160577621 -0.1762857105508405 0 0.056257937900538298 -0.19577788601322099 0 0.066040058368007956 -0.18964665730407451 0 0.051449240160577621 -0.1762857105508405 0 0.063878974636528515 -0.16401540189567099 0 0.051449240160577621 -0.1762857105508405 0 0.052111829065281459 -0.15882829201818821 0 0.051449240160577621 -0.1762857105508405 0 0.052111829065281459 -0.15882829201818821 0 0.040502396519655252 -0.1663673850483231 0 0.063878974636528515 -0.16401540189567099 0 0.06522271263887458 -0.15305574504012881 0 0.052111829065281459 -0.15882829201818821 0 0.043031393960321331 -0.1571354857308308 0 0.037117648785898759 -0.15820874226176301 0 0.040502396519655252 -0.1663673850483231 0 0.052111829065281459 -0.15882829201818821 0 0.043031393960321331 -0.1571354857308308 0 0.040502396519655252 -0.1663673850483231 0 0.040219483271594643 -0.15466785876887121 0 0.043031393960321331 -0.1571354857308308 0 0.037117648785898759 -0.15820874226176301 0 0.033920350420936912 -0.1531830770535528 0 0.033509818979212957 -0.15868168045615499 0 0.027465449436243041 -0.1628752445715565 0 0.037117648785898759 -0.15820874226176301 0 0.034071859908748191 -0.1623715567021686 0 0.040502396519655252 -0.1663673850483231 0 0.033920350420936912 -0.1531830770535528 0 0.037117648785898759 -0.15820874226176301 0 0.033509818979212957 -0.15868168045615499 0 0.037117648785898759 -0.15820874226176301 0 0.033509818979212957 -0.15868168045615499 0 0.034071859908748191 -0.1623715567021686 0 0.033509818979212957 -0.15868168045615499 0 0.034071859908748191 -0.1623715567021686 0 0.027465449436243041 -0.1628752445715565 0 0.031586668938662611 -0.1691709391612749 0 0.040502396519655252 -0.1663673850483231 0 0.030421272951226121 -0.1778391783376792 0 0.034071859908748191 -0.1623715567021686 0 0.031586668938662611 -0.1691709391612749 0 0.040502396519655252 -0.1663673850483231 0 0.051449240160577621 -0.1762857105508405 0 0.040502396519655252 -0.1663673850483231 0 0.030421272951226121 -0.1778391783376792 0 0.041440672425083092 -0.19607701236864419 0 0.051449240160577621 -0.1762857105508405 0 0.030421272951226121 -0.1778391783376792 0 0.051449240160577621 -0.1762857105508405 0 0.030421272951226121 -0.1778391783376792 0 0.02540307025583758 -0.19229280057405279 0 0.015764016274472759 -0.1812646672695073 0 0.030421272951226121 -0.1778391783376792 0 0.031586668938662611 -0.1691709391612749 0 0.030421272951226121 -0.1778391783376792 0 0.021575687727073561 -0.1734893605992324 0 0.015764016274472759 -0.1812646672695073 0 0.021575687727073561 -0.1734893605992324 0 0.012676990919703311 -0.16924925594887871 0 0.015764016274472759 -0.1812646672695073 0 0.030421272951226121 -0.1778391783376792 0 0.021575687727073561 -0.1734893605992324 0 0.033920350420936912 -0.1531830770535528 0 0.009933496317892726 -0.16685029992549011 0 0.02294500892830088 -0.1542832107784407 0 0.033920350420936912 -0.1531830770535528 0 0.027465449436243041 -0.1628752445715565 0 0.009933496317892726 -0.16685029992549011 0 0.019596439448784399 -0.16744493330375371 0 0.027465449436243041 -0.1628752445715565 0 0.009933496317892726 -0.16685029992549011 0 0.033920350420936912 -0.1531830770535528 0 0.009933496317892726 -0.16685029992549011 0 0.021575687727073561 -0.1734893605992324 0 0.019596439448784399 -0.16744493330375371 0 0.012676990919703311 -0.16924925594887871 0 0.021575687727073561 -0.1734893605992324 0 0.019596439448784399 -0.16744493330375371 0 0.025540403417393751 -0.1677775419388785 0 0.031586668938662611 -0.1691709391612749 0 0.021575687727073561 -0.1734893605992324 0 0.025540403417393751 -0.1677775419388785 0 0.019596439448784399 -0.16744493330375371 0 0.025540403417393751 -0.1677775419388785 0 0.027465449436243041 -0.1628752445715565 0 0.034071859908748191 -0.1623715567021686 0 0.031586668938662611 -0.1691709391612749 0 0.027465449436243041 -0.1628752445715565 0 0.031586668938662611 -0.1691709391612749 0 0.025540403417393751 -0.1677775419388785 0 0.027465449436243041 -0.1628752445715565 0 0.009933496317892726 -0.16685029992549011 0 0.01648447247354291 -0.15404273338364399 0 0.02294500892830088 -0.1542832107784407 0 0.009933496317892726 -0.16685029992549011 0 0.01648447247354291 -0.15404273338364399 0 0.0068311679390763679 -0.1533437069849535 0 0.019596439448784399 -0.16744493330375371 0 0.009933496317892726 -0.16685029992549011 0 0.012676990919703311 -0.16924925594887871 0 0.009933496317892726 -0.16685029992549011 0 0.012676990919703311 -0.16924925594887871 0 0.0034571977838801569 -0.17702496179755631 0 0.009933496317892726 -0.16685029992549011 0 0.012676990919703311 -0.16924925594887871 0 -0.0085976242789068957 -0.177408956520272 0 0.009933496317892726 -0.16685029992549011 0 -0.0085976242789068957 -0.177408956520272 0 0.009933496317892726 -0.16685029992549011 0 0.0034571977838801569 -0.17702496179755631 0 0.015764016274472759 -0.1812646672695073 0 0.012676990919703311 -0.16924925594887871 0 0.0034571977838801569 -0.17702496179755631 0 -0.003739977245034012 -0.19168309442994089 0 0.010514116253606281 -0.1925853606064957 0 0.0034571977838801569 -0.17702496179755631 0 0.010514116253606281 -0.1925853606064957 0 0.015764016274472759 -0.1812646672695073 0 0.0034571977838801569 -0.17702496179755631 0 0.02166725362828328 -0.1398342401410575 0 0.019282665512654749 -0.1297026577714144 0 0.01241268948209219 -0.14437852502616319 0 0.034824944079593127 -0.12500853882757099 0 0.019282665512654749 -0.1297026577714144 0 0.030566093298411881 -0.13865773310914861 0 0.02166725362828328 -0.1398342401410575 0 0.019282665512654749 -0.1297026577714144 0 0.030566093298411881 -0.13865773310914861 0 0.031672068294339203 -0.14528428076340441 0 0.030566093298411881 -0.13865773310914861 0 0.024335151646156381 -0.14706399980032239 0 0.02166725362828328 -0.1398342401410575 0 0.030566093298411881 -0.13865773310914861 0 0.024335151646156381 -0.14706399980032239 0 0.031672068294339203 -0.14528428076340441 0 0.024335151646156381 -0.14706399980032239 0 0.030051573782975471 -0.15027594372919439 0 0.033920350420936912 -0.1531830770535528 0 0.030051573782975471 -0.15027594372919439 0 0.02294500892830088 -0.1542832107784407 0 0.024335151646156381 -0.14706399980032239 0 0.030051573782975471 -0.15027594372919439 0 0.02294500892830088 -0.1542832107784407 0 0.024335151646156381 -0.14706399980032239 0 0.01648447247354291 -0.15404273338364399 0 0.01241268948209219 -0.14437852502616319 0 0.024335151646156381 -0.14706399980032239 0 0.01648447247354291 -0.15404273338364399 0 0.02294500892830088 -0.1542832107784407 0 0.02166725362828328 -0.1398342401410575 0 0.024335151646156381 -0.14706399980032239 0 0.01241268948209219 -0.14437852502616319 0 -0.011505986517222349 -0.14810326960451681 0 0.01241268948209219 -0.14437852502616319 0 0.0068311679390763679 -0.1533437069849535 0 -0.011505986517222349 -0.14810326960451681 0 0.009933496317892726 -0.16685029992549011 0 0.0068311679390763679 -0.1533437069849535 0 -0.011505986517222349 -0.14810326960451681 0 0.01241268948209219 -0.14437852502616319 0 0.0027021066240326768 -0.1317064378292063 0 0.01648447247354291 -0.15404273338364399 0 0.01241268948209219 -0.14437852502616319 0 0.0068311679390763679 -0.1533437069849535 0 0.019282665512654749 -0.1297026577714144 0 0.01241268948209219 -0.14437852502616319 0 0.0027021066240326768 -0.1317064378292063 0 0.019282665512654749 -0.1297026577714144 0 0.0027021066240326768 -0.1317064378292063 0 0.005085065621477718 -0.1151057880332567 0 0.019282665512654749 -0.1297026577714144 0 0.005085065621477718 -0.1151057880332567 0 0.024129304522527751 -0.1089818526354679 0 0.034824944079593127 -0.12500853882757099 0 0.019282665512654749 -0.1297026577714144 0 0.024129304522527751 -0.1089818526354679 0 0.024129304522527751 -0.1089818526354679 0 0.01380815825635252 -0.094132232187142617 0 0.031293966725895003 -0.08518965294817829 0 -0.00044729776891663488 -0.1011528385718463 0 0.005085065621477718 -0.1151057880332567 0 0.01380815825635252 -0.094132232187142617 0 0.005085065621477718 -0.1151057880332567 0 0.024129304522527751 -0.1089818526354679 0 0.01380815825635252 -0.094132232187142617 0 0.01380815825635252 -0.094132232187142617 0 0.0042106568376920582 -0.081118225430045127 0 0.020039989671696231 -0.071989185162356889 0 -0.00044729776891663488 -0.1011528385718463 0 0.01380815825635252 -0.094132232187142617 0 0.0042106568376920582 -0.081118225430045127 0 0.0042106568376920582 -0.081118225430045127 0 0.0052181775422467033 -0.064346337314722044 0 0.020039989671696231 -0.071989185162356889 0 -0.0043762627118289626 -0.071729097412358583 0 0.0042106568376920582 -0.081118225430045127 0 0.0052181775422467033 -0.064346337314722044 0 0.0052181775422467033 -0.064346337314722044 0 0.020039989671696231 -0.071989185162356889 0 0.0052181775422467033 -0.064346337314722044 0 0.020039989671696231 -0.071989185162356889 0 0.017880224012190679 -0.058506375123621113 0 0.020039989671696231 -0.071989185162356889 0 0.017880224012190679 -0.058506375123621113 0 0.035073137211611732 -0.060365082031122411 0 0.020039989671696231 -0.071989185162356889 0 0.031293966725895003 -0.08518965294817829 0 0.035073137211611732 -0.060365082031122411 0 0.01380815825635252 -0.094132232187142617 0 0.020039989671696231 -0.071989185162356889 0 0.031293966725895003 -0.08518965294817829 0 0.031293966725895003 -0.08518965294817829 0 0.050629459546369923 -0.074776417317023003 0 0.042727201812981508 -0.099892478072297022 0 0.050629459546369923 -0.074776417317023003 0 0.042727201812981508 -0.099892478072297022 0 0.031293966725895003 -0.08518965294817829 0 0.050629459546369923 -0.074776417317023003 0 0.035073137211611732 -0.060365082031122411 0 0.050629459546369923 -0.074776417317023003 0 0.058531717279758283 -0.049660356561749108 0 0.072219385832792832 -0.066659644627356851 0 0.050629459546369923 -0.074776417317023003 0 0.042727201812981508 -0.099892478072297022 0 0.069701838591585213 -0.089386546866783212 0 0.059655618646742382 -0.10475769562984739 0 0.052448498866582129 -0.1166826243517366 0 0.042727201812981508 -0.099892478072297022 0 0.059655618646742382 -0.10475769562984739 0 0.042727201812981508 -0.099892478072297022 0 0.069701838591585213 -0.089386546866783212 0 0.054296968429680029 -0.13171371816535249 0 0.052448498866582129 -0.1166826243517366 0 0.073744935315820714 -0.1130691332285727 0 0.059655618646742382 -0.10475769562984739 0 0.052448498866582129 -0.1166826243517366 0 0.073744935315820714 -0.1130691332285727 0 0.034824944079593127 -0.12500853882757099 0 0.045553716665441668 -0.12681104972785159 0 0.052448498866582129 -0.1166826243517366 0 0.034824944079593127 -0.12500853882757099 0 0.052448498866582129 -0.1166826243517366 0 0.042727201812981508 -0.099892478072297022 0 0.034824944079593127 -0.12500853882757099 0 0.024129304522527751 -0.1089818526354679 0 0.042727201812981508 -0.099892478072297022 0 0.034824944079593127 -0.12500853882757099 0 0.042727201812981508 -0.099892478072297022 0 0.024129304522527751 -0.1089818526354679 0 0.031293966725895003 -0.08518965294817829 0 0.042727201812981508 -0.099892478072297022 0 0.034885408484197772 0.0062912350017927032 0 0.01265631079038235 -0.01012693536007268 0 0.042517259973231587 -0.011683923625132649 0 -0.00118246574067416 -0.01324232368796026 0 0.0012074066645448821 -0.00065723147797176382 0 0.01265631079038235 -0.01012693536007268 0 0.01265631079038235 -0.01012693536007268 0 0.02406773205363014 -0.026959444655171291 0 0.0015263381015913891 -0.033415212413580753 0 0.01265631079038235 -0.01012693536007268 0 0.0015263381015913891 -0.033415212413580753 0 -0.00118246574067416 -0.01324232368796026 0 0.01265631079038235 -0.01012693536007268 0 0.0015263381015913891 -0.033415212413580753 0 0.01265631079038235 -0.01012693536007268 0 0.02406773205363014 -0.026959444655171291 0 0.042517259973231587 -0.011683923625132649 0 0.02406773205363014 -0.026959444655171291 0 0.021771409900077709 -0.044354063799483319 0 0.04186734150286768 -0.035217088077587062 0 0.02406773205363014 -0.026959444655171291 0 0.021771409900077709 -0.044354063799483319 0 0.0015263381015913891 -0.033415212413580753 0 0.021771409900077709 -0.044354063799483319 0 0.0015263381015913891 -0.033415212413580753 0 0.007298405735321048 -0.051477207310420908 0 -0.0096036345872028556 -0.056703489467087059 0 0.0052181775422467033 -0.064346337314722044 0 0.007298405735321048 -0.051477207310420908 0 0.0052181775422467033 -0.064346337314722044 0 0.007298405735321048 -0.051477207310420908 0 0.017880224012190679 -0.058506375123621113 0 0.021771409900077709 -0.044354063799483319 0 0.017880224012190679 -0.058506375123621113 0 0.035073137211611732 -0.060365082031122411 0 0.021771409900077709 -0.044354063799483319 0 0.007298405735321048 -0.051477207310420908 0 0.017880224012190679 -0.058506375123621113 0 0.035073137211611732 -0.060365082031122411 0 0.058531717279758283 -0.049660356561749108 0 0.04186734150286768 -0.035217088077587062 0 0.050629459546369923 -0.074776417317023003 0 0.058531717279758283 -0.049660356561749108 0 0.050629459546369923 -0.074776417317023003 0 0.035073137211611732 -0.060365082031122411 0 0.058531717279758283 -0.049660356561749108 0 0.058531717279758283 -0.049660356561749108 0 0.066433975013146629 -0.02454429580647528 0 0.058531717279758283 -0.049660356561749108 0 0.04186734150286768 -0.035217088077587062 0 0.066433975013146629 -0.02454429580647528 0 0.021771409900077709 -0.044354063799483319 0 0.035073137211611732 -0.060365082031122411 0 0.04186734150286768 -0.035217088077587062 0 0.02406773205363014 -0.026959444655171291 0 0.04186734150286768 -0.035217088077587062 0 0.042517259973231587 -0.011683923625132649 0 0.04186734150286768 -0.035217088077587062 0 0.042517259973231587 -0.011683923625132649 0 0.066433975013146629 -0.02454429580647528 0 0.052968053050369737 0.0090809173488315582 0 0.042517259973231587 -0.011683923625132649 0 0.067492943165135169 -0.0019794682467893379 0 0.042517259973231587 -0.011683923625132649 0 0.067492943165135169 -0.0019794682467893379 0 0.066433975013146629 -0.02454429580647528 0 0.087040675587819916 -0.0096101539263870796 0 0.066433975013146629 -0.02454429580647528 0 0.098032226742104309 -0.02831505409649597 0 0.083930998993742512 0.0059737405228527038 0 0.087040675587819916 -0.0096101539263870796 0 0.067492943165135169 -0.0019794682467893379 0 0.083930998993742512 0.0059737405228527038 0 0.098495163759696414 0.0029673617968291321 0 0.087040675587819916 -0.0096101539263870796 0 0.087040675587819916 -0.0096101539263870796 0 0.067492943165135169 -0.0019794682467893379 0 0.066433975013146629 -0.02454429580647528 0 0.066433975013146629 -0.02454429580647528 0 0.080663194565618018 -0.042742664855397232 0 0.098032226742104309 -0.02831505409649597 0 0.080663194565618018 -0.042742664855397232 0 0.099119978598511321 -0.045144617550746849 0 0.098032226742104309 -0.02831505409649597 0 0.058531717279758283 -0.049660356561749108 0 0.066433975013146629 -0.02454429580647528 0 0.080663194565618018 -0.042742664855397232 0 0.058531717279758283 -0.049660356561749108 0 0.080663194565618018 -0.042742664855397232 0 0.072219385832792832 -0.066659644627356851 0 0.080663194565618018 -0.042742664855397232 0 0.091985945990252393 -0.059557823171565508 0 0.072219385832792832 -0.066659644627356851 0 0.080663194565618018 -0.042742664855397232 0 0.091985945990252393 -0.059557823171565508 0 0.099119978598511321 -0.045144617550746849 0 0.091985945990252393 -0.059557823171565508 0 0.109385226414503 -0.056941989317685793 0 0.099119978598511321 -0.045144617550746849 0 0.109385226414503 -0.056941989317685793 0 0.1174221699598199 -0.069046986946925279 0 0.12664898879935529 -0.055605769639440771 0 0.109385226414503 -0.056941989317685793 0 0.1155332992800789 -0.038165556312589707 0 0.12664898879935529 -0.055605769639440771 0 0.1155332992800789 -0.038165556312589707 0 0.12954193793015309 -0.041748568408345607 0 0.12664898879935529 -0.055605769639440771 0 0.1155332992800789 -0.038165556312589707 0 0.1294320674019063 -0.023146095115484211 0 0.12954193793015309 -0.041748568408345607 0 0.109385226414503 -0.056941989317685793 0 0.1155332992800789 -0.038165556312589707 0 0.099119978598511321 -0.045144617550746849 0 0.1155332992800789 -0.038165556312589707 0 0.099119978598511321 -0.045144617550746849 0 0.098032226742104309 -0.02831505409649597 0 0.1155332992800789 -0.038165556312589707 0 0.098032226742104309 -0.02831505409649597 0 0.1112777463759113 -0.012222875866518469 0 0.087040675587819916 -0.0096101539263870796 0 0.098032226742104309 -0.02831505409649597 0 0.1112777463759113 -0.012222875866518469 0 0.1155332992800789 -0.038165556312589707 0 0.1112777463759113 -0.012222875866518469 0 0.1294320674019063 -0.023146095115484211 0 0.1158546052028349 0.0064685721448778594 0 0.13464870039648349 0.00080453217212592717 0 0.1112777463759113 -0.012222875866518469 0 0.098495163759696414 0.0029673617968291321 0 0.087040675587819916 -0.0096101539263870796 0 0.1112777463759113 -0.012222875866518469 0 0.1158546052028349 0.0064685721448778594 0 0.098495163759696414 0.0029673617968291321 0 0.1112777463759113 -0.012222875866518469 0 0.093192902201961414 -0.094424548291792879 0 0.088899626305776192 -0.1113374325741409 0 0.073744935315820714 -0.1130691332285727 0 0.093192902201961414 -0.094424548291792879 0 0.073744935315820714 -0.1130691332285727 0 0.069701838591585213 -0.089386546866783212 0 0.093192902201961414 -0.094424548291792879 0 0.073744935315820714 -0.1130691332285727 0 0.081894058627025895 -0.12584863130967919 0 0.088899626305776192 -0.1113374325741409 0 0.09397493983509804 -0.11322330148444169 0 0.081894058627025895 -0.12584863130967919 0 0.079920122843727764 -0.11786127252462281 0 0.075141871126288284 -0.1211898929860986 0 0.081894058627025895 -0.12584863130967919 0 0.088899626305776192 -0.1113374325741409 0 0.079920122843727764 -0.11786127252462281 0 0.088899626305776192 -0.1113374325741409 0 0.079920122843727764 -0.11786127252462281 0 0.073744935315820714 -0.1130691332285727 0 0.068207364780656948 -0.12563827965844471 0 0.054296968429680029 -0.13171371816535249 0 0.073744935315820714 -0.1130691332285727 0 0.054296968429680029 -0.13171371816535249 0 0.073744935315820714 -0.1130691332285727 0 0.068207364780656948 -0.12563827965844471 0 0.073744935315820714 -0.1130691332285727 0 0.075141871126288284 -0.1211898929860986 0 0.079920122843727764 -0.11786127252462281 0 0.073744935315820714 -0.1130691332285727 0 0.075141871126288284 -0.1211898929860986 0 0.081894058627025895 -0.12584863130967919 0 0.068207364780656948 -0.12563827965844471 0 0.075141871126288284 -0.1211898929860986 0 0.059655618646742382 -0.10475769562984739 0 0.073744935315820714 -0.1130691332285727 0 0.069701838591585213 -0.089386546866783212 0 0.050629459546369923 -0.074776417317023003 0 0.069701838591585213 -0.089386546866783212 0 0.072219385832792832 -0.066659644627356851 0 0.069701838591585213 -0.089386546866783212 0 0.072219385832792832 -0.066659644627356851 0 0.089711563165187497 -0.078251462936863553 0 0.091985945990252393 -0.059557823171565508 0 0.072219385832792832 -0.066659644627356851 0 0.089711563165187497 -0.078251462936863553 0 0.093192902201961414 -0.094424548291792879 0 0.069701838591585213 -0.089386546866783212 0 0.089711563165187497 -0.078251462936863553 0 0.093192902201961414 -0.094424548291792879 0 0.089711563165187497 -0.078251462936863553 0 0.1048667032735431 -0.089595599910983495 0 0.089711563165187497 -0.078251462936863553 0 0.1048667032735431 -0.089595599910983495 0 0.1056935618466131 -0.072691272791708894 0 0.1048667032735431 -0.089595599910983495 0 0.1056935618466131 -0.072691272791708894 0 0.11564058922802831 -0.08068930143821873 0 0.091985945990252393 -0.059557823171565508 0 0.089711563165187497 -0.078251462936863553 0 0.1056935618466131 -0.072691272791708894 0 0.091985945990252393 -0.059557823171565508 0 0.109385226414503 -0.056941989317685793 0 0.1056935618466131 -0.072691272791708894 0 0.1174221699598199 -0.069046986946925279 0 0.12840026197867099 -0.078951386265116219 0 0.12664898879935529 -0.055605769639440771 0 0.109385226414503 -0.056941989317685793 0 0.1056935618466131 -0.072691272791708894 0 0.1174221699598199 -0.069046986946925279 0 0.1056935618466131 -0.072691272791708894 0 0.1174221699598199 -0.069046986946925279 0 0.11564058922802831 -0.08068930143821873 0 0.1174221699598199 -0.069046986946925279 0 0.11564058922802831 -0.08068930143821873 0 0.12840026197867099 -0.078951386265116219 0 0.1048667032735431 -0.089595599910983495 0 0.11564058922802831 -0.08068930143821873 0 0.1191358060176364 -0.092450830711447801 0 0.1191358060176364 -0.092450830711447801 0 0.12840026197867099 -0.078951386265116219 0 0.11564058922802831 -0.08068930143821873 0 0.1191358060176364 -0.092450830711447801 0 0.12840026197867099 -0.078951386265116219 0 0.1058809127300703 -0.11218140843774239 0 0.12023297736745781 -0.1110263554770618 0 0.12986776683311119 -0.098514185565799078 0 0.1058809127300703 -0.11218140843774239 0 0.12986776683311119 -0.098514185565799078 0 0.1048667032735431 -0.089595599910983495 0 0.1191358060176364 -0.092450830711447801 0 0.10987135005660249 -0.1059502751577799 0 0.10987135005660249 -0.1059502751577799 0 0.1058809127300703 -0.11218140843774239 0 0.12986776683311119 -0.098514185565799078 0 0.1191358060176364 -0.092450830711447801 0 0.10987135005660249 -0.1059502751577799 0 0.12986776683311119 -0.098514185565799078 0 0.1191358060176364 -0.092450830711447801 0 0.10987135005660249 -0.1059502751577799 0 0.093192902201961414 -0.094424548291792879 0 0.088899626305776192 -0.1113374325741409 0 0.099225161677519755 -0.1035257336162041 0 0.1048667032735431 -0.089595599910983495 0 0.10987135005660249 -0.1059502751577799 0 0.099225161677519755 -0.1035257336162041 0 0.10987135005660249 -0.1059502751577799 0 0.099225161677519755 -0.1035257336162041 0 0.1058809127300703 -0.11218140843774239 0 0.088899626305776192 -0.1113374325741409 0 0.099225161677519755 -0.1035257336162041 0 0.09397493983509804 -0.11322330148444169 0 0.093192902201961414 -0.094424548291792879 0 0.1048667032735431 -0.089595599910983495 0 0.099225161677519755 -0.1035257336162041 0 0.081894058627025895 -0.12584863130967919 0 0.1058809127300703 -0.11218140843774239 0 0.099525338641528904 -0.12611341339503321 0 0.081894058627025895 -0.12584863130967919 0 0.1058809127300703 -0.11218140843774239 0 0.081894058627025895 -0.12584863130967919 0 0.09397493983509804 -0.11322330148444169 0 0.1058809127300703 -0.11218140843774239 0 0.099225161677519755 -0.1035257336162041 0 0.09397493983509804 -0.11322330148444169 0 0.1058809127300703 -0.11218140843774239 0 0.099525338641528904 -0.12611341339503321 0 0.1058809127300703 -0.11218140843774239 0 0.1121708616464093 -0.1216807098986791 0 0.1058809127300703 -0.11218140843774239 0 0.1121708616464093 -0.1216807098986791 0 0.12023297736745781 -0.1110263554770618 0 0.11997683785091839 -0.1276371159963853 0 0.121067612134044 -0.1214532534018402 0 0.13188977167139071 -0.12546883223523481 0 0.12023297736745781 -0.1110263554770618 0 0.121067612134044 -0.1214532534018402 0 0.13188977167139071 -0.12546883223523481 0 0.11997683785091839 -0.1276371159963853 0 0.1121708616464093 -0.1216807098986791 0 0.121067612134044 -0.1214532534018402 0 0.1121708616464093 -0.1216807098986791 0 0.12023297736745781 -0.1110263554770618 0 0.121067612134044 -0.1214532534018402 0 0.12023297736745781 -0.1110263554770618 0 0.12986776683311119 -0.098514185565799078 0 0.13188977167139071 -0.12546883223523481 0 0.12986776683311119 -0.098514185565799078 0 0.13188977167139071 -0.12546883223523481 0 0.14925441928633251 -0.10969288085116551 0 0.13995942417209239 -0.1034127274713456 0 0.13188977167139071 -0.12546883223523481 0 0.14724036225017881 -0.1245170930860646 0 0.14925441928633251 -0.10969288085116551 0 0.13188977167139071 -0.12546883223523481 0 0.14925441928633251 -0.10969288085116551 0 0.15485465026004211 -0.11932571079310079 0 0.15999890680388329 -0.1096406796162286 0 0.14724036225017881 -0.1245170930860646 0 0.15485465026004211 -0.11932571079310079 0 0.15557261582888751 -0.13003178131142151 0 0.14724036225017881 -0.1245170930860646 0 0.14925441928633251 -0.10969288085116551 0 0.15485465026004211 -0.11932571079310079 0 0.14925441928633251 -0.10969288085116551 0 0.14348993397904131 -0.092765062884646393 0 0.1620153957752187 -0.097165399419701551 0 0.14348993397904131 -0.092765062884646393 0 0.1620153957752187 -0.097165399419701551 0 0.14925441928633251 -0.10969288085116551 0 0.13995942417209239 -0.1034127274713456 0 0.14348993397904131 -0.092765062884646393 0 0.13995942417209239 -0.1034127274713456 0 0.12986776683311119 -0.098514185565799078 0 0.13188977167139071 -0.12546883223523481 0 0.13995942417209239 -0.1034127274713456 0 0.12986776683311119 -0.098514185565799078 0 0.14348993397904131 -0.092765062884646393 0 0.12986776683311119 -0.098514185565799078 0 0.12840026197867099 -0.078951386265116219 0 0.1428482005174804 -0.076716741777837147 0 0.1191358060176364 -0.092450830711447801 0 0.12986776683311119 -0.098514185565799078 0 0.12840026197867099 -0.078951386265116219 0 0.12986776683311119 -0.098514185565799078 0 0.12840026197867099 -0.078951386265116219 0 0.12840026197867099 -0.078951386265116219 0 0.12664898879935529 -0.055605769639440771 0 0.12840026197867099 -0.078951386265116219 0 0.12664898879935529 -0.055605769639440771 0 0.14464694777039611 -0.055277979731059648 0 0.12840026197867099 -0.078951386265116219 0 0.1428482005174804 -0.076716741777837147 0 0.14464694777039611 -0.055277979731059648 0 0.12840026197867099 -0.078951386265116219 0 0.14464694777039611 -0.055277979731059648 0 0.1428482005174804 -0.076716741777837147 0 0.15680899227989839 -0.06637062400294011 0 0.14464694777039611 -0.055277979731059648 0 0.1428482005174804 -0.076716741777837147 0 0.15451703372532541 -0.084469533324270707 0 0.15680899227989839 -0.06637062400294011 0 0.12986776683311119 -0.098514185565799078 0 0.15451703372532541 -0.084469533324270707 0 0.12986776683311119 -0.098514185565799078 0 0.14348993397904131 -0.092765062884646393 0 0.15451703372532541 -0.084469533324270707 0 0.14348993397904131 -0.092765062884646393 0 0.15451703372532541 -0.084469533324270707 0 0.1620153957752187 -0.097165399419701551 0 0.12986776683311119 -0.098514185565799078 0 0.1428482005174804 -0.076716741777837147 0 0.15451703372532541 -0.084469533324270707 0 0.15451703372532541 -0.084469533324270707 0 0.1674193516126988 -0.088794767656503876 0 0.1620153957752187 -0.097165399419701551 0 0.15451703372532541 -0.084469533324270707 0 0.1674193516126988 -0.088794767656503876 0 0.16389165652408541 -0.076485311925560115 0 0.1674193516126988 -0.088794767656503876 0 0.16389165652408541 -0.076485311925560115 0 0.17613181446746839 -0.084287857658230353 0 0.15451703372532541 -0.084469533324270707 0 0.15680899227989839 -0.06637062400294011 0 0.16389165652408541 -0.076485311925560115 0 0.16389165652408541 -0.076485311925560115 0 0.1717227713635387 -0.067009979361705274 0 0.17613181446746839 -0.084287857658230353 0 0.15680899227989839 -0.06637062400294011 0 0.16389165652408541 -0.076485311925560115 0 0.1717227713635387 -0.067009979361705274 0 0.15680899227989839 -0.06637062400294011 0 0.1717227713635387 -0.067009979361705274 0 0.1652446184022294 -0.054500080927008407 0 0.1717227713635387 -0.067009979361705274 0 0.17613181446746839 -0.084287857658230353 0 0.1717227713635387 -0.067009979361705274 0 0.18346211879182289 -0.064955309332027283 0 0.18137547142311691 -0.085525622921553163 0 0.18346211879182289 -0.064955309332027283 0 0.18137547142311691 -0.085525622921553163 0 0.1952329782378138 -0.068464889048657496 0 0.1717227713635387 -0.067009979361705274 0 0.18137547142311691 -0.085525622921553163 0 0.1717227713635387 -0.067009979361705274 0 0.18346211879182289 -0.064955309332027283 0 0.1746283364613696 -0.057560297553190053 0 0.18137547142311691 -0.085525622921553163 0 0.17613181446746839 -0.084287857658230353 0 0.18054085757139629 -0.1015657359547559 0 0.17613181446746839 -0.084287857658230353 0 0.18054085757139629 -0.1015657359547559 0 0.1674193516126988 -0.088794767656503876 0 0.17613181446746839 -0.084287857658230353 0 0.18054085757139629 -0.1015657359547559 0 0.1717227713635387 -0.067009979361705274 0 0.18137547142311691 -0.085525622921553163 0 0.17613181446746839 -0.084287857658230353 0 0.18137547142311691 -0.085525622921553163 0 0.19100769245097829 -0.1040519139747048 0 0.18137547142311691 -0.085525622921553163 0 0.18054085757139629 -0.1015657359547559 0 0.19100769245097829 -0.1040519139747048 0 0.18054085757139629 -0.1015657359547559 0 0.1749190978293893 -0.1165979942053425 0 0.16884250162088479 -0.1080310140379921 0 0.18054085757139629 -0.1015657359547559 0 0.19100769245097829 -0.1040519139747048 0 0.18054085757139629 -0.1015657359547559 0 0.1862357176231304 -0.1238823921021804 0 0.1749190978293893 -0.1165979942053425 0 0.18054085757139629 -0.1015657359547559 0 0.1862357176231304 -0.1238823921021804 0 0.19100769245097829 -0.1040519139747048 0 0.18054085757139629 -0.1015657359547559 0 0.1862357176231304 -0.1238823921021804 0 0.1862357176231304 -0.1238823921021804 0 0.1749190978293893 -0.1165979942053425 0 0.17324983187337631 -0.13165498831909611 0 0.1749190978293893 -0.1165979942053425 0 0.16471491079178111 -0.1205264202314431 0 0.16884250162088479 -0.1080310140379921 0 0.16471491079178111 -0.1205264202314431 0 0.15999890680388329 -0.1096406796162286 0 0.16884250162088479 -0.1080310140379921 0 0.1749190978293893 -0.1165979942053425 0 0.16471491079178111 -0.1205264202314431 0 0.17324983187337631 -0.13165498831909611 0 0.15485465026004211 -0.11932571079310079 0 0.16471491079178111 -0.1205264202314431 0 0.15557261582888751 -0.13003178131142151 0 0.15485465026004211 -0.11932571079310079 0 0.16471491079178111 -0.1205264202314431 0 0.15999890680388329 -0.1096406796162286 0 0.18054085757139629 -0.1015657359547559 0 0.1620153957752187 -0.097165399419701551 0 0.1674193516126988 -0.088794767656503876 0 0.18054085757139629 -0.1015657359547559 0 0.1620153957752187 -0.097165399419701551 0 0.14925441928633251 -0.10969288085116551 0 0.15999890680388329 -0.1096406796162286 0 0.1620153957752187 -0.097165399419701551 0 0.15999890680388329 -0.1096406796162286 0 0.1620153957752187 -0.097165399419701551 0 0.16884250162088479 -0.1080310140379921 0 0.18054085757139629 -0.1015657359547559 0 0.1620153957752187 -0.097165399419701551 0 0.16884250162088479 -0.1080310140379921 0 0.13464870039648349 0.00080453217212592717 0 0.15480995508657039 -0.001084596553268768 0 0.14892696920713289 -0.018041582065753459 0 0.13464870039648349 0.00080453217212592717 0 0.1294320674019063 -0.023146095115484211 0 0.14892696920713289 -0.018041582065753459 0 0.13464870039648349 0.00080453217212592717 0 0.1112777463759113 -0.012222875866518469 0 0.1294320674019063 -0.023146095115484211 0 0.1294320674019063 -0.023146095115484211 0 0.14892696920713289 -0.018041582065753459 0 0.14270131340979469 -0.036531096068384838 0 0.14892696920713289 -0.018041582065753459 0 0.14270131340979469 -0.036531096068384838 0 0.16089363356212191 -0.031604573197003549 0 0.14270131340979469 -0.036531096068384838 0 0.14464694777039611 -0.055277979731059648 0 0.16089363356212191 -0.031604573197003549 0 0.14464694777039611 -0.055277979731059648 0 0.15561449558007559 -0.051164132387281437 0 0.16089363356212191 -0.031604573197003549 0 0.14464694777039611 -0.055277979731059648 0 0.16089363356212191 -0.031604573197003549 0 0.14270131340979469 -0.036531096068384838 0 0.12954193793015309 -0.041748568408345607 0 0.14464694777039611 -0.055277979731059648 0 0.1294320674019063 -0.023146095115484211 0 0.14270131340979469 -0.036531096068384838 0 0.12954193793015309 -0.041748568408345607 0 0.12954193793015309 -0.041748568408345607 0 0.12664898879935529 -0.055605769639440771 0 0.14464694777039611 -0.055277979731059648 0 0.15680899227989839 -0.06637062400294011 0 0.14464694777039611 -0.055277979731059648 0 0.15561449558007559 -0.051164132387281437 0 0.15680899227989839 -0.06637062400294011 0 0.15561449558007559 -0.051164132387281437 0 0.1652446184022294 -0.054500080927008407 0 0.15561449558007559 -0.051164132387281437 0 0.1652446184022294 -0.054500080927008407 0 0.1617942405007988 -0.043199732881276223 0 0.1652446184022294 -0.054500080927008407 0 0.1746283364613696 -0.057560297553190053 0 0.1617942405007988 -0.043199732881276223 0 0.1717227713635387 -0.067009979361705274 0 0.1652446184022294 -0.054500080927008407 0 0.1717227713635387 -0.067009979361705274 0 0.1652446184022294 -0.054500080927008407 0 0.1746283364613696 -0.057560297553190053 0 0.1746283364613696 -0.057560297553190053 0 0.1828119860636557 -0.050363577362968731 0 0.1617942405007988 -0.043199732881276223 0 0.18346211879182289 -0.064955309332027283 0 0.1746283364613696 -0.057560297553190053 0 0.1828119860636557 -0.050363577362968731 0 0.18346211879182289 -0.064955309332027283 0 0.1828119860636557 -0.050363577362968731 0 0.19188844298534441 -0.056659859735039647 0 0.1617942405007988 -0.043199732881276223 0 0.18853740735089011 -0.033706188378118708 0 0.1828119860636557 -0.050363577362968731 0 0.1617942405007988 -0.043199732881276223 0 0.18853740735089011 -0.033706188378118708 0 0.15561449558007559 -0.051164132387281437 0 0.16089363356212191 -0.031604573197003549 0 0.1617942405007988 -0.043199732881276223 0 0.16089363356212191 -0.031604573197003549 0 0.1617942405007988 -0.043199732881276223 0 0.18853740735089011 -0.033706188378118708 0 0.16089363356212191 -0.031604573197003549 0 0.17714031935384769 -0.0079311666629475405 0 0.14892696920713289 -0.018041582065753459 0 0.16089363356212191 -0.031604573197003549 0 0.17714031935384769 -0.0079311666629475405 0 0.16089363356212191 -0.031604573197003549 0 0.17714031935384769 -0.0079311666629475405 0 0.18853740735089011 -0.033706188378118708 0 0.1657030786406338 0.0084270166623369204 0 0.15480995508657039 -0.001084596553268768 0 0.17714031935384769 -0.0079311666629475405 0 0.15480995508657039 -0.001084596553268768 0 0.14892696920713289 -0.018041582065753459 0 0.17714031935384769 -0.0079311666629475405 0 0.21351355446813719 -0.0021103410187178909 0 0.2110126965438916 -0.012672932103663791 0 0.2228246624943325 -0.0092295053444410857 0 0.2110126965438916 -0.012672932103663791 0 0.21911622703360889 -0.015650702578479541 0 0.2228246624943325 -0.0092295053444410857 0 0.21351355446813719 -0.0021103410187178909 0 0.2110126965438916 -0.012672932103663791 0 0.19836939172364151 -0.01016904411482358 0 0.1998105265397013 0.00335350757378736 0 0.21351355446813719 -0.0021103410187178909 0 0.19836939172364151 -0.01016904411482358 0 0.1998105265397013 0.00335350757378736 0 0.17714031935384769 -0.0079311666629475405 0 0.19836939172364151 -0.01016904411482358 0 0.17714031935384769 -0.0079311666629475405 0 0.19836939172364151 -0.01016904411482358 0 0.18853740735089011 -0.033706188378118708 0 0.2110126965438916 -0.012672932103663791 0 0.19836939172364151 -0.01016904411482358 0 0.18853740735089011 -0.033706188378118708 0 0.21528057420098159 -0.024212643874961401 0 0.18853740735089011 -0.033706188378118708 0 0.2110126965438916 -0.012672932103663791 0 0.21528057420098159 -0.024212643874961401 0 0.18853740735089011 -0.033706188378118708 0 0.21528057420098159 -0.024212643874961401 0 0.20886364623554921 -0.031523512657201581 0 0.18853740735089011 -0.033706188378118708 0 0.2110126965438916 -0.012672932103663791 0 0.21528057420098159 -0.024212643874961401 0 0.21911622703360889 -0.015650702578479541 0 0.21528057420098159 -0.024212643874961401 0 0.2158000993154765 -0.027276596113623111 0 0.21360323626451261 -0.02858374534336202 0 0.21528057420098159 -0.024212643874961401 0 0.2158000993154765 -0.027276596113623111 0 0.21995729679401421 -0.029331280632926501 0 0.2158000993154765 -0.027276596113623111 0 0.21503400689837671 -0.030930810510401429 0 0.21995729679401421 -0.029331280632926501 0 0.2158000993154765 -0.027276596113623111 0 0.21503400689837671 -0.030930810510401429 0 0.21360323626451261 -0.02858374534336202 0 0.21528057420098159 -0.024212643874961401 0 0.21360323626451261 -0.02858374534336202 0 0.20886364623554921 -0.031523512657201581 0 0.21503400689837671 -0.030930810510401429 0 0.21360323626451261 -0.02858374534336202 0 0.20886364623554921 -0.031523512657201581 0 0.2128060919330283 -0.035124071741943173 0 0.2180191377477218 -0.035203133534298187 0 0.2167024847658664 -0.043974661413588162 0 0.21503400689837671 -0.030930810510401429 0 0.2128060919330283 -0.035124071741943173 0 0.20886364623554921 -0.031523512657201581 0 0.21503400689837671 -0.030930810510401429 0 0.2128060919330283 -0.035124071741943173 0 0.2180191377477218 -0.035203133534298187 0 0.21503400689837671 -0.030930810510401429 0 0.2180191377477218 -0.035203133534298187 0 0.21995729679401421 -0.029331280632926501 0 0.2167024847658664 -0.043974661413588162 0 0.20890374551960481 -0.040729144831228678 0 0.20897987019450001 -0.050060865146210963 0 0.2128060919330283 -0.035124071741943173 0 0.2167024847658664 -0.043974661413588162 0 0.20890374551960481 -0.040729144831228678 0 0.20890374551960481 -0.040729144831228678 0 0.19655169947710091 -0.043788383486002072 0 0.20897987019450001 -0.050060865146210963 0 0.2128060919330283 -0.035124071741943173 0 0.20890374551960481 -0.040729144831228678 0 0.20886364623554921 -0.031523512657201581 0 0.20890374551960481 -0.040729144831228678 0 0.20886364623554921 -0.031523512657201581 0 0.19655169947710091 -0.043788383486002072 0 0.1828119860636557 -0.050363577362968731 0 0.18853740735089011 -0.033706188378118708 0 0.19655169947710091 -0.043788383486002072 0 0.20886364623554921 -0.031523512657201581 0 0.18853740735089011 -0.033706188378118708 0 0.19655169947710091 -0.043788383486002072 0 0.19655169947710091 -0.043788383486002072 0 0.20138343235632811 -0.055727139445542639 0 0.20897987019450001 -0.050060865146210963 0 0.19655169947710091 -0.043788383486002072 0 0.19188844298534441 -0.056659859735039647 0 0.20138343235632811 -0.055727139445542639 0 0.1828119860636557 -0.050363577362968731 0 0.19655169947710091 -0.043788383486002072 0 0.19188844298534441 -0.056659859735039647 0 0.19188844298534441 -0.056659859735039647 0 0.20138343235632811 -0.055727139445542639 0 0.1952329782378138 -0.068464889048657496 0 0.20138343235632811 -0.055727139445542639 0 0.22670270369963491 -0.067064047377793826 0 0.20138343235632811 -0.055727139445542639 0 0.21577564808412511 -0.056666161138016313 0 0.22670270369963491 -0.067064047377793826 0 0.20138343235632811 -0.055727139445542639 0 0.20897987019450001 -0.050060865146210963 0 0.21577564808412511 -0.056666161138016313 0 0.2167024847658664 -0.043974661413588162 0 0.20897987019450001 -0.050060865146210963 0 0.21577564808412511 -0.056666161138016313 0 0.21577564808412511 -0.056666161138016313 0 0.23694359709532001 -0.061394592404840097 0 0.22670270369963491 -0.067064047377793826 0 0.21577564808412511 -0.056666161138016313 0 0.22648325856373289 -0.049317463857355977 0 0.23694359709532001 -0.061394592404840097 0 0.21577564808412511 -0.056666161138016313 0 0.23694359709532001 -0.061394592404840097 0 0.2167024847658664 -0.043974661413588162 0 0.21577564808412511 -0.056666161138016313 0 0.22648325856373289 -0.049317463857355977 0 0.22648325856373289 -0.049317463857355977 0 0.23694359709532001 -0.061394592404840097 0 0.23716366819637241 -0.046229271507985323 0 0.25811154610651499 -0.066123023671663908 0 0.23694359709532001 -0.061394592404840097 0 0.24870160087168189 -0.052882304334001928 0 0.23694359709532001 -0.061394592404840097 0 0.24870160087168189 -0.052882304334001928 0 0.23716366819637241 -0.046229271507985323 0 0.24870160087168189 -0.052882304334001928 0 0.23716366819637241 -0.046229271507985323 0 0.24731406762381819 -0.035960341631652723 0 0.23716366819637241 -0.046229271507985323 0 0.24731406762381819 -0.035960341631652723 0 0.23342582712955959 -0.033308149953783547 0 0.23342582712955959 -0.033308149953783547 0 0.2258308946769807 -0.038322632822349968 0 0.22548915127375299 -0.027513718828695861 0 0.22648325856373289 -0.049317463857355977 0 0.23716366819637241 -0.046229271507985323 0 0.2258308946769807 -0.038322632822349968 0 0.23716366819637241 -0.046229271507985323 0 0.23342582712955959 -0.033308149953783547 0 0.2258308946769807 -0.038322632822349968 0 0.2180191377477218 -0.035203133534298187 0 0.2167024847658664 -0.043974661413588162 0 0.2258308946769807 -0.038322632822349968 0 0.2167024847658664 -0.043974661413588162 0 0.22648325856373289 -0.049317463857355977 0 0.2258308946769807 -0.038322632822349968 0 0.2180191377477218 -0.035203133534298187 0 0.2258308946769807 -0.038322632822349968 0 0.21995729679401421 -0.029331280632926501 0 0.2258308946769807 -0.038322632822349968 0 0.22548915127375299 -0.027513718828695861 0 0.21995729679401421 -0.029331280632926501 0 0.21528057420098159 -0.024212643874961401 0 0.2313313538768734 -0.018514784978234038 0 0.22829619310998309 -0.01520182636873813 0 0.21528057420098159 -0.024212643874961401 0 0.2313313538768734 -0.018514784978234038 0 0.21528057420098159 -0.024212643874961401 0 0.22548915127375299 -0.027513718828695861 0 0.2313313538768734 -0.018514784978234038 0 0.21528057420098159 -0.024212643874961401 0 0.22548915127375299 -0.027513718828695861 0 0.21995729679401421 -0.029331280632926501 0 0.21528057420098159 -0.024212643874961401 0 0.22829619310998309 -0.01520182636873813 0 0.21528057420098159 -0.024212643874961401 0 0.21911622703360889 -0.015650702578479541 0 0.22829619310998309 -0.01520182636873813 0 0.2313313538768734 -0.018514784978234038 0 0.22829619310998309 -0.01520182636873813 0 0.23342582712955959 -0.033308149953783547 0 0.22548915127375299 -0.027513718828695861 0 0.2313313538768734 -0.018514784978234038 0 0.25508119948702751 -0.010083838205662381 0 0.2313313538768734 -0.018514784978234038 0 0.2482857443068576 -0.021714794414400052 0 0.24731406762381819 -0.035960341631652723 0 0.2313313538768734 -0.018514784978234038 0 0.2482857443068576 -0.021714794414400052 0 0.24731406762381819 -0.035960341631652723 0 0.23342582712955959 -0.033308149953783547 0 0.2313313538768734 -0.018514784978234038 0 0.24731406762381819 -0.035960341631652723 0 0.2313313538768734 -0.018514784978234038 0 0.25508119948702751 -0.010083838205662381 0 0.2313313538768734 -0.018514784978234038 0 0.24138147174972829 -0.0061427828714447699 0 0.25508119948702751 -0.010083838205662381 0 0.2313313538768734 -0.018514784978234038 0 0.24138147174972829 -0.0061427828714447699 0 0.22829619310998309 -0.01520182636873813 0 0.25446675038947358 0.0029162606258486688 0 0.2541426920980116 -0.0036136263454906951 0 0.24138147174972829 -0.0061427828714447699 0 0.25446675038947358 0.0029162606258486688 0 0.24138147174972829 -0.0061427828714447699 0 0.22999165343287109 0.0038227322559807589 0 0.24138147174972829 -0.0061427828714447699 0 0.23189167676904729 -0.0064153040848911828 0 0.22999165343287109 0.0038227322559807589 0 0.23189167676904729 -0.0064153040848911828 0 0.2228246624943325 -0.0092295053444410857 0 0.22999165343287109 0.0038227322559807589 0 0.21351355446813719 -0.0021103410187178909 0 0.2228246624943325 -0.0092295053444410857 0 0.23189167676904729 -0.0064153040848911828 0 0.22829619310998309 -0.01520182636873813 0 0.2228246624943325 -0.0092295053444410857 0 0.2313313538768734 -0.018514784978234038 0 0.24138147174972829 -0.0061427828714447699 0 0.22829619310998309 -0.01520182636873813 0 0.24138147174972829 -0.0061427828714447699 0 0.23189167676904729 -0.0064153040848911828 0 0.22829619310998309 -0.01520182636873813 0 0.21911622703360889 -0.015650702578479541 0 0.22829619310998309 -0.01520182636873813 0 0.2228246624943325 -0.0092295053444410857 0 0.22829619310998309 -0.01520182636873813 0 0.2228246624943325 -0.0092295053444410857 0 0.2084634723971549 -0.097930235578601213 0 0.21737999015654699 -0.1103161024944793 0 0.2275791846540145 -0.10054182369239011 0 0.21737999015654699 -0.1103161024944793 0 0.19100769245097829 -0.1040519139747048 0 0.2084634723971549 -0.097930235578601213 0 0.21140608144591419 -0.084503356370523836 0 0.2275791846540145 -0.10054182369239011 0 0.2084634723971549 -0.097930235578601213 0 0.21737999015654699 -0.1103161024944793 0 0.19100769245097829 -0.1040519139747048 0 0.21737999015654699 -0.1103161024944793 0 0.21277072480774051 -0.1248863227998855 0 0.20025029595199689 -0.1218288277367077 0 0.21737999015654699 -0.1103161024944793 0 0.21277072480774051 -0.1248863227998855 0 0.2239597136694004 -0.1277946194696456 0 0.1862357176231304 -0.1238823921021804 0 0.20025029595199689 -0.1218288277367077 0 0.19100769245097829 -0.1040519139747048 0 0.21737999015654699 -0.1103161024944793 0 0.20025029595199689 -0.1218288277367077 0 0.19100769245097829 -0.1040519139747048 0 0.20025029595199689 -0.1218288277367077 0 0.19100769245097829 -0.1040519139747048 0 0.2084634723971549 -0.097930235578601213 0 0.19100769245097829 -0.1040519139747048 0 0.19624682445825681 -0.08914472739044943 0 0.18137547142311691 -0.085525622921553163 0 0.19100769245097829 -0.1040519139747048 0 0.19624682445825681 -0.08914472739044943 0 0.19624682445825681 -0.08914472739044943 0 0.1952329782378138 -0.068464889048657496 0 0.21140608144591419 -0.084503356370523836 0 0.18137547142311691 -0.085525622921553163 0 0.19624682445825681 -0.08914472739044943 0 0.1952329782378138 -0.068464889048657496 0 0.20138343235632811 -0.055727139445542639 0 0.1952329782378138 -0.068464889048657496 0 0.21149591893834541 -0.070957707586151192 0 0.18346211879182289 -0.064955309332027283 0 0.19188844298534441 -0.056659859735039647 0 0.1952329782378138 -0.068464889048657496 0 0.1952329782378138 -0.068464889048657496 0 0.21140608144591419 -0.084503356370523836 0 0.20138343235632811 -0.055727139445542639 0 0.21149591893834541 -0.070957707586151192 0 0.22670270369963491 -0.067064047377793826 0 0.1952329782378138 -0.068464889048657496 0 0.21149591893834541 -0.070957707586151192 0 0.21140608144591419 -0.084503356370523836 0 0.2084634723971549 -0.097930235578601213 0 0.19624682445825681 -0.08914472739044943 0 0.21140608144591419 -0.084503356370523836 0 0.21149591893834541 -0.070957707586151192 0 0.21140608144591419 -0.084503356370523836 0 0.2227543989520358 -0.079029105688238177 0 0.21140608144591419 -0.084503356370523836 0 0.2275791846540145 -0.10054182369239011 0 0.2227543989520358 -0.079029105688238177 0 0.23449163343577681 -0.083610487294907485 0 0.2275791846540145 -0.10054182369239011 0 0.21140608144591419 -0.084503356370523836 0 0.2227543989520358 -0.079029105688238177 0 0.2275791846540145 -0.10054182369239011 0 0.2227543989520358 -0.079029105688238177 0 0.22670270369963491 -0.067064047377793826 0 0.23449163343577681 -0.083610487294907485 0 0.21149591893834541 -0.070957707586151192 0 0.2227543989520358 -0.079029105688238177 0 0.22670270369963491 -0.067064047377793826 0 0.25202197504294188 -0.078400955310045109 0 0.25811154610651499 -0.066123023671663908 0 0.23694359709532001 -0.061394592404840097 0 0.25202197504294188 -0.078400955310045109 0 0.22670270369963491 -0.067064047377793826 0 0.25202197504294188 -0.078400955310045109 0 0.22670270369963491 -0.067064047377793826 0 0.23449163343577681 -0.083610487294907485 0 0.25202197504294188 -0.078400955310045109 0 0.23694359709532001 -0.061394592404840097 0 0.22670270369963491 -0.067064047377793826 0 0.25811154610651499 -0.066123023671663908 0 0.23694359709532001 -0.061394592404840097 0 0.25202197504294188 -0.078400955310045109 0 0.23449163343577681 -0.083610487294907485 0 0.24624903761231479 -0.086847438891893419 0 0.23449163343577681 -0.083610487294907485 0 0.24292322406264641 -0.096552741650977186 0 0.2275791846540145 -0.10054182369239011 0 0.23449163343577681 -0.083610487294907485 0 0.24624903761231479 -0.086847438891893419 0 0.24292322406264641 -0.096552741650977186 0 0.25304747237378489 -0.090741332181114118 0 0.24624903761231479 -0.086847438891893419 0 0.24292322406264641 -0.096552741650977186 0 0.2275791846540145 -0.10054182369239011 0 0.24375228786211539 -0.116580291014256 0 0.24292322406264641 -0.096552741650977186 0 0.2275791846540145 -0.10054182369239011 0 0.24375228786211539 -0.116580291014256 0 0.25771864553297669 -0.099620140202181948 0 0.24292322406264641 -0.096552741650977186 0 0.24375228786211539 -0.116580291014256 0 0.21737999015654699 -0.1103161024944793 0 0.2275791846540145 -0.10054182369239011 0 0.24375228786211539 -0.116580291014256 0 0.21737999015654699 -0.1103161024944793 0 0.24375228786211539 -0.116580291014256 0 0.2239597136694004 -0.1277946194696456 0 0.21737999015654699 -0.1103161024944793 0 0.24375228786211539 -0.116580291014256 0 0.24375228786211539 -0.116580291014256 0 0.235054631712311 -0.13955626642273861 0 0.24955680073527009 -0.143898101237383 0 0.235054631712311 -0.13955626642273861 0 0.24955680073527009 -0.143898101237383 0 0.23627457688356679 -0.15840319400941011 0 0.25449645062408999 -0.16331052089379791 0 0.24955680073527009 -0.143898101237383 0 0.23627457688356679 -0.15840319400941011 0 0.235054631712311 -0.13955626642273861 0 0.22199130801810529 -0.1478171468904442 0 0.23627457688356679 -0.15840319400941011 0 0.24375228786211539 -0.116580291014256 0 0.235054631712311 -0.13955626642273861 0 0.2239597136694004 -0.1277946194696456 0 0.235054631712311 -0.13955626642273861 0 0.22199130801810529 -0.1478171468904442 0 0.2239597136694004 -0.1277946194696456 0 0.20025029595199689 -0.1218288277367077 0 0.20949289945301761 -0.1396057414987095 0 0.22199130801810529 -0.1478171468904442 0 0.2239597136694004 -0.1277946194696456 0 0.20949289945301761 -0.1396057414987095 0 0.21277072480774051 -0.1248863227998855 0 0.20025029595199689 -0.1218288277367077 0 0.20949289945301761 -0.1396057414987095 0 0.21277072480774051 -0.1248863227998855 0 0.2239597136694004 -0.1277946194696456 0 0.20949289945301761 -0.1396057414987095 0 0.22199130801810529 -0.1478171468904442 0 0.20949289945301761 -0.1396057414987095 0 0.2069794531536403 -0.1537888919124783 0 0.20949289945301761 -0.1396057414987095 0 0.2069794531536403 -0.1537888919124783 0 0.1919305776748628 -0.1461990482496055 0 0.2069794531536403 -0.1537888919124783 0 0.1919305776748628 -0.1461990482496055 0 0.19225769977326759 -0.16432491474026781 0 0.1862357176231304 -0.1238823921021804 0 0.1919305776748628 -0.1461990482496055 0 0.19714487019074359 -0.1333469628700395 0 0.20025029595199689 -0.1218288277367077 0 0.20949289945301761 -0.1396057414987095 0 0.19714487019074359 -0.1333469628700395 0 0.20949289945301761 -0.1396057414987095 0 0.1919305776748628 -0.1461990482496055 0 0.19714487019074359 -0.1333469628700395 0 0.1862357176231304 -0.1238823921021804 0 0.1919305776748628 -0.1461990482496055 0 0.1862357176231304 -0.1238823921021804 0 0.20025029595199689 -0.1218288277367077 0 0.19714487019074359 -0.1333469628700395 0 0.19629081049063871 -0.1815365299480412 0 0.19225769977326759 -0.16432491474026781 0 0.17982600751226671 -0.1762593337595659 0 0.19629081049063871 -0.1815365299480412 0 0.19225769977326759 -0.16432491474026781 0 0.22018657323669569 -0.16775416802968299 0 0.2069794531536403 -0.1537888919124783 0 0.19225769977326759 -0.16432491474026781 0 0.22018657323669569 -0.16775416802968299 0 0.22199130801810529 -0.1478171468904442 0 0.2069794531536403 -0.1537888919124783 0 0.22018657323669569 -0.16775416802968299 0 0.19629081049063871 -0.1815365299480412 0 0.22018657323669569 -0.16775416802968299 0 0.21237941264848451 -0.18810475376770611 0 0.22018657323669569 -0.16775416802968299 0 0.23934418379307471 -0.18436482883247621 0 0.22018657323669569 -0.16775416802968299 0 0.23934418379307471 -0.18436482883247621 0 0.21237941264848451 -0.18810475376770611 0 0.22018657323669569 -0.16775416802968299 0 0.23627457688356679 -0.15840319400941011 0 0.23934418379307471 -0.18436482883247621 0 0.22199130801810529 -0.1478171468904442 0 0.22018657323669569 -0.16775416802968299 0 0.23627457688356679 -0.15840319400941011 0 0.25449645062408999 -0.16331052089379791 0 0.23627457688356679 -0.15840319400941011 0 0.23934418379307471 -0.18436482883247621 0 0.25850179434945381 -0.20097548963526929 0 0.23934418379307471 -0.18436482883247621 0 0.25850179434945381 -0.20097548963526929 0 0.23934418379307471 -0.18436482883247621 0 0.23907695871134879 -0.21289681242661959 0 0.23907695871134879 -0.21289681242661959 0 0.22308479462261119 -0.20217133576560289 0 0.21722062693650279 -0.2226466586169516 0 0.23934418379307471 -0.18436482883247621 0 0.22308479462261119 -0.20217133576560289 0 0.21237941264848451 -0.18810475376770611 0 0.23934418379307471 -0.18436482883247621 0 0.23907695871134879 -0.21289681242661959 0 0.22308479462261119 -0.20217133576560289 0 0.25037283077400019 -0.2416092145933311 0 0.23239962387573149 -0.2337287944253621 0 0.2339549802858914 -0.24933471903745599 0 0.25658827463044448 -0.2222138965281123 0 0.23907695871134879 -0.21289681242661959 0 0.2446094219978813 -0.2276121794933563 0 0.25037283077400019 -0.2416092145933311 0 0.2446094219978813 -0.2276121794933563 0 0.23239962387573149 -0.2337287944253621 0 0.23907695871134879 -0.21289681242661959 0 0.2446094219978813 -0.2276121794933563 0 0.23239962387573149 -0.2337287944253621 0 0.23907695871134879 -0.21289681242661959 0 0.23239962387573149 -0.2337287944253621 0 0.21722062693650279 -0.2226466586169516 0 0.23239962387573149 -0.2337287944253621 0 0.2194561222393229 -0.23682627783696539 0 0.21722062693650279 -0.2226466586169516 0 0.23239962387573149 -0.2337287944253621 0 0.22502312889380549 -0.2426362774769398 0 0.2339549802858914 -0.24933471903745599 0 0.2194561222393229 -0.23682627783696539 0 0.22502312889380549 -0.2426362774769398 0 0.21456577207223029 -0.24270171036535029 0 0.23239962387573149 -0.2337287944253621 0 0.2194561222393229 -0.23682627783696539 0 0.22502312889380549 -0.2426362774769398 0 0.22331750647786899 -0.25281133177650322 0 0.22502312889380549 -0.2426362774769398 0 0.21456577207223029 -0.24270171036535029 0 0.22331750647786899 -0.25281133177650322 0 0.22502312889380549 -0.2426362774769398 0 0.2339549802858914 -0.24933471903745599 0 0.2084475354763706 -0.25511513831035743 0 0.2080714594183444 -0.2424179483002232 0 0.21336353465090491 -0.24693864317134839 0 0.2080714594183444 -0.2424179483002232 0 0.21336353465090491 -0.24693864317134839 0 0.2080714594183444 -0.2424179483002232 0 0.21336353465090491 -0.24693864317134839 0 0.21456577207223029 -0.24270171036535029 0 0.2194561222393229 -0.23682627783696539 0 0.2080714594183444 -0.2424179483002232 0 0.21456577207223029 -0.24270171036535029 0 0.21722062693650279 -0.2226466586169516 0 0.20244123733496699 -0.2260211367091485 0 0.19848523837712481 -0.2136299623964425 0 0.2080714594183444 -0.2424179483002232 0 0.21722062693650279 -0.2226466586169516 0 0.2194561222393229 -0.23682627783696539 0 0.2080714594183444 -0.2424179483002232 0 0.21722062693650279 -0.2226466586169516 0 0.2080714594183444 -0.2424179483002232 0 0.21722062693650279 -0.2226466586169516 0 0.20244123733496699 -0.2260211367091485 0 0.2080714594183444 -0.2424179483002232 0 0.18716213711817259 -0.22455639835484539 0 0.2080714594183444 -0.2424179483002232 0 0.20244123733496699 -0.2260211367091485 0 0.18716213711817259 -0.22455639835484539 0 0.20244123733496699 -0.2260211367091485 0 0.19848523837712481 -0.2136299623964425 0 0.18716213711817259 -0.22455639835484539 0 0.2080714594183444 -0.2424179483002232 0 0.19254414318066221 -0.24961624770678509 0 0.1866817818972302 -0.23981118877977231 0 0.2080714594183444 -0.2424179483002232 0 0.1866817818972302 -0.23981118877977231 0 0.18716213711817259 -0.22455639835484539 0 0.19254414318066221 -0.24961624770678509 0 0.18399505531774341 -0.24981832115951039 0 0.1866817818972302 -0.23981118877977231 0 0.21237941264848451 -0.18810475376770611 0 0.20793523744788639 -0.20366419955677639 0 0.19447652973028121 -0.19759128756789451 0 0.22308479462261119 -0.20217133576560289 0 0.21237941264848451 -0.18810475376770611 0 0.20793523744788639 -0.20366419955677639 0 0.22308479462261119 -0.20217133576560289 0 0.21722062693650279 -0.2226466586169516 0 0.20793523744788639 -0.20366419955677639 0 0.21722062693650279 -0.2226466586169516 0 0.20793523744788639 -0.20366419955677639 0 0.19848523837712481 -0.2136299623964425 0 0.19848523837712481 -0.2136299623964425 0 0.19447652973028121 -0.19759128756789451 0 0.1831457957419608 -0.2071674304332729 0 0.20793523744788639 -0.20366419955677639 0 0.19848523837712481 -0.2136299623964425 0 0.19447652973028121 -0.19759128756789451 0 0.19848523837712481 -0.2136299623964425 0 0.1831457957419608 -0.2071674304332729 0 0.18716213711817259 -0.22455639835484539 0 0.19629081049063871 -0.1815365299480412 0 0.19447652973028121 -0.19759128756789451 0 0.1840061663436266 -0.1900566622106199 0 0.19629081049063871 -0.1815365299480412 0 0.21237941264848451 -0.18810475376770611 0 0.19447652973028121 -0.19759128756789451 0 0.19447652973028121 -0.19759128756789451 0 0.1840061663436266 -0.1900566622106199 0 0.1831457957419608 -0.2071674304332729 0 0.1840061663436266 -0.1900566622106199 0 0.1831457957419608 -0.2071674304332729 0 0.16486725365112659 -0.18785963188663279 0 0.1831457957419608 -0.2071674304332729 0 0.16486725365112659 -0.18785963188663279 0 0.1831457957419608 -0.2071674304332729 0 0.16625281481800089 -0.2066948484094672 0 0.18716213711817259 -0.22455639835484539 0 0.16625281481800089 -0.2066948484094672 0 0.18716213711817259 -0.22455639835484539 0 0.16625281481800089 -0.2066948484094672 0 0.18716213711817259 -0.22455639835484539 0 0.16937657335138201 -0.22198425569814831 0 0.16625281481800089 -0.2066948484094672 0 0.15661990237239229 -0.21733625041789439 0 0.14909823278687431 -0.20687378182447139 0 0.16625281481800089 -0.2066948484094672 0 0.15661990237239229 -0.21733625041789439 0 0.16937657335138201 -0.22198425569814831 0 0.1831457957419608 -0.2071674304332729 0 0.16625281481800089 -0.2066948484094672 0 0.16486725365112659 -0.18785963188663279 0 0.16625281481800089 -0.2066948484094672 0 0.16486725365112659 -0.18785963188663279 0 0.14534349251782941 -0.188833298464089 0 0.17619278994504239 -0.24587918172992959 0 0.18399505531774341 -0.24981832115951039 0 0.1866817818972302 -0.23981118877977231 0 0.17619278994504239 -0.24587918172992959 0 0.17450151464944069 -0.23276490516368609 0 0.16609645978724119 -0.24143951784646769 0 0.17619278994504239 -0.24587918172992959 0 0.1866817818972302 -0.23981118877977231 0 0.17450151464944069 -0.23276490516368609 0 0.17450151464944069 -0.23276490516368609 0 0.18716213711817259 -0.22455639835484539 0 0.16937657335138201 -0.22198425569814831 0 0.1866817818972302 -0.23981118877977231 0 0.17450151464944069 -0.23276490516368609 0 0.18716213711817259 -0.22455639835484539 0 0.15661990237239229 -0.21733625041789439 0 0.1623464977989032 -0.22856887614484861 0 0.15090654410468329 -0.22688320449844629 0 0.15661990237239229 -0.21733625041789439 0 0.16937657335138201 -0.22198425569814831 0 0.1623464977989032 -0.22856887614484861 0 0.17450151464944069 -0.23276490516368609 0 0.1623464977989032 -0.22856887614484861 0 0.16609645978724119 -0.24143951784646769 0 0.17450151464944069 -0.23276490516368609 0 0.16937657335138201 -0.22198425569814831 0 0.1623464977989032 -0.22856887614484861 0 0.1623464977989032 -0.22856887614484861 0 0.16609645978724119 -0.24143951784646769 0 0.1528270009437688 -0.23836283418195289 0 0.16001236861667459 -0.2513654190734112 0 0.16609645978724119 -0.24143951784646769 0 0.1528270009437688 -0.23836283418195289 0 0.16978669848249819 -0.25098739912941831 0 0.17619278994504239 -0.24587918172992959 0 0.16609645978724119 -0.24143951784646769 0 0.16001236861667459 -0.2513654190734112 0 0.16978669848249819 -0.25098739912941831 0 0.16609645978724119 -0.24143951784646769 0 0.1429630926125974 -0.2502577086919005 0 0.16001236861667459 -0.2513654190734112 0 0.1528270009437688 -0.23836283418195289 0 0.1429630926125974 -0.2502577086919005 0 0.1528270009437688 -0.23836283418195289 0 0.13988621804673579 -0.23152362256679451 0 0.1528270009437688 -0.23836283418195289 0 0.15090654410468329 -0.22688320449844629 0 0.13988621804673579 -0.23152362256679451 0 0.1623464977989032 -0.22856887614484861 0 0.1528270009437688 -0.23836283418195289 0 0.15090654410468329 -0.22688320449844629 0 0.15661990237239229 -0.21733625041789439 0 0.15090654410468329 -0.22688320449844629 0 0.1428531013616163 -0.21862443918074129 0 0.15090654410468329 -0.22688320449844629 0 0.13988621804673579 -0.23152362256679451 0 0.1428531013616163 -0.21862443918074129 0 0.12018370186474731 -0.23305432747703519 0 0.12895394136930069 -0.22163642029703709 0 0.13988621804673579 -0.23152362256679451 0 0.12895394136930069 -0.22163642029703709 0 0.13988621804673579 -0.23152362256679451 0 0.1428531013616163 -0.21862443918074129 0 0.1429630926125974 -0.2502577086919005 0 0.12018370186474731 -0.23305432747703519 0 0.1429630926125974 -0.2502577086919005 0 0.12018370186474731 -0.23305432747703519 0 0.13988621804673579 -0.23152362256679451 0 0.13217397618885759 -0.25462043987800831 0 0.1429630926125974 -0.2502577086919005 0 0.12018370186474731 -0.23305432747703519 0 0.16625281481800089 -0.2066948484094672 0 0.14534349251782941 -0.188833298464089 0 0.16625281481800089 -0.2066948484094672 0 0.14534349251782941 -0.188833298464089 0 0.14909823278687431 -0.20687378182447139 0 0.14534349251782941 -0.188833298464089 0 0.14909823278687431 -0.20687378182447139 0 0.1346280568372662 -0.20359450925845249 0 0.15661990237239229 -0.21733625041789439 0 0.14909823278687431 -0.20687378182447139 0 0.1428531013616163 -0.21862443918074129 0 0.14909823278687431 -0.20687378182447139 0 0.1428531013616163 -0.21862443918074129 0 0.1346280568372662 -0.20359450925845249 0 0.1178461100078927 -0.20838697738218431 0 0.12895394136930069 -0.22163642029703709 0 0.1346280568372662 -0.20359450925845249 0 0.12895394136930069 -0.22163642029703709 0 0.1428531013616163 -0.21862443918074129 0 0.1346280568372662 -0.20359450925845249 0 0.14534349251782941 -0.188833298464089 0 0.1346280568372662 -0.20359450925845249 0 0.13128332926409281 -0.18787359724935929 0 0.1237689835273371 -0.19605207676116951 0 0.1178461100078927 -0.20838697738218431 0 0.1346280568372662 -0.20359450925845249 0 0.1237689835273371 -0.19605207676116951 0 0.1346280568372662 -0.20359450925845249 0 0.13128332926409281 -0.18787359724935929 0 0.1237689835273371 -0.19605207676116951 0 0.1232013989280239 -0.1819146573535104 0 0.13128332926409281 -0.18787359724935929 0 0.12443417021765769 -0.1709717485187108 0 0.14534349251782941 -0.188833298464089 0 0.12443417021765769 -0.1709717485187108 0 0.1232013989280239 -0.1819146573535104 0 0.13128332926409281 -0.18787359724935929 0 0.12443417021765769 -0.1709717485187108 0 0.14534349251782941 -0.188833298464089 0 0.13128332926409281 -0.18787359724935929 0 0.12443417021765769 -0.1709717485187108 0 0.14534349251782941 -0.188833298464089 0 0.13540865390058859 -0.1688207667960602 0 0.14534349251782941 -0.188833298464089 0 0.14658871156029241 -0.16855183333999291 0 0.13540865390058859 -0.1688207667960602 0 0.16486725365112659 -0.18785963188663279 0 0.14658871156029241 -0.16855183333999291 0 0.16486725365112659 -0.18785963188663279 0 0.14534349251782941 -0.188833298464089 0 0.14658871156029241 -0.16855183333999291 0 0.14658871156029241 -0.16855183333999291 0 0.13391177650968769 -0.15242347890466901 0 0.14971917460686079 -0.1530450482394467 0 0.14658871156029241 -0.16855183333999291 0 0.14971917460686079 -0.1530450482394467 0 0.16192904395431579 -0.15800089119817939 0 0.14658871156029241 -0.16855183333999291 0 0.13391177650968769 -0.15242347890466901 0 0.12831016946945831 -0.1492440347933528 0 0.14658871156029241 -0.16855183333999291 0 0.12831016946945831 -0.1492440347933528 0 0.14658871156029241 -0.16855183333999291 0 0.13540865390058859 -0.1688207667960602 0 0.1290045142054978 -0.1612372837293575 0 0.14658871156029241 -0.16855183333999291 0 0.1290045142054978 -0.1612372837293575 0 0.12831016946945831 -0.1492440347933528 0 0.13540865390058859 -0.1688207667960602 0 0.12715697753007521 -0.16591248018761531 0 0.1290045142054978 -0.1612372837293575 0 0.12443417021765769 -0.1709717485187108 0 0.13540865390058859 -0.1688207667960602 0 0.12715697753007521 -0.16591248018761531 0 0.12098675462827781 -0.16200852072179159 0 0.12715697753007521 -0.16591248018761531 0 0.1290045142054978 -0.1612372837293575 0 0.12324902196630889 -0.15465793599018671 0 0.1227471198665283 -0.15880086614903269 0 0.1290045142054978 -0.1612372837293575 0 0.13391177650968769 -0.15242347890466901 0 0.12831016946945831 -0.1492440347933528 0 0.12532898621889721 -0.13663811256420449 0 0.12324902196630889 -0.15465793599018671 0 0.1290045142054978 -0.1612372837293575 0 0.12831016946945831 -0.1492440347933528 0 0.1217036921304827 -0.1482443959076799 0 0.12831016946945831 -0.1492440347933528 0 0.12532898621889721 -0.13663811256420449 0 0.13391177650968769 -0.15242347890466901 0 0.13188977167139071 -0.12546883223523481 0 0.13391177650968769 -0.15242347890466901 0 0.13188977167139071 -0.12546883223523481 0 0.1446303542042412 -0.1380662602394005 0 0.13391177650968769 -0.15242347890466901 0 0.13188977167139071 -0.12546883223523481 0 0.12532898621889721 -0.13663811256420449 0 0.11997683785091839 -0.1276371159963853 0 0.13188977167139071 -0.12546883223523481 0 0.12532898621889721 -0.13663811256420449 0 0.1446303542042412 -0.1380662602394005 0 0.15557261582888751 -0.13003178131142151 0 0.1621281360659286 -0.14191921566573409 0 0.14724036225017881 -0.1245170930860646 0 0.13188977167139071 -0.12546883223523481 0 0.1446303542042412 -0.1380662602394005 0 0.14724036225017881 -0.1245170930860646 0 0.1446303542042412 -0.1380662602394005 0 0.15557261582888751 -0.13003178131142151 0 0.13391177650968769 -0.15242347890466901 0 0.1446303542042412 -0.1380662602394005 0 0.14971917460686079 -0.1530450482394467 0 0.1446303542042412 -0.1380662602394005 0 0.14971917460686079 -0.1530450482394467 0 0.1621281360659286 -0.14191921566573409 0 0.1621281360659286 -0.14191921566573409 0 0.17324983187337631 -0.13165498831909611 0 0.17651024624945799 -0.1485415537171802 0 0.14971917460686079 -0.1530450482394467 0 0.1621281360659286 -0.14191921566573409 0 0.16192904395431579 -0.15800089119817939 0 0.1621281360659286 -0.14191921566573409 0 0.17651024624945799 -0.1485415537171802 0 0.16192904395431579 -0.15800089119817939 0 0.16471491079178111 -0.1205264202314431 0 0.15557261582888751 -0.13003178131142151 0 0.1639163736399934 -0.1310331013819237 0 0.15557261582888751 -0.13003178131142151 0 0.1621281360659286 -0.14191921566573409 0 0.1639163736399934 -0.1310331013819237 0 0.1621281360659286 -0.14191921566573409 0 0.1639163736399934 -0.1310331013819237 0 0.17324983187337631 -0.13165498831909611 0 0.16471491079178111 -0.1205264202314431 0 0.1639163736399934 -0.1310331013819237 0 0.17324983187337631 -0.13165498831909611 0 0.1862357176231304 -0.1238823921021804 0 0.1919305776748628 -0.1461990482496055 0 0.17324983187337631 -0.13165498831909611 0 0.1919305776748628 -0.1461990482496055 0 0.17324983187337631 -0.13165498831909611 0 0.17651024624945799 -0.1485415537171802 0 0.1919305776748628 -0.1461990482496055 0 0.19225769977326759 -0.16432491474026781 0 0.17651024624945799 -0.1485415537171802 0 0.19225769977326759 -0.16432491474026781 0 0.17526083145963689 -0.16308053239281189 0 0.17982600751226671 -0.1762593337595659 0 0.19225769977326759 -0.16432491474026781 0 0.17651024624945799 -0.1485415537171802 0 0.17526083145963689 -0.16308053239281189 0 0.17526083145963689 -0.16308053239281189 0 0.17982600751226671 -0.1762593337595659 0 0.16627328335530381 -0.17069773137902189 0 0.1840061663436266 -0.1900566622106199 0 0.16486725365112659 -0.18785963188663279 0 0.17982600751226671 -0.1762593337595659 0 0.19629081049063871 -0.1815365299480412 0 0.1840061663436266 -0.1900566622106199 0 0.17982600751226671 -0.1762593337595659 0 0.16486725365112659 -0.18785963188663279 0 0.14658871156029241 -0.16855183333999291 0 0.16627328335530381 -0.17069773137902189 0 0.16486725365112659 -0.18785963188663279 0 0.17982600751226671 -0.1762593337595659 0 0.16627328335530381 -0.17069773137902189 0 0.14658871156029241 -0.16855183333999291 0 0.16192904395431579 -0.15800089119817939 0 0.16627328335530381 -0.17069773137902189 0 0.17526083145963689 -0.16308053239281189 0 0.16192904395431579 -0.15800089119817939 0 0.16627328335530381 -0.17069773137902189 0 0.17651024624945799 -0.1485415537171802 0 0.17526083145963689 -0.16308053239281189 0 0.16192904395431579 -0.15800089119817939 0 
</DataArray>
</Points>
<Cells>
<DataArray type="UInt32" Name="connectivity" format="ascii">
0 1 2 3 4 5 6 7 8 9 10 11 12 13 14 15 16 17 18 19 20 21 22 23 24 25 26 27 28 29 30 31 32 33 34 35 36 37 38 39 40 41 42 43 44 45 46 47 48 49 50 51 52 53 54 55 56 57 58 59 60 61 62 63 64 65 66 67 68 69 70 71 72 73 74 75 76 77 78 79 80 81 82 83 84 85 86 87 88 89 90 91 92 93 94 95 96 97 98 99 100 101 102 103 104 105 106 107 108 109 110 111 112 113 114 115 116 117 118 119 120 121 122 123 124 125 126 127 128 129 130 131 132 133 134 135 136 137 138 139 140 141 142 143 144 145 146 147 148 149 150 151 152 153 154 155 156 157 158 159 160 161 162 163 164 165 166 167 168 169 170 171 172 173 174 175 176 177 178 179 180 181 182 183 184 185 186 187 188 189 190 191 192 193 194 195 196 197 198 199 200 201 202 203 204 205 206 207 208 209 210 211 212 213 214 215 216 217 218 219 220 221 222 223 224 225 226 227 228 229 230 231 232 233 234 235 236 237 238 239 240 241 242 243 244 245 246 247 248 249 250 251 252 253 254 255 256 257 258 259 260 261 262 263 264 265 266 267 268 269 270 271 272 273 274 275 276 277 278 279 280 281 282 283 284 285 286 287 288 289 290 291 292 293 294 295 296 297 298 299 300 301 302 303 304 305 306 307 308 309 310 311 312 313 314 315 316 317 318 319 320 321 322 323 324 325 326 327 328 329 330 331 332 333 334 335 336 337 338 339 340 341 342 343 344 345 346 347 348 349 350 351 352 353 354 355 356 357 358 359 360 361 362 363 364 365 366 367 368 369 370 371 372 373 374 375 376 377 378 379 380 381 382 383 384 385 386 387 388 389 390 391 392 393 394 395 396 397 398 399 400 401 402 403 404 405 406 407 408 409 410 411 412 413 414 415 416 417 418 419 420 421 422 423 424 425 426 427 428 429 430 431 432 433 434 435 436 437 438 439 440 441 442 443 444 445 446 447 448 449 450 451 452 453 454 455 456 457 458 459 460 461 462 463 464 465 466 467 468 469 470 471 472 473 474 475 476 477 478 479 480 481 482 483 484 485 486 487 488 489 490 491 492 493 494 495 496 497 498 499 500 501 502 503 504 505 506 507 508 509 510 511 512 513 514 515 516 517 518 519 520 521 522 523 524 525 526 527 528 529 530 531 532 533 534 535 536 537 538 539 540 541 542 543 544 545 546 547 548 549 550 551 552 553 554 555 556 557 558 559 560 561 562 563 564 565 566 567 568 569 570 571 572 573 574 575 576 577 578 579 580 581 582 583 584 585 586 587 588 589 590 591 592 593 594 595 596 597 598 599 600 601 602 603 604 605 606 607 608 609 610 611 612 613 614 615 616 617 618 619 620 621 622 623 624 625 626 627 628 629 630 631 632 633 634 635 636 637 638 639 640 641 642 643 644 645 646 647 648 649 650 651 652 653 654 655 656 657 658 659 660 661 662 663 664 665 666 667 668 669 670 671 672 673 674 675 676 677 678 679 680 681 682 683 684 685 686 687 688 689 690 691 692 693 694 695 696 697 698 699 700 701 702 703 704 705 706 707 708 709 710 711 712 713 714 715 716 717 718 719 720 721 722 723 724 725 726 727 728 729 730 731 732 733 734 735 736 737 738 739 740 741 742 743 744 745 746 747 748 749 750 751 752 753 754 755 756 757 758 759 760 761 762 763 764 765 766 767 768 769 770 771 772 773 774 775 776 777 778 779 780 781 782 783 784 785 786 787 788 789 790 791 792 793 794 795 796 797 798 799 800 801 802 803 804 805 806 807 808 809 810 811 812 813 814 815 816 817 818 819 820 821 822 823 824 825 826 827 828 829 830 831 832 833 834 835 836 837 838 839 840 841 842 843 844 845 846 847 848 849 850 851 852 853 854 855 856 857 858 859 860 861 862 863 864 865 866 867 868 869 870 871 872 873 874 875 876 877 878 879 880 881 882 883 884 885 886 887 888 889 890 891 892 893 894 895 896 897 898 899 900 901 902 903 904 905 906 907 908 909 910 911 912 913 914 915 916 917 918 919 920 921 922 923 924 925 926 927 928 929 930 931 932 933 934 935 936 937 938 939 940 941 942 943 944 945 946 947 948 949 950 951 952 953 954 955 956 957 958 959 960 961 962 963 964 965 966 967 968 969 970 971 972 973 974 975 976 977 978 979 980 981 982 983 984 985 986 987 988 989 990 991 992 993 994 995 996 997 998 999 1000 1001 1002 1003 1004 1005 1006 1007 1008 1009 1010 1011 1012 1013 1014 1015 1016 1017 1018 1019 1020 1021 1022 1023 1024 1025 1026 1027 1028 1029 1030 1031 1032 1033 1034 1035 1036 1037 1038 1039 1040 1041 1042 1043 1044 1045 1046 1047 1048 1049 1050 1051 1052 1053 1054 1055 1056 1057 1058 1059 1060 1061 1062 1063 1064 1065 1066 1067 1068 1069 1070 1071 1072 1073 1074 1075 1076 1077 1078 1079 1080 1081 1082 1083 1084 1085 1086 1087 1088 1089 1090 1091 1092 1093 1094 1095 1096 1097 1098 1099 1100 1101 1102 1103 1104 1105 1106 1107 1108 1109 1110 1111 1112 1113 1114 1115 1116 1117 1118 1119 1120 1121 1122 1123 1124 1125 1126 1127 1128 1129 1130 1131 1132 1133 1134 1135 1136 1137 1138 1139 1140 1141 1142 1143 1144 1145 1146 1147 1148 1149 1150 1151 1152 1153 1154 1155 1156 1157 1158 1159 1160 1161 1162 1163 1164 1165 1166 1167 1168 1169 1170 1171 1172 1173 1174 1175 1176 1177 1178 1179 1180 1181 1182 1183 1184 1185 1186 1187 1188 1189 1190 1191 1192 1193 1194 1195 1196 1197 1198 1199 1200 1201 1202 1203 1204 1205 1206 1207 1208 1209 1210 1211 1212 1213 1214 1215 1216 1217 1218 1219 1220 1221 1222 1223 1224 1225 1226 1227 1228 1229 1230 1231 1232 1233 1234 1235 1236 1237 1238 1239 1240 1241 1242 1243 1244 1245 1246 1247 1248 1249 1250 1251 1252 1253 1254 1255 1256 1257 1258 1259 1260 1261 1262 1263 1264 1265 1266 1267 1268 1269 1270 1271 1272 1273 1274 1275 1276 1277 1278 1279 1280 1281 1282 1283 1284 1285 1286 1287 1288 1289 1290 1291 1292 1293 1294 1295 1296 1297 1298 1299 1300 1301 1302 1303 1304 1305 1306 1307 1308 1309 1310 1311 1312 1313 1314 1315 1316 1317 1318 1319 1320 1321 1322 1323 1324 1325 1326 1327 1328 1329 1330 1331 1332 1333 1334 1335 1336 1337 1338 1339 1340 1341 1342 1343 1344 1345 1346 1347 1348 1349 1350 1351 1352 1353 1354 1355 1356 1357 1358 1359 1360 1361 1362 1363 1364 1365 1366 1367 1368 1369 1370 1371 1372 1373 1374 1375 1376 1377 1378 1379 1380 1381 1382 1383 1384 1385 1386 1387 1388 1389 1390 1391 1392 1393 1394 1395 1396 1397 1398 1399 1400 1401 1402 1403 1404 1405 1406 1407 1408 1409 1410 1411 1412 1413 1414 1415 1416 1417 1418 1419 1420 1421 1422 1423 1424 1425 1426 1427 1428 1429 1430 1431 1432 1433 1434 1435 1436 1437 1438 1439 1440 1441 1442 1443 1444 1445 1446 1447 1448 1449 1450 1451 1452 1453 1454 1455 1456 1457 1458 1459 1460 1461 1462 1463 1464 1465 1466 1467 1468 1469 1470 1471 1472 1473 1474 1475 1476 1477 1478 1479 1480 1481 1482 1483 1484 1485 1486 1487 1488 1489 1490 1491 1492 1493 1494 1495 1496 1497 1498 1499 1500 1501 1502 1503 1504 1505 1506 1507 1508 1509 1510 1511 1512 1513 1514 1515 1516 1517 1518 1519 1520 1521 1522 1523 1524 1525 1526 1527 1528 1529 1530 1531 1532 1533 1534 1535 1536 1537 1538 1539 1540 1541 1542 1543 1544 1545 1546 1547 1548 1549 1550 1551 1552 1553 1554 1555 1556 1557 1558 1559 1560 1561 1562 1563 1564 1565 1566 1567 1568 1569 1570 1571 1572 1573 1574 1575 1576 1577 1578 1579 1580 1581 1582 1583 1584 1585 1586 1587 1588 1589 1590 1591 1592 1593 1594 1595 1596 1597 1598 1599 1600 1601 1602 1603 1604 1605 1606 1607 1608 1609 1610 1611 1612 1613 1614 1615 1616 1617 1618 1619 1620 1621 1622 1623 1624 1625 1626 1627 1628 1629 1630 1631 1632 1633 1634 1635 1636 1637 1638 1639 1640 1641 1642 1643 1644 1645 1646 1647 1648 1649 1650 1651 1652 1653 1654 1655 1656 1657 1658 1659 1660 1661 1662 1663 1664 1665 1666 1667 1668 1669 1670 1671 1672 1673 1674 1675 1676 1677 1678 1679 1680 1681 1682 1683 1684 1685 1686 1687 1688 1689 1690 1691 1692 1693 1694 1695 1696 1697 1698 1699 1700 1701 1702 1703 1704 1705 1706 1707 1708 1709 1710 1711 1712 1713 1714 1715 1716 1717 1718 1719 1720 1721 1722 1723 1724 1725 1726 1727 1728 1729 1730 1731 1732 1733 1734 1735 1736 1737 1738 1739 1740 1741 1742 1743 1744 1745 1746 1747 1748 1749 1750 1751 1752 1753 1754 1755 1756 1757 1758 1759 1760 1761 1762 1763 1764 1765 1766 1767 1768 1769 1770 1771 1772 1773 1774 1775 1776 1777 1778 1779 1780 1781 1782 1783 1784 1785 1786 1787 1788 1789 1790 1791 1792 1793 1794 1795 1796 1797 1798 1799 1800 1801 1802 1803 1804 1805 1806 1807 1808 1809 1810 1811 1812 1813 1814 1815 1816 1817 1818 1819 1820 1821 1822 1823 1824 1825 1826 1827 1828 1829 1830 1831 1832 1833 1834 1835 1836 1837 1838 1839 1840 1841 1842 1843 1844 1845 1846 1847 1848 1849 1850 1851 1852 1853 1854 1855 1856 1857 1858 1859 1860 1861 1862 1863 1864 1865 1866 1867 1868 1869 1870 1871 1872 1873 1874 1875 1876 1877 1878 1879 1880 1881 1882 1883 1884 1885 1886 1887 1888 1889 1890 1891 1892 1893 1894 1895 1896 1897 1898 1899 1900 1901 1902 1903 1904 1905 1906 1907 1908 1909 1910 1911 1912 1913 1914 1915 1916 1917 1918 1919 1920 1921 1922 1923 1924 1925 1926 1927 1928 1929 1930 1931 1932 1933 1934 1935 1936 1937 1938 1939 1940 1941 1942 1943 1944 1945 1946 1947 1948 1949 1950 1951 1952 1953 1954 1955 1956 1957 1958 1959 1960 1961 1962 1963 1964 1965 1966 1967 1968 1969 1970 1971 1972 1973 1974 1975 1976 1977 1978 1979 1980 1981 1982 1983 1984 1985 1986 1987 1988 1989 1990 1991 1992 1993 1994 1995 1996 1997 1998 1999 2000 2001 2002 2003 2004 2005 2006 2007 2008 2009 2010 2011 2012 2013 2014 2015 2016 2017 2018 2019 2020 2021 2022 2023 2024 2025 2026 2027 2028 2029 2030 2031 2032 2033 2034 2035 2036 2037 2038 2039 2040 2041 2042 2043 2044 2045 2046 2047 2048 2049 2050 2051 2052 2053 2054 2055 2056 2057 2058 2059 2060 2061 2062 2063 2064 2065 2066 2067 2068 2069 2070 2071 2072 2073 2074 2075 2076 2077 2078 2079 2080 2081 2082 2083 2084 2085 2086 2087 2088 2089 2090 2091 2092 2093 2094 2095 2096 2097 2098 2099 2100 2101 2102 2103 2104 2105 2106 2107 2108 2109 2110 2111 2112 2113 2114 2115 2116 2117 2118 2119 2120 2121 2122 2123 2124 2125 2126 2127 2128 2129 2130 2131 2132 2133 2134 2135 2136 2137 2138 2139 2140 2141 2142 2143 2144 2145 2146 2147 2148 2149 2150 2151 2152 2153 2154 2155 2156 2157 2158 2159 2160 2161 2162 2163 2164 2165 2166 2167 2168 2169 2170 2171 2172 2173 2174 2175 2176 2177 2178 2179 2180 2181 2182 2183 2184 2185 2186 2187 2188 2189 2190 2191 2192 2193 2194 2195 2196 2197 2198 2199 2200 2201 2202 2203 2204 2205 2206 2207 2208 2209 2210 2211 2212 2213 2214 2215 2216 2217 2218 2219 2220 2221 2222 2223 2224 2225 2226 2227 2228 2229 2230 2231 2232 2233 2234 2235 2236 2237 2238 2239 2240 2241 2242 2243 2244 2245 2246 2247 2248 2249 2250 2251 2252 2253 2254 2255 2256 2257 2258 2259 2260 2261 2262 2263 2264 2265 2266 2267 2268 2269 2270 2271 2272 2273 2274 2275 2276 2277 2278 2279 2280 2281 2282 2283 2284 2285 2286 2287 2288 2289 2290 2291 2292 2293 2294 2295 2296 2297 2298 2299 2300 2301 2302 2303 2304 2305 2306 2307 2308 2309 2310 2311 2312 2313 2314 2315 2316 2317 2318 2319 2320 2321 2322 2323 2324 2325 2326 2327 2328 2329 2330 2331 2332 2333 2334 2335 2336 2337 2338 2339 2340 2341 2342 2343 2344 2345 2346 2347 2348 2349 2350 2351 2352 2353 2354 2355 2356 2357 2358 2359 2360 2361 2362 2363 2364 2365 2366 2367 2368 2369 2370 2371 2372 2373 2374 2375 2376 2377 2378 2379 2380 2381 2382 2383 2384 2385 2386 2387 2388 2389 2390 2391 2392 2393 2394 2395 2396 2397 2398 2399 2400 2401 2402 2403 2404 2405 2406 2407 2408 2409 2410 2411 2412 2413 2414 2415 2416 2417 2418 2419 2420 2421 2422 2423 2424 2425 2426 2427 2428 2429 2430 2431 2432 2433 2434 2435 2436 2437 2438 2439 2440 2441 2442 2443 2444 2445 2446 2447 2448 2449 2450 2451 2452 2453 2454 2455 2456 2457 2458 2459 2460 2461 2462 2463 2464 2465 2466 2467 2468 2469 2470 2471 2472 2473 2474 2475 2476 2477 2478 2479 2480 2481 2482 2483 2484 2485 2486 2487 2488 2489 2490 2491 2492 2493 2494 2495 2496 2497 2498 2499 2500 2501 2502 2503 2504 2505 2506 2507 2508 2509 2510 2511 2512 2513 2514 2515 2516 2517 2518 2519 2520 2521 2522 2523 2524 2525 2526 2527 2528 2529 2530 2531 2532 2533 2534 2535 2536 2537 2538 2539 2540 2541 2542 2543 2544 2545 2546 2547 2548 2549 2550 2551 2552 2553 2554 2555 2556 2557 2558 2559 2560 2561 2562 2563 2564 2565 2566 2567 2568 2569 2570 2571 2572 2573 2574 2575 2576 2577 2578 2579 2580 2581 2582 2583 2584 2585 2586 2587 2588 2589 2590 2591 2592 2593 2594 2595 2596 2597 2598 2599 2600 2601 2602 2603 2604 2605 2606 2607 2608 2609 2610 2611 2612 2613 2614 2615 2616 2617 2618 2619 2620 2621 2622 2623 2624 2625 2626 2627 2628 2629 2630 2631 2632 2633 2634 2635 2636 2637 2638 2639 2640 2641 2642 2643 2644 2645 2646 2647 2648 2649 2650 2651 2652 2653 2654 2655 2656 2657 2658 2659 2660 2661 2662 2663 2664 2665 2666 2667 2668 2669 2670 2671 2672 2673 2674 2675 2676 2677 2678 2679 2680 2681 2682 2683 2684 2685 2686 2687 2688 2689 2690 2691 2692 2693 2694 2695 2696 2697 2698 2699 2700 2701 2702 2703 2704 2705 2706 2707 2708 2709 2710 2711 2712 2713 2714 2715 2716 2717 2718 2719 2720 2721 2722 2723 2724 2725 2726 2727 2728 2729 2730 2731 2732 2733 2734 2735 2736 2737 2738 2739 2740 2741 2742 2743 2744 2745 2746 2747 2748 2749 2750 2751 2752 2753 2754 2755 2756 2757 2758 2759 2760 2761 2762 2763 2764 2765 2766 2767 2768 2769 2770 2771 2772 2773 2774 2775 2776 2777 2778 2779 2780 2781 2782 2783 2784 2785 2786 2787 2788 2789 2790 2791 2792 2793 2794 2795 2796 2797 2798 2799 2800 2801 2802 2803 2804 2805 2806 2807 2808 2809 2810 2811 2812 2813 2814 2815 2816 2817 2818 2819 2820 2821 2822 2823 2824 2825 2826 2827 2828 2829 2830 2831 2832 2833 2834 2835 2836 2837 2838 2839 2840 2841 2842 2843 2844 2845 2846 2847 2848 2849 2850 2851 2852 2853 2854 2855 2856 2857 2858 2859 2860 2861 2862 2863 2864 2865 2866 2867 2868 2869 2870 2871 2872 2873 2874 2875 2876 2877 2878 2879 2880 2881 2882 2883 2884 2885 2886 2887 2888 2889 2890 2891 2892 2893 2894 2895 2896 2897 2898 2899 2900 2901 2902 2903 2904 2905 2906 2907 2908 2909 2910 2911 2912 2913 2914 2915 2916 2917 2918 2919 2920 2921 2922 2923 2924 2925 2926 2927 2928 2929 2930 2931 2932 2933 2934 2935 2936 2937 2938 2939 2940 2941 2942 2943 2944 2945 2946 2947 2948 2949 2950 2951 2952 2953 2954 2955 2956 2957 2958 2959 2960 2961 2962 2963 2964 2965 2966 2967 2968 2969 2970 2971 2972 2973 2974 2975 2976 2977 2978 2979 2980 2981 2982 2983 2984 2985 2986 2987 2988 2989 2990 2991 2992 2993 2994 2995 2996 2997 2998 2999 3000 3001 3002 3003 3004 3005 3006 3007 3008 3009 3010 3011 3012 3013 3014 3015 3016 3017 3018 3019 3020 3021 3022 3023 3024 3025 3026 3027 3028 3029 3030 3031 3032 3033 3034 3035 3036 3037 3038 3039 3040 3041 3042 3043 3044 3045 3046 3047 3048 3049 3050 3051 3052 3053 3054 3055 3056 3057 3058 3059 3060 3061 3062 3063 3064 3065 3066 3067 3068 3069 3070 3071 3072 3073 3074 3075 3076 3077 3078 3079 3080 3081 3082 3083 3084 3085 3086 3087 3088 3089 3090 3091 3092 3093 3094 3095 3096 3097 3098 3099 3100 3101 3102 3103 3104 3105 3106 3107 3108 3109 3110 3111 3112 3113 3114 3115 3116 3117 3118 3119 3120 3121 3122 3123 3124 3125 3126 3127 3128 3129 3130 3131 3132 3133 3134 3135 3136 3137 3138 3139 3140 3141 3142 3143 3144 3145 3146 3147 3148 3149 3150 3151 3152 3153 3154 3155 3156 3157 3158 3159 3160 3161 3162 3163 3164 3165 3166 3167 3168 3169 3170 3171 3172 3173 3174 3175 3176 3177 3178 3179 3180 3181 3182 3183 3184 3185 3186 3187 3188 3189 3190 3191 3192 3193 3194 3195 3196 3197 3198 3199 3200 3201 3202 3203 3204 3205 3206 3207 3208 3209 3210 3211 3212 3213 3214 3215 3216 3217 3218 3219 3220 3221 3222 3223 3224 3225 3226 3227 3228 3229 3230 3231 3232 3233 3234 3235 3236 3237 3238 3239 3240 3241 3242 3243 3244 3245 3246 3247 3248 3249 3250 3251 3252 3253 3254 3255 3256 3257 3258 3259 3260 3261 3262 3263 3264 3265 3266 3267 3268 3269 3270 3271 3272 3273 3274 3275 3276 3277 3278 3279 3280 3281 3282 3283 3284 3285 3286 3287 3288 3289 3290 3291 3292 3293 3294 3295 3296 3297 3298 3299 3300 3301 3302 3303 3304 3305 3306 3307 3308 3309 3310 3311 3312 3313 3314 3315 3316 3317 3318 3319 3320 3321 3322 3323 3324 3325 3326 3327 3328 3329 3330 3331 3332 3333 3334 3335 3336 3337 3338 3339 3340 3341 3342 3343 3344 3345 3346 3347 3348 3349 3350 3351 3352 3353 3354 3355 3356 3357 3358 3359 3360 3361 3362 3363 3364 3365 3366 3367 3368 3369 3370 3371 3372 3373 3374 3375 3376 3377 3378 3379 3380 3381 3382 3383 3384 3385 3386 3387 3388 3389 3390 3391 3392 3393 3394 3395 3396 3397 3398 3399 3400 3401 3402 3403 3404 3405 3406 3407 3408 3409 3410 3411 3412 3413 3414 3415 3416 3417 3418 3419 3420 3421 3422 3423 3424 3425 3426 3427 3428 3429 3430 3431 3432 3433 3434 3435 3436 3437 3438 3439 3440 3441 3442 3443 3444 3445 3446 3447 3448 3449 3450 3451 3452 3453 3454 3455 3456 3457 3458 3459 3460 3461 3462 3463 3464 3465 3466 3467 3468 3469 3470 3471 3472 3473 3474 3475 3476 3477 3478 3479 3480 3481 3482 3483 3484 3485 3486 3487 3488 3489 3490 3491 3492 3493 3494 3495 3496 3497 3498 3499 3500 3501 3502 3503 3504 3505 3506 3507 3508 3509 3510 3511 3512 3513 3514 3515 3516 3517 3518 3519 3520 3521 3522 3523 3524 3525 3526 3527 3528 3529 3530 3531 3532 3533 3534 3535 3536 3537 3538 3539 3540 3541 3542 3543 3544 3545 3546 3547 3548 3549 3550 3551 3552 3553 3554 3555 3556 3557 3558 3559 3560 3561 3562 3563 3564 3565 3566 3567 3568 3569 3570 3571 3572 3573 3574 3575 3576 3577 3578 3579 3580 3581 3582 3583 3584 3585 3586 3587 3588 3589 3590 3591 3592 3593 3594 3595 3596 3597 3598 3599 3600 3601 3602 3603 3604 3605 3606 3607 3608 3609 3610 3611 3612 3613 3614 3615 3616 3617 3618 3619 3620 3621 3622 3623 3624 3625 3626 3627 3628 3629 3630 3631 3632 3633 3634 3635 3636 3637 3638 3639 3640 3641 3642 3643 3644 3645 3646 3647 3648 3649 3650 3651 3652 3653 3654 3655 3656 3657 3658 3659 3660 3661 3662 3663 3664 3665 3666 3667 3668 3669 3670 3671 3672 3673 3674 3675 3676 3677 3678 3679 3680 3681 3682 3683 3684 3685 3686 3687 3688 3689 3690 3691 3692 3693 3694 3695 3696 3697 3698 3699 3700 3701 3702 3703 3704 3705 3706 3707 3708 3709 3710 3711 3712 3713 3714 3715 3716 3717 3718 3719 3720 3721 3722 3723 3724 3725 3726 3727 3728 3729 3730 3731 3732 3733 3734 3735 3736 3737 3738 3739 3740 3741 3742 3743 3744 3745 3746 3747 3748 3749 3750 3751 3752 3753 3754 3755 3756 3757 3758 3759 3760 3761 3762 3763 3764 3765 3766 3767 3768 3769 3770 3771 3772 3773 3774 3775 3776 3777 3778 3779 3780 3781 3782 3783 3784 3785 3786 3787 3788 3789 3790 3791 3792 3793 3794 3795 3796 3797 3798 3799 3800 3801 3802 3803 3804 3805 3806 3807 3808 3809 3810 3811 3812 3813 3814 3815 3816 3817 3818 3819 3820 3821 3822 3823 3824 3825 3826 3827 3828 3829 3830 3831 3832 3833 3834 3835 3836 3837 3838 3839 3840 3841 3842 3843 3844 3845 3846 3847 3848 3849 3850 3851 3852 3853 3854 3855 3856 3857 3858 3859 3860 3861 3862 3863 3864 3865 3866 3867 3868 3869 3870 3871 3872 3873 3874 3875 3876 3877 3878 3879 3880 3881 3882 3883 3884 3885 3886 3887 3888 3889 3890 3891 3892 3893 3894 3895 3896 3897 3898 3899 3900 3901 3902 3903 3904 3905 3906 3907 3908 3909 3910 3911 3912 3913 3914 3915 3916 3917 3918 3919 3920 3921 3922 3923 3924 3925 3926 3927 3928 3929 3930 3931 3932 3933 3934 3935 3936 3937 3938 3939 3940 3941 3942 3943 3944 3945 3946 3947 3948 3949 3950 3951 3952 3953 3954 3955 3956 3957 3958 3959 3960 3961 3962 3963 3964 3965 3966 3967 3968 3969 3970 3971 3972 3973 3974 3975 3976 3977 3978 3979 3980 3981 3982 3983 3984 3985 3986 3987 3988 3989 3990 3991 3992 3993 3994 3995 3996 3997 3998 3999 4000 4001 4002 4003 4004 4005 4006 4007 4008 4009 4010 4011 4012 4013 4014 4015 4016 4017 4018 4019 4020 4021 4022 4023 4024 4025 4026 4027 4028 4029 4030 4031 4032 4033 4034 4035 4036 4037 4038 4039 4040 4041 4042 4043 4044 4045 4046 4047 4048 4049 4050 4051 4052 4053 4054 4055 4056 4057 4058 4059 4060 4061 4062 4063 4064 4065 4066 4067 4068 4069 4070 4071 4072 4073 4074 4075 4076 4077 4078 4079 4080 4081 4082 4083 4084 4085 4086 4087 4088 4089 4090 4091 4092 4093 4094 4095 4096 4097 4098 4099 4100 4101 4102 4103 4104 4105 4106 4107 4108 4109 4110 4111 4112 4113 4114 4115 4116 4117 4118 4119 4120 4121 4122 4123 4124 4125 4126 4127 4128 4129 4130 4131 4132 4133 4134 4135 4136 4137 4138 4139 4140 4141 4142 4143 4144 4145 4146 4147 4148 4149 4150 4151 4152 4153 4154 4155 4156 4157 4158 4159 4160 4161 4162 4163 4164 4165 4166 4167 4168 4169 4170 4171 4172 4173 4174 4175 4176 4177 4178 4179 4180 4181 4182 4183 4184 4185 4186 4187 4188 4189 4190 4191 4192 4193 4194 4195 4196 4197 4198 4199 4200 4201 4202 4203 4204 4205 4206 4207 4208 4209 4210 4211 4212 4213 4214 4215 4216 4217 4218 4219 4220 4221 4222 4223 4224 4225 4226 4227 4228 4229 4230 4231 4232 4233 4234 4235 4236 4237 4238 4239 4240 4241 4242 4243 4244 4245 4246 4247 4248 4249 4250 4251 4252 4253 4254 4255 4256 4257 4258 4259 4260 4261 4262 4263 4264 4265 4266 4267 4268 4269 4270 4271 4272 4273 4274 4275 4276 4277 4278 4279 4280 4281 4282 4283 4284 4285 4286 4287 4288 4289 4290 4291 4292 4293 4294 4295 4296 4297 4298 4299 4300 4301 4302 4303 4304 4305 4306 4307 4308 4309 4310 4311 4312 4313 4314 4315 4316 4317 4318 4319 4320 4321 4322 4323 4324 4325 4326 4327 4328 4329 4330 4331 4332 4333 4334 4335 4336 4337 4338 4339 4340 4341 4342 4343 4344 4345 4346 4347 4348 4349 4350 4351 4352 4353 4354 4355 4356 4357 4358 4359 4360 4361 4362 4363 4364 4365 4366 4367 4368 4369 4370 4371 4372 4373 4374 4375 4376 4377 4378 4379 4380 4381 4382 4383 4384 4385 4386 4387 4388 4389 4390 4391 4392 4393 4394 4395 4396 4397 4398 4399 4400 4401 4402 4403 4404 4405 4406 4407 4408 4409 4410 4411 4412 4413 4414 4415 4416 4417 4418 4419 4420 4421 4422 4423 4424 4425 4426 4427 4428 4429 4430 4431 4432 4433 4434 4435 4436 4437 4438 4439 4440 4441 4442 4443 4444 4445 4446 4447 4448 4449 4450 4451 4452 4453 4454 4455 4456 4457 4458 4459 4460 4461 4462 4463 4464 4465 4466 4467 4468 4469 4470 4471 4472 4473 4474 4475 4476 4477 4478 4479 4480 4481 4482 4483 4484 4485 4486 4487 4488 4489 4490 4491 4492 4493 4494 4495 4496 4497 4498 4499 4500 4501 4502 4503 4504 4505 4506 4507 4508 4509 4510 4511 4512 4513 4514 4515 4516 4517 4518 4519 4520 4521 4522 4523 4524 4525 4526 4527 4528 4529 4530 4531 4532 4533 4534 4535 4536 4537 4538 4539 4540 4541 4542 4543 4544 4545 4546 4547 4548 4549 4550 4551 4552 4553 4554 4555 4556 4557 4558 4559 4560 4561 4562 4563 4564 4565 4566 4567 4568 4569 4570 4571 4572 4573 4574 4575 4576 4577 4578 4579 4580 4581 4582 4583 4584 4585 4586 4587 4588 4589 4590 4591 4592 4593 4594 4595 4596 4597 4598 4599 4600 4601 4602 4603 4604 4605 4606 4607 4608 4609 4610 4611 4612 4613 4614 4615 4616 4617 4618 4619 4620 4621 4622 4623 4624 4625 4626 4627 4628 4629 4630 4631 4632 4633 4634 4635 4636 4637 4638 4639 4640 4641 4642 4643 4644 4645 4646 4647 4648 4649 4650 4651 4652 4653 4654 4655 4656 4657 4658 4659 4660 4661 4662 4663 4664 4665 4666 4667 4668 4669 4670 4671 4672 4673 4674 4675 4676 4677 4678 4679 4680 4681 4682 4683 4684 4685 4686 4687 4688 4689 4690 4691 4692 4693 4694 4695 4696 4697 4698 4699 4700 4701 4702 4703 4704 4705 4706 4707 4708 4709 4710 4711 4712 4713 4714 4715 4716 4717 4718 4719 4720 4721 4722 4723 4724 4725 4726 4727 4728 4729 4730 4731 4732 4733 4734 4735 4736 4737 4738 4739 4740 4741 4742 4743 4744 4745 4746 4747 4748 4749 4750 4751 4752 4753 4754 4755 4756 4757 4758 4759 4760 4761 4762 4763 4764 4765 4766 4767 4768 4769 4770 4771 4772 4773 4774 4775 4776 4777 4778 4779 4780 4781 4782 4783 4784 4785 4786 4787 4788 4789 4790 4791 4792 4793 4794 4795 4796 4797 4798 4799 4800 4801 4802 4803 4804 4805 4806 4807 4808 4809 4810 4811 4812 4813 4814 4815 4816 4817 4818 4819 4820 4821 4822 4823 4824 4825 4826 4827 4828 4829 4830 4831 4832 4833 4834 4835 4836 4837 4838 4839 4840 4841 4842 4843 4844 4845 4846 4847 4848 4849 4850 4851 4852 4853 4854 4855 4856 4857 4858 4859 4860 4861 4862 4863 4864 4865 4866 4867 4868 4869 4870 4871 4872 4873 4874 4875 4876 4877 4878 4879 4880 4881 4882 4883 4884 4885 4886 4887 4888 4889 4890 4891 4892 4893 4894 4895 4896 4897 4898 4899 4900 4901 4902 4903 4904 4905 4906 4907 4908 4909 4910 4911 4912 4913 4914 4915 4916 4917 4918 4919 4920 4921 4922 4923 4924 4925 4926 4927 4928 4929 4930 4931 4932 4933 4934 4935 4936 4937 4938 4939 4940 4941 4942 4943 4944 4945 4946 4947 4948 4949 4950 4951 4952 4953 4954 4955 4956 4957 4958 4959 4960 4961 4962 4963 4964 4965 4966 4967 4968 4969 4970 4971 4972 4973 4974 4975 4976 4977 4978 4979 4980 4981 4982 4983 4984 4985 4986 4987 4988 4989 4990 4991 4992 4993 4994 4995 4996 4997 4998 4999 5000 5001 5002 5003 5004 5005 5006 5007 5008 5009 5010 5011 5012 5013 5014 5015 5016 5017 5018 5019 5020 5021 5022 5023 5024 5025 5026 5027 5028 5029 5030 5031 5032 5033 5034 5035 5036 5037 5038 5039 5040 5041 5042 5043 5044 5045 5046 5047 5048 5049 5050 5051 5052 5053 5054 5055 5056 5057 5058 5059 5060 5061 5062 5063 5064 5065 5066 5067 5068 5069 5070 5071 5072 5073 5074 5075 5076 5077 5078 5079 5080 5081 5082 5083 5084 5085 5086 5087 5088 5089 5090 5091 5092 5093 5094 5095 5096 5097 5098 5099 5100 5101 5102 5103 5104 5105 5106 5107 5108 5109 5110 5111 5112 5113 5114 5115 5116 5117 5118 5119 5120 5121 5122 5123 5124 5125 5126 5127 5128 5129 5130 5131 5132 5133 5134 5135 5136 5137 5138 5139 5140 5141 5142 5143 5144 5145 5146 5147 5148 5149 5150 5151 5152 5153 5154 5155 5156 5157 5158 5159 5160 5161 5162 5163 5164 5165 5166 5167 5168 5169 5170 5171 5172 5173 5174 5175 5176 5177 5178 5179 5180 5181 5182 5183 5184 5185 5186 5187 5188 5189 5190 5191 5192 5193 5194 5195 5196 5197 5198 5199 5200 5201 5202 5203 5204 5205 5206 5207 5208 5209 5210 5211 5212 5213 5214 5215 5216 5217 5218 5219 5220 5221 5222 5223 5224 5225 5226 5227 5228 5229 5230 5231 5232 5233 5234 5235 5236 5237 5238 5239 5240 5241 5242 5243 5244 5245 5246 5247 5248 5249 5250 5251 5252 5253 5254 5255 5256 5257 5258 5259 5260 5261 5262 5263 5264 5265 5266 5267 5268 5269 5270 5271 5272 5273 5274 5275 5276 5277 5278 5279 5280 5281 5282 5283 5284 5285 5286 5287 5288 5289 5290 5291 5292 5293 5294 5295 5296 5297 5298 5299 5300 5301 5302 5303 5304 5305 5306 5307 5308 5309 5310 5311 5312 5313 5314 5315 5316 5317 5318 5319 5320 5321 5322 5323 5324 5325 5326 5327 5328 5329 5330 5331 5332 5333 5334 5335 5336 5337 5338 5339 5340 5341 5342 5343 5344 5345 5346 5347 5348 5349 5350 5351 5352 5353 5354 5355 5356 5357 5358 5359 5360 5361 5362 5363 5364 5365 5366 5367 5368 5369 5370 5371 5372 5373 5374 5375 5376 5377 5378 5379 5380 5381 5382 5383 5384 5385 5386 5387 5388 5389 5390 5391 5392 5393 5394 5395 5396 5397 5398 5399 5400 5401 5402 5403 5404 5405 5406 5407 5408 5409 5410 5411 5412 5413 5414 5415 5416 5417 5418 5419 5420 5421 5422 5423 5424 5425 5426 5427 5428 5429 5430 5431 5432 5433 5434 5435 5436 5437 5438 5439 5440 5441 5442 5443 5444 5445 5446 5447 5448 5449 5450 5451 5452 5453 5454 5455 5456 5457 5458 5459 5460 5461 5462 5463 5464 5465 5466 5467 5468 5469 5470 5471 5472 5473 5474 5475 5476 5477 5478 5479 5480 5481 5482 5483 5484 5485 5486 5487 5488 5489 5490 5491 5492 5493 5494 5495 5496 5497 5498 5499 5500 5501 5502 5503 5504 5505 5506 5507 5508 5509 5510 5511 5512 5513 5514 5515 5516 5517 5518 5519 5520 5521 5522 5523 5524 5525 5526 5527 5528 5529 5530 5531 5532 5533 5534 5535 5536 5537 5538 5539 5540 5541 5542 5543 5544 5545 5546 5547 5548 5549 5550 5551 5552 5553 5554 5555 5556 5557 5558 5559 5560 5561 5562 5563 5564 5565 5566 5567 5568 5569 5570 5571 5572 5573 5574 5575 5576 5577 5578 5579 5580 5581 5582 5583 5584 5585 5586 5587 5588 5589 5590 5591 5592 5593 5594 5595 5596 5597 5598 5599 5600 5601 5602 5603 5604 5605 5606 5607 5608 5609 5610 5611 5612 5613 5614 5615 5616 5617 5618 5619 5620 5621 5622 5623 5624 5625 5626 5627 5628 5629 5630 5631 5632 5633 5634 5635 5636 5637 5638 5639 5640 5641 5642 5643 5644 5645 5646 5647 5648 5649 5650 5651 5652 5653 5654 5655 5656 5657 5658 5659 5660 5661 5662 5663 5664 5665 5666 5667 5668 5669 5670 5671 5672 5673 5674 5675 5676 5677 5678 5679 5680 5681 5682 5683 5684 5685 5686 5687 5688 5689 5690 5691 5692 5693 5694 5695 5696 5697 5698 5699 5700 5701 5702 5703 5704 5705 5706 5707 5708 5709 5710 5711 5712 5713 5714 5715 5716 5717 5718 5719 5720 5721 5722 5723 5724 5725 5726 5727 5728 5729 5730 5731 5732 5733 5734 5735 5736 5737 5738 5739 5740 5741 5742 5743 5744 5745 5746 5747 5748 5749 5750 5751 5752 5753 5754 5755 5756 5757 5758 5759 5760 5761 5762 5763 5764 5765 5766 5767 5768 5769 5770 5771 5772 5773 5774 5775 5776 5777 5778 5779 5780 5781 5782 5783 5784 5785 5786 5787 5788 5789 5790 5791 5792 5793 5794 5795 5796 5797 5798 5799 5800 5801 5802 5803 5804 5805 5806 5807 5808 5809 5810 5811 5812 5813 5814 5815 5816 5817 5818 5819 5820 5821 5822 5823 5824 5825 5826 5827 5828 5829 5830 5831 5832 5833 5834 5835 5836 5837 5838 5839 5840 5841 5842 5843 5844 5845 5846 5847 5848 5849 5850 5851 5852 5853 5854 5855 5856 5857 5858 5859 5860 5861 5862 5863 5864 5865 5866 5867 5868 5869 5870 5871 5872 5873 5874 5875 5876 5877 5878 5879 5880 5881 5882 5883 5884 5885 5886 5887 5888 5889 5890 5891 5892 5893 5894 5895 5896 5897 5898 5899 5900 5901 5902 5903 5904 5905 5906 5907 5908 5909 5910 5911 5912 5913 5914 5915 5916 5917 5918 5919 5920 5921 5922 5923 5924 5925 5926 5927 5928 5929 5930 5931 5932 5933 5934 5935 5936 5937 5938 5939 5940 5941 5942 5943 5944 5945 5946 5947 5948 5949 5950 5951 5952 5953 5954 5955 5956 5957 5958 5959 5960 5961 5962 5963 5964 5965 5966 5967 5968 5969 5970 5971 5972 5973 5974 5975 5976 5977 5978 5979 5980 5981 5982 5983 5984 5985 5986 5987 5988 5989 5990 5991 5992 5993 5994 5995 5996 5997 5998 5999 6000 6001 6002 6003 6004 6005 6006 6007 6008 6009 6010 6011 6012 6013 6014 6015 6016 6017 6018 6019 6020 6021 6022 6023 6024 6025 6026 6027 6028 6029 6030 6031 6032 6033 6034 6035 6036 6037 6038 6039 6040 6041 6042 6043 6044 6045 6046 6047 6048 6049 6050 6051 6052 6053 6054 6055 6056 6057 6058 6059 6060 6061 6062 6063 6064 6065 6066 6067 6068 6069 6070 6071 6072 6073 6074 6075 6076 6077 6078 6079 6080 6081 6082 6083 6084 6085 6086 6087 6088 6089 6090 6091 6092 6093 6094 6095 6096 6097 6098 6099 6100 6101 6102 6103 6104 6105 6106 6107 6108 6109 6110 6111 6112 6113 6114 6115 6116 6117 6118 6119 6120 6121 6122 6123 6124 6125 6126 6127 6128 6129 6130 6131 6132 6133 6134 6135 6136 6137 6138 6139 6140 6141 6142 6143 6144 6145 6146 6147 6148 6149 6150 6151 6152 6153 6154 6155 6156 6157 6158 6159 6160 6161 6162 6163 6164 6165 6166 6167 6168 6169 6170 6171 6172 6173 6174 6175 6176 6177 6178 6179 6180 6181 6182 6183 6184 6185 6186 6187 6188 6189 6190 6191 6192 6193 6194 6195 6196 6197 6198 6199 6200 6201 6202 6203 6204 6205 6206 6207 6208 6209 6210 6211 6212 6213 6214 6215 6216 6217 6218 6219 6220 6221 6222 6223 6224 6225 6226 6227 6228 6229 6230 6231 6232 6233 6234 6235 6236 6237 6238 6239 6240 6241 6242 6243 6244 6245 6246 6247 6248 6249 6250 6251 6252 6253 6254 6255 6256 6257 6258 6259 6260 6261 6262 6263 6264 6265 6266 6267 6268 6269 6270 6271 6272 6273 6274 6275 6276 6277 6278 6279 6280 6281 6282 6283 6284 6285 6286 6287 6288 6289 6290 6291 6292 6293 6294 6295 6296 6297 6298 6299 6300 6301 6302 6303 6304 6305 6306 6307 6308 6309 6310 6311 6312 6313 6314 6315 6316 6317 6318 6319 6320 6321 6322 6323 6324 6325 6326 6327 6328 6329 6330 6331 6332 6333 6334 6335 6336 6337 6338 6339 6340 6341 6342 6343 6344 6345 6346 6347 6348 6349 6350 6351 6352 6353 6354 6355 6356 6357 6358 6359 6360 6361 6362 6363 6364 6365 6366 6367 6368 6369 6370 6371 6372 6373 6374 6375 6376 6377 6378 6379 6380 6381 6382 6383 6384 6385 6386 6387 6388 6389 6390 6391 6392 6393 6394 6395 6396 6397 6398 6399 6400 6401 6402 6403 6404 6405 6406 6407 6408 6409 6410 6411 6412 6413 6414 6415 6416 6417 6418 6419 6420 6421 6422 6423 6424 6425 6426 6427 6428 6429 6430 6431 6432 6433 6434 6435 6436 6437 6438 6439 6440 6441 6442 6443 6444 6445 6446 6447 6448 6449 6450 6451 6452 6453 6454 6455 6456 6457 6458 6459 6460 6461 6462 6463 6464 6465 6466 6467 6468 6469 6470 6471 6472 6473 6474 6475 6476 6477 6478 6479 6480 6481 6482 6483 6484 6485 6486 6487 6488 6489 6490 6491 6492 6493 6494 6495 6496 6497 6498 6499 6500 6501 6502 6503 6504 6505 6506 6507 6508 6509 6510 6511 6512 6513 6514 6515 6516 6517 6518 6519 6520 6521 6522 6523 6524 6525 6526 6527 6528 6529 6530 6531 6532 6533 6534 6535 6536 6537 6538 6539 6540 6541 6542 6543 6544 6545 6546 6547 6548 6549 6550 6551 6552 6553 6554 6555 6556 6557 6558 6559 6560 6561 6562 6563 6564 6565 6566 6567 6568 6569 6570 6571 6572 6573 6574 6575 6576 6577 6578 6579 6580 6581 6582 6583 6584 6585 6586 6587 6588 6589 6590 6591 6592 6593 6594 6595 6596 6597 6598 6599 6600 6601 6602 6603 6604 6605 6606 6607 6608 6609 6610 6611 6612 6613 6614 6615 6616 6617 6618 6619 6620 6621 6622 6623 6624 6625 6626 6627 6628 6629 6630 6631 6632 6633 6634 6635 6636 6637 6638 6639 6640 6641 6642 6643 6644 6645 6646 6647 6648 6649 6650 6651 6652 6653 6654 6655 6656 6657 6658 6659 6660 6661 6662 6663 6664 6665 6666 6667 6668 6669 6670 6671 6672 6673 6674 6675 6676 6677 6678 6679 6680 6681 6682 6683 6684 6685 6686 6687 6688 6689 6690 6691 6692 6693 6694 6695 6696 6697 6698 6699 6700 6701 6702 6703 6704 6705 6706 6707 6708 6709 6710 6711 6712 6713 6714 6715 6716 6717 6718 6719 6720 6721 6722 6723 6724 6725 6726 6727 6728 6729 6730 6731 6732 6733 6734 6735 6736 6737 6738 6739 6740 6741 6742 6743 6744 6745 6746 6747 6748 6749 6750 6751 6752 6753 6754 6755 6756 6757 6758 6759 6760 6761 6762 6763 6764 6765 6766 6767 6768 6769 6770 6771 6772 6773 6774 6775 6776 6777 6778 6779 6780 6781 6782 6783 6784 6785 6786 6787 6788 6789 6790 6791 6792 6793 6794 6795 6796 6797 6798 6799 6800 6801 6802 6803 6804 6805 6806 6807 6808 6809 6810 6811 6812 6813 6814 6815 6816 6817 6818 6819 6820 6821 6822 6823 6824 6825 6826 6827 6828 6829 6830 6831 6832 6833 6834 6835 6836 6837 6838 6839 6840 6841 6842 6843 6844 6845 6846 6847 6848 6849 6850 6851 6852 6853 6854 6855 6856 6857 6858 6859 6860 6861 6862 6863 6864 6865 6866 6867 6868 6869 6870 6871 6872 6873 6874 6875 6876 6877 6878 6879 6880 6881 6882 6883 6884 6885 6886 6887 6888 6889 6890 6891 6892 6893 6894 6895 6896 6897 6898 6899 6900 6901 6902 6903 6904 6905 6906 6907 6908 6909 6910 6911 6912 6913 6914 6915 6916 6917 6918 6919 6920 6921 6922 6923 6924 6925 6926 6927 6928 6929 6930 6931 6932 6933 6934 6935 6936 6937 6938 6939 6940 6941 6942 6943 6944 6945 6946 6947 6948 6949 6950 6951 6952 6953 6954 6955 6956 6957 6958 6959 6960 6961 6962 6963 6964 6965 6966 6967 6968 6969 6970 6971 6972 6973 6974 6975 6976 6977 6978 6979 6980 6981 6982 6983 6984 6985 6986 6987 6988 6989 6990 6991 6992 6993 6994 6995 6996 6997 6998 6999 7000 7001 7002 7003 7004 7005 7006 7007 7008 7009 7010 7011 7012 7013 7014 7015 7016 7017 7018 7019 7020 7021 7022 7023 7024 7025 7026 7027 7028 7029 7030 7031 7032 7033 7034 7035 7036 7037 7038 7039 7040 7041 7042 7043 7044 7045 7046 7047 7048 7049 7050 7051 7052 7053 7054 7055 7056 7057 7058 7059 7060 7061 7062 7063 7064 7065 7066 7067 7068 7069 7070 7071 7072 7073 7074 7075 7076 7077 7078 7079 7080 7081 7082 7083 7084 7085 7086 7087 7088 7089 7090 7091 7092 7093 7094 7095 7096 7097 7098 7099 7100 7101 7102 7103 7104 7105 7106 7107 7108 7109 7110 7111 7112 7113 7114 7115 7116 7117 7118 7119 7120 7121 7122 7123 7124 7125 7126 7127 7128 7129 7130 7131 7132 7133 7134 7135 7136 7137 7138 7139 7140 7141 7142 7143 7144 7145 7146 7147 7148 7149 7150 7151 7152 7153 7154 7155 7156 7157 7158 7159 7160 7161 7162 7163 7164 7165 7166 7167 7168 7169 7170 7171 7172 7173 7174 7175 7176 7177 7178 7179 7180 7181 7182 7183 7184 7185 7186 7187 7188 7189 7190 7191 7192 7193 7194 7195 7196 7197 7198 7199 7200 7201 7202 7203 7204 7205 7206 7207 7208 7209 7210 7211 7212 7213 7214 7215 7216 7217 7218 7219 7220 7221 7222 7223 7224 7225 7226 7227 7228 7229 7230 7231 7232 7233 7234 7235 7236 7237 7238 7239 7240 7241 7242 7243 7244 7245 7246 7247 7248 7249 7250 7251 7252 7253 7254 7255 7256 7257 7258 7259 7260 7261 7262 7263 7264 7265 7266 7267 7268 7269 7270 7271 7272 7273 7274 7275 7276 7277 7278 7279 7280 7281 7282 7283 7284 7285 7286 7287 7288 7289 7290 7291 7292 7293 7294 7295 7296 7297 7298 7299 7300 7301 7302 7303 7304 7305 7306 7307 7308 7309 7310 7311 7312 7313 7314 7315 7316 7317 7318 7319 7320 7321 7322 7323 7324 7325 7326 7327 7328 7329 7330 7331 7332 7333 7334 7335 7336 7337 7338 7339 7340 7341 7342 7343 7344 7345 7346 7347 7348 7349 7350 7351 7352 7353 7354 7355 7356 7357 7358 7359 7360 7361 7362 7363 7364 7365 7366 7367 7368 7369 7370 7371 7372 7373 7374 7375 7376 7377 7378 7379 7380 7381 7382 7383 7384 7385 7386 7387 7388 7389 7390 7391 7392 7393 7394 7395 7396 7397 7398 7399 7400 7401 7402 7403 7404 7405 7406 7407 7408 7409 7410 7411 7412 7413 7414 7415 7416 7417 7418 7419 7420 7421 7422 7423 7424 7425 7426 7427 7428 7429 7430 7431 7432 7433 7434 7435 7436 7437 7438 7439 7440 7441 7442 7443 7444 7445 7446 7447 7448 7449 7450 7451 7452 7453 7454 7455 7456 7457 7458 7459 7460 7461 7462 7463 7464 7465 7466 7467 7468 7469 7470 7471 7472 7473 7474 7475 7476 7477 7478 7479 7480 7481 7482 7483 7484 7485 7486 7487 7488 7489 7490 7491 7492 7493 7494 7495 7496 7497 7498 7499 7500 7501 7502 7503 7504 7505 7506 7507 7508 7509 7510 7511 7512 7513 7514 7515 7516 7517 7518 7519 7520 7521 7522 7523 7524 7525 7526 7527 7528 7529 7530 7531 7532 7533 7534 7535 7536 7537 7538 7539 7540 7541 7542 7543 7544 7545 7546 7547 7548 7549 7550 7551 7552 7553 7554 7555 7556 7557 7558 7559 7560 7561 7562 7563 7564 7565 7566 7567 7568 7569 7570 7571 7572 7573 7574 7575 7576 7577 7578 7579 7580 7581 7582 7583 7584 7585 7586 7587 7588 7589 7590 7591 7592 7593 7594 7595 7596 7597 7598 7599 7600 7601 7602 7603 7604 7605 7606 7607 7608 7609 7610 7611 7612 7613 7614 7615 7616 7617 7618 7619 7620 7621 7622 7623 7624 7625 7626 7627 7628 7629 7630 7631 7632 7633 7634 7635 7636 7637 7638 7639 7640 7641 7642 7643 7644 7645 7646 7647 7648 7649 7650 7651 7652 7653 7654 7655 7656 7657 7658 7659 7660 7661 7662 7663 7664 7665 7666 7667 7668 7669 7670 7671 7672 7673 7674 7675 7676 7677 7678 7679 7680 7681 7682 7683 7684 7685 7686 7687 7688 7689 7690 7691 7692 7693 7694 7695 7696 7697 7698 7699 7700 7701 7702 7703 7704 7705 7706 7707 7708 7709 7710 7711 7712 7713 7714 7715 7716 7717 7718 7719 7720 7721 7722 7723 7724 7725 7726 7727 7728 7729 7730 7731 7732 7733 7734 7735 7736 7737 7738 7739 7740 7741 7742 7743 7744 7745 7746 7747 7748 7749 7750 7751 7752 7753 7754 7755 7756 7757 7758 7759 7760 7761 7762 7763 7764 7765 7766 7767 7768 7769 7770 7771 7772 7773 7774 7775 7776 7777 7778 7779 7780 7781 7782 7783 7784 7785 7786 7787 7788 7789 7790 7791 7792 7793 7794 7795 7796 7797 7798 7799 7800 7801 7802 7803 7804 7805 7806 7807 7808 7809 7810 7811 7812 7813 7814 7815 7816 7817 7818 7819 7820 7821 7822 7823 7824 7825 7826 7827 7828 7829 7830 7831 7832 7833 7834 7835 7836 7837 7838 7839 7840 7841 7842 7843 7844 7845 7846 7847 7848 7849 7850 7851 7852 7853 7854 7855 7856 7857 7858 7859 7860 7861 7862 7863 7864 7865 7866 7867 7868 7869 7870 7871 7872 7873 7874 7875 7876 7877 7878 7879 7880 7881 7882 7883 7884 7885 7886 7887 7888 7889 7890 7891 7892 7893 7894 7895 7896 7897 7898 7899 7900 7901 7902 7903 7904 7905 7906 7907 7908 7909 7910 7911 7912 7913 7914 7915 7916 7917 7918 7919 7920 7921 7922 7923 7924 7925 7926 7927 7928 7929 7930 7931 7932 7933 7934 7935 7936 7937 7938 7939 7940 7941 7942 7943 7944 7945 7946 7947 7948 7949 7950 7951 7952 7953 7954 7955 7956 7957 7958 7959 7960 7961 7962 7963 7964 7965 7966 7967 7968 7969 7970 7971 7972 7973 7974 7975 7976 7977 7978 7979 7980 7981 7982 7983 7984 7985 7986 7987 7988 7989 7990 7991 7992 7993 7994 7995 7996 7997 7998 7999 8000 8001 8002 8003 8004 8005 8006 8007 8008 8009 8010 8011 8012 8013 8014 8015 8016 8017 8018 8019 8020 8021 8022 8023 8024 8025 8026 8027 8028 8029 8030 8031 8032 8033 8034 8035 8036 8037 8038 8039 8040 8041 8042 8043 8044 8045 8046 8047 8048 8049 8050 8051 8052 8053 8054 8055 8056 8057 8058 8059 8060 8061 8062 8063 8064 8065 8066 8067 8068 8069 8070 8071 8072 8073 8074 8075 8076 8077 8078 8079 8080 8081 8082 8083 8084 8085 8086 8087 8088 8089 8090 8091 8092 8093 8094 8095 8096 8097 8098 8099 8100 8101 8102 8103 8104 8105 8106 8107 8108 8109 8110 8111 8112 8113 8114 8115 8116 8117 8118 8119 8120 8121 8122 8123 8124 8125 8126 8127 8128 8129 8130 8131 8132 8133 8134 8135 8136 8137 8138 8139 8140 8141 8142 8143 8144 8145 8146 8147 8148 8149 8150 8151 8152 8153 8154 8155 8156 8157 8158 8159 8160 8161 8162 8163 8164 8165 8166 8167 8168 8169 8170 8171 8172 8173 8174 8175 8176 8177 8178 8179 8180 8181 8182 8183 8184 8185 8186 8187 8188 8189 8190 8191 8192 8193 8194 8195 8196 8197 8198 8199 8200 8201 8202 8203 8204 8205 8206 8207 8208 8209 8210 8211 8212 8213 8214 8215 8216 8217 8218 8219 8220 8221 8222 8223 8224 8225 8226 8227 8228 8229 8230 8231 8232 8233 8234 8235 8236 8237 8238 8239 8240 8241 8242 8243 8244 8245 8246 8247 8248 8249 8250 8251 8252 8253 8254 8255 8256 8257 8258 8259 8260 8261 8262 8263 8264 8265 8266 8267 8268 8269 8270 8271 8272 8273 8274 8275 8276 8277 8278 8279 8280 8281 8282 8283 8284 8285 8286 8287 8288 8289 8290 8291 8292 8293 8294 8295 8296 8297 8298 8299 8300 8301 8302 8303 8304 8305 8306 8307 8308 8309 8310 8311 8312 8313 8314 8315 8316 8317 8318 8319 8320 8321 8322 8323 8324 8325 8326 8327 8328 8329 8330 8331 8332 8333 8334 8335 8336 8337 8338 8339 8340 8341 8342 8343 8344 8345 8346 8347 8348 8349 8350 8351 8352 8353 8354 8355 8356 8357 8358 8359 8360 8361 8362 8363 8364 8365 8366 8367 8368 8369 8370 8371 8372 8373 8374 8375 8376 8377 8378 8379 8380 8381 8382 8383 8384 8385 8386 8387 8388 8389 8390 8391 8392 8393 8394 8395 8396 8397 8398 8399 8400 8401 8402 8403 8404 8405 8406 8407 8408 8409 8410 8411 8412 8413 8414 8415 8416 8417 8418 8419 8420 8421 8422 8423 8424 8425 8426 8427 8428 8429 8430 8431 8432 8433 8434 8435 8436 8437 8438 8439 8440 8441 8442 8443 8444 8445 8446 8447 8448 8449 8450 8451 8452 8453 8454 8455 8456 8457 8458 8459 8460 8461 8462 8463 8464 8465 8466 8467 8468 8469 8470 8471 8472 8473 8474 8475 8476 8477 8478 8479 8480 8481 8482 8483 8484 8485 8486 8487 8488 8489 8490 8491 8492 8493 8494 8495 8496 8497 8498 8499 8500 8501 8502 8503 8504 8505 8506 8507 8508 8509 8510 8511 8512 8513 8514 8515 8516 8517 8518 8519 8520 8521 8522 8523 8524 8525 8526 8527 8528 8529 8530 8531 8532 8533 8534 8535 8536 8537 8538 8539 8540 8541 8542 8543 8544 8545 8546 8547 8548 8549 8550 8551 8552 8553 8554 8555 8556 8557 8558 8559 8560 8561 8562 8563 8564 8565 8566 8567 8568 8569 8570 8571 8572 8573 8574 8575 8576 8577 8578 8579 8580 8581 8582 8583 8584 8585 8586 8587 8588 8589 8590 8591 8592 8593 8594 8595 8596 8597 8598 8599 8600 8601 8602 8603 8604 8605 8606 8607 8608 8609 8610 8611 8612 8613 8614 8615 8616 8617 8618 8619 8620 8621 8622 8623 8624 8625 8626 8627 8628 8629 8630 8631 8632 8633 8634 8635 8636 8637 8638 8639 8640 8641 8642 8643 8644 8645 8646 8647 8648 8649 8650 8651 8652 8653 8654 8655 8656 8657 8658 8659 8660 8661 8662 8663 8664 8665 8666 8667 8668 8669 8670 8671 8672 8673 8674 8675 8676 8677 8678 8679 8680 8681 8682 8683 8684 8685 8686 8687 8688 8689 8690 8691 8692 8693 8694 8695 8696 8697 8698 8699 8700 8701 8702 8703 8704 8705 8706 8707 8708 8709 8710 8711 8712 8713 8714 8715 8716 8717 8718 8719 8720 8721 8722 8723 8724 8725 8726 8727 8728 8729 8730 8731 8732 8733 8734 8735 8736 8737 8738 8739 8740 8741 8742 8743 8744 8745 8746 8747 8748 8749 8750 8751 8752 8753 8754 8755 8756 8757 8758 8759 8760 8761 8762 8763 8764 8765 8766 8767 8768 8769 8770 8771 8772 8773 8774 8775 8776 8777 8778 8779 8780 8781 8782 8783 8784 8785 8786 8787 8788 8789 8790 8791 8792 8793 8794 8795 8796 8797 8798 8799 8800 8801 8802 8803 8804 8805 8806 8807 8808 8809 8810 8811 8812 8813 8814 8815 8816 8817 8818 8819 8820 8821 8822 8823 8824 8825 8826 8827 8828 8829 8830 8831 8832 8833 8834 8835 8836 8837 8838 8839 8840 8841 8842 8843 8844 8845 8846 8847 8848 8849 8850 8851 8852 8853 8854 8855 8856 8857 8858 8859 8860 8861 8862 8863 8864 8865 8866 8867 8868 8869 8870 8871 8872 8873 8874 8875 8876 8877 8878 8879 8880 8881 8882 8883 8884 8885 8886 8887 8888 8889 8890 8891 8892 8893 8894 8895 8896 8897 8898 8899 8900 8901 8902 8903 8904 8905 8906 8907 8908 8909 8910 8911 8912 8913 8914 8915 8916 8917 8918 8919 8920 8921 8922 8923 8924 8925 8926 8927 8928 8929 8930 8931 8932 8933 8934 8935 8936 8937 8938 8939 8940 8941 8942 8943 8944 8945 8946 8947 8948 8949 8950 8951 8952 8953 8954 8955 8956 8957 8958 8959 8960 8961 8962 8963 8964 8965 8966 8967 8968 8969 8970 8971 8972 8973 8974 8975 8976 8977 8978 8979 8980 8981 8982 8983 8984 8985 8986 8987 8988 8989 8990 8991 8992 8993 8994 8995 8996 8997 8998 8999 9000 9001 9002 9003 9004 9005 9006 9007 9008 9009 9010 9011 9012 9013 9014 9015 9016 9017 9018 9019 9020 9021 9022 9023 9024 9025 9026 9027 9028 9029 9030 9031 9032 9033 9034 9035 9036 9037 9038 9039 9040 9041 9042 9043 9044 9045 9046 9047 9048 9049 9050 9051 9052 9053 9054 9055 9056 9057 9058 9059 9060 9061 9062 9063 9064 9065 9066 9067 9068 9069 9070 9071 9072 9073 9074 9075 9076 9077 9078 9079 9080 9081 9082 9083 9084 9085 9086 9087 9088 9089 9090 9091 9092 9093 9094 9095 9096 9097 9098 9099 9100 9101 9102 9103 9104 9105 9106 9107 9108 9109 9110 9111 9112 9113 9114 9115 9116 9117 9118 9119 9120 9121 9122 9123 9124 9125 9126 9127 9128 9129 9130 9131 9132 9133 9134 9135 9136 9137 9138 9139 9140 9141 9142 9143 9144 9145 9146 9147 9148 9149 9150 9151 9152 9153 9154 9155 9156 9157 9158 9159 9160 9161 9162 9163 9164 9165 9166 9167 9168 9169 9170 9171 9172 9173 9174 9175 9176 9177 9178 9179 9180 9181 9182 9183 9184 9185 9186 9187 9188 9189 9190 9191 9192 9193 9194 9195 9196 9197 9198 9199 9200 9201 9202 9203 9204 9205 9206 9207 9208 9209 9210 9211 9212 9213 9214 9215 9216 9217 9218 9219 9220 9221 9222 9223 9224 9225 9226 9227 9228 9229 9230 9231 9232 9233 9234 9235 9236 9237 9238 9239 9240 9241 9242 9243 9244 9245 9246 9247 9248 9249 9250 9251 9252 9253 9254 9255 9256 9257 9258 9259 9260 9261 9262 9263 9264 9265 9266 9267 9268 9269 9270 9271 9272 9273 9274 9275 9276 9277 9278 9279 9280 9281 9282 9283 9284 9285 9286 9287 9288 9289 9290 9291 9292 9293 9294 9295 9296 9297 9298 9299 9300 9301 9302 9303 9304 9305 9306 9307 9308 9309 9310 9311 9312 9313 9314 9315 9316 9317 9318 9319 9320 9321 9322 9323 9324 9325 9326 9327 9328 9329 9330 9331 9332 9333 9334 9335 9336 9337 9338 9339 9340 9341 9342 9343 9344 9345 9346 9347 9348 9349 9350 9351 9352 9353 9354 9355 9356 9357 9358 9359 9360 9361 9362 9363 9364 9365 9366 9367 9368 9369 9370 9371 9372 9373 9374 9375 9376 9377 9378 9379 9380 9381 9382 9383 9384 9385 9386 9387 9388 9389 9390 9391 9392 9393 9394 9395 9396 9397 9398 9399 9400 9401 9402 9403 9404 9405 9406 9407 9408 9409 9410 9411 9412 9413 9414 9415 9416 9417 9418 9419 9420 9421 9422 9423 9424 9425 9426 9427 9428 9429 9430 9431 9432 9433 9434 9435 9436 9437 9438 9439 9440 9441 9442 9443 9444 9445 9446 9447 9448 9449 9450 9451 9452 9453 9454 9455 9456 9457 9458 9459 9460 9461 9462 9463 9464 9465 9466 9467 9468 9469 9470 9471 9472 9473 9474 9475 9476 9477 9478 9479 9480 9481 9482 9483 9484 9485 9486 9487 9488 9489 9490 9491 9492 9493 9494 9495 9496 9497 9498 9499 9500 9501 9502 9503 9504 9505 9506 9507 9508 9509 9510 9511 9512 9513 9514 9515 9516 9517 9518 9519 9520 9521 9522 9523 9524 9525 9526 9527 9528 9529 9530 9531 9532 9533 9534 9535 9536 9537 9538 9539 9540 9541 9542 9543 9544 9545 9546 9547 9548 9549 9550 9551 9552 9553 9554 9555 9556 9557 9558 9559 9560 9561 9562 9563 9564 9565 9566 9567 9568 9569 9570 9571 9572 9573 9574 9575 9576 9577 9578 9579 9580 9581 9582 9583 9584 9585 9586 9587 9588 9589 9590 9591 9592 9593 9594 9595 9596 9597 9598 9599 9600 9601 9602 9603 9604 9605 9606 9607 9608 9609 9610 9611 9612 9613 9614 9615 9616 9617 9618 9619 9620 9621 9622 9623 9624 9625 9626 9627 9628 9629 9630 9631 9632 9633 9634 9635 9636 9637 9638 9639 9640 9641 9642 9643 9644 9645 9646 9647 9648 9649 9650 9651 9652 9653 9654 9655 9656 9657 9658 9659 9660 9661 9662 9663 9664 9665 9666 9667 9668 9669 9670 9671 9672 9673 9674 9675 9676 9677 9678 9679 9680 9681 9682 9683 9684 9685 9686 9687 9688 9689 9690 9691 9692 9693 9694 9695 9696 9697 9698 9699 9700 9701 9702 9703 9704 9705 9706 9707 9708 9709 9710 9711 9712 9713 9714 9715 9716 9717 9718 9719 9720 9721 9722 9723 9724 9725 9726 9727 9728 9729 9730 9731 9732 9733 9734 9735 9736 9737 9738 9739 9740 9741 9742 9743 9744 9745 9746 9747 9748 9749 9750 9751 9752 9753 9754 9755 9756 9757 9758 9759 9760 9761 9762 9763 9764 9765 9766 9767 9768 9769 9770 9771 9772 9773 9774 9775 9776 9777 9778 9779 9780 9781 9782 9783 9784 9785 9786 9787 9788 9789 9790 9791 9792 9793 9794 9795 9796 9797 9798 9799 9800 9801 9802 9803 9804 9805 9806 9807 9808 9809 9810 9811 9812 9813 9814 9815 9816 9817 9818 9819 9820 9821 9822 9823 9824 9825 9826 9827 9828 9829 9830 9831 9832 9833 9834 9835 9836 9837 9838 9839 9840 9841 9842 9843 9844 9845 9846 9847 9848 9849 9850 9851 9852 9853 9854 9855 9856 9857 9858 9859 9860 9861 9862 9863 9864 9865 9866 9867 9868 9869 9870 9871 9872 9873 9874 9875 9876 9877 9878 9879 9880 9881 9882 9883 9884 9885 9886 9887 9888 9889 9890 9891 9892 9893 9894 9895 9896 9897 9898 9899 9900 9901 9902 9903 9904 9905 9906 9907 9908 9909 9910 9911 9912 9913 9914 9915 9916 9917 9918 9919 9920 9921 9922 9923 9924 9925 9926 9927 9928 9929 9930 9931 9932 9933 9934 9935 9936 9937 9938 9939 9940 9941 9942 9943 9944 9945 9946 9947 9948 9949 9950 9951 9952 9953 9954 9955 9956 9957 9958 9959 9960 9961 9962 9963 9964 9965 9966 9967 9968 9969 9970 9971 9972 9973 9974 9975 9976 9977 9978 9979 9980 9981 9982 9983 9984 9985 9986 9987 9988 9989 9990 9991 9992 9993 9994 9995 9996 9997 9998 9999 10000 10001 10002 10003 10004 10005 10006 10007 10008 10009 10010 10011 10012 10013 10014 10015 10016 10017 10018 10019 10020 10021 10022 10023 10024 10025 10026 10027 10028 10029 10030 10031 10032 10033 10034 10035 10036 10037 10038 10039 10040 10041 10042 10043 10044 10045 10046 10047 10048 10049 10050 10051 10052 10053 10054 10055 10056 10057 10058 10059 10060 10061 10062 10063 10064 10065 10066 10067 10068 10069 10070 10071 10072 10073 10074 10075 10076 10077 10078 10079 10080 10081 10082 10083 10084 10085 10086 10087 10088 10089 10090 10091 10092 10093 10094 10095 10096 10097 10098 10099 10100 10101 10102 10103 10104 10105 10106 10107 10108 10109 10110 10111 10112 10113 10114 10115 10116 10117 10118 10119 10120 10121 10122 10123 10124 10125 10126 10127 10128 10129 10130 10131 10132 10133 10134 10135 10136 10137 10138 10139 10140 10141 10142 10143 10144 10145 10146 10147 10148 10149 10150 10151 10152 10153 10154 10155 10156 10157 10158 10159 10160 10161 10162 10163 10164 10165 10166 10167 10168 10169 10170 10171 10172 10173 10174 10175 10176 10177 10178 10179 10180 10181 10182 10183 10184 10185 10186 10187 10188 10189 10190 10191 10192 10193 10194 10195 10196 10197 10198 10199 10200 10201 10202 10203 10204 10205 10206 10207 10208 10209 10210 10211 10212 10213 10214 10215 10216 10217 10218 10219 10220 10221 10222 10223 10224 10225 10226 10227 10228 10229 10230 10231 10232 10233 10234 10235 10236 10237 10238 10239 10240 10241 10242 10243 10244 10245 10246 10247 10248 10249 10250 10251 10252 10253 10254 10255 10256 10257 10258 10259 10260 10261 10262 10263 10264 10265 10266 10267 10268 10269 10270 10271 10272 10273 10274 10275 10276 10277 10278 10279 10280 10281 10282 10283 10284 10285 10286 10287 10288 10289 10290 10291 10292 10293 10294 10295 10296 10297 10298 10299 10300 10301 10302 10303 10304 10305 10306 10307 10308 10309 10310 10311 10312 10313 10314 10315 10316 10317 10318 10319 10320 10321 10322 10323 10324 10325 10326 10327 10328 10329 10330 10331 10332 10333 10334 10335 10336 10337 10338 10339 10340 10341 10342 10343 10344 10345 10346 10347 10348 10349 10350 10351 10352 10353 10354 10355 10356 10357 10358 10359 10360 10361 10362 10363 10364 10365 10366 10367 10368 10369 10370 10371 10372 10373 10374 10375 10376 10377 10378 10379 10380 10381 10382 10383 10384 10385 10386 10387 10388 10389 10390 10391 10392 10393 10394 10395 10396 10397 10398 10399 10400 10401 10402 10403 10404 10405 10406 10407 10408 10409 10410 10411 10412 10413 10414 10415 10416 10417 10418 10419 10420 10421 10422 10423 10424 10425 10426 10427 10428 10429 10430 10431 10432 10433 10434 10435 10436 10437 10438 10439 10440 10441 10442 10443 10444 10445 10446 10447 10448 10449 10450 10451 10452 10453 10454 10455 10456 10457 10458 10459 10460 10461 10462 10463 10464 10465 10466 10467 10468 10469 10470 10471 10472 10473 10474 10475 10476 10477 10478 10479 10480 10481 10482 10483 10484 10485 10486 10487 10488 10489 10490 10491 10492 10493 10494 10495 10496 10497 10498 10499 10500 10501 10502 10503 10504 10505 10506 10507 10508 10509 10510 10511 10512 10513 10514 10515 10516 10517 10518 10519 10520 10521 10522 10523 10524 10525 10526 10527 10528 10529 10530 10531 10532 10533 10534 10535 10536 10537 10538 10539 10540 10541 10542 10543 10544 10545 10546 10547 10548 10549 10550 10551 10552 10553 10554 10555 10556 10557 10558 10559 10560 10561 10562 10563 10564 10565 10566 10567 10568 10569 10570 10571 10572 10573 10574 10575 10576 10577 10578 10579 10580 10581 10582 10583 10584 10585 10586 10587 10588 10589 10590 10591 10592 10593 10594 10595 10596 10597 10598 10599 10600 10601 10602 10603 10604 10605 10606 10607 10608 10609 10610 10611 10612 10613 10614 10615 10616 10617 10618 10619 10620 10621 10622 10623 10624 10625 10626 10627 10628 10629 10630 10631 10632 10633 10634 10635 10636 10637 10638 10639 10640 10641 10642 10643 10644 10645 10646 10647 10648 10649 10650 10651 10652 10653 10654 10655 10656 10657 10658 10659 10660 10661 10662 10663 10664 10665 10666 10667 10668 10669 10670 10671 10672 10673 10674 10675 10676 10677 10678 10679 10680 10681 10682 10683 10684 10685 10686 10687 10688 10689 10690 10691 10692 10693 10694 10695 10696 10697 10698 10699 10700 10701 10702 10703 10704 10705 10706 10707 10708 10709 10710 10711 10712 10713 10714 10715 10716 10717 10718 10719 10720 10721 10722 10723 10724 10725 10726 10727 10728 10729 10730 10731 10732 10733 10734 10735 10736 10737 10738 10739 10740 10741 10742 10743 10744 10745 10746 10747 10748 10749 10750 10751 10752 10753 10754 10755 10756 10757 10758 10759 10760 10761 10762 10763 10764 10765 10766 10767 10768 10769 10770 10771 10772 10773 10774 10775 10776 10777 10778 10779 10780 10781 10782 10783 10784 10785 10786 10787 10788 10789 10790 10791 10792 10793 10794 10795 10796 10797 10798 10799 10800 10801 10802 10803 10804 10805 10806 10807 10808 10809 10810 10811 10812 10813 10814 10815 10816 10817 10818 10819 10820 10821 10822 10823 10824 10825 10826 10827 10828 10829 10830 10831 10832 10833 10834 10835 10836 10837 10838 10839 10840 10841 10842 10843 10844 10845 10846 10847 10848 10849 10850 10851 10852 10853 10854 10855 10856 10857 10858 10859 10860 10861 10862 10863 10864 10865 10866 10867 10868 10869 10870 10871 10872 10873 10874 10875 10876 10877 10878 10879 10880 10881 10882 10883 10884 10885 10886 10887 10888 10889 10890 10891 10892 10893 10894 10895 10896 10897 10898 10899 10900 10901 10902 10903 10904 10905 10906 10907 10908 10909 10910 10911 10912 10913 10914 10915 10916 10917 10918 10919 10920 10921 10922 10923 10924 10925 10926 10927 10928 10929 10930 10931 10932 10933 10934 10935 10936 10937 10938 10939 10940 10941 10942 10943 10944 10945 10946 10947 10948 10949 10950 10951 10952 10953 10954 10955 10956 10957 10958 10959 10960 10961 10962 10963 10964 10965 10966 10967 10968 10969 10970 10971 10972 10973 10974 10975 10976 10977 10978 10979 10980 10981 10982 10983 10984 10985 10986 10987 10988 10989 10990 10991 10992 10993 10994 10995 10996 10997 10998 10999 11000 11001 11002 11003 11004 11005 11006 11007 11008 11009 11010 11011 11012 11013 11014 11015 11016 11017 11018 11019 11020 11021 11022 11023 11024 11025 11026 11027 11028 11029 11030 11031 11032 11033 11034 11035 11036 11037 11038 11039 11040 11041 11042 11043 11044 11045 11046 11047 11048 11049 11050 11051 11052 11053 11054 11055 11056 11057 11058 11059 11060 11061 11062 11063 11064 11065 11066 11067 11068 11069 11070 11071 11072 11073 11074 11075 11076 11077 11078 11079 11080 11081 11082 11083 11084 11085 11086 11087 11088 11089 11090 11091 11092 11093 11094 11095 11096 11097 11098 11099 11100 11101 11102 11103 11104 11105 11106 11107 11108 11109 11110 11111 11112 11113 11114 11115 11116 11117 11118 11119 11120 11121 11122 11123 11124 11125 11126 11127 11128 11129 11130 11131 11132 11133 11134 11135 11136 11137 11138 11139 11140 11141 11142 11143 11144 11145 11146 11147 11148 11149 11150 11151 11152 11153 11154 11155 11156 11157 11158 11159 11160 11161 11162 11163 11164 11165 11166 11167 11168 11169 11170 11171 11172 11173 11174 11175 11176 11177 11178 11179 11180 11181 11182 11183 11184 11185 11186 11187 11188 11189 11190 11191 11192 11193 11194 11195 11196 11197 11198 11199 11200 11201 11202 11203 11204 11205 11206 11207 11208 11209 11210 11211 11212 11213 11214 11215 11216 11217 11218 11219 11220 11221 11222 11223 11224 11225 11226 11227 11228 11229 11230 11231 11232 11233 11234 11235 11236 11237 11238 11239 11240 11241 11242 11243 11244 11245 11246 11247 11248 11249 11250 11251 11252 11253 11254 11255 11256 11257 11258 11259 11260 11261 11262 11263 11264 11265 11266 11267 11268 11269 11270 11271 11272 11273 11274 11275 11276 11277 11278 11279 11280 11281 11282 11283 11284 11285 11286 11287 11288 11289 11290 11291 11292 11293 11294 11295 11296 11297 11298 11299 11300 11301 11302 11303 11304 11305 11306 11307 11308 11309 11310 11311 11312 11313 11314 11315 11316 11317 11318 11319 11320 11321 11322 11323 11324 11325 11326 11327 11328 11329 11330 11331 11332 11333 11334 11335 11336 11337 11338 11339 11340 11341 11342 11343 11344 11345 11346 11347 11348 11349 11350 11351 11352 11353 11354 11355 11356 11357 11358 11359 11360 11361 11362 11363 11364 11365 11366 11367 11368 11369 11370 11371 11372 11373 11374 11375 11376 11377 11378 11379 11380 11381 11382 11383 11384 11385 11386 11387 11388 11389 11390 11391 11392 11393 11394 11395 11396 11397 11398 11399 11400 11401 11402 11403 11404 11405 11406 11407 11408 11409 11410 11411 11412 11413 11414 11415 11416 11417 11418 11419 11420 11421 11422 11423 11424 11425 11426 11427 11428 11429 11430 11431 11432 11433 11434 11435 11436 11437 11438 11439 11440 11441 11442 11443 11444 11445 11446 11447 11448 11449 11450 11451 11452 11453 11454 11455 11456 11457 11458 11459 11460 11461 11462 11463 11464 11465 11466 11467 11468 11469 11470 11471 11472 11473 11474 11475 11476 11477 11478 11479 11480 11481 11482 11483 11484 11485 11486 11487 11488 11489 11490 11491 11492 11493 11494 11495 11496 11497 11498 11499 11500 11501 11502 11503 11504 11505 11506 11507 11508 11509 11510 11511 11512 11513 11514 11515 11516 11517 11518 11519 11520 11521 11522 11523 11524 11525 11526 11527 11528 11529 11530 11531 11532 11533 11534 11535 11536 11537 11538 11539 11540 11541 11542 11543 11544 11545 11546 11547 11548 11549 11550 11551 11552 11553 11554 11555 11556 11557 11558 11559 11560 11561 11562 11563 11564 11565 11566 11567 11568 11569 11570 11571 11572 11573 11574 11575 11576 11577 11578 11579 11580 11581 11582 11583 11584 11585 11586 11587 11588 11589 11590 11591 11592 11593 11594 11595 11596 11597 11598 11599 11600 11601 11602 11603 11604 11605 11606 11607 11608 11609 11610 11611 11612 11613 11614 11615 11616 11617 11618 11619 11620 11621 11622 11623 11624 11625 11626 11627 11628 11629 11630 11631 11632 11633 11634 11635 11636 11637 11638 11639 11640 11641 11642 11643 11644 11645 11646 11647 11648 11649 11650 11651 11652 11653 11654 11655 11656 11657 11658 11659 11660 11661 11662 11663 11664 11665 11666 11667 11668 11669 11670 11671 11672 11673 11674 11675 11676 11677 11678 11679 11680 11681 11682 11683 11684 11685 11686 11687 11688 11689 11690 11691 11692 11693 11694 11695 11696 11697 11698 11699 11700 11701 11702 11703 11704 11705 11706 11707 11708 11709 11710 11711 11712 11713 11714 11715 11716 11717 11718 11719 11720 11721 11722 11723 11724 11725 11726 11727 11728 11729 11730 11731 11732 11733 11734 11735 11736 11737 11738 11739 11740 11741 11742 11743 11744 11745 11746 11747 11748 11749 11750 11751 11752 11753 11754 11755 11756 11757 11758 11759 11760 11761 11762 11763 11764 11765 11766 11767 11768 11769 11770 11771 11772 11773 11774 11775 11776 11777 11778 11779 11780 11781 11782 11783 11784 11785 11786 11787 11788 11789 11790 11791 11792 11793 11794 11795 11796 11797 11798 11799 11800 11801 11802 11803 11804 11805 11806 11807 11808 11809 11810 11811 11812 11813 11814 11815 11816 11817 11818 11819 11820 11821 11822 11823 11824 11825 11826 11827 11828 11829 11830 11831 11832 11833 11834 11835 11836 11837 11838 11839 11840 11841 11842 11843 11844 11845 11846 11847 11848 11849 11850 11851 11852 11853 11854 11855 11856 11857 11858 11859 11860 11861 11862 11863 11864 11865 11866 11867 11868 11869 11870 11871 11872 11873 11874 11875 11876 11877 11878 11879 11880 11881 11882 11883 11884 11885 11886 11887 11888 11889 11890 11891 11892 11893 11894 11895 11896 11897 11898 11899 11900 11901 11902 11903 11904 11905 11906 11907 11908 11909 11910 11911 11912 11913 11914 11915 11916 11917 11918 11919 11920 11921 11922 11923 11924 11925 11926 11927 11928 11929 11930 11931 11932 11933 11934 11935 11936 11937 11938 11939 11940 11941 11942 11943 11944 11945 11946 11947 11948 11949 11950 11951 11952 11953 11954 11955 11956 11957 11958 11959 11960 11961 11962 11963 11964 11965 11966 11967 11968 11969 11970 11971 11972 11973 11974 11975 11976 11977 11978 11979 11980 11981 11982 11983 11984 11985 11986 11987 11988 11989 11990 11991 11992 11993 11994 11995 11996 11997 11998 11999 12000 12001 12002 12003 12004 12005 12006 12007 12008 12009 12010 12011 12012 12013 12014 12015 12016 12017 12018 12019 12020 12021 12022 12023 12024 12025 12026 12027 12028 12029 12030 12031 12032 12033 12034 12035 12036 12037 12038 12039 12040 12041 12042 12043 12044 12045 12046 12047 12048 12049 12050 12051 12052 12053 12054 12055 12056 12057 12058 12059 12060 12061 12062 12063 12064 12065 12066 12067 12068 12069 12070 12071 12072 12073 12074 12075 12076 12077 12078 12079 12080 12081 12082 12083 12084 12085 12086 12087 12088 12089 12090 12091 12092 12093 12094 12095 12096 12097 12098 12099 12100 12101 12102 12103 12104 12105 12106 12107 12108 12109 12110 12111 12112 12113 12114 12115 12116 12117 12118 12119 12120 12121 12122 12123 12124 12125 12126 12127 12128 12129 12130 12131 12132 12133 12134 12135 12136 12137 12138 12139 12140 12141 12142 12143 12144 12145 12146 12147 12148 12149 12150 12151 12152 12153 12154 12155 12156 12157 12158 12159 12160 12161 12162 12163 12164 12165 12166 12167 12168 12169 12170 12171 12172 12173 12174 12175 12176 12177 12178 12179 12180 12181 12182 12183 12184 12185 12186 12187 12188 12189 12190 12191 12192 12193 12194 12195 12196 12197 12198 12199 12200 12201 12202 12203 12204 12205 12206 12207 12208 12209 12210 12211 12212 12213 12214 12215 12216 12217 12218 12219 12220 12221 12222 12223 12224 12225 12226 12227 12228 12229 12230 12231 12232 12233 12234 12235 12236 12237 12238 12239 12240 12241 12242 12243 12244 12245 12246 12247 12248 12249 12250 12251 12252 12253 12254 12255 12256 12257 12258 12259 12260 12261 12262 12263 12264 12265 12266 12267 12268 12269 12270 12271 12272 12273 12274 12275 12276 12277 12278 12279 12280 12281 12282 12283 12284 12285 12286 12287 12288 12289 12290 12291 12292 12293 12294 12295 12296 12297 12298 12299 12300 12301 12302 12303 12304 12305 12306 12307 12308 12309 12310 12311 12312 12313 12314 12315 12316 12317 12318 12319 12320 12321 12322 12323 12324 12325 12326 12327 12328 12329 12330 12331 12332 12333 12334 12335 12336 12337 12338 12339 12340 12341 12342 12343 12344 12345 12346 12347 12348 12349 12350 12351 12352 12353 12354 12355 12356 12357 12358 12359 12360 12361 12362 12363 12364 12365 12366 12367 12368 12369 12370 12371 12372 12373 12374 12375 12376 12377 12378 12379 12380 12381 12382 12383 12384 12385 12386 12387 12388 12389 12390 12391 12392 12393 12394 12395 12396 12397 12398 12399 12400 12401 12402 12403 12404 12405 12406 12407 12408 12409 12410 12411 12412 12413 12414 12415 12416 12417 12418 12419 12420 12421 12422 12423 12424 12425 12426 12427 12428 12429 12430 12431 12432 12433 12434 12435 12436 12437 12438 12439 12440 12441 12442 12443 12444 12445 12446 12447 12448 12449 12450 12451 12452 12453 12454 12455 12456 12457 12458 12459 12460 12461 12462 12463 12464 12465 12466 12467 12468 12469 12470 12471 12472 12473 12474 12475 12476 12477 12478 12479 12480 12481 12482 12483 12484 12485 12486 12487 12488 12489 12490 12491 12492 12493 12494 12495 12496 12497 12498 12499 12500 12501 12502 12503 12504 12505 12506 12507 12508 12509 12510 12511 12512 12513 12514 12515 12516 12517 12518 12519 12520 12521 12522 12523 12524 12525 12526 12527 12528 12529 12530 12531 12532 12533 12534 12535 12536 12537 12538 12539 12540 12541 12542 12543 12544 12545 12546 12547 12548 12549 12550 12551 12552 12553 12554 12555 12556 12557 12558 12559 12560 12561 12562 12563 12564 12565 12566 12567 12568 12569 12570 12571 12572 12573 12574 12575 12576 12577 12578 12579 12580 12581 12582 12583 12584 12585 12586 12587 12588 12589 12590 12591 12592 12593 12594 12595 12596 12597 12598 12599 12600 12601 12602 12603 12604 12605 12606 12607 12608 12609 12610 12611 12612 12613 12614 12615 12616 12617 12618 12619 12620 12621 12622 12623 12624 12625 12626 12627 12628 12629 12630 12631 12632 12633 12634 12635 12636 12637 12638 12639 12640 12641 12642 12643 12644 12645 12646 12647 12648 12649 12650 12651 12652 12653 12654 12655 12656 12657 12658 12659 12660 12661 12662 12663 12664 12665 12666 12667 12668 12669 12670 12671 12672 12673 12674 12675 12676 12677 12678 12679 12680 12681 12682 12683 12684 12685 12686 12687 12688 12689 12690 12691 12692 12693 12694 12695 12696 12697 12698 12699 12700 12701 12702 12703 12704 12705 12706 12707 12708 12709 12710 12711 12712 12713 12714 12715 12716 12717 12718 12719 12720 12721 12722 12723 12724 12725 12726 12727 12728 12729 12730 12731 12732 12733 12734 12735 12736 12737 12738 12739 12740 12741 12742 12743 12744 12745 12746 12747 12748 12749 12750 12751 12752 12753 12754 12755 12756 12757 12758 12759 12760 12761 12762 12763 12764 12765 12766 12767 12768 12769 12770 12771 12772 12773 12774 12775 12776 12777 12778 12779 12780 12781 12782 12783 12784 12785 12786 12787 12788 12789 12790 12791 12792 12793 12794 12795 12796 12797 12798 12799 12800 12801 12802 12803 12804 12805 12806 12807 12808 12809 12810 12811 12812 12813 12814 12815 12816 12817 12818 12819 12820 12821 12822 12823 12824 12825 12826 12827 12828 12829 12830 12831 12832 12833 12834 12835 12836 12837 12838 12839 12840 12841 12842 12843 12844 12845 12846 12847 12848 12849 12850 12851 12852 12853 12854 12855 12856 12857 12858 12859 12860 12861 12862 12863 12864 12865 12866 12867 12868 12869 12870 12871 12872 12873 12874 12875 12876 12877 12878 12879 12880 12881 12882 12883 12884 12885 12886 12887 12888 12889 12890 12891 12892 12893 12894 12895 12896 12897 12898 12899 12900 12901 12902 12903 12904 12905 12906 12907 12908 12909 12910 12911 12912 12913 12914 12915 12916 12917 12918 12919 12920 12921 12922 12923 12924 12925 12926 12927 12928 12929 12930 12931 12932 12933 12934 12935 12936 12937 12938 12939 12940 12941 12942 12943 12944 12945 12946 12947 12948 12949 12950 12951 12952 12953 12954 12955 12956 12957 12958 12959 12960 12961 12962 12963 12964 12965 12966 12967 12968 12969 12970 12971 12972 12973 12974 12975 12976 12977 12978 12979 12980 12981 12982 12983 12984 12985 12986 12987 12988 12989 12990 12991 12992 12993 12994 12995 12996 12997 12998 12999 13000 13001 13002 13003 13004 13005 13006 13007 13008 13009 13010 13011 13012 13013 13014 13015 13016 13017 13018 13019 13020 13021 13022 13023 13024 13025 13026 13027 13028 13029 13030 13031 13032 13033 13034 13035 13036 13037 13038 13039 13040 13041 13042 13043 13044 13045 13046 13047 13048 13049 13050 13051 13052 13053 13054 13055 13056 13057 13058 13059 13060 13061 13062 13063 13064 13065 13066 13067 13068 13069 13070 13071 13072 13073 13074 13075 13076 13077 13078 13079 13080 13081 13082 13083 13084 13085 13086 13087 13088 13089 13090 13091 13092 13093 13094 13095 13096 13097 13098 13099 13100 13101 13102 13103 13104 13105 13106 13107 13108 13109 13110 13111 13112 13113 13114 13115 13116 13117 13118 13119 13120 13121 13122 13123 13124 13125 13126 13127 13128 13129 13130 13131 13132 13133 13134 13135 13136 13137 13138 13139 13140 13141 13142 13143 13144 13145 13146 13147 13148 13149 13150 13151 13152 13153 13154 13155 13156 13157 13158 13159 13160 13161 13162 13163 13164 13165 13166 13167 13168 13169 13170 13171 13172 13173 13174 13175 13176 13177 13178 13179 13180 13181 13182 13183 13184 13185 13186 13187 13188 13189 13190 13191 13192 13193 13194 13195 13196 13197 13198 13199 13200 13201 13202 13203 13204 13205 13206 13207 13208 13209 13210 13211 13212 13213 13214 13215 13216 13217 13218 13219 13220 13221 13222 13223 13224 13225 13226 13227 13228 13229 13230 13231 13232 13233 13234 13235 13236 13237 13238 13239 13240 13241 13242 13243 13244 13245 13246 13247 13248 13249 13250 13251 13252 13253 13254 13255 13256 13257 13258 13259 13260 13261 13262 13263 13264 13265 13266 13267 13268 13269 13270 13271 13272 13273 13274 13275 13276 13277 13278 13279 13280 13281 13282 13283 13284 13285 13286 13287 13288 13289 13290 13291 13292 13293 13294 13295 13296 13297 13298 13299 13300 13301 13302 13303 13304 13305 13306 13307 13308 13309 13310 13311 13312 13313 13314 13315 13316 13317 13318 13319 13320 13321 13322 13323 13324 13325 13326 13327 13328 13329 13330 13331 13332 13333 13334 13335 13336 13337 13338 13339 13340 13341 13342 13343 13344 13345 13346 13347 13348 13349 13350 13351 13352 13353 13354 13355 13356 13357 13358 13359 13360 13361 13362 13363 13364 13365 13366 13367 13368 13369 13370 13371 13372 13373 13374 13375 13376 13377 13378 13379 13380 13381 13382 13383 13384 13385 13386 13387 13388 13389 13390 13391 13392 13393 13394 13395 13396 13397 13398 13399 13400 13401 13402 13403 13404 13405 13406 13407 13408 13409 13410 13411 13412 13413 13414 13415 13416 13417 13418 13419 13420 13421 13422 13423 13424 13425 13426 13427 13428 13429 13430 13431 13432 13433 13434 13435 13436 13437 13438 13439 13440 13441 13442 13443 13444 13445 13446 13447 13448 13449 13450 13451 13452 13453 13454 13455 13456 13457 13458 13459 13460 13461 13462 13463 13464 13465 13466 13467 13468 13469 13470 13471 13472 13473 13474 13475 13476 13477 13478 13479 13480 13481 13482 13483 13484 13485 13486 13487 13488 13489 13490 13491 13492 13493 13494 13495 13496 13497 13498 13499 13500 13501 13502 13503 13504 13505 13506 13507 13508 13509 13510 13511 13512 13513 13514 13515 13516 13517 13518 13519 13520 13521 13522 13523 13524 13525 13526 13527 13528 13529 13530 13531 13532 13533 13534 13535 13536 13537 13538 13539 13540 13541 13542 13543 13544 13545 13546 13547 13548 13549 13550 13551 13552 13553 13554 13555 13556 13557 13558 13559 13560 13561 13562 13563 13564 13565 13566 13567 13568 13569 13570 13571 13572 13573 13574 13575 13576 13577 13578 13579 13580 13581 13582 13583 13584 13585 13586 13587 13588 13589 13590 13591 13592 13593 13594 13595 13596 13597 13598 13599 13600 13601 13602 13603 13604 13605 13606 13607 13608 13609 13610 13611 13612 13613 13614 13615 13616 13617 13618 13619 13620 13621 13622 13623 13624 13625 13626 13627 13628 13629 13630 13631 13632 13633 13634 13635 13636 13637 13638 13639 13640 13641 13642 13643 13644 13645 13646 13647 13648 13649 13650 13651 13652 13653 13654 13655 13656 13657 13658 13659 13660 13661 13662 13663 13664 13665 13666 13667 13668 13669 13670 13671 13672 13673 13674 13675 13676 13677 13678 13679 13680 13681 13682 13683 13684 13685 13686 13687 13688 13689 13690 13691 13692 13693 13694 13695 13696 13697 13698 13699 13700 13701 13702 13703 13704 13705 13706 13707 13708 13709 13710 13711 13712 13713 13714 13715 13716 13717 13718 13719 13720 13721 13722 13723 13724 13725 13726 13727 13728 13729 13730 13731 13732 13733 13734 13735 13736 13737 13738 13739 13740 13741 13742 13743 13744 13745 13746 13747 13748 13749 13750 13751 13752 13753 13754 13755 13756 13757 13758 13759 13760 13761 13762 13763 13764 13765 13766 13767 13768 13769 13770 13771 13772 13773 13774 13775 13776 13777 13778 13779 13780 13781 13782 13783 13784 13785 13786 13787 13788 13789 13790 13791 13792 13793 13794 13795 13796 13797 13798 13799 13800 13801 13802 13803 13804 13805 13806 13807 13808 13809 13810 13811 13812 13813 13814 13815 13816 13817 13818 13819 13820 13821 13822 13823 13824 13825 13826 13827 13828 13829 13830 13831 13832 13833 13834 13835 13836 13837 13838 13839 13840 13841 13842 13843 13844 13845 13846 13847 13848 13849 13850 13851 13852 13853 13854 13855 13856 13857 13858 13859 13860 13861 13862 13863 13864 13865 13866 13867 13868 13869 13870 13871 13872 13873 13874 13875 13876 13877 13878 13879 13880 13881 13882 13883 13884 13885 13886 13887 13888 13889 13890 13891 13892 13893 13894 13895 13896 13897 13898 13899 13900 13901 13902 13903 13904 13905 13906 13907 13908 13909 13910 13911 13912 13913 13914 13915 13916 13917 13918 13919 13920 13921 13922 13923 13924 13925 13926 13927 13928 13929 13930 13931 13932 13933 13934 13935 13936 13937 13938 13939 13940 13941 13942 13943 13944 13945 13946 13947 13948 13949 13950 13951 13952 13953 13954 13955 13956 13957 13958 13959 13960 13961 13962 13963 13964 13965 13966 13967 13968 13969 13970 13971 13972 13973 13974 13975 13976 13977 13978 13979 13980 13981 13982 13983 13984 13985 13986 13987 13988 13989 13990 13991 13992 13993 13994 13995 13996 13997 13998 13999 14000 14001 14002 14003 14004 14005 14006 14007 14008 14009 14010 14011 14012 14013 14014 14015 14016 14017 14018 14019 14020 14021 14022 14023 14024 14025 14026 14027 14028 14029 14030 14031 14032 14033 14034 14035 14036 14037 14038 14039 14040 14041 14042 14043 14044 14045 14046 14047 14048 14049 14050 14051 14052 14053 14054 14055 14056 14057 14058 14059 14060 14061 14062 14063 14064 14065 14066 14067 14068 14069 14070 14071 14072 14073 14074 14075 14076 14077 14078 14079 14080 14081 14082 14083 14084 14085 14086 14087 14088 14089 14090 14091 14092 14093 14094 14095 14096 14097 14098 14099 14100 14101 14102 14103 14104 14105 14106 14107 14108 14109 14110 14111 14112 14113 14114 14115 14116 14117 14118 14119 14120 14121 14122 14123 14124 14125 14126 14127 14128 14129 14130 14131 14132 14133 14134 14135 14136 14137 14138 14139 14140 14141 14142 14143 14144 14145 14146 14147 14148 14149 14150 14151 14152 14153 14154 14155 14156 14157 14158 14159 14160 14161 14162 14163 14164 14165 14166 14167 14168 14169 14170 14171 14172 14173 14174 14175 14176 14177 14178 14179 14180 14181 14182 14183 14184 14185 14186 14187 14188 14189 14190 14191 14192 14193 14194 14195 14196 14197 14198 14199 14200 14201 14202 14203 14204 14205 14206 14207 14208 14209 14210 14211 14212 14213 14214 14215 14216 14217 14218 14219 14220 14221 14222 14223 14224 14225 14226 14227 14228 14229 14230 14231 14232 14233 14234 14235 14236 14237 14238 14239 14240 14241 14242 14243 14244 14245 14246 14247 14248 14249 14250 14251 14252 14253 14254 14255 14256 14257 14258 14259 14260 14261 14262 14263 14264 14265 14266 14267 14268 14269 14270 14271 14272 14273 14274 14275 14276 14277 14278 14279 14280 14281 14282 14283 14284 14285 14286 14287 14288 14289 14290 14291 14292 14293 14294 14295 14296 14297 14298 14299 14300 14301 14302 14303 14304 14305 14306 14307 14308 14309 14310 14311 14312 14313 14314 14315 14316 14317 14318 14319 14320 14321 14322 14323 14324 14325 14326 14327 14328 14329 14330 14331 14332 14333 14334 14335 14336 14337 14338 14339 14340 14341 14342 14343 14344 14345 14346 14347 14348 14349 14350 14351 14352 14353 14354 14355 14356 14357 14358 14359 14360 14361 14362 14363 14364 14365 14366 14367 14368 14369 14370 14371 14372 14373 14374 14375 14376 14377 14378 14379 14380 14381 14382 14383 14384 14385 14386 14387 14388 14389 14390 14391 14392 14393 14394 14395 14396 14397 14398 14399 14400 14401 14402 14403 14404 14405 14406 14407 14408 14409 14410 14411 14412 14413 14414 14415 14416 14417 14418 14419 14420 14421 14422 14423 14424 14425 14426 14427 14428 14429 14430 14431 14432 14433 14434 14435 14436 14437 14438 14439 14440 14441 14442 14443 14444 14445 14446 14447 14448 14449 14450 14451 14452 14453 14454 14455 14456 14457 14458 14459 14460 14461 14462 14463 14464 14465 14466 14467 14468 14469 14470 14471 14472 14473 14474 14475 14476 14477 14478 14479 14480 14481 14482 14483 14484 14485 14486 14487 14488 14489 14490 14491 14492 14493 14494 14495 14496 14497 14498 14499 14500 14501 14502 14503 14504 14505 14506 14507 14508 14509 14510 14511 14512 14513 14514 14515 14516 14517 14518 14519 14520 14521 14522 14523 14524 14525 14526 14527 14528 14529 14530 14531 14532 14533 14534 14535 14536 14537 14538 14539 14540 14541 14542 14543 14544 14545 14546 14547 14548 14549 14550 14551 14552 14553 14554 14555 14556 14557 14558 14559 14560 14561 14562 14563 14564 14565 14566 14567 14568 14569 14570 14571 14572 14573 14574 14575 14576 14577 14578 14579 14580 14581 14582 14583 14584 14585 14586 14587 14588 14589 14590 14591 14592 14593 14594 14595 14596 14597 14598 14599 14600 14601 14602 14603 14604 14605 14606 14607 14608 14609 14610 14611 14612 14613 14614 14615 14616 14617 14618 14619 14620 14621 14622 14623 14624 14625 14626 14627 14628 14629 14630 14631 14632 14633 14634 14635 14636 14637 14638 14639 14640 14641 14642 14643 14644 14645 14646 14647 14648 14649 14650 14651 14652 14653 14654 14655 14656 14657 14658 14659 14660 14661 14662 14663 14664 14665 14666 14667 14668 14669 14670 14671 14672 14673 14674 14675 14676 14677 14678 14679 14680 14681 14682 14683 14684 14685 14686 14687 14688 14689 14690 14691 14692 14693 14694 14695 14696 14697 14698 14699 14700 14701 14702 14703 14704 14705 14706 14707 14708 14709 14710 14711 14712 14713 14714 14715 14716 14717 14718 14719 14720 14721 14722 14723 14724 14725 14726 14727 14728 14729 14730 14731 14732 14733 14734 14735 14736 14737 14738 14739 14740 14741 14742 14743 14744 14745 14746 14747 14748 14749 14750 14751 14752 14753 14754 14755 14756 14757 14758 14759 14760 14761 14762 14763 14764 14765 14766 14767 14768 14769 14770 14771 14772 14773 14774 14775 14776 14777 14778 14779 14780 14781 14782 14783 14784 14785 14786 14787 14788 14789 14790 14791 14792 14793 14794 14795 14796 14797 14798 14799 14800 14801 14802 14803 14804 14805 14806 14807 14808 14809 14810 14811 14812 14813 14814 14815 14816 14817 14818 14819 14820 14821 14822 14823 14824 14825 14826 14827 14828 14829 14830 14831 14832 14833 14834 14835 14836 14837 14838 14839 14840 14841 14842 14843 14844 14845 14846 14847 14848 14849 14850 14851 14852 14853 14854 14855 14856 14857 14858 14859 14860 14861 14862 14863 14864 14865 14866 14867 14868 14869 14870 14871 14872 14873 14874 14875 14876 14877 14878 14879 14880 14881 14882 14883 14884 14885 14886 14887 14888 14889 14890 14891 14892 14893 14894 14895 14896 14897 14898 14899 14900 14901 14902 14903 14904 14905 14906 14907 14908 14909 14910 14911 14912 14913 14914 14915 14916 14917 14918 14919 14920 14921 14922 14923 14924 14925 14926 14927 14928 14929 14930 14931 14932 14933 14934 14935 14936 14937 14938 14939 14940 14941 14942 14943 14944 14945 14946 14947 14948 14949 14950 14951 14952 14953 14954 14955 14956 14957 14958 14959 14960 14961 14962 14963 14964 14965 14966 14967 14968 14969 14970 14971 14972 14973 14974 14975 14976 14977 14978 14979 14980 14981 14982 14983 14984 14985 14986 14987 14988 14989 14990 14991 14992 14993 14994 14995 14996 14997 14998 14999 15000 15001 15002 15003 15004 15005 15006 15007 15008 15009 15010 15011 15012 15013 15014 15015 15016 15017 15018 15019 15020 15021 15022 15023 15024 15025 15026 15027 15028 15029 15030 15031 15032 15033 15034 15035 15036 15037 15038 15039 15040 15041 15042 15043 15044 15045 15046 15047 15048 15049 15050 15051 15052 15053 15054 15055 15056 15057 15058 15059 15060 15061 15062 15063 15064 15065 15066 15067 15068 15069 15070 15071 15072 15073 15074 15075 15076 15077 15078 15079 15080 15081 15082 15083 15084 15085 15086 15087 15088 15089 15090 15091 15092 15093 15094 15095 15096 15097 15098 15099 15100 15101 15102 15103 15104 15105 15106 15107 15108 15109 15110 15111 15112 15113 15114 15115 15116 15117 15118 15119 15120 15121 15122 15123 15124 15125 15126 15127 15128 15129 15130 15131 15132 15133 15134 15135 15136 15137 15138 15139 15140 15141 15142 15143 15144 15145 15146 15147 15148 15149 15150 15151 15152 15153 15154 15155 15156 15157 15158 15159 15160 15161 15162 15163 15164 15165 15166 15167 15168 15169 15170 15171 15172 15173 15174 15175 15176 15177 15178 15179 15180 15181 15182 15183 15184 15185 15186 15187 15188 15189 15190 15191 15192 15193 15194 15195 15196 15197 15198 15199 15200 15201 15202 15203 15204 15205 15206 15207 15208 15209 15210 15211 15212 15213 15214 15215 15216 15217 15218 15219 15220 15221 15222 15223 15224 15225 15226 15227 15228 15229 15230 15231 15232 15233 15234 15235 15236 15237 15238 15239 15240 15241 15242 15243 15244 15245 15246 15247 15248 15249 15250 15251 15252 15253 15254 15255 15256 15257 15258 15259 15260 15261 15262 15263 15264 15265 15266 15267 15268 15269 15270 15271 15272 15273 15274 15275 15276 15277 15278 15279 15280 15281 15282 15283 15284 15285 15286 15287 15288 15289 15290 15291 15292 15293 15294 15295 15296 15297 15298 15299 15300 15301 15302 15303 15304 15305 15306 15307 15308 15309 15310 15311 15312 15313 15314 15315 15316 15317 15318 15319 15320 15321 15322 15323 15324 15325 15326 15327 15328 15329 15330 15331 15332 15333 15334 15335 15336 15337 15338 15339 15340 15341 15342 15343 15344 15345 15346 15347 15348 15349 15350 15351 15352 15353 15354 15355 15356 15357 15358 15359 15360 15361 15362 15363 15364 15365 15366 15367 15368 15369 15370 15371 15372 15373 15374 15375 15376 15377 15378 15379 15380 15381 15382 15383 15384 15385 15386 15387 15388 15389 15390 15391 15392 15393 15394 15395 15396 15397 15398 15399 15400 15401 15402 15403 15404 15405 15406 15407 15408 15409 15410 15411 15412 15413 15414 15415 15416 15417 15418 15419 15420 15421 15422 15423 15424 15425 15426 15427 15428 15429 15430 15431 15432 15433 15434 15435 15436 15437 15438 15439 15440 15441 15442 15443 15444 15445 15446 15447 15448 15449 15450 15451 15452 15453 15454 15455 15456 15457 15458 15459 15460 15461 15462 15463 15464 15465 15466 15467 15468 15469 15470 15471 15472 15473 15474 15475 15476 15477 15478 15479 15480 15481 15482 15483 15484 15485 15486 15487 15488 15489 15490 15491 15492 15493 15494 15495 15496 15497 15498 15499 15500 15501 15502 15503 15504 15505 15506 15507 15508 15509 15510 15511 15512 15513 15514 15515 15516 15517 15518 15519 15520 15521 15522 15523 15524 15525 15526 15527 15528 15529 15530 15531 15532 15533 15534 15535 15536 15537 15538 15539 15540 15541 15542 15543 15544 15545 15546 15547 15548 15549 15550 15551 15552 15553 15554 15555 15556 15557 15558 15559 15560 15561 15562 15563 15564 15565 15566 15567 15568 15569 15570 15571 15572 15573 15574 15575 15576 15577 15578 15579 15580 15581 15582 15583 15584 15585 15586 15587 15588 15589 15590 15591 15592 15593 15594 15595 15596 15597 15598 15599 15600 15601 15602 15603 15604 15605 15606 15607 15608 15609 15610 15611 15612 15613 15614 15615 15616 15617 15618 15619 15620 15621 15622 15623 15624 15625 15626 15627 15628 15629 15630 15631 15632 15633 15634 15635 15636 15637 15638 15639 15640 15641 15642 15643 15644 15645 15646 15647 15648 15649 15650 15651 15652 15653 15654 15655 15656 15657 15658 15659 15660 15661 15662 15663 15664 15665 15666 15667 15668 15669 15670 15671 15672 15673 15674 15675 15676 15677 15678 15679 15680 15681 15682 15683 15684 15685 15686 15687 15688 15689 15690 15691 15692 15693 15694 15695 15696 15697 15698 15699 15700 15701 15702 15703 15704 15705 15706 15707 15708 15709 15710 15711 15712 15713 15714 15715 15716 15717 15718 15719 15720 15721 15722 15723 15724 15725 15726 15727 15728 15729 15730 15731 15732 15733 15734 15735 15736 15737 15738 15739 15740 15741 15742 15743 15744 15745 15746 15747 15748 15749 15750 15751 15752 15753 15754 15755 15756 15757 15758 15759 15760 15761 15762 15763 15764 15765 15766 15767 15768 15769 15770 15771 15772 15773 15774 15775 15776 15777 15778 15779 15780 15781 15782 15783 15784 15785 15786 15787 15788 15789 15790 15791 15792 15793 15794 15795 15796 15797 15798 15799 15800 15801 15802 15803 15804 15805 15806 15807 15808 15809 15810 15811 15812 15813 15814 15815 15816 15817 15818 15819 15820 15821 15822 15823 15824 15825 15826 15827 15828 15829 15830 15831 15832 15833 15834 15835 15836 15837 15838 15839 15840 15841 15842 15843 15844 15845 15846 15847 15848 15849 15850 15851 15852 15853 15854 15855 15856 15857 15858 15859 15860 15861 15862 15863 15864 15865 15866 15867 15868 15869 15870 15871 15872 15873 15874 15875 15876 15877 15878 15879 15880 15881 15882 15883 15884 15885 15886 15887 15888 15889 15890 15891 15892 15893 15894 15895 15896 15897 15898 15899 15900 15901 15902 15903 15904 15905 15906 15907 15908 15909 15910 15911 15912 15913 15914 15915 15916 15917 15918 15919 15920 15921 15922 15923 15924 15925 15926 15927 15928 15929 15930 15931 15932 15933 15934 15935 15936 15937 15938 15939 15940 15941 15942 15943 15944 15945 15946 15947 15948 15949 15950 15951 15952 15953 15954 15955 15956 15957 15958 15959 15960 15961 15962 15963 15964 15965 15966 15967 15968 15969 15970 15971 15972 15973 15974 15975 15976 15977 15978 15979 15980 15981 15982 15983 15984 15985 15986 15987 15988 15989 15990 15991 15992 15993 15994 15995 15996 15997 15998 15999 16000 16001 16002 16003 16004 16005 16006 16007 16008 16009 16010 16011 16012 16013 16014 16015 16016 16017 16018 16019 16020 16021 16022 16023 16024 16025 16026 16027 16028 16029 16030 16031 16032 16033 16034 16035 16036 16037 16038 16039 16040 16041 16042 16043 16044 16045 16046 16047 16048 16049 16050 16051 16052 16053 16054 16055 16056 16057 16058 16059 16060 16061 16062 16063 16064 16065 16066 16067 16068 16069 16070 16071 16072 16073 16074 16075 16076 16077 16078 16079 16080 16081 16082 16083 16084 16085 16086 16087 16088 16089 16090 16091 16092 16093 16094 16095 16096 16097 16098 16099 16100 16101 16102 16103 16104 16105 16106 16107 16108 16109 16110 16111 16112 16113 16114 16115 16116 16117 16118 16119 16120 16121 16122 16123 16124 16125 16126 16127 16128 16129 16130 16131 16132 16133 16134 16135 16136 16137 16138 16139 16140 16141 16142 16143 16144 16145 16146 16147 16148 16149 16150 16151 16152 16153 16154 16155 16156 16157 16158 16159 16160 16161 16162 16163 16164 16165 16166 16167 16168 16169 16170 16171 16172 16173 16174 16175 16176 16177 16178 16179 16180 16181 16182 16183 16184 16185 16186 16187 16188 16189 16190 16191 16192 16193 16194 16195 16196 16197 16198 16199 16200 16201 16202 16203 16204 16205 16206 16207 16208 16209 16210 16211 16212 16213 16214 16215 16216 16217 16218 16219 16220 16221 16222 16223 16224 16225 16226 16227 16228 16229 16230 16231 16232 16233 16234 16235 16236 16237 16238 16239 16240 16241 16242 16243 16244 16245 16246 16247 16248 16249 16250 16251 16252 16253 16254 16255 16256 16257 16258 16259 16260 16261 16262 16263 16264 16265 16266 16267 16268 16269 16270 16271 16272 16273 16274 16275 16276 16277 16278 16279 16280 16281 16282 16283 16284 16285 16286 16287 16288 16289 16290 16291 16292 16293 16294 16295 16296 16297 16298 16299 16300 16301 16302 16303 16304 16305 16306 16307 16308 16309 16310 16311 16312 16313 16314 16315 16316 16317 16318 16319 16320 16321 16322 16323 16324 16325 16326 16327 16328 16329 16330 16331 16332 16333 16334 16335 16336 16337 16338 16339 16340 16341 16342 16343 16344 16345 16346 16347 16348 16349 16350 16351 16352 16353 16354 16355 16356 16357 16358 16359 16360 16361 16362 16363 16364 16365 16366 16367 16368 16369 16370 16371 16372 16373 16374 16375 16376 16377 16378 16379 16380 16381 16382 16383 16384 16385 16386 16387 16388 16389 16390 16391 16392 16393 16394 16395 16396 16397 16398 16399 16400 16401 16402 16403 16404 16405 16406 16407 16408 16409 16410 16411 16412 16413 16414 16415 16416 16417 16418 16419 16420 16421 16422 16423 16424 16425 16426 16427 16428 16429 16430 16431 16432 16433 16434 16435 16436 16437 16438 16439 16440 16441 16442 16443 16444 16445 16446 16447 16448 16449 16450 16451 16452 16453 16454 16455 16456 16457 16458 16459 16460 16461 16462 16463 16464 16465 16466 16467 16468 16469 16470 16471 16472 16473 16474 16475 16476 16477 16478 16479 16480 16481 16482 16483 16484 16485 16486 16487 16488 16489 16490 16491 16492 16493 16494 16495 16496 16497 16498 16499 16500 16501 16502 16503 16504 16505 16506 16507 16508 16509 16510 16511 16512 16513 16514 16515 16516 16517 16518 16519 16520 16521 16522 16523 16524 16525 16526 16527 16528 16529 16530 16531 16532 16533 16534 16535 16536 16537 16538 16539 16540 16541 16542 16543 16544 16545 16546 16547 16548 16549 16550 16551 16552 16553 16554 16555 16556 16557 16558 16559 16560 16561 16562 16563 16564 16565 16566 16567 16568 16569 16570 16571 16572 16573 16574 16575 16576 16577 16578 16579 16580 16581 16582 16583 16584 16585 16586 16587 16588 16589 16590 16591 16592 16593 16594 16595 16596 16597 16598 16599 16600 16601 16602 16603 16604 16605 16606 16607 16608 16609 16610 16611 16612 16613 16614 16615 16616 16617 16618 16619 16620 16621 16622 16623 16624 16625 16626 16627 16628 16629 16630 16631 16632 16633 16634 16635 16636 16637 16638 16639 16640 16641 16642 16643 16644 16645 16646 16647 16648 16649 16650 16651 16652 16653 16654 16655 16656 16657 16658 16659 16660 16661 16662 16663 16664 16665 16666 16667 16668 16669 16670 16671 16672 16673 16674 16675 16676 16677 16678 16679 16680 16681 16682 16683 16684 16685 16686 16687 16688 16689 16690 16691 16692 16693 16694 16695 16696 16697 16698 16699 16700 16701 16702 16703 16704 16705 16706 16707 16708 16709 16710 16711 16712 16713 16714 16715 16716 16717 16718 16719 16720 16721 16722 16723 16724 16725 16726 16727 16728 16729 16730 16731 16732 16733 16734 16735 16736 16737 16738 16739 16740 16741 16742 16743 16744 16745 16746 16747 16748 16749 16750 16751 16752 16753 16754 16755 16756 16757 16758 16759 16760 16761 16762 16763 16764 16765 16766 16767 16768 16769 16770 16771 16772 16773 16774 16775 16776 16777 16778 16779 16780 16781 16782 16783 16784 16785 16786 16787 16788 16789 16790 16791 16792 16793 16794 16795 16796 16797 16798 16799 16800 16801 16802 16803 16804 16805 16806 16807 16808 16809 16810 16811 16812 16813 16814 16815 16816 16817 16818 16819 16820 16821 16822 16823 16824 16825 16826 16827 16828 16829 16830 16831 16832 16833 16834 16835 16836 16837 16838 16839 16840 16841 16842 16843 16844 16845 16846 16847 16848 16849 16850 16851 16852 16853 16854 16855 16856 16857 16858 16859 16860 16861 16862 16863 16864 16865 16866 16867 16868 16869 16870 16871 16872 16873 16874 16875 16876 16877 16878 16879 16880 16881 16882 16883 16884 16885 16886 16887 16888 16889 16890 16891 16892 16893 16894 16895 16896 16897 16898 16899 16900 16901 16902 16903 16904 16905 16906 16907 16908 16909 16910 16911 16912 16913 16914 16915 16916 16917 16918 16919 16920 16921 16922 16923 16924 16925 16926 16927 16928 16929 16930 16931 16932 16933 16934 16935 16936 16937 16938 16939 16940 16941 16942 16943 16944 16945 16946 16947 16948 16949 16950 16951 16952 16953 16954 16955 16956 16957 16958 16959 16960 16961 16962 16963 16964 16965 16966 16967 16968 16969 16970 16971 16972 16973 16974 16975 16976 16977 16978 16979 16980 16981 16982 16983 16984 16985 16986 16987 16988 16989 16990 16991 16992 16993 16994 16995 16996 16997 16998 16999 17000 17001 17002 17003 17004 17005 17006 17007 17008 17009 17010 17011 17012 17013 17014 17015 17016 17017 17018 17019 17020 17021 17022 17023 17024 17025 17026 17027 17028 17029 17030 17031 17032 17033 17034 17035 17036 17037 17038 17039 17040 17041 17042 17043 17044 17045 17046 17047 17048 17049 17050 17051 17052 17053 17054 17055 17056 17057 17058 17059 17060 17061 17062 17063 17064 17065 17066 17067 17068 17069 17070 17071 17072 17073 17074 17075 17076 17077 17078 17079 17080 17081 17082 17083 17084 17085 17086 17087 17088 17089 17090 17091 17092 17093 17094 17095 17096 17097 17098 17099 17100 17101 17102 17103 17104 17105 17106 17107 17108 17109 17110 17111 17112 17113 17114 17115 17116 17117 17118 17119 17120 17121 17122 17123 17124 17125 17126 17127 17128 17129 17130 17131 17132 17133 17134 17135 17136 17137 17138 17139 17140 17141 17142 17143 17144 17145 17146 17147 17148 17149 17150 17151 17152 17153 17154 17155 17156 17157 17158 17159 17160 17161 17162 17163 17164 17165 17166 17167 17168 17169 17170 17171 17172 17173 17174 17175 17176 17177 17178 17179 17180 17181 17182 17183 17184 17185 17186 17187 17188 17189 17190 17191 17192 17193 17194 17195 17196 17197 17198 17199 17200 17201 17202 17203 17204 17205 17206 17207 17208 17209 17210 17211 17212 17213 17214 17215 17216 17217 17218 17219 17220 17221 17222 17223 17224 17225 17226 17227 17228 17229 17230 17231 17232 17233 17234 17235 17236 17237 17238 17239 17240 17241 17242 17243 17244 17245 17246 17247 17248 17249 17250 17251 17252 17253 17254 17255 17256 17257 17258 17259 17260 17261 17262 17263 17264 17265 17266 17267 17268 17269 17270 17271 17272 17273 17274 17275 17276 17277 17278 17279 17280 17281 17282 17283 17284 17285 17286 17287 17288 17289 17290 17291 17292 17293 17294 17295 17296 17297 17298 17299 17300 17301 17302 17303 17304 17305 17306 17307 17308 17309 17310 17311 17312 17313 17314 17315 17316 17317 17318 17319 17320 17321 17322 17323 17324 17325 17326 17327 17328 17329 17330 17331 17332 17333 17334 17335 17336 17337 17338 17339 17340 17341 17342 17343 17344 17345 17346 17347 17348 17349 17350 17351 17352 17353 17354 17355 17356 17357 17358 17359 17360 17361 17362 17363 17364 17365 17366 17367 17368 17369 17370 17371 17372 17373 17374 17375 17376 17377 17378 17379 17380 17381 17382 17383 17384 17385 17386 17387 17388 17389 17390 17391 17392 17393 17394 17395 17396 17397 17398 17399 17400 17401 17402 17403 17404 17405 17406 17407 17408 17409 17410 17411 17412 17413 17414 17415 17416 17417 17418 17419 17420 17421 17422 17423 17424 17425 17426 17427 17428 17429 17430 17431 17432 17433 17434 17435 17436 17437 17438 17439 17440 17441 17442 17443 17444 17445 17446 17447 17448 17449 17450 17451 17452 17453 17454 17455 17456 17457 17458 17459 17460 17461 17462 17463 17464 17465 17466 17467 17468 17469 17470 17471 17472 17473 17474 17475 17476 17477 17478 17479 17480 17481 17482 17483 17484 17485 17486 17487 17488 17489 17490 17491 17492 17493 17494 17495 17496 17497 17498 17499 17500 17501 17502 17503 17504 17505 17506 17507 17508 17509 17510 17511 17512 17513 17514 17515 17516 17517 17518 17519 17520 17521 17522 17523 17524 17525 17526 17527 17528 17529 17530 17531 17532 17533 17534 17535 17536 17537 17538 17539 17540 17541 17542 17543 17544 17545 17546 17547 17548 17549 17550 17551 17552 17553 17554 17555 17556 17557 17558 17559 17560 17561 17562 17563 17564 17565 17566 17567 17568 17569 17570 17571 17572 17573 17574 17575 17576 17577 17578 17579 17580 17581 17582 17583 17584 17585 17586 17587 17588 17589 17590 17591 17592 17593 17594 17595 17596 17597 17598 17599 17600 17601 17602 17603 17604 17605 17606 17607 17608 17609 17610 17611 17612 17613 17614 17615 17616 17617 17618 17619 17620 17621 17622 17623 17624 17625 17626 17627 17628 17629 17630 17631 17632 17633 17634 17635 17636 17637 17638 17639 17640 17641 17642 17643 17644 17645 17646 17647 17648 17649 17650 17651 17652 17653 17654 17655 17656 17657 17658 17659 17660 17661 17662 17663 17664 17665 17666 17667 17668 17669 17670 17671 17672 17673 17674 17675 17676 17677 17678 17679 17680 17681 17682 17683 17684 17685 17686 17687 17688 17689 17690 17691 17692 17693 17694 17695 17696 17697 17698 17699 17700 17701 17702 17703 17704 17705 17706 17707 17708 17709 17710 17711 17712 17713 17714 17715 17716 17717 17718 17719 17720 17721 17722 17723 17724 17725 17726 17727 17728 17729 17730 17731 17732 17733 17734 17735 17736 17737 17738 17739 17740 17741 17742 17743 17744 17745 17746 17747 17748 17749 17750 17751 17752 17753 17754 17755 17756 17757 17758 17759 17760 17761 17762 17763 17764 17765 17766 17767 17768 17769 17770 17771 17772 17773 17774 17775 17776 17777 17778 17779 17780 17781 17782 17783 17784 17785 17786 17787 17788 17789 17790 17791 17792 17793 17794 17795 17796 17797 17798 17799 17800 17801 17802 17803 17804 17805 17806 17807 17808 17809 17810 17811 17812 17813 17814 17815 17816 17817 17818 17819 17820 17821 17822 17823 17824 17825 17826 17827 17828 17829 17830 17831 17832 17833 17834 17835 17836 17837 17838 17839 17840 17841 17842 17843 17844 17845 17846 17847 17848 17849 17850 17851 17852 17853 17854 17855 17856 17857 17858 17859 17860 17861 17862 17863 17864 17865 17866 17867 17868 17869 17870 17871 17872 17873 17874 17875 17876 17877 17878 17879 17880 17881 17882 17883 17884 17885 17886 17887 17888 17889 17890 17891 17892 17893 17894 17895 17896 17897 17898 17899 17900 17901 17902 17903 17904 17905 17906 17907 17908 17909 17910 17911 17912 17913 17914 17915 17916 17917 17918 17919 17920 17921 17922 17923 17924 17925 17926 17927 17928 17929 17930 17931 17932 17933 17934 17935 17936 17937 17938 17939 17940 17941 17942 17943 17944 17945 17946 17947 17948 17949 17950 17951 17952 17953 17954 17955 17956 17957 17958 17959 17960 17961 17962 17963 17964 17965 17966 17967 17968 17969 17970 17971 17972 17973 17974 17975 17976 17977 17978 17979 17980 17981 17982 17983 17984 17985 17986 17987 17988 17989 17990 17991 17992 17993 17994 17995 17996 17997 17998 17999 18000 18001 18002 18003 18004 18005 18006 18007 18008 18009 18010 18011 18012 18013 18014 18015 18016 18017 18018 18019 18020 18021 18022 18023 18024 18025 18026 18027 18028 18029 18030 18031 18032 18033 18034 18035 18036 18037 18038 18039 18040 18041 18042 18043 18044 18045 18046 18047 18048 18049 18050 18051 18052 18053 18054 18055 18056 18057 18058 18059 18060 18061 18062 18063 18064 18065 18066 18067 18068 18069 18070 18071 18072 18073 18074 18075 18076 18077 18078 18079 18080 18081 18082 18083 18084 18085 18086 18087 18088 18089 18090 18091 18092 18093 18094 18095 18096 18097 18098 18099 18100 18101 18102 18103 18104 18105 18106 18107 18108 18109 18110 18111 18112 18113 18114 18115 18116 18117 18118 18119 18120 18121 18122 18123 18124 18125 18126 18127 18128 18129 18130 18131 18132 18133 18134 18135 18136 18137 18138 18139 18140 18141 18142 18143 18144 18145 18146 18147 18148 18149 18150 18151 18152 18153 18154 18155 18156 18157 18158 18159 18160 18161 18162 18163 18164 18165 18166 18167 18168 18169 18170 18171 18172 18173 18174 18175 18176 18177 18178 18179 18180 18181 18182 18183 18184 18185 18186 18187 18188 18189 18190 18191 18192 18193 18194 18195 18196 18197 18198 18199 18200 18201 18202 18203 18204 18205 18206 18207 18208 18209 18210 18211 18212 18213 18214 18215 18216 18217 18218 18219 18220 18221 18222 18223 18224 18225 18226 18227 18228 18229 18230 18231 18232 18233 18234 18235 18236 18237 18238 18239 18240 18241 18242 18243 18244 18245 18246 18247 18248 18249 18250 18251 18252 18253 18254 18255 18256 18257 18258 18259 18260 18261 18262 18263 18264 18265 18266 18267 18268 18269 18270 18271 18272 18273 18274 18275 18276 18277 18278 18279 18280 18281 18282 18283 18284 18285 18286 18287 18288 18289 18290 18291 18292 18293 18294 18295 18296 18297 18298 18299 18300 18301 18302 18303 18304 18305 18306 18307 18308 18309 18310 18311 18312 18313 18314 18315 18316 18317 18318 18319 18320 18321 18322 18323 18324 18325 18326 18327 18328 18329 18330 18331 18332 18333 18334 18335 18336 18337 18338 18339 18340 18341 18342 18343 18344 18345 18346 18347 18348 18349 18350 18351 18352 18353 18354 18355 18356 18357 18358 18359 18360 18361 18362 18363 18364 18365 18366 18367 18368 18369 18370 18371 18372 18373 18374 18375 18376 18377 18378 18379 18380 18381 18382 18383 18384 18385 18386 18387 18388 18389 18390 18391 18392 18393 18394 18395 18396 18397 18398 18399 18400 18401 18402 18403 18404 18405 18406 18407 18408 18409 18410 18411 18412 18413 18414 18415 18416 18417 18418 18419 18420 18421 18422 18423 18424 18425 18426 18427 18428 18429 18430 18431 18432 18433 18434 18435 18436 18437 18438 18439 18440 18441 18442 18443 18444 18445 18446 18447 18448 18449 18450 18451 18452 18453 18454 18455 18456 18457 18458 18459 18460 18461 18462 18463 18464 18465 18466 18467 18468 18469 18470 18471 18472 18473 18474 18475 18476 18477 18478 18479 18480 18481 18482 18483 18484 18485 18486 18487 18488 18489 18490 18491 18492 18493 18494 18495 18496 18497 18498 18499 18500 18501 18502 18503 18504 18505 18506 18507 18508 18509 18510 18511 18512 18513 18514 18515 18516 18517 18518 18519 18520 18521 18522 18523 18524 18525 18526 18527 18528 18529 18530 18531 18532 18533 18534 18535 18536 18537 18538 18539 18540 18541 18542 18543 18544 18545 18546 18547 18548 18549 18550 18551 18552 18553 18554 18555 18556 18557 18558 18559 18560 18561 18562 18563 18564 18565 18566 18567 18568 18569 18570 18571 18572 18573 18574 18575 18576 18577 18578 18579 18580 18581 18582 18583 18584 18585 18586 18587 18588 18589 18590 18591 18592 18593 18594 18595 18596 18597 18598 18599 18600 18601 18602 18603 18604 18605 18606 18607 18608 18609 18610 18611 18612 18613 18614 18615 18616 18617 18618 18619 18620 18621 18622 18623 18624 18625 18626 18627 18628 18629 18630 18631 18632 18633 18634 18635 18636 18637 18638 18639 18640 18641 18642 18643 18644 18645 18646 18647 18648 18649 18650 18651 18652 18653 18654 18655 18656 18657 18658 18659 18660 18661 18662 18663 18664 18665 18666 18667 18668 18669 18670 18671 18672 18673 18674 18675 18676 18677 18678 18679 18680 18681 18682 18683 18684 18685 18686 18687 18688 18689 18690 18691 18692 18693 18694 18695 18696 18697 18698 18699 18700 18701 18702 18703 18704 18705 18706 18707 18708 18709 18710 18711 18712 18713 18714 18715 18716 18717 18718 18719 18720 18721 18722 18723 18724 18725 18726 18727 18728 18729 18730 18731 18732 18733 18734 18735 18736 18737 18738 18739 18740 18741 18742 18743 18744 18745 18746 18747 18748 18749 18750 18751 18752 18753 18754 18755 18756 18757 18758 18759 18760 18761 18762 18763 18764 18765 18766 18767 18768 18769 18770 18771 18772 18773 18774 18775 18776 18777 18778 18779 18780 18781 18782 18783 18784 18785 18786 18787 18788 18789 18790 18791 18792 18793 18794 18795 18796 18797 18798 18799 18800 18801 18802 18803 18804 18805 18806 18807 18808 18809 18810 18811 18812 18813 18814 18815 18816 18817 18818 18819 18820 18821 18822 18823 18824 18825 18826 18827 18828 18829 18830 18831 18832 18833 18834 18835 18836 18837 18838 18839 18840 18841 18842 18843 18844 18845 18846 18847 18848 18849 18850 18851 18852 18853 18854 18855 18856 18857 18858 18859 18860 18861 18862 18863 18864 18865 18866 18867 18868 18869 18870 18871 18872 18873 18874 18875 18876 18877 18878 18879 18880 18881 18882 18883 18884 18885 18886 18887 18888 18889 18890 18891 18892 18893 18894 18895 18896 18897 18898 18899 18900 18901 18902 18903 18904 18905 18906 18907 18908 18909 18910 18911 18912 18913 18914 18915 18916 18917 18918 18919 18920 18921 18922 18923 18924 18925 18926 18927 18928 18929 18930 18931 18932 18933 18934 18935 18936 18937 18938 18939 18940 18941 18942 18943 18944 18945 18946 18947 18948 18949 18950 18951 18952 18953 18954 18955 18956 18957 18958 18959 18960 18961 18962 18963 18964 18965 18966 18967 18968 18969 18970 18971 18972 18973 18974 18975 18976 18977 18978 18979 18980 18981 18982 18983 18984 18985 18986 18987 18988 18989 18990 18991 18992 18993 18994 18995 18996 18997 18998 18999 19000 19001 19002 19003 19004 19005 19006 19007 19008 19009 19010 19011 19012 19013 19014 19015 19016 19017 19018 19019 19020 19021 19022 19023 19024 19025 19026 19027 19028 19029 19030 19031 19032 19033 19034 19035 19036 19037 19038 19039 19040 19041 19042 19043 19044 19045 19046 19047 19048 19049 19050 19051 19052 19053 19054 19055 19056 19057 19058 19059 19060 19061 19062 19063 19064 19065 19066 19067 19068 19069 19070 19071 19072 19073 19074 19075 19076 19077 19078 19079 19080 19081 19082 19083 19084 19085 19086 19087 19088 19089 19090 19091 19092 19093 19094 19095 19096 19097 19098 19099 19100 19101 19102 19103 19104 19105 19106 19107 19108 19109 19110 19111 19112 19113 19114 19115 19116 19117 19118 19119 19120 19121 19122 19123 19124 19125 19126 19127 19128 19129 19130 19131 19132 19133 19134 19135 19136 19137 19138 19139 19140 19141 19142 19143 19144 19145 19146 19147 19148 19149 19150 19151 19152 19153 19154 19155 19156 19157 19158 19159 19160 19161 19162 19163 19164 19165 19166 19167 19168 19169 19170 19171 19172 19173 19174 19175 19176 19177 19178 19179 19180 19181 19182 19183 19184 19185 19186 19187 19188 19189 19190 19191 19192 19193 19194 19195 19196 19197 19198 19199 19200 19201 19202 19203 19204 19205 19206 19207 19208 19209 19210 19211 19212 19213 19214 19215 19216 19217 19218 19219 19220 19221 19222 19223 19224 19225 19226 19227 19228 19229 19230 19231 19232 19233 19234 19235 19236 19237 19238 19239 19240 19241 19242 19243 19244 19245 19246 19247 19248 19249 19250 19251 19252 19253 19254 19255 19256 19257 19258 19259 19260 19261 19262 19263 19264 19265 19266 19267 19268 19269 19270 19271 19272 19273 19274 19275 19276 19277 19278 19279 19280 19281 19282 19283 19284 19285 19286 19287 19288 19289 19290 19291 19292 19293 19294 19295 19296 19297 19298 19299 19300 19301 19302 19303 19304 19305 19306 19307 19308 19309 19310 19311 19312 19313 19314 19315 19316 19317 19318 19319 19320 19321 19322 19323 19324 19325 19326 19327 19328 19329 19330 19331 19332 19333 19334 19335 19336 19337 19338 19339 19340 19341 19342 19343 19344 19345 19346 19347 19348 19349 19350 19351 19352 19353 19354 19355 19356 19357 19358 19359 19360 19361 19362 19363 19364 19365 19366 19367 19368 19369 19370 19371 19372 19373 19374 19375 19376 19377 19378 19379 19380 19381 19382 19383 19384 19385 19386 19387 19388 19389 19390 19391 19392 19393 19394 19395 19396 19397 19398 19399 19400 19401 19402 19403 19404 19405 19406 19407 19408 19409 19410 19411 19412 19413 19414 19415 19416 19417 19418 19419 19420 19421 19422 19423 19424 19425 19426 19427 19428 19429 19430 19431 19432 19433 19434 19435 19436 19437 19438 19439 19440 19441 19442 19443 19444 19445 19446 19447 19448 19449 19450 19451 19452 19453 19454 19455 19456 19457 19458 19459 19460 19461 19462 19463 19464 19465 19466 19467 19468 19469 19470 19471 19472 19473 19474 19475 19476 19477 19478 19479 19480 19481 19482 19483 19484 19485 19486 19487 19488 19489 19490 19491 19492 19493 19494 19495 19496 19497 19498 19499 19500 19501 19502 19503 19504 19505 19506 19507 19508 19509 19510 19511 19512 19513 19514 19515 19516 19517 19518 19519 19520 19521 19522 19523 19524 19525 19526 19527 19528 19529 19530 19531 19532 19533 19534 19535 19536 19537 19538 19539 19540 19541 19542 19543 19544 19545 19546 19547 19548 19549 19550 19551 19552 19553 19554 19555 19556 19557 19558 19559 19560 19561 19562 19563 19564 19565 19566 19567 19568 19569 19570 19571 19572 19573 19574 19575 19576 19577 19578 19579 19580 19581 19582 19583 19584 19585 19586 19587 19588 19589 19590 19591 19592 19593 19594 19595 19596 19597 19598 19599 19600 19601 19602 19603 19604 19605 19606 19607 19608 19609 19610 19611 19612 19613 19614 19615 19616 19617 19618 19619 19620 19621 19622 19623 19624 19625 19626 19627 19628 19629 19630 19631 19632 19633 19634 19635 19636 19637 19638 19639 19640 19641 19642 19643 19644 19645 19646 19647 19648 19649 19650 19651 19652 19653 19654 19655 19656 19657 19658 19659 19660 19661 19662 19663 19664 19665 19666 19667 19668 19669 19670 19671 19672 19673 19674 19675 19676 19677 19678 19679 19680 19681 19682 19683 19684 19685 19686 19687 19688 19689 19690 19691 19692 19693 19694 19695 19696 19697 19698 19699 19700 19701 19702 19703 19704 19705 19706 19707 19708 19709 19710 19711 19712 19713 19714 19715 19716 19717 19718 19719 19720 19721 19722 19723 19724 19725 19726 19727 19728 19729 19730 19731 19732 19733 19734 19735 19736 19737 19738 19739 19740 19741 19742 19743 19744 19745 19746 19747 19748 19749 19750 19751 19752 19753 19754 19755 19756 19757 19758 19759 19760 19761 19762 19763 19764 19765 19766 19767 19768 19769 19770 19771 19772 19773 19774 19775 19776 19777 19778 19779 19780 19781 19782 19783 19784 19785 19786 19787 19788 19789 19790 19791 19792 19793 19794 19795 19796 19797 19798 19799 19800 19801 19802 19803 19804 19805 19806 19807 19808 19809 19810 19811 19812 19813 19814 19815 19816 19817 19818 19819 19820 19821 19822 19823 19824 19825 19826 19827 19828 19829 19830 19831 19832 19833 19834 19835 19836 19837 19838 19839 19840 19841 19842 19843 19844 19845 19846 19847 19848 19849 19850 19851 19852 19853 19854 19855 19856 19857 19858 19859 19860 19861 19862 19863 19864 19865 19866 19867 19868 19869 19870 19871 19872 19873 19874 19875 19876 19877 19878 19879 19880 19881 19882 19883 19884 19885 19886 19887 19888 19889 19890 19891 19892 19893 19894 19895 19896 19897 19898 19899 19900 19901 19902 19903 19904 19905 19906 19907 19908 19909 19910 19911 19912 19913 19914 19915 19916 19917 19918 19919 19920 19921 19922 19923 19924 19925 19926 19927 19928 19929 19930 19931 19932 19933 19934 19935 19936 19937 19938 19939 19940 19941 19942 19943 19944 19945 19946 19947 19948 19949 19950 19951 19952 19953 19954 19955 19956 19957 19958 19959 19960 19961 19962 19963 19964 19965 19966 19967 19968 19969 19970 19971 19972 19973 19974 19975 19976 19977 19978 19979 19980 19981 19982 19983 19984 19985 19986 19987 19988 19989 19990 19991 19992 19993 19994 19995 19996 19997 19998 19999 20000 20001 20002 20003 20004 20005 20006 20007 20008 20009 20010 20011 20012 20013 20014 20015 20016 20017 20018 20019 20020 20021 20022 20023 20024 20025 20026 20027 20028 20029 20030 20031 20032 20033 20034 20035 20036 20037 20038 20039 20040 20041 20042 20043 20044 20045 20046 20047 20048 20049 20050 20051 20052 20053 20054 20055 20056 20057 20058 20059 20060 20061 20062 20063 20064 20065 20066 20067 20068 20069 20070 20071 20072 20073 20074 20075 20076 20077 20078 20079 20080 20081 20082 20083 20084 20085 20086 20087 20088 20089 20090 20091 20092 20093 20094 20095 20096 20097 20098 20099 20100 20101 20102 20103 20104 20105 20106 20107 20108 20109 20110 20111 20112 20113 20114 20115 20116 20117 20118 20119 20120 20121 20122 20123 20124 20125 20126 20127 20128 20129 20130 20131 20132 20133 20134 20135 20136 20137 20138 20139 20140 20141 20142 20143 20144 20145 20146 20147 20148 20149 20150 20151 20152 20153 20154 20155 20156 20157 20158 20159 20160 20161 20162 20163 20164 20165 20166 20167 20168 20169 20170 20171 20172 20173 20174 20175 20176 20177 20178 20179 20180 20181 20182 20183 20184 20185 20186 20187 20188 20189 20190 20191 20192 20193 20194 20195 20196 20197 20198 20199 20200 20201 20202 20203 20204 20205 20206 20207 20208 20209 20210 20211 20212 20213 20214 20215 20216 20217 20218 20219 20220 20221 20222 20223 20224 20225 20226 20227 20228 20229 20230 20231 20232 20233 20234 20235 20236 20237 20238 20239 20240 20241 20242 20243 20244 20245 20246 20247 20248 20249 20250 20251 20252 20253 20254 20255 20256 20257 20258 20259 20260 20261 20262 20263 20264 20265 20266 20267 20268 20269 20270 20271 20272 20273 20274 20275 20276 20277 20278 20279 20280 20281 20282 20283 20284 20285 20286 20287 20288 20289 20290 20291 20292 20293 20294 20295 20296 20297 20298 20299 20300 20301 20302 20303 20304 20305 20306 20307 20308 20309 20310 20311 20312 20313 20314 20315 20316 20317 20318 20319 20320 20321 20322 20323 20324 20325 20326 20327 20328 20329 20330 20331 20332 20333 20334 20335 20336 20337 20338 20339 20340 20341 20342 20343 20344 20345 20346 20347 20348 20349 20350 20351 20352 20353 20354 20355 20356 20357 20358 20359 20360 20361 20362 20363 20364 20365 20366 20367 20368 20369 20370 20371 20372 20373 20374 20375 20376 20377 20378 20379 20380 20381 20382 20383 20384 20385 20386 20387 20388 20389 20390 20391 20392 20393 20394 20395 20396 20397 20398 20399 20400 20401 20402 20403 20404 20405 20406 20407 20408 20409 20410 20411 20412 20413 20414 20415 20416 20417 20418 20419 20420 20421 20422 20423 20424 20425 20426 20427 20428 20429 20430 20431 20432 20433 20434 20435 20436 20437 20438 20439 20440 20441 20442 20443 20444 20445 20446 20447 20448 20449 20450 20451 20452 20453 20454 20455 20456 20457 20458 20459 20460 20461 20462 20463 20464 20465 20466 20467 20468 20469 20470 20471 20472 20473 20474 20475 20476 20477 20478 20479 20480 20481 20482 20483 20484 20485 20486 20487 20488 20489 20490 20491 20492 20493 20494 20495 20496 20497 20498 20499 20500 20501 20502 20503 20504 20505 20506 20507 20508 20509 20510 20511 20512 20513 20514 20515 20516 20517 20518 20519 20520 20521 20522 20523 20524 20525 20526 20527 20528 20529 20530 20531 20532 20533 20534 20535 20536 20537 20538 20539 20540 20541 20542 20543 20544 20545 20546 20547 20548 20549 20550 20551 20552 20553 20554 20555 20556 20557 20558 20559 20560 20561 20562 20563 20564 20565 20566 20567 20568 20569 20570 20571 20572 20573 20574 20575 20576 20577 20578 20579 20580 20581 20582 20583 20584 20585 20586 20587 20588 20589 20590 20591 20592 20593 20594 20595 20596 20597 20598 20599 20600 20601 20602 20603 20604 20605 20606 20607 20608 20609 20610 20611 20612 20613 20614 20615 20616 20617 20618 20619 20620 20621 20622 20623 20624 20625 20626 20627 20628 20629 20630 20631 20632 20633 20634 20635 20636 20637 20638 20639 20640 20641 20642 20643 20644 20645 20646 20647 20648 20649 20650 20651 20652 20653 20654 20655 20656 20657 20658 20659 20660 20661 20662 20663 20664 20665 20666 20667 20668 20669 20670 20671 20672 20673 20674 20675 20676 20677 20678 20679 20680 20681 20682 20683 20684 20685 20686 20687 20688 20689 20690 20691 20692 20693 20694 20695 20696 20697 20698 20699 20700 20701 20702 20703 20704 20705 20706 20707 20708 20709 20710 20711 20712 20713 20714 20715 20716 20717 20718 20719 20720 20721 20722 20723 20724 20725 20726 20727 20728 20729 20730 20731 20732 20733 20734 20735 20736 20737 20738 20739 20740 20741 20742 20743 20744 20745 20746 20747 20748 20749 20750 20751 20752 20753 20754 20755 20756 20757 20758 20759 20760 20761 20762 20763 20764 20765 20766 20767 20768 20769 20770 20771 20772 20773 20774 20775 20776 20777 20778 20779 20780 20781 20782 20783 20784 20785 20786 20787 20788 20789 20790 20791 20792 20793 20794 20795 20796 20797 20798 20799 20800 20801 20802 20803 20804 20805 20806 20807 20808 20809 20810 20811 20812 20813 20814 20815 20816 20817 20818 20819 20820 20821 20822 20823 20824 20825 20826 20827 20828 20829 20830 20831 20832 20833 20834 20835 20836 20837 20838 20839 20840 20841 20842 20843 20844 20845 20846 20847 20848 20849 20850 20851 20852 20853 20854 20855 20856 20857 20858 20859 20860 20861 20862 20863 20864 20865 20866 20867 20868 20869 20870 20871 20872 20873 20874 20875 20876 20877 20878 20879 20880 20881 20882 20883 20884 20885 20886 20887 20888 20889 20890 20891 20892 20893 20894 20895 20896 20897 20898 20899 20900 20901 20902 20903 20904 20905 20906 20907 20908 20909 20910 20911 20912 20913 20914 20915 20916 20917 20918 20919 20920 20921 20922 20923 20924 20925 20926 20927 20928 20929 20930 20931 20932 20933 20934 20935 20936 20937 20938 20939 20940 20941 20942 20943 20944 20945 20946 20947 20948 20949 20950 20951 20952 20953 20954 20955 20956 20957 20958 20959 20960 20961 20962 20963 20964 20965 20966 20967 20968 20969 20970 20971 20972 20973 20974 20975 20976 20977 20978 20979 20980 20981 20982 20983 20984 20985 20986 20987 20988 20989 20990 20991 20992 20993 20994 20995 20996 20997 20998 20999 21000 21001 21002 21003 21004 21005 21006 21007 21008 21009 21010 21011 21012 21013 21014 21015 21016 21017 21018 21019 21020 21021 21022 21023 21024 21025 21026 21027 21028 21029 21030 21031 21032 21033 21034 21035 21036 21037 21038 21039 21040 21041 21042 21043 21044 21045 21046 21047 21048 21049 21050 21051 21052 21053 21054 21055 21056 21057 21058 21059 21060 21061 21062 21063 21064 21065 21066 21067 21068 21069 21070 21071 21072 21073 21074 21075 21076 21077 21078 21079 21080 21081 21082 21083 21084 21085 21086 21087 21088 21089 21090 21091 21092 21093 21094 21095 21096 21097 21098 21099 21100 21101 21102 21103 21104 21105 21106 21107 21108 21109 21110 21111 21112 21113 21114 21115 21116 21117 21118 21119 21120 21121 21122 21123 21124 21125 21126 21127 21128 21129 21130 21131 21132 21133 21134 21135 21136 21137 21138 21139 21140 21141 21142 21143 21144 21145 21146 21147 21148 21149 21150 21151 21152 21153 21154 21155 21156 21157 21158 21159 21160 21161 21162 21163 21164 21165 21166 21167 21168 21169 21170 21171 21172 21173 21174 21175 21176 21177 21178 21179 21180 21181 21182 21183 21184 21185 21186 21187 21188 21189 21190 21191 21192 21193 21194 21195 21196 21197 21198 21199 21200 21201 21202 21203 21204 21205 21206 21207 21208 21209 21210 21211 21212 21213 21214 21215 21216 21217 21218 21219 21220 21221 21222 21223 21224 21225 21226 21227 21228 21229 21230 21231 21232 21233 21234 21235 21236 21237 21238 21239 21240 21241 21242 21243 21244 21245 21246 21247 21248 21249 21250 21251 21252 21253 21254 21255 21256 21257 21258 21259 21260 21261 21262 21263 21264 21265 21266 21267 21268 21269 21270 21271 21272 21273 21274 21275 21276 21277 21278 21279 21280 21281 21282 21283 21284 21285 21286 21287 21288 21289 21290 21291 21292 21293 21294 21295 21296 21297 21298 21299 21300 21301 21302 21303 21304 21305 21306 21307 21308 21309 21310 21311 21312 21313 21314 21315 21316 21317 21318 21319 21320 21321 21322 21323 21324 21325 21326 21327 21328 21329 21330 21331 21332 21333 21334 21335 21336 21337 21338 21339 21340 21341 21342 21343 21344 21345 21346 21347 21348 21349 21350 21351 21352 21353 21354 21355 21356 21357 21358 21359 21360 21361 21362 21363 21364 21365 21366 21367 21368 21369 21370 21371 21372 21373 21374 21375 21376 21377 21378 21379 21380 21381 21382 21383 21384 21385 21386 21387 21388 21389 21390 21391 21392 21393 21394 21395 21396 21397 21398 21399 21400 21401 21402 21403 21404 21405 21406 21407 21408 21409 21410 21411 21412 21413 21414 21415 21416 21417 21418 21419 21420 21421 21422 21423 21424 21425 21426 21427 21428 21429 21430 21431 21432 21433 21434 21435 21436 21437 21438 21439 21440 21441 21442 21443 21444 21445 21446 21447 21448 21449 21450 21451 21452 21453 21454 21455 21456 21457 21458 21459 21460 21461 21462 21463 21464 21465 21466 21467 21468 21469 21470 21471 21472 21473 21474 21475 21476 21477 21478 21479 21480 21481 21482 21483 21484 21485 21486 21487 21488 21489 21490 21491 21492 21493 21494 21495 21496 21497 21498 21499 21500 21501 21502 21503 21504 21505 21506 21507 21508 21509 21510 21511 21512 21513 21514 21515 21516 21517 21518 21519 21520 21521 21522 21523 21524 21525 21526 21527 21528 21529 21530 21531 21532 21533 21534 21535 21536 21537 21538 21539 21540 21541 21542 21543 21544 21545 21546 21547 21548 21549 21550 21551 21552 21553 21554 21555 21556 21557 21558 21559 21560 21561 21562 21563 21564 21565 21566 21567 21568 21569 21570 21571 21572 21573 21574 21575 21576 21577 21578 21579 21580 21581 21582 21583 21584 21585 21586 21587 21588 21589 21590 21591 21592 21593 21594 21595 21596 21597 21598 21599 21600 21601 21602 21603 21604 21605 21606 21607 21608 21609 21610 21611 21612 21613 21614 21615 21616 21617 21618 21619 21620 21621 21622 21623 21624 21625 21626 21627 21628 21629 21630 21631 21632 21633 21634 21635 21636 21637 21638 21639 21640 21641 21642 21643 21644 21645 21646 21647 21648 21649 21650 21651 21652 21653 21654 21655 21656 21657 21658 21659 21660 21661 21662 21663 21664 21665 21666 21667 21668 21669 21670 21671 21672 21673 21674 21675 21676 21677 21678 21679 21680 21681 21682 21683 21684 21685 21686 21687 21688 21689 21690 21691 21692 21693 21694 21695 21696 21697 21698 21699 21700 21701 21702 21703 21704 21705 21706 21707 21708 21709 21710 21711 21712 21713 21714 21715 21716 21717 21718 21719 21720 21721 21722 21723 21724 21725 21726 21727 21728 21729 21730 21731 21732 21733 21734 21735 21736 21737 21738 21739 21740 21741 21742 21743 21744 21745 21746 21747 21748 21749 21750 21751 21752 21753 21754 21755 21756 21757 21758 21759 21760 21761 21762 21763 21764 21765 21766 21767 21768 21769 21770 21771 21772 21773 21774 21775 21776 21777 21778 21779 21780 21781 21782 21783 21784 21785 21786 21787 21788 21789 21790 21791 21792 21793 21794 21795 21796 21797 21798 21799 21800 21801 21802 21803 21804 21805 21806 21807 21808 21809 21810 21811 21812 21813 21814 21815 21816 21817 21818 21819 21820 21821 21822 21823 21824 21825 21826 21827 21828 21829 21830 21831 21832 21833 21834 21835 21836 21837 21838 21839 21840 21841 21842 21843 21844 21845 21846 21847 21848 21849 21850 21851 21852 21853 21854 21855 21856 21857 21858 21859 21860 21861 21862 21863 21864 21865 21866 21867 21868 21869 21870 21871 21872 21873 21874 21875 21876 21877 21878 21879 21880 21881 21882 21883 21884 21885 21886 21887 21888 21889 21890 21891 21892 21893 21894 21895 21896 21897 21898 21899 21900 21901 21902 21903 21904 21905 21906 21907 21908 21909 21910 21911 21912 21913 21914 21915 21916 21917 21918 21919 21920 21921 21922 21923 21924 21925 21926 21927 21928 21929 21930 21931 21932 21933 21934 21935 21936 21937 21938 21939 21940 21941 21942 21943 21944 21945 21946 21947 21948 21949 21950 21951 21952 21953 21954 21955 21956 21957 21958 21959 21960 21961 21962 21963 21964 21965 21966 21967 21968 21969 21970 21971 21972 21973 21974 21975 21976 21977 21978 21979 21980 21981 21982 21983 21984 21985 21986 21987 21988 21989 21990 21991 21992 21993 21994 21995 21996 21997 21998 21999 22000 22001 22002 22003 22004 22005 22006 22007 22008 22009 22010 22011 22012 22013 22014 22015 22016 22017 22018 22019 22020 22021 22022 22023 22024 22025 22026 22027 22028 22029 22030 22031 22032 22033 22034 22035 22036 22037 22038 22039 22040 22041 22042 22043 22044 22045 22046 22047 22048 22049 22050 22051 22052 22053 22054 22055 22056 22057 22058 22059 22060 22061 22062 22063 22064 22065 22066 22067 22068 22069 22070 22071 22072 22073 22074 22075 22076 22077 22078 22079 22080 22081 22082 22083 22084 22085 22086 22087 22088 22089 22090 22091 22092 22093 22094 22095 22096 22097 22098 22099 22100 22101 22102 22103 22104 22105 22106 22107 22108 22109 22110 22111 22112 22113 22114 22115 22116 22117 22118 22119 22120 22121 22122 22123 22124 22125 22126 22127 22128 22129 22130 22131 22132 22133 22134 22135 22136 22137 22138 22139 22140 22141 22142 22143 22144 22145 22146 22147 22148 22149 22150 22151 22152 22153 22154 22155 22156 22157 22158 22159 22160 22161 22162 22163 22164 22165 22166 22167 22168 22169 22170 22171 22172 22173 22174 22175 22176 22177 22178 22179 22180 22181 22182 22183 22184 22185 22186 22187 22188 22189 22190 22191 22192 22193 22194 22195 22196 22197 22198 22199 22200 22201 22202 22203 22204 22205 22206 22207 22208 22209 22210 22211 22212 22213 22214 22215 22216 22217 22218 22219 22220 22221 22222 22223 22224 22225 22226 22227 22228 22229 22230 22231 22232 22233 22234 22235 22236 22237 22238 22239 22240 22241 22242 22243 22244 22245 22246 22247 22248 22249 22250 22251 22252 22253 22254 22255 22256 22257 22258 22259 22260 22261 22262 22263 22264 22265 22266 22267 22268 22269 22270 22271 22272 22273 22274 22275 22276 22277 22278 22279 22280 22281 22282 22283 22284 22285 22286 22287 22288 22289 22290 22291 22292 22293 22294 22295 22296 22297 22298 22299 22300 22301 22302 22303 22304 22305 22306 22307 22308 22309 22310 22311 22312 22313 22314 22315 22316 22317 22318 22319 22320 22321 22322 22323 22324 22325 22326 22327 22328 22329 22330 22331 22332 22333 22334 22335 22336 22337 22338 22339 22340 22341 22342 22343 22344 22345 22346 22347 22348 22349 22350 22351 22352 22353 22354 22355 22356 22357 22358 22359 22360 22361 22362 22363 22364 22365 22366 22367 22368 22369 22370 22371 22372 22373 22374 22375 22376 22377 22378 22379 22380 22381 22382 22383 22384 22385 22386 22387 22388 22389 22390 22391 22392 22393 22394 22395 22396 22397 22398 22399 22400 22401 22402 22403 22404 22405 22406 22407 22408 22409 22410 22411 22412 22413 22414 22415 22416 22417 22418 22419 22420 22421 22422 22423 22424 22425 22426 22427 22428 22429 22430 22431 22432 22433 22434 22435 22436 22437 22438 22439 22440 22441 22442 22443 22444 22445 22446 22447 22448 22449 22450 22451 22452 22453 22454 22455 22456 22457 22458 22459 22460 22461 22462 22463 22464 22465 22466 22467 22468 22469 22470 22471 22472 22473 22474 22475 22476 22477 22478 22479 22480 22481 22482 22483 22484 22485 22486 22487 22488 22489 22490 22491 22492 22493 22494 22495 22496 22497 22498 22499 22500 22501 22502 22503 22504 22505 22506 22507 22508 22509 22510 22511 22512 22513 22514 22515 22516 22517 22518 22519 22520 22521 22522 22523 22524 22525 22526 22527 22528 22529 22530 22531 22532 22533 22534 22535 22536 22537 22538 22539 22540 22541 22542 22543 22544 22545 22546 22547 22548 22549 22550 22551 22552 22553 22554 22555 22556 22557 22558 22559 22560 22561 22562 22563 22564 22565 22566 22567 22568 22569 22570 22571 22572 22573 22574 22575 22576 22577 22578 22579 22580 22581 22582 22583 22584 22585 22586 22587 22588 22589 22590 22591 22592 22593 22594 22595 22596 22597 22598 22599 22600 22601 22602 22603 22604 22605 22606 22607 22608 22609 22610 22611 22612 22613 22614 22615 22616 22617 22618 22619 22620 22621 22622 22623 22624 22625 22626 22627 22628 22629 22630 22631 22632 22633 22634 22635 22636 22637 22638 22639 22640 22641 22642 22643 22644 22645 22646 22647 22648 22649 22650 22651 22652 22653 22654 22655 22656 22657 22658 22659 22660 22661 22662 22663 22664 22665 22666 22667 22668 22669 22670 22671 22672 22673 22674 22675 22676 22677 22678 22679 22680 22681 22682 22683 22684 22685 22686 22687 22688 22689 22690 22691 22692 22693 22694 22695 22696 22697 22698 22699 22700 22701 22702 22703 22704 22705 22706 22707 22708 22709 22710 22711 22712 22713 22714 22715 22716 22717 22718 22719 22720 22721 22722 22723 22724 22725 22726 22727 22728 22729 22730 22731 22732 22733 22734 22735 22736 22737 22738 22739 22740 22741 22742 22743 22744 22745 22746 22747 22748 22749 22750 22751 22752 22753 22754 22755 22756 22757 22758 22759 22760 22761 22762 22763 22764 22765 22766 22767 22768 22769 22770 22771 22772 22773 22774 22775 22776 22777 22778 22779 22780 22781 22782 22783 22784 22785 22786 22787 22788 22789 22790 22791 22792 22793 22794 22795 22796 22797 22798 22799 22800 22801 22802 22803 22804 22805 22806 22807 22808 22809 22810 22811 22812 22813 22814 22815 22816 22817 22818 22819 22820 22821 22822 22823 22824 22825 22826 22827 22828 22829 22830 22831 22832 22833 22834 22835 22836 22837 22838 22839 22840 22841 22842 22843 22844 22845 22846 22847 22848 22849 22850 22851 22852 22853 22854 22855 22856 22857 22858 22859 22860 22861 22862 22863 22864 22865 22866 22867 22868 22869 22870 22871 22872 22873 22874 22875 22876 22877 22878 22879 22880 22881 22882 22883 22884 22885 22886 22887 22888 22889 22890 22891 22892 22893 22894 22895 22896 22897 22898 22899 22900 22901 22902 22903 22904 22905 22906 22907 22908 22909 22910 22911 22912 22913 22914 22915 22916 22917 22918 22919 22920 22921 22922 22923 22924 22925 22926 22927 22928 22929 22930 22931 22932 22933 22934 22935 22936 22937 22938 22939 22940 22941 22942 22943 22944 22945 22946 22947 22948 22949 22950 22951 22952 22953 22954 22955 22956 22957 22958 22959 22960 22961 22962 22963 22964 22965 22966 22967 22968 22969 22970 22971 22972 22973 22974 22975 22976 22977 22978 22979 22980 22981 22982 22983 22984 22985 22986 22987 22988 22989 22990 22991 22992 22993 22994 22995 22996 22997 22998 22999 23000 23001 23002 23003 23004 23005 23006 23007 23008 23009 23010 23011 23012 23013 23014 23015 23016 23017 23018 23019 23020 23021 23022 23023 23024 23025 23026 23027 23028 23029 23030 23031 23032 23033 23034 23035 23036 23037 23038 23039 23040 23041 23042 23043 23044 23045 23046 23047 23048 23049 23050 23051 23052 23053 23054 23055 23056 23057 23058 23059 23060 23061 23062 23063 23064 23065 23066 23067 23068 23069 23070 23071 23072 23073 23074 23075 23076 23077 23078 23079 23080 23081 23082 23083 23084 23085 23086 23087 23088 23089 23090 23091 23092 23093 23094 23095 23096 23097 23098 23099 23100 23101 23102 23103 23104 23105 23106 23107 23108 23109 23110 23111 23112 23113 23114 23115 23116 23117 23118 23119 23120 23121 23122 23123 23124 23125 23126 23127 23128 23129 23130 23131 23132 23133 23134 23135 23136 23137 23138 23139 23140 23141 23142 23143 23144 23145 23146 23147 23148 23149 23150 23151 23152 23153 23154 23155 23156 23157 23158 23159 23160 23161 23162 23163 23164 23165 23166 23167 23168 23169 23170 23171 23172 23173 23174 23175 23176 23177 23178 23179 23180 23181 23182 23183 23184 23185 23186 23187 23188 23189 23190 23191 23192 23193 23194 23195 23196 23197 23198 23199 23200 23201 23202 23203 23204 23205 23206 23207 23208 23209 23210 23211 23212 23213 23214 23215 23216 23217 23218 23219 23220 23221 23222 23223 23224 23225 23226 23227 23228 23229 23230 23231 23232 23233 23234 23235 23236 23237 23238 23239 23240 23241 23242 23243 23244 23245 23246 23247 23248 23249 23250 23251 23252 23253 23254 23255 23256 23257 23258 23259 23260 23261 23262 23263 23264 23265 23266 23267 23268 23269 23270 23271 23272 23273 23274 23275 23276 23277 23278 23279 23280 23281 23282 23283 23284 23285 23286 23287 23288 23289 23290 23291 23292 23293 23294 23295 23296 23297 23298 23299 23300 23301 23302 23303 23304 23305 23306 23307 23308 23309 23310 23311 23312 23313 23314 23315 23316 23317 23318 23319 23320 23321 23322 23323 23324 23325 23326 23327 23328 23329 23330 23331 23332 23333 23334 23335 23336 23337 23338 23339 23340 23341 23342 23343 23344 23345 23346 23347 23348 23349 23350 23351 23352 23353 23354 23355 23356 23357 23358 23359 23360 23361 23362 23363 23364 23365 23366 23367 23368 23369 23370 23371 23372 23373 23374 23375 23376 23377 23378 23379 23380 23381 23382 23383 23384 23385 23386 23387 23388 23389 23390 23391 23392 23393 23394 23395 23396 23397 23398 23399 23400 23401 23402 23403 23404 23405 23406 23407 23408 23409 23410 23411 23412 23413 23414 23415 23416 23417 23418 23419 23420 23421 23422 23423 23424 23425 23426 23427 23428 23429 23430 23431 23432 23433 23434 23435 23436 23437 23438 23439 23440 23441 23442 23443 23444 23445 23446 23447 23448 23449 23450 23451 23452 23453 23454 23455 23456 23457 23458 23459 23460 23461 23462 23463 23464 23465 23466 23467 23468 23469 23470 23471 23472 23473 23474 23475 23476 23477 23478 23479 23480 23481 23482 23483 23484 23485 23486 23487 23488 23489 23490 23491 23492 23493 23494 23495 23496 23497 23498 23499 23500 23501 23502 23503 23504 23505 23506 23507 23508 23509 23510 23511 23512 23513 23514 23515 23516 23517 23518 23519 23520 23521 23522 23523 23524 23525 23526 23527 23528 23529 23530 23531 23532 23533 23534 23535 23536 23537 23538 23539 23540 23541 23542 23543 23544 23545 23546 23547 23548 23549 23550 23551 23552 23553 23554 23555 23556 23557 23558 23559 23560 23561 23562 23563 23564 23565 23566 23567 23568 23569 23570 23571 23572 23573 23574 23575 23576 23577 23578 23579 23580 23581 23582 23583 23584 23585 23586 23587 23588 23589 23590 23591 23592 23593 23594 23595 23596 23597 23598 23599 23600 23601 23602 23603 23604 23605 23606 23607 23608 23609 23610 23611 23612 23613 23614 23615 23616 23617 23618 23619 23620 23621 23622 23623 23624 23625 23626 23627 23628 23629 23630 23631 23632 23633 23634 23635 23636 23637 23638 23639 23640 23641 23642 23643 23644 23645 23646 23647 23648 23649 23650 23651 23652 23653 23654 23655 23656 23657 23658 23659 23660 23661 23662 23663 23664 23665 23666 23667 23668 23669 23670 23671 23672 23673 23674 23675 23676 23677 23678 23679 23680 23681 23682 23683 23684 23685 23686 23687 23688 23689 23690 23691 23692 23693 23694 23695 23696 23697 23698 23699 23700 23701 23702 23703 23704 23705 23706 23707 23708 23709 23710 23711 23712 23713 23714 23715 23716 23717 23718 23719 23720 23721 23722 23723 23724 23725 23726 23727 23728 23729 23730 23731 23732 23733 23734 23735 23736 23737 23738 23739 23740 23741 23742 23743 23744 23745 23746 23747 23748 23749 23750 23751 23752 23753 23754 23755 23756 23757 23758 23759 23760 23761 23762 23763 23764 23765 23766 23767 23768 23769 23770 23771 23772 23773 23774 23775 23776 23777 23778 23779 23780 23781 23782 23783 23784 23785 23786 23787 23788 23789 23790 23791 23792 23793 23794 23795 23796 23797 23798 23799 23800 23801 23802 23803 23804 23805 23806 23807 23808 23809 23810 23811 23812 23813 23814 23815 23816 23817 23818 23819 23820 23821 23822 23823 23824 23825 23826 23827 23828 23829 23830 23831 23832 23833 23834 23835 23836 23837 23838 23839 23840 23841 23842 23843 23844 23845 23846 23847 23848 23849 23850 23851 23852 23853 23854 23855 23856 23857 23858 23859 23860 23861 23862 23863 23864 23865 23866 23867 23868 23869 23870 23871 23872 23873 23874 23875 23876 23877 23878 23879 23880 23881 23882 23883 23884 23885 23886 23887 23888 23889 23890 23891 23892 23893 23894 23895 23896 23897 23898 23899 23900 23901 23902 23903 23904 23905 23906 23907 23908 23909 23910 23911 23912 23913 23914 23915 23916 23917 23918 23919 23920 23921 23922 23923 23924 23925 23926 23927 23928 23929 23930 23931 23932 23933 23934 23935 23936 23937 23938 23939 23940 23941 23942 23943 23944 23945 23946 23947 23948 23949 23950 23951 23952 23953 23954 23955 23956 23957 23958 23959 23960 23961 23962 23963 23964 23965 23966 23967 23968 23969 23970 23971 23972 23973 23974 23975 23976 23977 23978 23979 23980 23981 23982 23983 23984 23985 23986 23987 23988 23989 23990 23991 23992 23993 23994 23995 23996 23997 23998 23999 24000 24001 24002 24003 24004 24005 24006 24007 24008 24009 24010 24011 24012 24013 24014 24015 24016 24017 24018 24019 24020 24021 24022 24023 24024 24025 24026 24027 24028 24029 24030 24031 24032 24033 24034 24035 24036 24037 24038 24039 24040 24041 24042 24043 24044 24045 24046 24047 24048 24049 24050 24051 24052 24053 24054 24055 24056 24057 24058 24059 24060 24061 24062 24063 24064 24065 24066 24067 24068 24069 24070 24071 24072 24073 24074 24075 24076 24077 24078 24079 24080 24081 24082 24083 24084 24085 24086 24087 24088 24089 24090 24091 24092 24093 24094 24095 24096 24097 24098 24099 24100 24101 24102 24103 24104 24105 24106 24107 24108 24109 24110 24111 24112 24113 24114 24115 24116 24117 24118 24119 24120 24121 24122 24123 24124 24125 24126 24127 24128 24129 24130 24131 24132 24133 24134 24135 24136 24137 24138 24139 24140 24141 24142 24143 24144 24145 24146 24147 24148 24149 24150 24151 24152 24153 24154 24155 24156 24157 24158 24159 24160 24161 24162 24163 24164 24165 24166 24167 24168 24169 24170 24171 24172 24173 24174 24175 24176 24177 24178 24179 24180 24181 24182 24183 24184 24185 24186 24187 24188 24189 24190 24191 24192 24193 24194 24195 24196 24197 24198 24199 24200 24201 24202 24203 24204 24205 24206 24207 24208 24209 24210 24211 24212 24213 24214 24215 24216 24217 24218 24219 24220 24221 24222 24223 24224 24225 24226 24227 24228 24229 24230 24231 24232 24233 24234 24235 24236 24237 24238 24239 24240 24241 24242 24243 24244 24245 24246 24247 24248 24249 24250 24251 24252 24253 24254 24255 24256 24257 24258 24259 24260 24261 24262 24263 24264 24265 24266 24267 24268 24269 24270 24271 24272 24273 24274 24275 24276 24277 24278 24279 24280 24281 24282 24283 24284 24285 24286 24287 24288 24289 24290 24291 24292 24293 24294 24295 24296 24297 24298 24299 24300 24301 24302 24303 24304 24305 24306 24307 24308 24309 24310 24311 24312 24313 24314 24315 24316 24317 24318 24319 24320 24321 24322 24323 24324 24325 24326 24327 24328 24329 24330 24331 24332 24333 24334 24335 24336 24337 24338 24339 24340 24341 24342 24343 24344 24345 24346 24347 24348 24349 24350 24351 24352 24353 24354 24355 24356 24357 24358 24359 24360 24361 24362 24363 24364 24365 24366 24367 24368 24369 24370 24371 24372 24373 24374 24375 24376 24377 24378 24379 24380 24381 24382 24383 24384 24385 24386 24387 24388 24389 24390 24391 24392 24393 24394 24395 24396 24397 24398 24399 24400 24401 24402 24403 24404 24405 24406 24407 24408 24409 24410 24411 24412 24413 24414 24415 24416 24417 24418 24419 24420 24421 24422 24423 24424 24425 24426 24427 24428 24429 24430 24431 24432 24433 24434 24435 24436 24437 24438 24439 24440 24441 24442 24443 24444 24445 24446 24447 24448 24449 24450 24451 24452 24453 24454 24455 24456 24457 24458 24459 24460 24461 24462 24463 24464 24465 24466 24467 24468 24469 24470 24471 24472 24473 24474 24475 24476 24477 24478 24479 24480 24481 24482 24483 24484 24485 24486 24487 24488 24489 24490 24491 24492 24493 24494 24495 24496 24497 24498 24499 24500 24501 24502 24503 24504 24505 24506 24507 24508 24509 24510 24511 24512 24513 24514 24515 24516 24517 24518 24519 24520 24521 24522 24523 24524 24525 24526 24527 24528 24529 24530 24531 24532 24533 24534 24535 24536 24537 24538 24539 24540 24541 24542 24543 24544 24545 24546 24547 24548 24549 24550 24551 24552 24553 24554 24555 24556 24557 24558 24559 24560 24561 24562 24563 24564 24565 24566 24567 24568 24569 24570 24571 24572 24573 24574 24575 24576 24577 24578 24579 24580 24581 24582 24583 24584 24585 24586 24587 24588 24589 24590 24591 24592 24593 24594 24595 24596 24597 24598 24599 24600 24601 24602 24603 24604 24605 24606 24607 24608 24609 24610 24611 24612 24613 24614 24615 24616 24617 24618 24619 24620 24621 24622 24623 24624 24625 24626 24627 24628 24629 24630 24631 24632 24633 24634 24635 24636 24637 24638 24639 24640 24641 24642 24643 24644 24645 24646 24647 24648 24649 24650 24651 24652 24653 24654 24655 24656 24657 24658 24659 24660 24661 24662 24663 24664 24665 24666 24667 24668 24669 24670 24671 24672 24673 24674 24675 24676 24677 24678 24679 24680 24681 24682 24683 24684 24685 24686 24687 24688 24689 24690 24691 24692 24693 24694 24695 24696 24697 24698 24699 24700 24701 24702 24703 24704 24705 24706 24707 24708 24709 24710 24711 24712 24713 24714 24715 24716 24717 24718 24719 24720 24721 24722 24723 24724 24725 24726 24727 24728 24729 24730 24731 24732 24733 24734 24735 24736 24737 24738 24739 24740 24741 24742 24743 24744 24745 24746 24747 24748 24749 24750 24751 24752 24753 24754 24755 24756 24757 24758 24759 24760 24761 24762 24763 24764 24765 24766 24767 24768 24769 24770 24771 24772 24773 24774 24775 24776 24777 24778 24779 24780 24781 24782 24783 24784 24785 24786 24787 24788 24789 24790 24791 24792 24793 24794 24795 24796 24797 24798 24799 24800 24801 24802 24803 24804 24805 24806 24807 24808 24809 24810 24811 24812 24813 24814 24815 24816 24817 24818 24819 24820 24821 24822 24823 24824 24825 24826 24827 24828 24829 24830 24831 24832 24833 24834 24835 24836 24837 24838 24839 24840 24841 24842 24843 24844 24845 24846 24847 24848 24849 24850 24851 24852 24853 24854 24855 24856 24857 24858 24859 24860 24861 24862 24863 24864 24865 24866 24867 24868 24869 24870 24871 24872 24873 24874 24875 24876 24877 24878 24879 24880 24881 24882 24883 24884 24885 24886 24887 24888 24889 24890 24891 24892 24893 24894 24895 24896 24897 24898 24899 24900 24901 24902 24903 24904 24905 24906 24907 24908 24909 24910 24911 24912 24913 24914 24915 24916 24917 24918 24919 24920 24921 24922 24923 24924 24925 24926 24927 24928 24929 24930 24931 24932 24933 24934 24935 24936 24937 24938 24939 24940 24941 24942 24943 24944 24945 24946 24947 24948 24949 24950 24951 24952 24953 24954 24955 24956 24957 24958 24959 24960 24961 24962 24963 24964 24965 24966 24967 24968 24969 24970 24971 24972 24973 24974 24975 24976 24977 24978 24979 24980 24981 24982 24983 24984 24985 24986 24987 24988 24989 24990 24991 24992 24993 24994 24995 24996 24997 24998 24999 25000 25001 25002 25003 25004 25005 25006 25007 25008 25009 25010 25011 25012 25013 25014 25015 25016 25017 25018 25019 25020 25021 25022 25023 25024 25025 25026 25027 25028 25029 25030 25031 25032 25033 25034 25035 25036 25037 25038 25039 25040 25041 25042 25043 25044 25045 25046 25047 25048 25049 25050 25051 25052 25053 25054 25055 25056 25057 25058 25059 25060 25061 25062 25063 25064 25065 25066 25067 25068 25069 25070 25071 25072 25073 25074 25075 25076 25077 25078 25079 25080 25081 25082 25083 25084 25085 25086 25087 25088 25089 25090 25091 25092 25093 25094 25095 25096 25097 25098 25099 25100 25101 25102 25103 25104 25105 25106 25107 25108 25109 25110 25111 25112 25113 25114 25115 25116 25117 25118 25119 25120 25121 25122 25123 25124 25125 25126 25127 25128 25129 25130 25131 25132 25133 25134 25135 25136 25137 25138 25139 25140 25141 25142 25143 25144 25145 25146 25147 25148 25149 25150 25151 25152 25153 25154 25155 25156 25157 25158 25159 25160 25161 25162 25163 25164 25165 25166 25167 25168 25169 25170 25171 25172 25173 25174 25175 25176 25177 25178 25179 25180 25181 25182 25183 25184 25185 25186 25187 25188 25189 25190 25191 25192 25193 25194 25195 25196 25197 25198 25199 25200 25201 25202 25203 25204 25205 25206 25207 25208 25209 25210 25211 25212 25213 25214 25215 25216 25217 25218 25219 25220 25221 25222 25223 25224 25225 25226 25227 25228 25229 25230 25231 25232 25233 25234 25235 25236 25237 25238 25239 25240 25241 25242 25243 25244 25245 25246 25247 25248 25249 25250 25251 25252 25253 25254 25255 25256 25257 25258 25259 25260 25261 25262 25263 25264 25265 25266 25267 25268 25269 25270 25271 25272 25273 25274 25275 25276 25277 25278 25279 25280 25281 25282 25283 25284 25285 25286 25287 25288 25289 25290 25291 25292 25293 25294 25295 25296 25297 25298 25299 25300 25301 25302 25303 25304 25305 25306 25307 25308 25309 25310 25311 25312 25313 25314 25315 25316 25317 25318 25319 25320 25321 25322 25323 25324 25325 25326 25327 25328 25329 25330 25331 25332 25333 25334 25335 25336 25337 25338 25339 25340 25341 25342 25343 25344 25345 25346 25347 25348 25349 25350 25351 25352 25353 25354 25355 25356 25357 25358 25359 25360 25361 25362 25363 25364 25365 25366 25367 25368 25369 25370 25371 25372 25373 25374 25375 25376 25377 25378 25379 25380 25381 25382 25383 25384 25385 25386 25387 25388 25389 25390 25391 25392 25393 25394 25395 25396 25397 25398 25399 25400 25401 25402 25403 25404 25405 25406 25407 25408 25409 25410 25411 25412 25413 25414 25415 25416 25417 25418 25419 25420 25421 25422 25423 25424 25425 25426 25427 25428 25429 25430 25431 25432 25433 25434 25435 25436 25437 25438 25439 25440 25441 25442 25443 25444 25445 25446 25447 25448 25449 25450 25451 25452 25453 25454 25455 25456 25457 25458 25459 25460 25461 25462 25463 25464 25465 25466 25467 25468 25469 25470 25471 25472 25473 25474 25475 25476 25477 25478 25479 25480 25481 25482 25483 25484 25485 25486 25487 25488 25489 25490 25491 25492 25493 25494 25495 25496 25497 25498 25499 25500 25501 25502 25503 25504 25505 25506 25507 25508 25509 25510 25511 25512 25513 25514 25515 25516 25517 25518 25519 25520 25521 25522 25523 25524 25525 25526 25527 25528 25529 25530 25531 25532 25533 25534 25535 25536 25537 25538 25539 25540 25541 25542 25543 25544 25545 25546 25547 25548 25549 25550 25551 25552 25553 25554 25555 25556 25557 25558 25559 25560 25561 25562 25563 25564 25565 25566 25567 25568 25569 25570 25571 25572 25573 25574 25575 25576 25577 25578 25579 25580 25581 25582 25583 25584 25585 25586 25587 25588 25589 25590 25591 25592 25593 25594 25595 25596 25597 25598 25599 25600 25601 25602 25603 25604 25605 25606 25607 25608 25609 25610 25611 25612 25613 25614 25615 25616 25617 25618 25619 25620 25621 25622 25623 25624 25625 25626 25627 25628 25629 25630 25631 25632 25633 25634 25635 25636 25637 25638 25639 25640 25641 25642 25643 25644 25645 25646 25647 25648 25649 25650 25651 25652 25653 25654 25655 25656 25657 25658 25659 25660 25661 25662 25663 25664 25665 25666 25667 25668 25669 25670 25671 25672 25673 25674 25675 25676 25677 25678 25679 25680 25681 25682 25683 25684 25685 25686 25687 25688 25689 25690 25691 25692 25693 25694 25695 25696 25697 25698 25699 25700 25701 25702 25703 25704 25705 25706 25707 25708 25709 25710 25711 25712 25713 25714 25715 25716 25717 25718 25719 25720 25721 25722 25723 25724 25725 25726 25727 25728 25729 25730 25731 25732 25733 25734 25735 25736 25737 25738 25739 25740 25741 25742 25743 25744 25745 25746 25747 25748 25749 25750 25751 25752 25753 25754 25755 25756 25757 25758 25759 25760 25761 25762 25763 25764 25765 25766 25767 25768 25769 25770 25771 25772 25773 25774 25775 25776 25777 25778 25779 25780 25781 25782 25783 25784 25785 25786 25787 25788 25789 25790 25791 25792 25793 25794 25795 25796 25797 25798 25799 25800 25801 25802 25803 25804 25805 25806 25807 25808 25809 25810 25811 25812 25813 25814 25815 25816 25817 25818 25819 25820 25821 25822 25823 25824 25825 25826 25827 25828 25829 25830 25831 25832 25833 25834 25835 25836 25837 25838 25839 25840 25841 25842 25843 25844 25845 25846 25847 25848 25849 25850 25851 25852 25853 25854 25855 25856 25857 25858 25859 25860 25861 25862 25863 25864 25865 25866 25867 25868 25869 25870 25871 25872 25873 25874 25875 25876 25877 25878 25879 25880 25881 25882 25883 25884 25885 25886 25887 25888 25889 25890 25891 25892 25893 25894 25895 25896 25897 25898 25899 25900 25901 25902 25903 25904 25905 25906 25907 25908 25909 25910 25911 25912 25913 25914 25915 25916 25917 25918 25919 25920 25921 25922 25923 25924 25925 25926 25927 25928 25929 25930 25931 25932 25933 25934 25935 25936 25937 25938 25939 25940 25941 25942 25943 25944 25945 25946 25947 25948 25949 25950 25951 25952 25953 25954 25955 25956 25957 25958 25959 25960 25961 25962 25963 25964 25965 25966 25967 25968 25969 25970 25971 25972 25973 25974 25975 25976 25977 25978 25979 25980 25981 25982 25983 25984 25985 25986 25987 25988 25989 25990 25991 25992 25993 25994 25995 25996 25997 25998 25999 26000 26001 26002 26003 26004 26005 26006 26007 26008 26009 26010 26011 26012 26013 26014 26015 26016 26017 26018 26019 26020 26021 26022 26023 26024 26025 26026 26027 26028 26029 26030 26031 26032 26033 26034 26035 26036 26037 26038 26039 26040 26041 26042 26043 26044 26045 26046 26047 26048 26049 26050 26051 26052 26053 26054 26055 26056 26057 26058 26059 26060 26061 26062 26063 26064 26065 26066 26067 26068 26069 26070 26071 26072 26073 26074 26075 26076 26077 26078 26079 26080 26081 26082 26083 26084 26085 26086 26087 26088 26089 26090 26091 26092 26093 26094 26095 26096 26097 26098 26099 26100 26101 26102 26103 26104 26105 26106 26107 26108 26109 26110 26111 26112 26113 26114 26115 26116 26117 26118 26119 26120 26121 26122 26123 26124 26125 26126 26127 26128 26129 26130 26131 26132 26133 26134 26135 26136 26137 26138 26139 26140 26141 26142 26143 26144 26145 26146 26147 26148 26149 26150 26151 26152 26153 26154 26155 26156 26157 26158 26159 26160 26161 26162 26163 26164 26165 26166 26167 26168 26169 26170 26171 26172 26173 26174 26175 26176 26177 26178 26179 26180 26181 26182 26183 26184 26185 26186 26187 26188 26189 26190 26191 26192 26193 26194 26195 26196 26197 26198 26199 26200 26201 26202 26203 26204 26205 26206 26207 26208 26209 26210 26211 26212 26213 26214 26215 26216 26217 26218 26219 26220 26221 26222 26223 26224 26225 26226 26227 26228 26229 26230 26231 26232 26233 26234 26235 26236 26237 26238 26239 26240 26241 26242 26243 26244 26245 26246 26247 26248 26249 26250 26251 26252 26253 26254 26255 26256 26257 26258 26259 26260 26261 26262 26263 26264 26265 26266 26267 26268 26269 26270 26271 26272 26273 26274 26275 26276 26277 26278 26279 26280 26281 26282 26283 26284 26285 26286 26287 26288 26289 26290 26291 26292 26293 26294 26295 26296 26297 26298 26299 26300 26301 26302 26303 26304 26305 26306 26307 26308 26309 26310 26311 26312 26313 26314 26315 26316 26317 26318 26319 26320 26321 26322 26323 26324 26325 26326 26327 26328 26329 26330 26331 26332 26333 26334 26335 26336 26337 26338 26339 26340 26341 26342 26343 26344 26345 26346 26347 26348 26349 26350 26351 26352 26353 26354 26355 26356 26357 26358 26359 26360 26361 26362 26363 26364 26365 26366 26367 26368 26369 26370 26371 26372 26373 26374 26375 26376 26377 26378 26379 26380 26381 26382 26383 26384 26385 26386 26387 26388 26389 26390 26391 26392 26393 26394 26395 26396 26397 26398 26399 26400 26401 26402 26403 26404 26405 26406 26407 26408 26409 26410 26411 26412 26413 26414 26415 26416 26417 26418 26419 26420 26421 26422 26423 26424 26425 26426 26427 26428 26429 26430 26431 26432 26433 26434 26435 26436 26437 26438 26439 26440 26441 26442 26443 26444 26445 26446 26447 26448 26449 26450 26451 26452 26453 26454 26455 26456 26457 26458 26459 26460 26461 26462 26463 26464 26465 26466 26467 26468 26469 26470 26471 26472 26473 26474 26475 26476 26477 26478 26479 26480 26481 26482 26483 26484 26485 26486 26487 26488 26489 26490 26491 26492 26493 26494 26495 26496 26497 26498 26499 26500 26501 26502 26503 26504 26505 26506 26507 26508 26509 26510 26511 26512 26513 26514 26515 26516 26517 26518 26519 26520 26521 26522 26523 26524 26525 26526 26527 26528 26529 26530 26531 26532 26533 26534 26535 26536 26537 26538 26539 26540 26541 26542 26543 26544 26545 26546 26547 26548 26549 26550 26551 26552 26553 26554 26555 26556 26557 26558 26559 26560 26561 26562 26563 26564 26565 26566 26567 26568 26569 26570 26571 26572 26573 26574 26575 26576 26577 26578 26579 26580 26581 26582 26583 26584 26585 26586 26587 26588 26589 26590 26591 26592 26593 26594 26595 26596 26597 26598 26599 26600 26601 26602 26603 26604 26605 26606 26607 26608 26609 26610 26611 26612 26613 26614 26615 26616 26617 26618 26619 26620 26621 26622 26623 26624 26625 26626 26627 26628 26629 26630 26631 26632 26633 26634 26635 26636 26637 26638 26639 26640 26641 26642 26643 26644 26645 26646 26647 26648 26649 26650 26651 26652 26653 26654 26655 26656 26657 26658 26659 26660 26661 26662 26663 26664 26665 26666 26667 26668 26669 26670 26671 26672 26673 26674 26675 26676 26677 26678 26679 26680 26681 26682 26683 26684 26685 26686 26687 26688 26689 26690 26691 26692 26693 26694 26695 26696 26697 26698 26699 26700 26701 26702 26703 26704 26705 26706 26707 26708 26709 26710 26711 26712 26713 26714 26715 26716 26717 26718 26719 26720 26721 26722 26723 26724 26725 26726 26727 26728 26729 26730 26731 26732 26733 26734 26735 26736 26737 26738 26739 26740 26741 26742 26743 26744 26745 26746 26747 26748 26749 26750 26751 26752 26753 26754 26755 26756 26757 26758 26759 26760 26761 26762 26763 26764 26765 26766 26767 26768 26769 26770 26771 26772 26773 26774 26775 26776 26777 26778 26779 26780 26781 26782 26783 26784 26785 26786 26787 26788 26789 26790 26791 26792 26793 26794 26795 26796 26797 26798 26799 26800 26801 26802 26803 26804 26805 26806 26807 26808 26809 26810 26811 26812 26813 26814 26815 26816 26817 26818 26819 26820 26821 26822 26823 26824 26825 26826 26827 26828 26829 26830 26831 26832 26833 26834 26835 26836 26837 26838 26839 26840 26841 26842 26843 26844 26845 26846 26847 26848 26849 26850 26851 26852 26853 26854 26855 26856 26857 26858 26859 26860 26861 26862 26863 26864 26865 26866 26867 26868 26869 26870 26871 26872 26873 26874 26875 26876 26877 26878 26879 26880 26881 26882 26883 26884 26885 26886 26887 26888 26889 26890 26891 26892 26893 26894 26895 26896 26897 26898 26899 26900 26901 26902 26903 26904 26905 26906 26907 26908 26909 26910 26911 26912 26913 26914 26915 26916 26917 26918 26919 26920 26921 26922 26923 26924 26925 26926 26927 26928 26929 26930 26931 26932 26933 26934 26935 26936 26937 26938 26939 26940 26941 26942 26943 26944 26945 26946 26947 26948 26949 26950 26951 26952 26953 26954 26955 26956 26957 26958 26959 26960 26961 26962 26963 26964 26965 26966 26967 26968 26969 26970 26971 26972 26973 26974 26975 26976 26977 26978 26979 26980 26981 26982 26983 26984 26985 26986 26987 26988 26989 26990 26991 26992 26993 26994 26995 26996 26997 26998 26999 27000 27001 27002 27003 27004 27005 27006 27007 27008 27009 27010 27011 27012 27013 27014 27015 27016 27017 27018 27019 27020 27021 27022 27023 27024 27025 27026 27027 27028 27029 27030 27031 27032 27033 27034 27035 27036 27037 27038 27039 27040 27041 27042 27043 27044 27045 27046 27047 27048 27049 27050 27051 27052 27053 27054 27055 27056 27057 27058 27059 27060 27061 27062 27063 27064 27065 27066 27067 27068 27069 27070 27071 27072 27073 27074 27075 27076 27077 27078 27079 27080 27081 27082 27083 27084 27085 27086 27087 27088 27089 27090 27091 27092 27093 27094 27095 27096 27097 27098 27099 27100 27101 27102 27103 27104 27105 27106 27107 27108 27109 27110 27111 27112 27113 27114 27115 27116 27117 27118 27119 27120 27121 27122 27123 27124 27125 27126 27127 27128 27129 27130 27131 27132 27133 27134 27135 27136 27137 27138 27139 27140 27141 27142 27143 27144 27145 27146 27147 27148 27149 27150 27151 27152 27153 27154 27155 27156 27157 27158 27159 27160 27161 27162 27163 27164 27165 27166 27167 27168 27169 27170 27171 27172 27173 27174 27175 27176 27177 27178 27179 27180 27181 27182 27183 27184 27185 27186 27187 27188 27189 27190 27191 27192 27193 27194 27195 27196 27197 27198 27199 27200 27201 27202 27203 27204 27205 27206 27207 27208 27209 27210 27211 27212 27213 27214 27215 27216 27217 27218 27219 27220 27221 27222 27223 27224 27225 27226 27227 27228 27229 27230 27231 27232 27233 27234 27235 27236 27237 27238 27239 27240 27241 27242 27243 27244 27245 27246 27247 27248 27249 27250 27251 27252 27253 27254 27255 27256 27257 27258 27259 27260 27261 27262 27263 27264 27265 27266 27267 27268 27269 27270 27271 27272 27273 27274 27275 27276 27277 27278 27279 27280 27281 27282 27283 27284 27285 27286 27287 27288 27289 27290 27291 27292 27293 27294 27295 27296 27297 27298 27299 27300 27301 27302 27303 27304 27305 27306 27307 27308 27309 27310 27311 27312 27313 27314 27315 27316 27317 27318 27319 27320 27321 27322 27323 27324 27325 27326 27327 27328 27329 27330 27331 27332 27333 27334 27335 27336 27337 27338 27339 27340 27341 27342 27343 27344 27345 27346 27347 27348 27349 27350 27351 27352 27353 27354 27355 27356 27357 27358 27359 27360 27361 27362 27363 27364 27365 27366 27367 27368 27369 27370 27371 27372 27373 27374 27375 27376 27377 27378 27379 27380 27381 27382 27383 27384 27385 27386 27387 27388 27389 27390 27391 27392 27393 27394 27395 27396 27397 27398 27399 27400 27401 27402 27403 27404 27405 27406 27407 27408 27409 27410 27411 27412 27413 27414 27415 27416 27417 27418 27419 27420 27421 27422 27423 27424 27425 27426 27427 27428 27429 27430 27431 27432 27433 27434 27435 27436 27437 27438 27439 27440 27441 27442 27443 27444 27445 27446 27447 27448 27449 27450 27451 27452 27453 27454 27455 27456 27457 27458 27459 27460 27461 27462 27463 27464 27465 27466 27467 27468 27469 27470 27471 27472 27473 27474 27475 27476 27477 27478 27479 27480 27481 27482 27483 27484 27485 27486 27487 27488 27489 27490 27491 27492 27493 27494 27495 27496 27497 27498 27499 27500 27501 27502 27503 27504 27505 27506 27507 27508 27509 27510 27511 27512 27513 27514 27515 27516 27517 27518 27519 27520 27521 27522 27523 27524 27525 27526 27527 27528 27529 27530 27531 27532 27533 27534 27535 27536 27537 27538 27539 27540 27541 27542 27543 27544 27545 27546 27547 27548 27549 27550 27551 27552 27553 27554 27555 27556 27557 27558 27559 27560 27561 27562 27563 27564 27565 27566 27567 27568 27569 27570 27571 27572 27573 27574 27575 27576 27577 27578 27579 27580 27581 27582 27583 27584 27585 27586 27587 27588 27589 27590 27591 27592 27593 27594 27595 27596 27597 27598 27599 27600 27601 27602 27603 27604 27605 27606 27607 27608 27609 27610 27611 27612 27613 27614 27615 27616 27617 27618 27619 27620 27621 27622 27623 27624 27625 27626 27627 27628 27629 27630 27631 27632 27633 27634 27635 27636 27637 27638 27639 27640 27641 27642 27643 27644 27645 27646 27647 27648 27649 27650 27651 27652 27653 27654 27655 27656 27657 27658 27659 27660 27661 27662 27663 27664 27665 27666 27667 27668 27669 27670 27671 27672 27673 27674 27675 27676 27677 27678 27679 27680 27681 27682 27683 27684 27685 27686 27687 27688 27689 27690 27691 27692 27693 27694 27695 27696 27697 27698 27699 27700 27701 27702 27703 27704 27705 27706 27707 27708 27709 27710 27711 27712 27713 27714 27715 27716 27717 27718 27719 27720 27721 27722 27723 27724 27725 27726 27727 27728 27729 27730 27731 27732 27733 27734 27735 27736 27737 27738 27739 27740 27741 27742 27743 27744 27745 27746 27747 27748 27749 27750 27751 27752 27753 27754 27755 27756 27757 27758 27759 27760 27761 27762 27763 27764 27765 27766 27767 27768 27769 27770 27771 27772 27773 27774 27775 27776 27777 27778 27779 27780 27781 27782 27783 27784 27785 27786 27787 27788 27789 27790 27791 27792 27793 27794 27795 27796 27797 27798 27799 27800 27801 27802 27803 27804 27805 27806 27807 27808 27809 27810 27811 27812 27813 27814 27815 27816 27817 27818 27819 27820 27821 27822 27823 27824 27825 27826 27827 27828 27829 27830 27831 27832 27833 27834 27835 27836 27837 27838 27839 27840 27841 27842 27843 27844 27845 27846 27847 27848 27849 27850 27851 27852 27853 27854 27855 27856 27857 27858 27859 27860 27861 27862 27863 27864 27865 27866 27867 27868 27869 27870 27871 27872 27873 27874 27875 27876 27877 27878 27879 27880 27881 27882 27883 27884 27885 27886 27887 27888 27889 27890 27891 27892 27893 27894 27895 27896 27897 27898 27899 27900 27901 27902 27903 27904 27905 27906 27907 27908 27909 27910 27911 27912 27913 27914 27915 27916 27917 27918 27919 27920 27921 27922 27923 27924 27925 27926 27927 27928 27929 27930 27931 27932 27933 27934 27935 27936 27937 27938 27939 27940 27941 27942 27943 27944 27945 27946 27947 27948 27949 27950 27951 27952 27953 27954 27955 27956 27957 27958 27959 27960 27961 27962 27963 27964 27965 27966 27967 27968 27969 27970 27971 27972 27973 27974 27975 27976 27977 27978 27979 27980 27981 27982 27983 27984 27985 27986 27987 27988 27989 27990 27991 27992 27993 27994 27995 27996 27997 27998 27999 28000 28001 28002 28003 28004 28005 28006 28007 28008 28009 28010 28011 28012 28013 28014 28015 28016 28017 28018 28019 28020 28021 28022 28023 28024 28025 28026 28027 28028 28029 28030 28031 28032 28033 28034 28035 28036 28037 28038 28039 28040 28041 28042 28043 28044 28045 28046 28047 28048 28049 28050 28051 28052 28053 28054 28055 28056 28057 28058 28059 28060 28061 28062 28063 28064 28065 28066 28067 28068 28069 28070 28071 28072 28073 28074 28075 28076 28077 28078 28079 28080 28081 28082 28083 28084 28085 28086 28087 28088 28089 28090 28091 28092 28093 28094 28095 28096 28097 28098 28099 28100 28101 28102 28103 28104 28105 28106 28107 28108 28109 28110 28111 28112 28113 28114 28115 28116 28117 28118 28119 28120 28121 28122 28123 28124 28125 28126 28127 28128 28129 28130 28131 28132 28133 28134 28135 28136 28137 28138 28139 28140 28141 28142 28143 28144 28145 28146 28147 28148 28149 28150 28151 28152 28153 28154 28155 28156 28157 28158 28159 28160 28161 28162 28163 28164 28165 28166 28167 28168 28169 28170 28171 28172 28173 28174 28175 28176 28177 28178 28179 28180 28181 28182 28183 28184 28185 28186 28187 28188 28189 28190 28191 28192 28193 28194 28195 28196 28197 28198 28199 28200 28201 28202 28203 28204 28205 28206 28207 28208 28209 28210 28211 28212 28213 28214 28215 28216 28217 28218 28219 28220 28221 28222 28223 28224 28225 28226 28227 28228 28229 28230 28231 28232 28233 28234 28235 28236 28237 28238 28239 28240 28241 28242 28243 28244 28245 28246 28247 28248 28249 28250 28251 28252 28253 28254 28255 28256 28257 28258 28259 28260 28261 28262 28263 28264 28265 28266 28267 28268 28269 28270 28271 28272 28273 28274 28275 28276 28277 28278 28279 28280 28281 28282 28283 28284 28285 28286 28287 28288 28289 28290 28291 28292 28293 28294 28295 28296 28297 28298 28299 28300 28301 28302 28303 28304 28305 28306 28307 28308 28309 28310 28311 28312 28313 28314 28315 28316 28317 28318 28319 28320 28321 28322 28323 28324 28325 28326 28327 28328 28329 28330 28331 28332 28333 28334 28335 28336 28337 28338 28339 28340 28341 28342 28343 28344 28345 28346 28347 28348 28349 28350 28351 28352 28353 28354 28355 28356 28357 28358 28359 28360 28361 28362 28363 28364 28365 28366 28367 28368 28369 28370 28371 28372 28373 28374 28375 28376 28377 28378 28379 28380 28381 28382 28383 28384 28385 28386 28387 28388 28389 28390 28391 28392 28393 28394 28395 28396 28397 28398 28399 28400 28401 28402 28403 28404 28405 28406 28407 28408 28409 28410 28411 28412 28413 28414 28415 28416 28417 28418 28419 28420 28421 28422 28423 28424 28425 28426 28427 28428 28429 28430 28431 28432 28433 28434 28435 28436 28437 28438 28439 28440 28441 28442 28443 28444 28445 28446 28447 28448 28449 28450 28451 28452 28453 28454 28455 28456 28457 28458 28459 28460 28461 28462 28463 28464 28465 28466 28467 28468 28469 28470 28471 28472 28473 28474 28475 28476 28477 28478 28479 28480 28481 28482 28483 28484 28485 28486 28487 28488 28489 28490 28491 28492 28493 28494 28495 28496 28497 28498 28499 28500 28501 28502 28503 28504 28505 28506 28507 28508 28509 28510 28511 28512 28513 28514 28515 28516 28517 28518 28519 28520 28521 28522 28523 28524 28525 28526 28527 28528 28529 28530 28531 28532 28533 28534 28535 28536 28537 28538 28539 28540 28541 28542 28543 28544 28545 28546 28547 28548 28549 28550 28551 28552 28553 28554 28555 28556 28557 28558 28559 28560 28561 28562 28563 28564 28565 28566 28567 28568 28569 28570 28571 28572 28573 28574 28575 28576 28577 28578 28579 28580 28581 28582 28583 28584 28585 28586 28587 28588 28589 28590 28591 28592 28593 28594 28595 28596 28597 28598 28599 28600 28601 28602 28603 28604 28605 28606 28607 28608 28609 28610 28611 28612 28613 28614 28615 28616 28617 28618 28619 28620 28621 28622 28623 28624 28625 28626 28627 28628 28629 28630 28631 28632 28633 28634 28635 28636 28637 28638 28639 28640 28641 28642 28643 28644 28645 28646 28647 28648 28649 28650 28651 28652 28653 28654 28655 28656 28657 28658 28659 28660 28661 28662 28663 28664 28665 28666 28667 28668 28669 28670 28671 28672 28673 28674 28675 28676 28677 28678 28679 28680 28681 28682 28683 28684 28685 28686 28687 28688 28689 28690 28691 28692 28693 28694 28695 28696 28697 28698 28699 28700 28701 28702 28703 28704 28705 28706 28707 28708 28709 28710 28711 28712 28713 28714 28715 28716 28717 28718 28719 28720 28721 28722 28723 28724 28725 28726 28727 28728 28729 28730 28731 28732 28733 28734 28735 28736 28737 28738 28739 28740 28741 28742 28743 28744 28745 28746 28747 28748 28749 28750 28751 28752 28753 28754 28755 28756 28757 28758 28759 28760 28761 28762 28763 28764 28765 28766 28767 28768 28769 28770 28771 28772 28773 28774 28775 28776 28777 28778 28779 28780 28781 28782 28783 28784 28785 28786 28787 28788 28789 28790 28791 28792 28793 28794 28795 28796 28797 28798 28799 28800 28801 28802 28803 28804 28805 28806 28807 28808 28809 28810 28811 28812 28813 28814 28815 28816 28817 28818 28819 28820 28821 28822 28823 28824 28825 28826 28827 28828 28829 28830 28831 28832 28833 28834 28835 28836 28837 28838 28839 28840 28841 28842 28843 28844 28845 28846 28847 28848 28849 28850 28851 28852 28853 28854 28855 28856 28857 28858 28859 28860 28861 28862 28863 28864 28865 28866 28867 28868 28869 28870 28871 28872 28873 28874 28875 28876 28877 28878 28879 28880 28881 28882 28883 28884 28885 28886 28887 28888 28889 28890 28891 28892 28893 28894 28895 28896 28897 28898 28899 28900 28901 28902 28903 28904 28905 28906 28907 28908 28909 28910 28911 28912 28913 28914 28915 28916 28917 28918 28919 28920 28921 28922 28923 28924 28925 28926 28927 28928 28929 28930 28931 28932 28933 28934 28935 28936 28937 28938 28939 28940 28941 28942 28943 28944 28945 28946 28947 28948 28949 28950 28951 28952 28953 28954 28955 28956 28957 28958 28959 28960 28961 28962 28963 28964 28965 28966 28967 28968 28969 28970 28971 28972 28973 28974 28975 28976 28977 28978 28979 28980 28981 28982 28983 28984 28985 28986 28987 28988 28989 28990 28991 28992 28993 28994 28995 28996 28997 28998 28999 29000 29001 29002 29003 29004 29005 29006 29007 29008 29009 29010 29011 29012 29013 29014 29015 29016 29017 29018 29019 29020 29021 29022 29023 29024 29025 29026 29027 29028 29029 29030 29031 29032 29033 29034 29035 29036 29037 29038 29039 29040 29041 29042 29043 29044 29045 29046 29047 29048 29049 29050 29051 29052 29053 29054 29055 29056 29057 29058 29059 29060 29061 29062 29063 29064 29065 29066 29067 29068 29069 29070 29071 29072 29073 29074 29075 29076 29077 29078 29079 29080 29081 29082 29083 29084 29085 29086 29087 29088 29089 29090 29091 29092 29093 29094 29095 29096 29097 29098 29099 29100 29101 29102 29103 29104 29105 29106 29107 29108 29109 29110 29111 29112 29113 29114 29115 29116 29117 29118 29119 29120 29121 29122 29123 29124 29125 29126 29127 29128 29129 29130 29131 29132 29133 29134 29135 29136 29137 29138 29139 29140 29141 29142 29143 29144 29145 29146 29147 29148 29149 29150 29151 29152 29153 29154 29155 29156 29157 29158 29159 29160 29161 29162 29163 29164 29165 29166 29167 29168 29169 29170 29171 29172 29173 29174 29175 29176 29177 29178 29179 29180 29181 29182 29183 29184 29185 29186 29187 29188 29189 29190 29191 29192 29193 29194 29195 29196 29197 29198 29199 29200 29201 29202 29203 29204 29205 29206 29207 29208 29209 29210 29211 29212 29213 29214 29215 29216 29217 29218 29219 29220 29221 29222 29223 29224 29225 29226 29227 29228 29229 29230 29231 29232 29233 29234 29235 29236 29237 29238 29239 29240 29241 29242 29243 29244 29245 29246 29247 29248 29249 29250 29251 29252 29253 29254 29255 29256 29257 29258 29259 29260 29261 29262 29263 29264 29265 29266 29267 29268 29269 29270 29271 29272 29273 29274 29275 29276 29277 29278 29279 29280 29281 29282 29283 29284 29285 29286 29287 29288 29289 29290 29291 29292 29293 29294 29295 29296 29297 29298 29299 29300 29301 29302 29303 29304 29305 29306 29307 29308 29309 29310 29311 29312 29313 29314 29315 29316 29317 29318 29319 29320 29321 29322 29323 29324 29325 29326 29327 29328 29329 29330 29331 29332 29333 29334 29335 29336 29337 29338 29339 29340 29341 29342 29343 29344 29345 29346 29347 29348 29349 29350 29351 29352 29353 29354 29355 29356 29357 29358 29359 29360 29361 29362 29363 29364 29365 29366 29367 29368 29369 29370 29371 29372 29373 29374 29375 29376 29377 29378 29379 29380 29381 29382 29383 29384 29385 29386 29387 29388 29389 29390 29391 29392 29393 29394 29395 29396 29397 29398 29399 29400 29401 29402 29403 29404 29405 29406 29407 29408 29409 29410 29411 29412 29413 29414 29415 29416 29417 29418 29419 29420 29421 29422 29423 29424 29425 29426 29427 29428 29429 29430 29431 29432 29433 29434 29435 29436 29437 29438 29439 29440 29441 29442 29443 29444 29445 29446 29447 29448 29449 29450 29451 29452 29453 29454 29455 29456 29457 29458 29459 29460 29461 29462 29463 29464 29465 29466 29467 29468 29469 29470 29471 29472 29473 29474 29475 29476 29477 29478 29479 29480 29481 29482 29483 29484 29485 29486 29487 29488 29489 29490 29491 29492 29493 29494 29495 29496 29497 29498 29499 29500 29501 29502 29503 29504 29505 29506 29507 29508 29509 29510 29511 29512 29513 29514 29515 29516 29517 29518 29519 29520 29521 29522 29523 29524 29525 29526 29527 29528 29529 29530 29531 29532 29533 29534 29535 29536 29537 29538 29539 29540 29541 29542 29543 29544 29545 29546 29547 29548 29549 29550 29551 29552 29553 29554 29555 29556 29557 29558 29559 29560 29561 29562 29563 29564 29565 29566 29567 29568 29569 29570 29571 29572 29573 29574 29575 29576 29577 29578 29579 29580 29581 29582 29583 29584 29585 29586 29587 29588 29589 29590 29591 29592 29593 29594 29595 29596 29597 29598 29599 29600 29601 29602 29603 29604 29605 29606 29607 29608 29609 29610 29611 29612 29613 29614 29615 29616 29617 29618 29619 29620 29621 29622 29623 29624 29625 29626 29627 29628 29629 29630 29631 29632 29633 29634 29635 29636 29637 29638 29639 29640 29641 29642 29643 29644 29645 29646 29647 29648 29649 29650 29651 29652 29653 29654 29655 29656 29657 29658 29659 29660 29661 29662 29663 29664 29665 29666 29667 29668 29669 29670 29671 29672 29673 29674 29675 29676 29677 29678 29679 29680 29681 29682 29683 29684 29685 29686 29687 29688 29689 29690 29691 29692 29693 29694 29695 29696 29697 29698 29699 29700 29701 29702 29703 29704 29705 29706 29707 29708 29709 29710 29711 29712 29713 29714 29715 29716 29717 29718 29719 29720 29721 29722 29723 29724 29725 29726 29727 29728 29729 29730 29731 29732 29733 29734 29735 29736 29737 29738 29739 29740 29741 29742 29743 29744 29745 29746 29747 29748 29749 29750 29751 29752 29753 29754 29755 29756 29757 29758 29759 29760 29761 29762 29763 29764 29765 29766 29767 29768 29769 29770 29771 29772 29773 29774 29775 29776 29777 29778 29779 29780 29781 29782 29783 29784 29785 29786 29787 29788 29789 29790 29791 29792 29793 29794 29795 29796 29797 29798 29799 29800 29801 29802 29803 29804 29805 29806 29807 29808 29809 29810 29811 29812 29813 29814 29815 29816 29817 29818 29819 29820 29821 29822 29823 29824 29825 29826 29827 29828 29829 29830 29831 29832 29833 29834 29835 29836 29837 29838 29839 29840 29841 29842 29843 29844 29845 29846 29847 29848 29849 29850 29851 29852 29853 29854 29855 29856 29857 29858 29859 29860 29861 29862 29863 29864 29865 29866 29867 29868 29869 29870 29871 29872 29873 29874 29875 29876 29877 29878 29879 29880 29881 29882 29883 29884 29885 29886 29887 29888 29889 29890 29891 29892 29893 29894 29895 29896 29897 29898 29899 29900 29901 29902 29903 29904 29905 29906 29907 29908 29909 29910 29911 29912 29913 29914 29915 29916 29917 29918 29919 29920 29921 29922 29923 29924 29925 29926 29927 29928 29929 29930 29931 29932 29933 29934 29935 29936 29937 29938 29939 29940 29941 29942 29943 29944 29945 29946 29947 29948 29949 29950 29951 29952 29953 29954 29955 29956 29957 29958 29959 29960 29961 29962 29963 29964 29965 29966 29967 29968 29969 29970 29971 29972 29973 29974 29975 29976 29977 29978 29979 29980 29981 29982 29983 29984 29985 29986 29987 29988 29989 29990 29991 29992 29993 29994 29995 29996 29997 29998 29999 30000 30001 30002 30003 30004 30005 30006 30007 30008 30009 30010 30011 30012 30013 30014 30015 30016 30017 30018 30019 30020 30021 30022 30023 30024 30025 30026 30027 30028 30029 30030 30031 30032 30033 30034 30035 30036 30037 30038 30039 30040 30041 30042 30043 30044 30045 30046 30047 30048 30049 30050 30051 30052 30053 30054 30055 30056 30057 30058 30059 30060 30061 30062 30063 30064 30065 30066 30067 30068 30069 30070 30071 30072 30073 30074 30075 30076 30077 30078 30079 30080 30081 30082 30083 30084 30085 30086 30087 30088 30089 30090 30091 30092 30093 30094 30095 30096 30097 30098 30099 30100 30101 30102 30103 30104 30105 30106 30107 30108 30109 30110 30111 30112 30113 30114 30115 30116 30117 30118 30119 30120 30121 30122 30123 30124 30125 30126 30127 30128 30129 30130 30131 30132 30133 30134 30135 30136 30137 30138 30139 30140 30141 30142 30143 30144 30145 30146 30147 30148 30149 30150 30151 30152 30153 30154 30155 30156 30157 30158 30159 30160 30161 30162 30163 30164 30165 30166 30167 30168 30169 30170 30171 30172 30173 30174 30175 30176 30177 30178 30179 30180 30181 30182 30183 30184 30185 30186 30187 30188 30189 30190 30191 30192 30193 30194 30195 30196 30197 30198 30199 30200 30201 30202 30203 30204 30205 30206 30207 30208 30209 30210 30211 30212 30213 30214 30215 30216 30217 30218 30219 30220 30221 30222 30223 30224 30225 30226 30227 30228 30229 30230 30231 30232 30233 30234 30235 30236 30237 30238 30239 30240 30241 30242 30243 30244 30245 30246 30247 30248 30249 30250 30251 30252 30253 30254 30255 30256 30257 30258 30259 30260 30261 30262 30263 30264 30265 30266 30267 30268 30269 30270 30271 30272 30273 30274 30275 30276 30277 30278 30279 30280 30281 30282 30283 30284 30285 30286 30287 30288 30289 30290 30291 30292 30293 30294 30295 30296 30297 30298 30299 30300 30301 30302 30303 30304 30305 30306 30307 30308 30309 30310 30311 30312 30313 30314 30315 30316 30317 30318 30319 30320 30321 30322 30323 30324 30325 30326 30327 30328 30329 30330 30331 30332 30333 30334 30335 30336 30337 30338 30339 30340 30341 30342 30343 30344 30345 30346 30347 30348 30349 30350 30351 30352 30353 30354 30355 30356 30357 30358 30359 30360 30361 30362 30363 30364 30365 30366 30367 30368 30369 30370 30371 30372 30373 30374 30375 30376 30377 30378 30379 30380 30381 30382 30383 30384 30385 30386 30387 30388 30389 30390 30391 30392 30393 30394 30395 30396 30397 30398 30399 30400 30401 30402 30403 30404 30405 30406 30407 30408 30409 30410 30411 30412 30413 30414 30415 30416 30417 30418 30419 30420 30421 30422 30423 30424 30425 30426 30427 30428 30429 30430 30431 30432 30433 30434 30435 30436 30437 30438 30439 30440 30441 30442 30443 30444 30445 30446 30447 30448 30449 30450 30451 30452 30453 30454 30455 30456 30457 30458 30459 30460 30461 30462 30463 30464 30465 30466 30467 30468 30469 30470 30471 30472 30473 30474 30475 30476 30477 30478 30479 30480 30481 30482 30483 30484 30485 30486 30487 30488 30489 30490 30491 30492 30493 30494 30495 30496 30497 30498 30499 30500 30501 30502 30503 30504 30505 30506 30507 30508 30509 30510 30511 30512 30513 30514 30515 30516 30517 30518 30519 30520 30521 30522 30523 30524 30525 30526 30527 30528 30529 30530 30531 30532 30533 30534 30535 30536 30537 30538 30539 30540 30541 30542 30543 30544 30545 30546 30547 30548 30549 30550 30551 30552 30553 30554 30555 30556 30557 30558 30559 30560 30561 30562 30563 30564 30565 30566 30567 30568 30569 30570 30571 30572 30573 30574 30575 30576 30577 30578 30579 30580 30581 30582 30583 30584 30585 30586 30587 30588 30589 30590 30591 30592 30593 30594 30595 30596 30597 30598 30599 30600 30601 30602 30603 30604 30605 30606 30607 30608 30609 30610 30611 30612 30613 30614 30615 30616 30617 30618 30619 30620 30621 30622 30623 30624 30625 30626 30627 30628 30629 30630 30631 30632 30633 30634 30635 30636 30637 30638 30639 30640 30641 30642 30643 30644 30645 30646 30647 30648 30649 30650 30651 30652 30653 30654 30655 30656 30657 30658 30659 30660 30661 30662 30663 30664 30665 30666 30667 30668 30669 30670 30671 30672 30673 30674 30675 30676 30677 30678 30679 30680 30681 30682 30683 30684 30685 30686 30687 30688 30689 30690 30691 30692 30693 30694 30695 30696 30697 30698 30699 30700 30701 30702 30703 30704 30705 30706 30707 30708 30709 30710 30711 30712 30713 30714 30715 30716 30717 30718 30719 30720 30721 30722 30723 30724 30725 30726 30727 30728 30729 30730 30731 30732 30733 30734 30735 30736 30737 30738 30739 30740 30741 30742 30743 30744 30745 30746 30747 30748 30749 30750 30751 30752 30753 30754 30755 30756 30757 30758 30759 30760 30761 30762 30763 30764 30765 30766 30767 30768 30769 30770 30771 30772 30773 30774 30775 30776 30777 30778 30779 30780 30781 30782 30783 30784 30785 30786 30787 30788 30789 30790 30791 30792 30793 30794 30795 30796 30797 30798 30799 30800 30801 30802 30803 30804 30805 30806 30807 30808 30809 30810 30811 30812 30813 30814 30815 30816 30817 30818 30819 30820 30821 30822 30823 30824 30825 30826 30827 30828 30829 30830 30831 30832 30833 30834 30835 30836 30837 30838 30839 30840 30841 30842 30843 30844 30845 30846 30847 30848 30849 30850 30851 30852 30853 30854 30855 30856 30857 30858 30859 30860 30861 30862 30863 30864 30865 30866 30867 30868 30869 30870 30871 30872 30873 30874 30875 30876 30877 30878 30879 30880 30881 30882 30883 30884 30885 30886 30887 30888 30889 30890 30891 30892 30893 30894 30895 30896 30897 30898 30899 30900 30901 30902 30903 30904 30905 30906 30907 30908 30909 30910 30911 30912 30913 30914 30915 30916 30917 30918 30919 30920 30921 30922 30923 30924 30925 30926 30927 30928 30929 30930 30931 30932 30933 30934 30935 30936 30937 30938 30939 30940 30941 30942 30943 30944 30945 30946 30947 30948 30949 30950 30951 30952 30953 30954 30955 30956 30957 30958 30959 30960 30961 30962 30963 30964 30965 30966 30967 30968 30969 30970 30971 30972 30973 30974 30975 30976 30977 30978 30979 30980 30981 30982 30983 30984 30985 30986 30987 30988 30989 30990 30991 30992 30993 30994 30995 30996 30997 30998 30999 31000 31001 31002 31003 31004 31005 31006 31007 31008 31009 31010 31011 31012 31013 31014 31015 31016 31017 31018 31019 31020 31021 31022 31023 31024 31025 31026 31027 31028 31029 31030 31031 31032 31033 31034 31035 31036 31037 31038 31039 31040 31041 31042 31043 31044 31045 31046 31047 31048 31049 31050 31051 31052 31053 31054 31055 31056 31057 31058 31059 31060 31061 31062 31063 31064 31065 31066 31067 31068 31069 31070 31071 31072 31073 31074 31075 31076 31077 31078 31079 31080 31081 31082 31083 31084 31085 31086 31087 31088 31089 31090 31091 31092 31093 31094 31095 31096 31097 31098 31099 31100 31101 31102 31103 31104 31105 31106 31107 31108 31109 31110 31111 31112 31113 31114 31115 31116 31117 31118 31119 31120 31121 31122 31123 31124 31125 31126 31127 31128 31129 31130 31131 31132 31133 31134 31135 31136 31137 31138 31139 31140 31141 31142 31143 31144 31145 31146 31147 31148 31149 31150 31151 31152 31153 31154 31155 31156 31157 31158 31159 31160 31161 31162 31163 31164 31165 31166 31167 31168 31169 31170 31171 31172 31173 31174 31175 31176 31177 31178 31179 31180 31181 31182 31183 31184 31185 31186 31187 31188 31189 31190 31191 31192 31193 31194 31195 31196 31197 31198 31199 31200 31201 31202 31203 31204 31205 31206 31207 31208 31209 31210 31211 31212 31213 31214 31215 31216 31217 31218 31219 31220 31221 31222 31223 31224 31225 31226 31227 31228 31229 31230 31231 31232 31233 31234 31235 31236 31237 31238 31239 31240 31241 31242 31243 31244 31245 31246 31247 31248 31249 31250 31251 31252 31253 31254 31255 31256 31257 31258 31259 31260 31261 31262 31263 31264 31265 31266 31267 31268 31269 31270 31271 31272 31273 31274 31275 31276 31277 31278 31279 31280 31281 31282 31283 31284 31285 31286 31287 31288 31289 31290 31291 31292 31293 31294 31295 31296 31297 31298 31299 31300 31301 31302 31303 31304 31305 31306 31307 31308 31309 31310 31311 31312 31313 31314 31315 31316 31317 31318 31319 31320 31321 31322 31323 31324 31325 31326 31327 31328 31329 31330 31331 31332 31333 31334 31335 31336 31337 31338 31339 31340 31341 31342 31343 31344 31345 31346 31347 31348 31349 31350 31351 31352 31353 31354 31355 31356 31357 31358 31359 31360 31361 31362 31363 31364 31365 31366 31367 31368 31369 31370 31371 31372 31373 31374 31375 31376 31377 31378 31379 31380 31381 31382 31383 31384 31385 31386 31387 31388 31389 31390 31391 31392 31393 31394 31395 31396 31397 31398 31399 31400 31401 31402 31403 31404 31405 31406 31407 31408 31409 31410 31411 31412 31413 31414 31415 31416 31417 31418 31419 31420 31421 31422 31423 31424 31425 31426 31427 31428 31429 31430 31431 31432 31433 31434 31435 31436 31437 31438 31439 31440 31441 31442 31443 31444 31445 31446 31447 31448 31449 31450 31451 31452 31453 31454 31455 31456 31457 31458 31459 31460 31461 31462 31463 31464 31465 31466 31467 31468 31469 31470 31471 31472 31473 31474 31475 31476 31477 31478 31479 31480 31481 31482 31483 31484 31485 31486 31487 31488 31489 31490 31491 31492 31493 31494 31495 31496 31497 31498 31499 31500 31501 31502 31503 31504 31505 31506 31507 31508 31509 31510 31511 31512 31513 31514 31515 31516 31517 31518 31519 31520 31521 31522 31523 31524 31525 31526 31527 31528 31529 31530 31531 31532 31533 31534 31535 31536 31537 31538 31539 31540 31541 31542 31543 31544 31545 31546 31547 31548 31549 31550 31551 31552 31553 31554 31555 31556 31557 31558 31559 31560 31561 31562 31563 31564 31565 31566 31567 31568 31569 31570 31571 31572 31573 31574 31575 31576 31577 31578 31579 31580 31581 31582 31583 31584 31585 31586 31587 31588 31589 31590 31591 31592 31593 31594 31595 31596 31597 31598 31599 31600 31601 31602 31603 31604 31605 31606 31607 31608 31609 31610 31611 31612 31613 31614 31615 31616 31617 31618 31619 31620 31621 31622 31623 31624 31625 31626 31627 31628 31629 31630 31631 31632 31633 31634 31635 31636 31637 31638 31639 31640 31641 31642 31643 31644 31645 31646 31647 31648 31649 31650 31651 31652 31653 31654 31655 31656 31657 31658 31659 31660 31661 31662 31663 31664 31665 31666 31667 31668 31669 31670 31671 31672 31673 31674 31675 31676 31677 31678 31679 31680 31681 31682 31683 31684 31685 31686 31687 31688 31689 31690 31691 31692 31693 31694 31695 31696 31697 31698 31699 31700 31701 31702 31703 31704 31705 31706 31707 31708 31709 31710 31711 31712 31713 31714 31715 31716 31717 31718 31719 31720 31721 31722 31723 31724 31725 31726 31727 31728 31729 31730 31731 31732 31733 31734 31735 31736 31737 31738 31739 31740 31741 31742 31743 31744 31745 31746 31747 31748 31749 31750 31751 31752 31753 31754 31755 31756 31757 31758 31759 31760 31761 31762 31763 31764 31765 31766 31767 31768 31769 31770 31771 31772 31773 31774 31775 31776 31777 31778 31779 31780 31781 31782 31783 31784 31785 31786 31787 31788 31789 31790 31791 31792 31793 31794 31795 31796 31797 31798 31799 31800 31801 31802 31803 31804 31805 31806 31807 31808 31809 31810 31811 31812 31813 31814 31815 31816 31817 31818 31819 31820 31821 31822 31823 31824 31825 31826 31827 31828 31829 31830 31831 31832 31833 31834 31835 31836 31837 31838 31839 31840 31841 31842 31843 31844 31845 31846 31847 31848 31849 31850 31851 31852 31853 31854 31855 31856 31857 31858 31859 31860 31861 31862 31863 31864 31865 31866 31867 31868 31869 31870 31871 31872 31873 31874 31875 31876 31877 31878 31879 31880 31881 31882 31883 31884 31885 31886 31887 31888 31889 31890 31891 31892 31893 31894 31895 31896 31897 
</DataArray>
<DataArray type="UInt32" Name="offsets" format="ascii">
3 6 9 12 15 17 20 23 26 29 32 35 38 40 43 46 49 52 54 57 60 62 65 68 71 74 76 79 82 85 88 90 93 96 99 102 105 108 111 114 117 120 123 126 129 131 134 137 139 142 145 148 151 154 156 159 162 165 168 171 174 177 179 182 185 188 191 193 196 199 202 205 208 211 214 217 220 222 225 228 230 233 236 238 241 244 247 250 252 255 258 261 264 267 270 273 275 277 279 282 285 287 290 293 296 299 302 304 307 310 313 316 319 322 325 328 331 334 337 340 343 345 348 351 354 356 359 362 365 368 371 374 376 379 382 385 388 391 394 397 400 403 406 409 412 415 418 421 424 427 430 433 436 439 442 445 448 451 453 456 459 462 464 467 470 472 475 478 481 484 487 490 493 496 499 502 505 507 510 513 516 519 522 525 528 531 533 536 539 542 545 548 551 554 557 559 562 565 568 571 574 577 580 583 586 588 591 594 597 600 603 606 609 612 615 618 621 624 627 630 633 636 639 642 645 648 651 654 657 659 662 665 668 670 673 675 678 680 683 686 688 691 694 697 699 702 704 707 709 712 714 716 719 721 724 727 729 732 734 737 740 743 745 748 750 752 755 758 760 763 766 769 771 774 776 778 780 783 785 788 791 794 796 799 801 803 805 808 811 813 815 818 821 824 827 829 832 834 837 840 842 845 848 851 853 856 858 860 862 865 868 871 873 876 878 880 882 884 887 890 893 895 897 900 903 905 907 909 912 914 917 920 923 926 928 931 934 937 940 943 946 949 951 954 957 960 963 966 969 971 973 976 979 982 984 987 990 993 995 998 1000 1003 1005 1007 1010 1013 1016 1019 1021 1024 1027 1029 1032 1035 1038 1041 1043 1046 1048 1051 1054 1057 1060 1063 1065 1067 1070 1073 1076 1079 1082 1085 1088 1091 1093 1096 1099 1102 1104 1107 1110 1112 1115 1117 1120 1123 1126 1129 1132 1135 1138 1141 1144 1147 1150 1152 1155 1157 1160 1162 1165 1168 1171 1173 1176 1178 1181 1183 1186 1189 1192 1195 1198 1201 1203 1206 1208 1211 1214 1217 1219 1222 1225 1228 1230 1233 1235 1237 1240 1243 1246 1249 1251 1254 1257 1260 1263 1265 1267 1270 1273 1275 1278 1280 1283 1285 1287 1290 1293 1296 1298 1301 1304 1307 1310 1312 1315 1318 1321 1324 1327 1330 1333 1336 1339 1342 1345 1347 1350 1353 1356 1359 1361 1364 1367 1370 1372 1375 1377 1379 1381 1384 1387 1390 1392 1394 1397 1399 1402 1405 1407 1410 1413 1416 1419 1421 1424 1427 1430 1433 1436 1439 1442 1445 1448 1451 1454 1456 1458 1461 1464 1466 1469 1472 1475 1477 1480 1483 1486 1489 1492 1495 1497 1500 1503 1506 1508 1511 1514 1517 1519 1522 1525 1528 1531 1534 1537 1540 1543 1546 1549 1552 1554 1557 1560 1563 1565 1568 1571 1574 1577 1580 1583 1586 1588 1591 1594 1597 1600 1603 1605 1608 1611 1614 1617 1620 1623 1626 1629 1632 1635 1638 1641 1644 1647 1650 1653 1656 1659 1662 1664 1667 1670 1673 1676 1678 1681 1684 1686 1689 1692 1695 1698 1701 1704 1707 1709 1712 1715 1718 1721 1724 1727 1730 1733 1735 1738 1740 1743 1746 1748 1751 1754 1757 1759 1762 1765 1767 1770 1773 1776 1778 1781 1783 1786 1789 1791 1794 1796 1799 1802 1805 1808 1811 1814 1817 1820 1823 1826 1829 1832 1835 1838 1841 1844 1847 1850 1853 1856 1859 1862 1864 1867 1869 1872 1874 1877 1880 1883 1886 1889 1892 1895 1898 1901 1904 1907 1910 1913 1916 1919 1921 1924 1927 1930 1933 1936 1939 1942 1945 1948 1950 1953 1956 1959 1962 1965 1968 1971 1974 1977 1980 1983 1986 1989 1992 1995 1998 2001 2004 2007 2010 2013 2016 2019 2022 2025 2028 2031 2034 2037 2039 2042 2045 2047 2050 2053 2056 2058 2060 2063 2065 2068 2071 2074 2077 2080 2082 2085 2088 2091 2094 2097 2099 2102 2105 2108 2111 2114 2117 2120 2123 2126 2129 2132 2135 2138 2141 2144 2147 2150 2153 2156 2159 2162 2165 2168 2171 2174 2177 2180 2183 2186 2189 2192 2195 2198 2201 2204 2207 2210 2213 2216 2219 2222 2225 2228 2231 2234 2237 2240 2243 2246 2248 2251 2254 2257 2260 2263 2266 2269 2272 2275 2278 2281 2284 2287 2290 2293 2295 2298 2301 2304 2307 2309 2312 2315 2318 2321 2324 2327 2330 2333 2336 2339 2342 2345 2348 2351 2354 2357 2360 2363 2366 2369 2372 2375 2378 2381 2384 2387 2390 2392 2395 2398 2400 2403 2405 2407 2409 2411 2414 2417 2419 2422 2425 2428 2431 2434 2437 2440 2443 2446 2449 2452 2455 2458 2461 2464 2467 2470 2472 2475 2478 2480 2483 2485 2488 2491 2494 2497 2499 2502 2504 2507 2510 2513 2516 2518 2521 2524 2527 2529 2532 2535 2538 2541 2544 2546 2549 2551 2554 2557 2559 2561 2564 2566 2569 2572 2575 2578 2581 2584 2587 2590 2593 2596 2599 2601 2604 2607 2610 2612 2615 2618 2621 2623 2626 2629 2631 2633 2635 2638 2641 2644 2647 2650 2653 2656 2659 2662 2665 2668 2670 2673 2676 2679 2682 2685 2688 2691 2694 2696 2698 2700 2703 2706 2709 2712 2715 2718 2721 2724 2726 2728 2731 2734 2737 2739 2742 2745 2747 2750 2753 2756 2759 2762 2765 2768 2771 2774 2777 2780 2782 2785 2788 2791 2794 2797 2800 2803 2806 2808 2811 2814 2817 2820 2823 2826 2829 2832 2835 2838 2840 2843 2845 2847 2849 2852 2855 2858 2861 2864 2867 2870 2872 2874 2877 2879 2882 2885 2888 2891 2894 2896 2899 2901 2903 2906 2909 2912 2914 2917 2919 2922 2925 2928 2931 2933 2936 2939 2942 2945 2948 2951 2954 2957 2960 2963 2966 2969 2972 2975 2978 2981 2984 2986 2989 2992 2995 2997 3000 3003 3006 3009 3012 3014 3017 3020 3023 3026 3029 3032 3034 3037 3039 3042 3045 3048 3051 3054 3057 3060 3063 3065 3068 3071 3074 3076 3079 3082 3085 3088 3091 3094 3097 3100 3103 3106 3109 3112 3115 3118 3121 3124 3127 3130 3133 3136 3139 3142 3145 3148 3151 3153 3155 3157 3160 3163 3166 3169 3171 3174 3177 3180 3183 3185 3188 3191 3194 3197 3200 3203 3206 3208 3211 3214 3217 3220 3223 3226 3229 3232 3234 3237 3240 3243 3246 3249 3252 3255 3258 3261 3264 3267 3270 3272 3275 3278 3281 3284 3287 3290 3292 3295 3298 3301 3304 3307 3310 3313 3316 3318 3321 3324 3327 3329 3332 3335 3338 3341 3344 3347 3350 3353 3356 3359 3362 3365 3367 3370 3373 3376 3379 3382 3385 3388 3391 3394 3397 3400 3403 3406 3409 3412 3415 3418 3421 3424 3427 3430 3433 3436 3439 3442 3445 3448 3451 3454 3457 3460 3463 3466 3469 3472 3475 3478 3481 3484 3487 3490 3493 3496 3499 3502 3505 3508 3510 3513 3516 3519 3522 3525 3528 3531 3534 3537 3540 3543 3546 3549 3552 3555 3558 3561 3564 3567 3570 3573 3576 3579 3582 3584 3587 3590 3593 3596 3599 3602 3605 3608 3611 3614 3616 3619 3622 3624 3627 3630 3633 3636 3639 3642 3645 3648 3651 3653 3656 3658 3661 3664 3667 3670 3672 3675 3678 3680 3683 3685 3688 3691 3694 3697 3700 3702 3705 3708 3711 3714 3717 3720 3723 3726 3728 3731 3734 3737 3740 3743 3746 3749 3752 3755 3758 3761 3764 3767 3770 3772 3775 3777 3779 3782 3785 3788 3791 3794 3796 3799 3802 3805 3808 3811 3814 3817 3820 3823 3826 3829 3832 3835 3838 3841 3843 3846 3849 3852 3855 3858 3861 3864 3867 3870 3873 3876 3879 3882 3885 3888 3891 3893 3896 3899 3902 3905 3908 3910 3912 3915 3918 3920 3923 3926 3929 3932 3935 3938 3941 3944 3947 3950 3952 3955 3958 3961 3964 3967 3970 3973 3976 3979 3981 3984 3986 3989 3992 3995 3998 4001 4003 4006 4009 4012 4015 4017 4020 4023 4026 4028 4031 4034 4037 4039 4042 4045 4047 4050 4053 4056 4059 4062 4065 4068 4071 4074 4077 4080 4083 4086 4089 4092 4095 4097 4100 4103 4106 4109 4112 4115 4118 4120 4123 4126 4129 4132 4135 4138 4141 4144 4147 4150 4153 4156 4159 4162 4165 4168 4171 4174 4177 4180 4183 4186 4189 4192 4195 4198 4201 4203 4206 4209 4212 4215 4217 4220 4223 4226 4228 4231 4234 4237 4240 4243 4246 4249 4252 4255 4257 4260 4262 4265 4268 4271 4274 4277 4280 4283 4286 4289 4292 4295 4298 4301 4304 4307 4310 4313 4316 4318 4320 4323 4326 4329 4331 4334 4337 4339 4342 4345 4347 4350 4353 4356 4358 4361 4364 4366 4369 4372 4375 4378 4381 4384 4387 4390 4393 4396 4399 4402 4405 4408 4411 4414 4417 4420 4423 4426 4428 4431 4433 4436 4439 4442 4445 4448 4451 4454 4457 4460 4463 4466 4468 4471 4473 4476 4479 4482 4484 4487 4490 4493 4496 4499 4501 4504 4507 4510 4513 4516 4519 4521 4524 4527 4530 4533 4536 4539 4542 4545 4548 4551 4554 4556 4559 4562 4565 4568 4571 4574 4577 4580 4582 4585 4588 4591 4593 4596 4599 4601 4604 4607 4610 4613 4616 4618 4621 4624 4627 4630 4633 4636 4639 4642 4645 4647 4650 4653 4655 4658 4660 4663 4665 4667 4669 4672 4674 4677 4680 4683 4686 4689 4692 4694 4697 4700 4703 4706 4709 4712 4714 4717 4720 4723 4726 4729 4732 4735 4737 4740 4743 4746 4749 4751 4754 4757 4760 4763 4766 4768 4771 4773 4776 4779 4782 4785 4788 4791 4794 4797 4800 4803 4805 4808 4811 4814 4817 4820 4823 4826 4828 4831 4834 4837 4840 4843 4846 4849 4851 4854 4856 4859 4862 4865 4868 4871 4874 4877 4880 4882 4885 4888 4891 4893 4895 4898 4901 4904 4907 4910 4912 4914 4917 4919 4922 4925 4927 4930 4933 4935 4938 4941 4944 4947 4950 4953 4956 4959 4961 4964 4967 4970 4973 4976 4978 4981 4984 4987 4990 4992 4995 4998 5000 5003 5006 5009 5012 5015 5018 5021 5024 5027 5030 5033 5036 5039 5042 5045 5048 5051 5054 5057 5060 5063 5066 5069 5072 5075 5078 5081 5084 5087 5090 5093 5096 5099 5102 5105 5108 5111 5114 5117 5120 5123 5125 5128 5131 5133 5136 5139 5142 5145 5148 5150 5153 5156 5159 5162 5164 5167 5170 5173 5176 5179 5182 5185 5188 5191 5194 5197 5200 5203 5206 5209 5212 5215 5218 5221 5224 5227 5230 5233 5236 5238 5241 5244 5247 5249 5252 5255 5258 5261 5264 5267 5269 5272 5275 5278 5281 5284 5287 5290 5293 5296 5299 5302 5304 5307 5309 5311 5314 5317 5319 5322 5325 5328 5331 5334 5337 5340 5343 5346 5349 5352 5354 5357 5360 5362 5365 5368 5371 5374 5377 5380 5383 5386 5389 5392 5395 5398 5401 5404 5407 5409 5412 5415 5418 5421 5424 5427 5430 5432 5435 5437 5440 5443 5446 5449 5451 5454 5456 5459 5462 5465 5468 5471 5474 5477 5480 5483 5485 5488 5491 5494 5497 5500 5503 5506 5509 5512 5515 5518 5521 5524 5527 5530 5533 5536 5538 5541 5544 5547 5550 5553 5556 5559 5562 5565 5568 5571 5574 5577 5580 5583 5586 5589 5592 5595 5598 5601 5604 5607 5610 5613 5615 5617 5620 5623 5626 5629 5632 5635 5638 5641 5644 5647 5650 5652 5655 5658 5661 5664 5666 5669 5672 5675 5678 5680 5683 5686 5689 5692 5695 5698 5701 5704 5706 5709 5712 5715 5718 5721 5724 5727 5730 5733 5735 5738 5741 5744 5747 5750 5753 5756 5759 5762 5765 5768 5771 5774 5777 5780 5783 5786 5789 5792 5795 5797 5800 5803 5806 5809 5812 5815 5818 5821 5824 5827 5830 5833 5836 5839 5841 5844 5846 5849 5852 5855 5858 5861 5864 5867 5870 5872 5875 5878 5880 5883 5886 5889 5892 5895 5898 5901 5904 5907 5910 5913 5916 5919 5922 5925 5928 5931 5934 5937 5940 5943 5946 5949 5952 5955 5958 5961 5964 5967 5970 5973 5976 5979 5982 5985 5988 5990 5993 5996 5998 6001 6004 6007 6010 6012 6015 6017 6020 6023 6025 6028 6030 6033 6036 6039 6042 6045 6047 6050 6053 6056 6059 6062 6065 6068 6071 6074 6077 6080 6083 6085 6088 6091 6094 6096 6099 6102 6105 6108 6111 6114 6117 6120 6123 6125 6128 6131 6134 6137 6139 6141 6144 6147 6150 6153 6156 6159 6162 6165 6167 6170 6173 6176 6179 6182 6184 6187 6190 6193 6195 6198 6201 6204 6206 6209 6212 6215 6218 6220 6223 6226 6229 6232 6235 6238 6241 6244 6247 6250 6253 6256 6259 6262 6264 6267 6270 6273 6276 6279 6282 6284 6287 6289 6291 6294 6296 6299 6301 6304 6307 6310 6313 6315 6318 6321 6324 6327 6329 6332 6335 6338 6341 6344 6347 6350 6353 6356 6358 6361 6364 6367 6370 6373 6376 6379 6382 6385 6388 6391 6394 6397 6400 6402 6405 6408 6411 6413 6416 6419 6422 6424 6427 6429 6432 6435 6438 6441 6444 6447 6450 6453 6456 6459 6462 6465 6468 6471 6474 6477 6479 6482 6485 6488 6491 6494 6497 6499 6502 6505 6508 6511 6514 6517 6520 6523 6526 6529 6532 6535 6538 6541 6544 6547 6550 6553 6555 6558 6561 6564 6567 6570 6573 6576 6579 6582 6585 6588 6591 6594 6597 6600 6603 6606 6609 6612 6615 6618 6621 6624 6627 6630 6633 6636 6639 6642 6645 6648 6651 6654 6657 6659 6662 6665 6668 6671 6673 6676 6679 6682 6685 6688 6691 6694 6696 6699 6702 6705 6708 6711 6714 6717 6720 6723 6725 6728 6731 6733 6736 6739 6742 6745 6748 6750 6753 6756 6759 6761 6764 6767 6769 6772 6775 6778 6781 6784 6787 6790 6793 6796 6799 6802 6805 6808 6811 6814 6817 6820 6823 6826 6829 6831 6834 6837 6840 6843 6846 6849 6852 6855 6858 6861 6863 6865 6868 6870 6873 6876 6879 6882 6885 6887 6890 6893 6896 6899 6901 6904 6907 6910 6913 6916 6918 6921 6923 6926 6929 6931 6934 6937 6940 6943 6946 6949 6952 6955 6957 6960 6963 6966 6969 6972 6975 6977 6980 6983 6986 6989 6992 6995 6997 7000 7003 7006 7009 7011 7014 7017 7019 7022 7024 7027 7030 7032 7035 7038 7041 7044 7047 7050 7052 7055 7058 7061 7064 7066 7069 7072 7075 7078 7081 7084 7087 7090 7092 7094 7097 7100 7103 7106 7109 7112 7115 7118 7120 7123 7126 7129 7132 7135 7138 7140 7143 7146 7149 7152 7155 7158 7161 7163 7166 7169 7172 7174 7177 7180 7183 7186 7189 7192 7195 7198 7201 7204 7207 7210 7212 7215 7218 7221 7224 7226 7229 7232 7234 7237 7240 7243 7246 7248 7251 7254 7257 7259 7261 7264 7267 7270 7272 7275 7278 7281 7283 7286 7289 7292 7295 7298 7301 7304 7307 7310 7312 7315 7318 7321 7323 7326 7329 7332 7335 7338 7341 7344 7347 7350 7353 7356 7359 7361 7364 7366 7369 7372 7374 7377 7380 7382 7385 7388 7391 7394 7397 7400 7403 7405 7408 7411 7414 7417 7420 7422 7425 7427 7430 7433 7436 7438 7440 7443 7445 7447 7450 7452 7455 7458 7461 7464 7467 7470 7472 7475 7477 7480 7483 7486 7489 7492 7495 7498 7501 7504 7507 7510 7513 7516 7518 7521 7524 7526 7529 7531 7534 7537 7539 7542 7545 7548 7550 7552 7555 7558 7560 7563 7566 7569 7572 7575 7578 7581 7584 7587 7590 7593 7596 7599 7602 7605 7608 7611 7614 7617 7620 7623 7626 7629 7631 7633 7636 7638 7641 7643 7646 7649 7651 7653 7656 7659 7661 7664 7667 7669 7672 7675 7677 7680 7682 7685 7688 7691 7694 7696 7699 7702 7705 7708 7710 7713 7715 7717 7720 7722 7725 7728 7730 7732 7735 7738 7741 7743 7746 7749 7752 7755 7757 7759 7762 7765 7768 7771 7774 7776 7779 7782 7785 7788 7791 7794 7797 7800 7803 7806 7809 7811 7814 7816 7819 7821 7824 7827 7829 7832 7834 7837 7840 7843 7846 7849 7852 7855 7858 7860 7863 7866 7868 7871 7874 7877 7880 7882 7885 7888 7891 7894 7897 7900 7903 7906 7909 7912 7915 7918 7920 7923 7926 7929 7932 7935 7938 7941 7944 7947 7950 7953 7955 7958 7961 7964 7967 7970 7973 7975 7978 7980 7983 7986 7988 7991 7994 7997 8000 8003 8006 8009 8012 8015 8018 8021 8024 8027 8030 8033 8036 8039 8041 8043 8046 8049 8052 8054 8057 8060 8062 8065 8068 8071 8074 8077 8080 8083 8086 8089 8092 8095 8098 8101 8104 8107 8110 8113 8116 8119 8122 8125 8128 8131 8134 8137 8139 8141 8144 8147 8150 8153 8156 8159 8162 8165 8168 8171 8174 8176 8179 8182 8185 8188 8191 8194 8197 8200 8203 8206 8209 8212 8215 8218 8221 8224 8227 8230 8233 8236 8239 8242 8245 8248 8251 8254 8257 8260 8263 8266 8269 8272 8275 8277 8280 8283 8286 8289 8292 8294 8297 8300 8302 8305 8308 8310 8312 8315 8318 8321 8324 8327 8330 8333 8336 8339 8342 8345 8348 8351 8353 8356 8359 8361 8364 8367 8370 8373 8376 8379 8381 8384 8387 8389 8392 8395 8398 8401 8404 8407 8410 8413 8416 8419 8422 8425 8428 8430 8433 8436 8439 8442 8445 8448 8451 8453 8456 8459 8462 8465 8468 8471 8474 8477 8480 8483 8486 8489 8491 8494 8497 8499 8502 8505 8508 8511 8514 8517 8520 8523 8526 8529 8532 8535 8538 8541 8544 8547 8550 8553 8556 8559 8561 8564 8567 8569 8572 8574 8577 8580 8583 8585 8588 8591 8593 8596 8598 8601 8604 8607 8609 8612 8615 8618 8621 8623 8626 8629 8632 8635 8638 8641 8644 8646 8649 8652 8655 8657 8660 8663 8666 8669 8672 8675 8678 8681 8684 8687 8690 8693 8695 8698 8701 8704 8707 8710 8713 8716 8719 8721 8724 8727 8730 8733 8736 8739 8742 8745 8748 8751 8754 8756 8759 8762 8765 8768 8771 8774 8777 8780 8783 8786 8789 8792 8795 8798 8801 8804 8807 8810 8813 8815 8817 8820 8823 8826 8828 8831 8834 8837 8840 8843 8846 8849 8852 8855 8858 8861 8864 8866 8869 8872 8875 8878 8881 8884 8887 8890 8893 8895 8898 8901 8904 8907 8910 8913 8916 8919 8922 8925 8928 8931 8934 8937 8940 8943 8945 8948 8950 8953 8956 8959 8962 8965 8967 8970 8973 8976 8979 8981 8984 8987 8990 8992 8995 8998 9001 9003 9006 9009 9012 9015 9018 9021 9024 9027 9030 9032 9035 9038 9041 9043 9046 9049 9051 9054 9057 9060 9063 9066 9069 9071 9074 9077 9080 9083 9086 9089 9092 9095 9097 9100 9103 9106 9108 9111 9114 9117 9120 9123 9126 9129 9132 9135 9138 9141 9144 9147 9150 9153 9156 9159 9162 9165 9168 9171 9174 9177 9180 9183 9186 9189 9191 9194 9197 9200 9203 9206 9209 9212 9214 9217 9220 9223 9226 9229 9232 9235 9238 9241 9244 9247 9250 9253 9256 9259 9262 9265 9268 9271 9274 9277 9280 9283 9286 9289 9291 9294 9296 9299 9302 9305 9308 9311 9314 9316 9319 9322 9325 9327 9330 9333 9335 9338 9341 9344 9347 9350 9353 9356 9359 9362 9365 9368 9371 9373 9376 9379 9382 9385 9388 9390 9393 9396 9399 9402 9405 9408 9411 9414 9417 9420 9423 9426 9429 9431 9434 9437 9440 9442 9445 9448 9451 9454 9457 9460 9463 9466 9469 9472 9475 9478 9480 9482 9485 9488 9491 9494 9496 9499 9502 9505 9508 9511 9514 9517 9520 9523 9525 9527 9530 9533 9536 9539 9542 9544 9547 9550 9553 9556 9559 9561 9564 9567 9570 9573 9576 9578 9581 9583 9586 9589 9592 9595 9597 9600 9602 9605 9607 9609 9612 9615 9618 9621 9624 9627 9630 9632 9634 9637 9640 9643 9646 9649 9652 9654 9656 9658 9661 9663 9665 9668 9671 9674 9676 9679 9682 9685 9688 9691 9693 9695 9697 9700 9702 9705 9708 9711 9713 9716 9718 9720 9723 9726 9729 9732 9735 9738 9741 9743 9745 9748 9751 9753 9755 9757 9760 9763 9766 9769 9772 9775 9778 9781 9784 9787 9790 9793 9796 9799 9802 9805 9808 9811 9814 9817 9820 9823 9826 9829 9832 9835 9838 9841 9844 9847 9850 9853 9856 9859 9862 9865 9868 9871 9874 9877 9879 9882 9885 9888 9891 9894 9897 9900 9903 9906 9909 9911 9914 9917 9920 9923 9926 9929 9931 9934 9937 9939 9942 9945 9948 9951 9954 9957 9960 9963 9966 9969 9972 9975 9978 9980 9983 9985 9988 9991 9994 9997 9999 10002 10005 10008 10010 10013 10016 10018 10021 10024 10027 10029 10032 10035 10037 10040 10043 10046 10049 10052 10054 10057 10060 10063 10066 10069 10072 10075 10077 10080 10083 10086 10089 10092 10095 10098 10100 10103 10106 10108 10111 10114 10117 10120 10122 10125 10127 10130 10133 10136 10139 10142 10144 10147 10150 10153 10156 10158 10161 10164 10167 10170 10173 10176 10178 10180 10183 10186 10189 10192 10195 10197 10200 10203 10205 10208 10211 10214 10217 10220 10223 10226 10229 10232 10235 10237 10240 10243 10246 10249 10252 10255 10258 10261 10264 10267 10270 10273 10276 10279 10282 10285 10288 10291 10293 10296 10299 10302 10305 10308 10311 10313 10316 10319 10322 10325 10328 10331 10334 10336 10338 10341 10344 10347 10350 10352 10355 10358 10361 10364 10367 10370 10373 10375 10378 10381 10383 10386 10388 10390 10392 10395 10398 10401 10404 10407 10410 10412 10415 10418 10421 10424 10427 10429 10432 10435 10438 10441 10443 10446 10449 10452 10454 10457 10460 10463 10465 10468 10471 10474 10477 10480 10483 10486 10489 10492 10495 10498 10501 10504 10507 10510 10513 10516 10519 10522 10525 10528 10531 10534 10537 10540 10542 10545 10548 10551 10554 10557 10560 10563 10565 10568 10570 10573 10576 10579 10582 10585 10588 10590 10593 10596 10598 10601 10604 10607 10609 10612 10615 10617 10620 10623 10626 10629 10632 10634 10637 10640 10643 10645 10647 10650 10653 10656 10659 10662 10665 10668 10671 10674 10677 10680 10683 10685 10688 10691 10694 10697 10700 10703 10706 10709 10712 10714 10717 10720 10723 10726 10729 10731 10733 10736 10739 10742 10745 10748 10751 10754 10757 10760 10762 10765 10768 10771 10774 10777 10780 10783 10786 10788 10791 10794 10797 10800 10803 10806 10809 10812 10815 10818 10821 10824 10827 10830 10833 10836 10839 10842 10844 10847 10850 10853 10856 10858 10861 10863 10866 10868 10871 10874 10877 10880 10883 10886 10889 10892 10895 10898 10901 10904 10907 10910 10913 10916 10919 10921 10924 10927 10930 10933 10936 10938 10941 10944 10947 10949 10951 10954 10957 10960 10963 10966 10968 10971 10974 10977 10980 10982 10985 10988 10991 10994 10997 11000 11003 11006 11008 11011 11014 11017 11020 11023 11026 11029 11031 11034 11037 11040 11043 11046 11049 11052 11055 11058 11060 11063 11066 11069 11072 11075 11078 11081 11084 11087 11090 11093 11096 11099 11102 11105 11108 11111 11114 11116 11119 11122 11125 11128 11131 11134 11137 11140 11143 11146 11149 11152 11155 11157 11160 11163 11166 11169 11172 11175 11177 11180 11183 11185 11188 11191 11193 11196 11199 11202 11205 11208 11211 11214 11217 11220 11223 11226 11229 11232 11235 11238 11241 11244 11247 11250 11253 11256 11259 11262 11265 11268 11271 11273 11276 11278 11281 11283 11285 11288 11291 11294 11296 11299 11302 11305 11308 11311 11314 11317 11320 11323 11325 11327 11330 11332 11335 11338 11341 11344 11347 11350 11353 11356 11359 11362 11365 11368 11371 11374 11376 11379 11381 11383 11386 11388 11391 11394 11397 11400 11403 11406 11409 11412 11415 11417 11419 11422 11425 11428 11431 11434 11437 11440 11443 11446 11449 11452 11455 11458 11461 11464 11467 11470 11473 11476 11479 11482 11485 11487 11490 11493 11496 11499 11502 11504 11507 11510 11513 11516 11519 11521 11524 11527 11530 11532 11535 11538 11541 11544 11547 11550 11553 11556 11559 11561 11564 11567 11570 11573 11575 11578 11581 11584 11587 11590 11593 11595 11598 11601 11604 11607 11610 11613 11616 11618 11621 11624 11627 11630 11632 11635 11638 11641 11644 11647 11650 11653 11656 11659 11662 11664 11667 11670 11673 11676 11678 11681 11684 11687 11689 11692 11695 11698 11701 11704 11706 11709 11712 11715 11718 11721 11724 11727 11730 11733 11736 11739 11742 11745 11748 11750 11752 11755 11758 11760 11763 11766 11769 11772 11775 11778 11781 11783 11786 11789 11792 11795 11798 11801 11803 11806 11809 11812 11815 11818 11821 11824 11827 11830 11833 11836 11839 11842 11845 11848 11851 11854 11857 11860 11863 11866 11869 11872 11874 11877 11880 11883 11886 11889 11892 11895 11898 11900 11903 11906 11909 11912 11914 11917 11920 11923 11926 11929 11931 11934 11936 11939 11941 11944 11947 11950 11953 11956 11959 11962 11964 11967 11970 11973 11975 11978 11981 11984 11987 11990 11992 11995 11998 12001 12004 12007 12009 12012 12014 12017 12020 12022 12025 12027 12030 12033 12036 12039 12042 12044 12047 12050 12053 12055 12058 12061 12064 12067 12070 12073 12076 12079 12082 12085 12087 12090 12093 12096 12099 12102 12105 12108 12111 12114 12117 12120 12123 12126 12129 12132 12135 12138 12141 12144 12147 12150 12153 12155 12158 12161 12164 12167 12170 12173 12176 12179 12182 12185 12188 12191 12194 12197 12200 12203 12206 12209 12211 12214 12217 12220 12222 12225 12228 12231 12234 12237 12240 12242 12245 12248 12251 12253 12255 12258 12260 12263 12265 12267 12270 12272 12275 12278 12280 12283 12286 12288 12290 12293 12296 12299 12302 12305 12308 12311 12314 12316 12319 12321 12324 12327 12330 12333 12336 12339 12342 12345 12348 12351 12354 12357 12360 12363 12366 12369 12372 12375 12378 12381 12384 12387 12389 12392 12395 12398 12401 12404 12407 12410 12413 12415 12418 12421 12423 12426 12429 12431 12433 12436 12439 12441 12444 12447 12450 12453 12456 12459 12462 12465 12468 12471 12474 12477 12480 12483 12486 12489 12492 12495 12498 12501 12504 12507 12510 12513 12516 12519 12522 12525 12528 12531 12534 12537 12540 12543 12546 12549 12552 12555 12558 12560 12563 12565 12568 12571 12574 12577 12580 12583 12586 12589 12592 12595 12598 12601 12604 12607 12610 12613 12616 12619 12622 12625 12628 12631 12634 12637 12640 12643 12646 12649 12652 12655 12658 12661 12664 12667 12670 12673 12676 12679 12682 12685 12687 12690 12693 12695 12698 12701 12704 12707 12710 12712 12715 12717 12720 12723 12725 12728 12731 12734 12737 12740 12743 12745 12748 12751 12754 12757 12760 12763 12766 12769 12772 12775 12778 12780 12783 12786 12788 12790 12793 12795 12798 12801 12803 12806 12809 12812 12815 12817 12820 12823 12826 12829 12832 12835 12838 12841 12844 12846 12849 12851 12854 12857 12860 12863 12866 12869 12872 12874 12877 12879 12882 12885 12888 12891 12894 12897 12900 12903 12906 12908 12911 12913 12916 12919 12922 12925 12928 12931 12934 12937 12940 12943 12945 12948 12951 12954 12956 12959 12962 12964 12967 12970 12972 12975 12978 12981 12984 12986 12989 12992 12995 12997 13000 13003 13006 13009 13012 13015 13018 13021 13024 13027 13030 13033 13036 13039 13041 13044 13047 13050 13053 13056 13059 13061 13064 13066 13069 13071 13074 13077 13080 13082 13085 13088 13091 13094 13097 13100 13103 13106 13108 13111 13114 13117 13120 13123 13125 13128 13131 13133 13136 13139 13142 13145 13148 13151 13154 13157 13160 13162 13165 13168 13171 13173 13176 13179 13182 13185 13188 13191 13193 13196 13199 13202 13205 13208 13211 13214 13217 13220 13223 13226 13229 13232 13235 13238 13241 13244 13247 13250 13253 13256 13259 13262 13265 13268 13271 13274 13277 13280 13283 13286 13288 13291 13294 13297 13300 13303 13305 13308 13311 13313 13315 13318 13321 13324 13327 13329 13332 13335 13338 13341 13344 13346 13349 13352 13355 13358 13361 13364 13367 13370 13373 13376 13379 13382 13385 13388 13391 13394 13396 13399 13402 13405 13408 13411 13414 13417 13420 13422 13424 13427 13430 13433 13436 13439 13442 13444 13447 13450 13453 13456 13458 13461 13464 13467 13470 13473 13476 13479 13482 13485 13488 13491 13494 13497 13500 13503 13506 13509 13512 13515 13518 13521 13524 13527 13530 13532 13535 13538 13540 13543 13546 13549 13552 13555 13558 13561 13564 13567 13570 13573 13576 13579 13582 13585 13588 13591 13594 13597 13600 13603 13606 13609 13612 13615 13618 13621 13623 13626 13628 13631 13634 13637 13640 13643 13645 13648 13651 13654 13657 13660 13663 13666 13669 13672 13675 13678 13681 13684 13687 13690 13693 13696 13699 13702 13705 13707 13709 13712 13714 13717 13720 13723 13726 13729 13732 13735 13738 13741 13744 13747 13750 13753 13756 13759 13762 13764 13767 13770 13773 13775 13778 13781 13784 13787 13790 13793 13796 13799 13802 13805 13808 13811 13814 13816 13819 13822 13825 13828 13831 13834 13837 13840 13843 13846 13849 13852 13855 13858 13861 13864 13867 13870 13873 13876 13879 13882 13884 13887 13890 13893 13896 13899 13902 13905 13908 13911 13914 13917 13920 13923 13925 13928 13930 13933 13936 13938 13940 13943 13946 13949 13952 13955 13958 13961 13964 13967 13970 13973 13976 13979 13982 13985 13988 13991 13994 13997 14000 14002 14005 14008 14010 14013 14016 14019 14021 14024 14027 14030 14033 14036 14039 14041 14044 14047 14050 14052 14055 14058 14061 14064 14067 14070 14073 14076 14078 14081 14084 14086 14089 14092 14094 14097 14099 14102 14105 14108 14111 14113 14115 14118 14121 14123 14125 14128 14131 14133 14136 14139 14142 14145 14147 14150 14153 14155 14157 14160 14162 14165 14168 14171 14174 14177 14180 14183 14186 14189 14192 14195 14198 14201 14204 14207 14210 14213 14216 14219 14222 14224 14227 14230 14233 14236 14238 14241 14244 14247 14250 14252 14254 14257 14260 14263 14266 14269 14272 14275 14278 14281 14284 14287 14290 14292 14295 14298 14301 14303 14306 14309 14312 14315 14318 14321 14324 14326 14329 14332 14335 14337 14340 14343 14345 14347 14350 14353 14356 14358 14361 14364 14367 14369 14372 14375 14378 14381 14384 14387 14390 14393 14396 14399 14402 14405 14408 14411 14414 14417 14420 14423 14425 14428 14431 14434 14437 14440 14443 14446 14449 14452 14455 14458 14461 14464 14467 14470 14473 14476 14479 14481 14483 14486 14489 14492 14495 14498 14500 14502 14505 14507 14510 14513 14516 14519 14522 14525 14528 14531 14534 14536 14539 14542 14545 14547 14550 14553 14556 14559 14562 14565 14568 14571 14574 14577 14580 14583 14586 14589 14591 14594 14597 14600 14603 14606 14609 14612 14614 14617 14620 14622 14625 14628 14631 14634 14637 14640 14642 14645 14648 14651 14654 14656 14659 14662 14665 14668 14671 14674 14676 14679 14682 14685 14688 14691 14694 14697 14700 14702 14704 14707 14710 14713 14715 14717 14720 14723 14726 14729 14732 14734 14737 14740 14743 14746 14749 14752 14754 14757 14760 14763 14766 14768 14771 14774 14777 14780 14783 14785 14788 14791 14794 14797 14799 14802 14805 14808 14811 14814 14817 14820 14823 14826 14829 14832 14835 14838 14841 14844 14847 14850 14853 14856 14859 14862 14865 14868 14871 14874 14876 14879 14882 14885 14888 14890 14893 14895 14898 14900 14903 14906 14908 14911 14914 14916 14919 14922 14924 14927 14930 14933 14936 14939 14942 14944 14947 14950 14952 14955 14957 14959 14961 14964 14967 14969 14972 14974 14976 14979 14982 14985 14987 14990 14992 14995 14998 15001 15004 15007 15010 15012 15015 15018 15021 15023 15026 15029 15032 15035 15038 15041 15044 15046 15049 15052 15055 15057 15060 15062 15064 15067 15070 15073 15076 15079 15082 15085 15087 15090 15093 15096 15099 15102 15105 15108 15111 15113 15115 15118 15121 15124 15127 15129 15132 15135 15137 15140 15143 15146 15148 15151 15154 15157 15159 15161 15164 15167 15170 15173 15175 15178 15181 15184 15187 15190 15192 15194 15197 15200 15203 15206 15209 15212 15215 15218 15221 15224 15227 15230 15233 15236 15239 15242 15245 15248 15251 15254 15257 15260 15263 15266 15269 15272 15275 15278 15281 15284 15287 15289 15292 15295 15298 15300 15303 15306 15309 15312 15315 15318 15321 15324 15327 15330 15333 15336 15339 15342 15345 15347 15350 15352 15354 15357 15360 15362 15365 15368 15371 15374 15377 15380 15383 15386 15389 15392 15395 15398 15401 15404 15407 15410 15413 15416 15419 15422 15425 15428 15431 15433 15436 15439 15441 15443 15446 15449 15452 15455 15458 15461 15464 15466 15469 15472 15475 15477 15480 15483 15486 15489 15491 15493 15496 15499 15502 15505 15508 15511 15514 15516 15519 15522 15525 15528 15530 15533 15536 15539 15542 15544 15547 15550 15553 15556 15559 15562 15565 15568 15571 15574 15577 15580 15583 15586 15589 15592 15595 15598 15601 15603 15606 15609 15612 15615 15618 15621 15624 15627 15630 15633 15636 15639 15642 15645 15648 15651 15653 15656 15659 15662 15664 15667 15670 15673 15676 15679 15682 15685 15688 15691 15693 15696 15699 15702 15705 15708 15711 15714 15717 15720 15723 15726 15729 15732 15735 15738 15741 15744 15747 15750 15753 15756 15758 15761 15764 15767 15770 15773 15776 15779 15782 15785 15788 15791 15794 15797 15800 15803 15806 15809 15811 15814 15817 15820 15823 15826 15828 15831 15834 15837 15840 15843 15846 15849 15852 15855 15858 15861 15864 15867 15870 15873 15876 15879 15882 15885 15888 15891 15894 15897 15900 15903 15906 15909 15911 15914 15917 15919 15922 15925 15928 15930 15933 15936 15939 15942 15945 15948 15951 15954 15957 15960 15963 15966 15969 15972 15975 15977 15980 15982 15985 15988 15991 15994 15997 16000 16003 16006 16009 16011 16014 16017 16020 16023 16026 16029 16032 16035 16038 16040 16042 16045 16048 16051 16054 16057 16060 16063 16066 16069 16072 16075 16078 16081 16084 16087 16090 16093 16096 16099 16102 16105 16108 16111 16114 16117 16120 16123 16126 16129 16132 16135 16138 16141 16144 16147 16150 16153 16156 16159 16162 16165 16168 16171 16174 16177 16180 16183 16186 16189 16192 16195 16198 16201 16204 16207 16210 16213 16216 16219 16222 16225 16228 16231 16234 16237 16240 16243 16246 16249 16252 16255 16257 16260 16263 16266 16269 16272 16275 16277 16280 16283 16286 16289 16292 16295 16298 16301 16304 16306 16309 16311 16314 16317 16320 16323 16326 16329 16332 16335 16338 16341 16344 16347 16350 16353 16356 16359 16362 16365 16368 16371 16374 16377 16380 16383 16386 16389 16392 16395 16398 16401 16404 16407 16410 16413 16415 16418 16421 16424 16426 16428 16431 16434 16437 16440 16443 16446 16449 16452 16455 16458 16461 16464 16467 16470 16473 16476 16479 16482 16485 16488 16491 16494 16496 16498 16501 16504 16507 16510 16513 16516 16519 16522 16524 16527 16530 16533 16536 16539 16542 16544 16547 16550 16553 16556 16559 16561 16564 16567 16570 16573 16575 16578 16581 16584 16586 16589 16592 16595 16597 16600 16603 16605 16608 16611 16614 16617 16620 16623 16626 16629 16632 16635 16638 16641 16644 16646 16649 16652 16655 16658 16661 16664 16667 16670 16672 16675 16678 16681 16684 16687 16690 16693 16696 16699 16702 16705 16707 16710 16713 16716 16718 16721 16724 16727 16730 16732 16735 16738 16741 16744 16747 16750 16753 16756 16758 16761 16763 16766 16769 16771 16774 16777 16780 16783 16786 16788 16791 16794 16797 16800 16803 16806 16809 16812 16815 16818 16821 16824 16826 16829 16832 16835 16838 16841 16844 16847 16850 16853 16855 16858 16861 16864 16867 16870 16873 16875 16878 16881 16884 16887 16890 16893 16896 16898 16901 16904 16907 16910 16913 16915 16918 16921 16924 16927 16930 16933 16936 16939 16942 16945 16948 16951 16954 16957 16960 16963 16966 16969 16972 16975 16978 16981 16984 16987 16990 16993 16996 16999 17002 17005 17008 17011 17014 17017 17020 17023 17026 17029 17032 17035 17038 17041 17044 17047 17050 17053 17056 17058 17061 17063 17066 17069 17072 17075 17078 17081 17084 17087 17090 17093 17096 17099 17102 17105 17107 17110 17113 17116 17119 17122 17125 17128 17131 17134 17137 17140 17143 17146 17149 17152 17154 17157 17160 17162 17165 17167 17170 17173 17176 17179 17182 17184 17187 17190 17193 17196 17199 17202 17205 17208 17211 17214 17217 17220 17223 17226 17229 17232 17235 17238 17241 17244 17246 17249 17252 17255 17258 17261 17264 17267 17270 17273 17276 17279 17281 17284 17286 17289 17292 17294 17297 17299 17302 17305 17308 17311 17314 17317 17320 17322 17325 17327 17330 17333 17336 17339 17341 17344 17347 17350 17353 17355 17357 17360 17363 17365 17368 17371 17374 17377 17380 17383 17386 17389 17392 17395 17398 17401 17404 17407 17410 17413 17415 17418 17421 17424 17427 17430 17433 17436 17439 17442 17445 17448 17451 17454 17457 17459 17462 17464 17467 17470 17473 17476 17479 17482 17485 17487 17490 17492 17495 17498 17501 17504 17507 17510 17513 17516 17519 17521 17523 17526 17529 17532 17534 17537 17540 17543 17546 17548 17551 17553 17556 17559 17561 17564 17566 17568 17570 17573 17576 17578 17581 17584 17587 17589 17591 17593 17596 17599 17602 17605 17608 17611 17614 17617 17620 17623 17626 17628 17631 17634 17637 17640 17643 17646 17648 17651 17654 17657 17659 17662 17665 17668 17671 17674 17677 17680 17683 17685 17688 17691 17694 17696 17699 17702 17705 17708 17711 17714 17717 17720 17723 17726 17729 17732 17735 17738 17741 17744 17747 17750 17753 17756 17759 17762 17765 17768 17771 17774 17777 17780 17783 17786 17789 17792 17795 17798 17801 17804 17807 17810 17813 17816 17819 17822 17825 17828 17831 17834 17837 17840 17843 17846 17849 17852 17855 17858 17861 17864 17867 17870 17873 17876 17878 17881 17884 17887 17890 17893 17895 17898 17901 17904 17907 17909 17912 17915 17918 17920 17923 17926 17929 17932 17935 17938 17941 17944 17947 17950 17953 17956 17959 17962 17965 17968 17971 17974 17977 17980 17983 17986 17989 17992 17995 17998 18001 18004 18007 18010 18013 18016 18019 18022 18025 18028 18031 18034 18037 18040 18042 18045 18048 18050 18053 18056 18059 18062 18065 18068 18071 18073 18076 18079 18082 18085 18088 18091 18094 18097 18100 18103 18106 18108 18111 18114 18116 18119 18121 18124 18127 18130 18132 18135 18138 18141 18144 18147 18150 18153 18156 18158 18161 18164 18167 18170 18172 18175 18178 18181 18184 18186 18189 18191 18194 18197 18200 18203 18206 18209 18212 18215 18218 18221 18224 18227 18229 18232 18234 18237 18240 18243 18246 18249 18252 18255 18258 18261 18264 18267 18270 18273 18275 18278 18281 18284 18287 18290 18293 18296 18299 18302 18304 18307 18310 18313 18315 18318 18321 18324 18327 18330 18333 18336 18339 18342 18345 18348 18351 18354 18357 18360 18363 18366 18369 18372 18375 18378 18381 18384 18387 18390 18393 18396 18399 18402 18405 18408 18411 18414 18417 18420 18422 18425 18428 18430 18433 18436 18439 18442 18444 18447 18450 18453 18456 18459 18462 18465 18468 18471 18474 18477 18480 18483 18486 18489 18491 18494 18497 18500 18503 18506 18509 18512 18515 18518 18520 18523 18525 18528 18531 18534 18537 18540 18543 18546 18548 18551 18554 18557 18560 18563 18566 18569 18572 18575 18578 18581 18584 18587 18590 18592 18595 18598 18601 18604 18607 18610 18613 18616 18619 18622 18625 18627 18630 18633 18636 18639 18642 18645 18648 18651 18654 18657 18660 18663 18666 18669 18672 18675 18678 18681 18684 18687 18690 18693 18696 18698 18701 18703 18706 18709 18712 18715 18718 18721 18723 18726 18728 18731 18734 18737 18739 18742 18745 18748 18750 18753 18756 18759 18761 18764 18767 18769 18772 18775 18778 18781 18784 18787 18790 18792 18795 18798 18801 18804 18807 18810 18813 18815 18818 18821 18824 18827 18830 18833 18836 18839 18842 18845 18848 18851 18854 18856 18859 18862 18865 18868 18871 18874 18877 18880 18882 18885 18888 18891 18894 18897 18900 18903 18906 18909 18912 18915 18918 18921 18924 18927 18930 18933 18936 18939 18942 18944 18947 18950 18953 18956 18959 18962 18965 18968 18971 18974 18977 18980 18983 18986 18989 18992 18995 18998 19001 19004 19007 19010 19013 19016 19019 19022 19025 19028 19031 19034 19037 19040 19043 19046 19049 19052 19055 19058 19061 19064 19067 19070 19073 19076 19079 19082 19085 19088 19091 19094 19096 19099 19101 19104 19107 19110 19112 19115 19118 19120 19122 19125 19127 19130 19133 19136 19139 19142 19145 19148 19151 19154 19157 19160 19163 19166 19169 19172 19175 19178 19181 19184 19187 19190 19193 19196 19199 19202 19205 19208 19211 19214 19217 19220 19223 19226 19229 19232 19234 19237 19240 19243 19246 19248 19251 19254 19256 19259 19262 19265 19267 19270 19273 19276 19279 19281 19284 19286 19288 19291 19294 19297 19300 19302 19305 19308 19311 19313 19316 19319 19322 19324 19327 19330 19333 19336 19339 19342 19344 19347 19350 19353 19356 19359 19362 19365 19368 19371 19374 19377 19380 19383 19386 19389 19392 19395 19398 19401 19404 19406 19409 19412 19415 19418 19421 19424 19427 19430 19433 19436 19439 19442 19445 19448 19451 19454 19457 19460 19462 19465 19468 19470 19473 19476 19478 19481 19484 19487 19490 19493 19496 19499 19502 19505 19508 19511 19513 19516 19519 19522 19525 19527 19530 19533 19536 19539 19541 19544 19547 19550 19552 19555 19558 19561 19564 19567 19570 19573 19576 19579 19582 19585 19588 19591 19594 19597 19600 19603 19606 19609 19612 19615 19618 19621 19624 19627 19629 19632 19635 19638 19641 19644 19647 19650 19653 19655 19658 19661 19664 19666 19669 19672 19675 19678 19681 19684 19687 19690 19693 19696 19699 19702 19705 19708 19711 19714 19717 19720 19723 19726 19729 19732 19735 19738 19740 19743 19746 19749 19751 19754 19757 19760 19763 19766 19769 19772 19775 19777 19780 19783 19785 19788 19791 19794 19797 19799 19802 19805 19808 19811 19814 19817 19820 19822 19825 19827 19830 19833 19835 19838 19841 19843 19845 19848 19851 19854 19857 19860 19863 19866 19869 19872 19875 19878 19881 19884 19887 19890 19893 19896 19899 19902 19905 19908 19910 19913 19916 19919 19922 19924 19927 19930 19933 19936 19939 19942 19945 19948 19951 19954 19957 19960 19963 19965 19968 19971 19973 19976 19979 19982 19985 19988 19991 19994 19997 20000 20003 20006 20009 20012 20015 20018 20021 20024 20027 20030 20033 20036 20039 20042 20045 20048 20051 20054 20057 20060 20063 20066 20069 20072 20075 20078 20081 20084 20087 20090 20093 20096 20099 20102 20105 20108 20111 20114 20117 20120 20123 20126 20129 20132 20135 20138 20141 20144 20147 20150 20153 20156 20159 20162 20165 20168 20171 20174 20177 20180 20183 20186 20189 20192 20195 20198 20201 20204 20207 20210 20213 20216 20219 20222 20225 20228 20231 20234 20237 20240 20243 20246 20249 20252 20255 20258 20261 20264 20267 20270 20273 20276 20279 20282 20285 20288 20291 20294 20297 20300 20303 20306 20309 20312 20315 20318 20321 20324 20327 20330 20333 20336 20339 20342 20345 20348 20351 20354 20357 20359 20362 20365 20368 20371 20374 20377 20380 20382 20385 20388 20391 20394 20397 20400 20403 20406 20409 20411 20414 20416 20419 20422 20425 20427 20430 20433 20435 20438 20441 20444 20447 20450 20453 20456 20459 20462 20465 20468 20471 20474 20477 20480 20483 20486 20489 20492 20495 20498 20501 20504 20507 20510 20513 20516 20519 20522 20525 20528 20531 20534 20537 20540 20543 20546 20548 20551 20554 20556 20558 20561 20564 20566 20569 20572 20574 20577 20580 20583 20585 20588 20591 20594 20597 20600 20603 20606 20609 20612 20614 20617 20620 20623 20626 20629 20632 20634 20637 20640 20643 20646 20649 20652 20655 20658 20661 20664 20667 20670 20673 20676 20679 20682 20685 20688 20691 20694 20697 20700 20703 20706 20709 20712 20715 20718 20721 20724 20727 20729 20732 20735 20738 20741 20744 20747 20750 20753 20756 20759 20762 20765 20768 20771 20774 20777 20780 20783 20786 20789 20792 20795 20798 20801 20804 20807 20810 20813 20816 20819 20822 20825 20828 20831 20834 20837 20840 20843 20846 20849 20852 20855 20858 20861 20864 20867 20869 20872 20874 20877 20880 20883 20886 20888 20891 20894 20897 20900 20902 20905 20908 20911 20914 20916 20919 20922 20925 20928 20931 20934 20937 20940 20942 20945 20948 20950 20953 20955 20958 20961 20964 20967 20969 20972 20975 20977 20979 20982 20985 20988 20991 20994 20997 20999 21002 21005 21008 21011 21014 21017 21020 21023 21026 21029 21031 21033 21036 21039 21042 21045 21048 21050 21053 21056 21058 21061 21064 21067 21070 21072 21075 21078 21080 21083 21086 21089 21092 21095 21098 21101 21104 21107 21110 21113 21116 21119 21122 21125 21128 21131 21134 21137 21140 21143 21146 21149 21152 21155 21158 21161 21164 21167 21169 21172 21174 21177 21180 21183 21186 21189 21192 21195 21198 21201 21204 21207 21210 21213 21215 21218 21221 21224 21227 21229 21231 21234 21237 21240 21243 21246 21249 21252 21255 21258 21261 21264 21267 21270 21273 21276 21279 21282 21285 21288 21291 21294 21297 21300 21303 21306 21309 21312 21315 21318 21321 21324 21327 21330 21333 21336 21339 21342 21345 21348 21351 21354 21357 21359 21362 21365 21368 21370 21373 21376 21379 21382 21385 21388 21391 21394 21397 21400 21403 21406 21409 21412 21415 21418 21421 21424 21427 21430 21432 21435 21438 21440 21443 21446 21449 21452 21455 21458 21461 21464 21467 21469 21472 21475 21478 21481 21484 21486 21489 21492 21495 21498 21501 21503 21506 21508 21511 21514 21517 21520 21523 21526 21529 21532 21535 21538 21541 21544 21547 21549 21552 21555 21558 21560 21562 21565 21568 21571 21574 21577 21580 21583 21586 21588 21591 21594 21596 21599 21602 21604 21606 21609 21612 21615 21618 21621 21623 21626 21629 21632 21635 21638 21641 21644 21646 21649 21652 21654 21656 21659 21662 21665 21668 21671 21674 21676 21678 21681 21684 21687 21689 21692 21695 21698 21701 21704 21707 21710 21712 21715 21718 21721 21724 21727 21730 21733 21736 21739 21742 21745 21748 21751 21754 21757 21760 21763 21766 21769 21772 21775 21778 21781 21784 21787 21790 21792 21795 21798 21801 21804 21807 21810 21813 21815 21818 21821 21824 21827 21830 21833 21836 21839 21842 21845 21848 21850 21853 21856 21859 21862 21865 21868 21871 21874 21876 21879 21882 21885 21888 21891 21894 21897 21900 21903 21906 21909 21912 21915 21918 21921 21924 21926 21929 21932 21935 21937 21940 21943 21946 21949 21952 21954 21957 21960 21963 21966 21969 21972 21975 21978 21981 21984 21987 21990 21993 21996 21998 22001 22004 22007 22010 22012 22015 22018 22020 22023 22026 22029 22032 22035 22037 22040 22043 22046 22049 22052 22055 22058 22061 22064 22067 22070 22073 22076 22079 22081 22084 22086 22089 22092 22095 22097 22100 22102 22105 22107 22110 22113 22116 22119 22122 22125 22127 22129 22132 22135 22138 22141 22144 22147 22149 22152 22154 22157 22160 22163 22166 22169 22172 22175 22178 22181 22184 22187 22190 22193 22196 22199 22202 22205 22207 22210 22213 22216 22218 22220 22223 22226 22229 22232 22235 22237 22240 22243 22245 22247 22250 22253 22256 22259 22262 22265 22268 22271 22274 22277 22280 22283 22286 22289 22292 22295 22298 22301 22304 22307 22310 22313 22316 22319 22322 22325 22328 22331 22334 22337 22340 22343 22346 22349 22352 22355 22358 22361 22364 22367 22370 22373 22376 22379 22381 22384 22387 22389 22391 22393 22396 22399 22402 22405 22408 22411 22413 22416 22419 22422 22425 22428 22431 22434 22437 22440 22442 22445 22448 22451 22453 22456 22459 22462 22465 22468 22471 22474 22477 22480 22483 22486 22489 22492 22495 22498 22501 22504 22507 22510 22513 22515 22518 22521 22524 22527 22529 22532 22535 22538 22541 22544 22547 22550 22553 22556 22559 22562 22565 22568 22571 22574 22577 22580 22583 22586 22589 22592 22595 22598 22601 22604 22607 22610 22613 22616 22619 22622 22625 22628 22631 22633 22636 22638 22641 22644 22647 22650 22653 22656 22659 22662 22664 22667 22670 22673 22675 22678 22680 22683 22686 22689 22692 22695 22698 22701 22704 22706 22709 22712 22715 22718 22720 22723 22726 22729 22732 22734 22737 22740 22743 22746 22749 22752 22755 22757 22760 22763 22766 22769 22771 22774 22777 22780 22783 22786 22789 22792 22795 22798 22801 22804 22807 22810 22813 22816 22819 22822 22825 22828 22831 22834 22837 22840 22843 22846 22849 22852 22855 22858 22861 22864 22867 22870 22873 22876 22879 22882 22885 22888 22891 22894 22897 22900 22903 22906 22909 22911 22914 22917 22920 22923 22925 22927 22930 22933 22935 22937 22940 22943 22946 22949 22952 22955 22958 22961 22964 22967 22970 22973 22976 22979 22982 22985 22988 22991 22994 22996 22999 23002 23005 23007 23009 23012 23015 23018 23021 23024 23027 23030 23033 23036 23039 23042 23045 23048 23051 23054 23057 23060 23063 23066 23069 23072 23075 23078 23081 23084 23087 23090 23092 23095 23098 23101 23104 23107 23110 23113 23115 23118 23121 23124 23127 23130 23133 23136 23139 23142 23145 23148 23151 23154 23157 23160 23162 23165 23168 23171 23174 23177 23180 23183 23186 23188 23191 23193 23195 23198 23201 23204 23207 23210 23213 23216 23219 23222 23225 23228 23231 23233 23236 23239 23242 23245 23248 23251 23254 23257 23260 23263 23266 23269 23272 23275 23278 23281 23284 23287 23289 23292 23295 23298 23300 23303 23306 23309 23312 23315 23318 23321 23324 23326 23329 23332 23335 23338 23341 23344 23347 23350 23353 23356 23359 23362 23365 23368 23371 23373 23376 23379 23382 23384 23387 23390 23393 23396 23399 23402 23405 23408 23411 23414 23417 23420 23423 23426 23429 23432 23435 23438 23441 23444 23447 23450 23453 23456 23459 23462 23465 23468 23471 23474 23477 23480 23483 23485 23488 23490 23493 23496 23499 23502 23505 23508 23511 23514 23516 23519 23522 23525 23528 23531 23534 23537 23540 23543 23545 23548 23551 23553 23556 23559 23562 23565 23568 23570 23573 23576 23579 23582 23584 23587 23590 23593 23596 23598 23601 23604 23607 23609 23612 23614 23617 23620 23622 23625 23628 23631 23634 23637 23640 23643 23646 23649 23652 23655 23658 23661 23664 23666 23669 23672 23674 23677 23679 23682 23685 23688 23690 23693 23696 23698 23701 23704 23707 23710 23712 23715 23717 23720 23723 23726 23729 23732 23735 23737 23740 23742 23745 23748 23751 23754 23757 23759 23762 23765 23768 23771 23773 23776 23779 23782 23785 23788 23791 23793 23796 23799 23802 23805 23808 23811 23814 23817 23820 23823 23826 23829 23832 23835 23838 23841 23844 23847 23850 23853 23856 23859 23862 23865 23868 23871 23874 23877 23880 23883 23886 23889 23892 23894 23896 23899 23902 23905 23908 23911 23914 23917 23920 23923 23926 23928 23931 23934 23936 23938 23941 23943 23946 23949 23952 23955 23958 23961 23964 23966 23969 23972 23975 23978 23981 23984 23987 23990 23993 23996 23999 24002 24004 24007 24010 24013 24016 24018 24021 24024 24027 24030 24033 24036 24039 24042 24045 24048 24051 24054 24056 24059 24062 24065 24068 24071 24074 24077 24080 24083 24086 24089 24092 24095 24098 24101 24104 24107 24109 24112 24115 24118 24121 24124 24126 24129 24132 24135 24137 24140 24143 24146 24149 24152 24155 24157 24160 24162 24165 24168 24171 24173 24176 24179 24182 24185 24188 24191 24194 24197 24200 24202 24205 24208 24210 24213 24216 24219 24222 24225 24228 24231 24233 24236 24239 24242 24245 24248 24251 24254 24257 24260 24263 24266 24269 24272 24274 24277 24280 24282 24285 24288 24291 24294 24297 24300 24302 24305 24308 24311 24314 24317 24320 24322 24325 24328 24331 24334 24337 24340 24343 24345 24348 24351 24354 24357 24360 24363 24366 24369 24372 24375 24378 24381 24384 24387 24390 24393 24396 24399 24402 24405 24408 24411 24413 24416 24419 24422 24425 24428 24431 24434 24437 24440 24443 24445 24448 24451 24454 24457 24459 24461 24464 24467 24470 24473 24475 24478 24481 24484 24487 24490 24493 24496 24499 24502 24504 24507 24510 24513 24516 24519 24522 24525 24528 24531 24534 24537 24539 24542 24545 24548 24550 24553 24556 24559 24561 24564 24567 24570 24573 24576 24579 24582 24585 24588 24591 24594 24597 24599 24602 24605 24608 24611 24614 24616 24619 24622 24624 24627 24630 24633 24636 24639 24642 24645 24648 24651 24654 24657 24660 24663 24666 24668 24671 24674 24677 24680 24683 24686 24689 24691 24694 24697 24700 24702 24705 24708 24711 24714 24717 24719 24722 24725 24728 24731 24734 24737 24740 24743 24746 24748 24751 24754 24757 24760 24763 24766 24769 24772 24774 24777 24780 24783 24786 24789 24791 24794 24797 24800 24803 24806 24809 24812 24814 24817 24820 24823 24826 24829 24832 24835 24838 24841 24844 24847 24850 24853 24856 24859 24862 24865 24868 24871 24874 24877 24880 24883 24886 24889 24892 24895 24898 24901 24904 24907 24910 24913 24916 24919 24922 24925 24928 24931 24934 24937 24940 24943 24946 24949 24952 24955 24958 24960 24963 24966 24969 24972 24975 24978 24981 24983 24986 24989 24992 24995 24998 25001 25004 25007 25010 25013 25016 25019 25022 25025 25028 25031 25034 25037 25040 25043 25046 25049 25051 25053 25056 25059 25061 25063 25066 25069 25072 25075 25078 25081 25084 25086 25089 25092 25095 25098 25101 25104 25107 25110 25113 25116 25119 25122 25125 25128 25130 25133 25136 25139 25142 25145 25148 25151 25154 25156 25159 25162 25164 25167 25170 25173 25175 25178 25181 25184 25187 25190 25193 25196 25199 25202 25205 25208 25211 25214 25217 25220 25223 25226 25229 25232 25235 25238 25241 25244 25247 25250 25253 25256 25259 25261 25264 25267 25270 25273 25276 25279 25282 25285 25287 25290 25293 25296 25299 25302 25305 25307 25309 25312 25315 25318 25321 25323 25326 25329 25331 25334 25337 25339 25342 25345 25348 25351 25354 25357 25359 25362 25365 25368 25371 25374 25377 25380 25383 25385 25388 25391 25394 25397 25400 25403 25406 25409 25412 25415 25418 25420 25423 25426 25428 25431 25434 25437 25440 25443 25446 25449 25451 25454 25457 25460 25462 25465 25467 25470 25472 25475 25478 25481 25484 25487 25490 25493 25496 25499 25502 25505 25508 25511 25514 25517 25520 25523 25525 25528 25530 25533 25536 25539 25542 25545 25548 25551 25554 25557 25560 25562 25565 25568 25571 25574 25577 25580 25583 25585 25588 25591 25594 25596 25599 25601 25603 25606 25609 25611 25614 25617 25620 25623 25625 25628 25631 25634 25636 25639 25642 25645 25647 25650 25652 25654 25657 25660 25663 25666 25669 25672 25674 25677 25680 25683 25686 25689 25692 25695 25698 25700 25702 25704 25707 25709 25712 25715 25717 25719 25722 25725 25727 25730 25733 25736 25739 25742 25745 25748 25751 25754 25757 25760 25762 25765 25768 25771 25774 25777 25780 25783 25786 25789 25792 25795 25798 25801 25803 25805 25808 25811 25814 25817 25819 25822 25825 25828 25830 25833 25836 25839 25842 25845 25847 25849 25852 25855 25858 25860 25863 25866 25869 25872 25875 25878 25881 25884 25887 25890 25893 25896 25899 25902 25905 25907 25910 25913 25916 25918 25921 25924 25927 25929 25932 25935 25938 25941 25944 25947 25949 25952 25955 25958 25961 25964 25966 25969 25972 25975 25978 25981 25984 25987 25990 25992 25995 25998 26001 26004 26007 26010 26013 26016 26019 26021 26024 26027 26030 26033 26035 26038 26040 26043 26046 26048 26051 26053 26056 26059 26062 26065 26068 26071 26073 26076 26078 26080 26083 26086 26089 26092 26095 26098 26101 26104 26106 26109 26111 26114 26116 26119 26121 26124 26127 26130 26133 26136 26139 26142 26145 26148 26151 26154 26156 26159 26162 26165 26167 26170 26173 26176 26179 26182 26185 26188 26191 26193 26196 26199 26202 26205 26208 26211 26214 26217 26220 26222 26225 26228 26231 26234 26236 26239 26242 26244 26247 26250 26253 26256 26259 26262 26265 26268 26271 26273 26276 26279 26282 26284 26287 26290 26293 26296 26299 26302 26305 26308 26311 26314 26317 26320 26323 26326 26329 26332 26335 26338 26341 26343 26346 26349 26352 26355 26358 26361 26364 26367 26370 26373 26375 26378 26381 26384 26387 26390 26393 26396 26399 26402 26405 26408 26411 26414 26417 26420 26423 26426 26429 26432 26435 26438 26441 26444 26447 26450 26453 26456 26459 26462 26465 26468 26471 26474 26477 26480 26483 26486 26489 26492 26495 26498 26501 26504 26507 26510 26512 26514 26517 26520 26523 26526 26529 26532 26535 26538 26541 26544 26547 26550 26553 26555 26557 26560 26563 26566 26568 26571 26574 26576 26579 26582 26585 26587 26590 26593 26596 26598 26601 26604 26607 26610 26613 26616 26619 26622 26624 26627 26630 26632 26635 26637 26639 26642 26645 26648 26651 26654 26657 26659 26662 26664 26666 26668 26671 26674 26676 26679 26682 26684 26686 26689 26692 26695 26698 26701 26704 26707 26710 26713 26716 26719 26722 26725 26728 26731 26734 26737 26740 26743 26746 26749 26751 26754 26757 26760 26763 26766 26769 26772 26775 26778 26780 26783 26786 26789 26792 26795 26798 26801 26803 26805 26808 26811 26814 26817 26820 26823 26826 26829 26832 26835 26838 26841 26844 26847 26850 26853 26856 26859 26862 26865 26868 26871 26874 26876 26879 26881 26884 26887 26890 26893 26896 26899 26902 26904 26907 26910 26913 26915 26917 26920 26923 26925 26928 26931 26934 26937 26939 26942 26945 26948 26950 26953 26956 26959 26961 26964 26967 26970 26973 26976 26979 26982 26985 26988 26990 26992 26995 26998 27001 27004 27007 27009 27012 27015 27017 27019 27021 27024 27027 27030 27033 27036 27038 27041 27044 27047 27050 27053 27056 27059 27062 27065 27067 27070 27072 27075 27078 27081 27084 27087 27090 27093 27096 27099 27102 27105 27108 27111 27114 27117 27120 27123 27126 27129 27132 27135 27138 27141 27144 27146 27149 27152 27155 27158 27160 27162 27165 27168 27171 27173 27176 27179 27182 27185 27188 27191 27194 27197 27200 27203 27206 27209 27212 27215 27218 27221 27223 27226 27229 27232 27234 27237 27240 27242 27245 27248 27251 27254 27257 27260 27263 27266 27269 27272 27275 27278 27281 27283 27286 27289 27291 27294 27297 27300 27302 27305 27307 27310 27312 27315 27317 27319 27321 27324 27327 27330 27333 27336 27339 27342 27345 27347 27350 27353 27356 27359 27362 27365 27368 27371 27373 27376 27379 27381 27384 27387 27390 27393 27396 27399 27402 27405 27408 27411 27414 27417 27420 27423 27426 27429 27432 27435 27438 27441 27444 27446 27449 27452 27455 27458 27461 27464 27467 27470 27473 27476 27478 27481 27483 27486 27489 27491 27494 27496 27499 27501 27504 27507 27509 27512 27514 27517 27520 27522 27525 27528 27531 27533 27536 27539 27542 27545 27548 27551 27554 27557 27560 27563 27566 27569 27572 27575 27578 27581 27584 27587 27590 27593 27596 27599 27602 27605 27608 27611 27614 27617 27620 27623 27626 27629 27632 27635 27638 27641 27644 27647 27650 27653 27656 27659 27662 27665 27668 27671 27674 27677 27680 27683 27686 27689 27692 27695 27698 27701 27704 27707 27710 27713 27716 27718 27721 27724 27726 27729 27732 27735 27738 27741 27744 27746 27748 27751 27754 27757 27760 27763 27766 27769 27772 27775 27778 27781 27784 27787 27790 27793 27796 27799 27802 27804 27807 27810 27813 27815 27818 27821 27824 27827 27830 27833 27836 27839 27842 27845 27848 27851 27854 27857 27860 27863 27865 27868 27871 27874 27877 27880 27883 27886 27888 27891 27894 27897 27900 27903 27906 27909 27912 27914 27917 27919 27922 27925 27928 27931 27934 27937 27940 27943 27946 27949 27952 27955 27958 27961 27964 27967 27969 27972 27975 27978 27981 27984 27987 27990 27992 27995 27998 28001 28004 28006 28009 28012 28015 28018 28021 28024 28027 28029 28032 28035 28037 28039 28042 28045 28047 28050 28053 28056 28059 28062 28065 28067 28070 28073 28076 28079 28082 28085 28088 28091 28094 28096 28099 28102 28104 28107 28110 28112 28115 28118 28120 28123 28126 28129 28132 28135 28137 28140 28143 28146 28149 28152 28155 28158 28161 28163 28166 28169 28172 28175 28178 28181 28184 28186 28189 28192 28195 28198 28201 28204 28207 28210 28213 28216 28219 28222 28224 28227 28230 28233 28236 28239 28242 28245 28247 28249 28252 28254 28257 28259 28262 28265 28268 28271 28274 28277 28280 28283 28286 28289 28292 28295 28298 28301 28304 28306 28309 28311 28314 28317 28320 28323 28326 28329 28332 28335 28337 28340 28342 28345 28347 28350 28352 28355 28357 28360 28363 28365 28368 28371 28374 28377 28380 28382 28385 28388 28391 28394 28397 28400 28403 28406 28408 28411 28414 28417 28420 28423 28425 28428 28431 28433 28436 28438 28440 28443 28446 28449 28452 28455 28458 28461 28464 28466 28469 28472 28475 28478 28481 28484 28487 28490 28493 28496 28499 28502 28505 28507 28510 28513 28516 28519 28522 28525 28528 28530 28533 28536 28539 28541 28544 28547 28550 28553 28556 28559 28562 28565 28568 28571 28574 28577 28580 28583 28586 28589 28592 28594 28597 28600 28603 28606 28609 28612 28615 28617 28620 28623 28625 28628 28631 28634 28637 28640 28643 28646 28649 28652 28655 28658 28661 28664 28667 28670 28672 28675 28678 28681 28684 28686 28689 28692 28695 28698 28701 28704 28707 28710 28713 28716 28719 28722 28725 28728 28731 28734 28737 28740 28743 28746 28749 28752 28755 28758 28761 28763 28766 28769 28772 28775 28778 28781 28783 28786 28789 28792 28795 28798 28801 28804 28807 28810 28812 28814 28817 28820 28823 28825 28828 28830 28833 28836 28839 28842 28845 28848 28851 28854 28857 28860 28863 28866 28869 28872 28875 28877 28880 28883 28886 28889 28892 28895 28898 28901 28904 28907 28910 28913 28915 28917 28920 28923 28926 28929 28932 28935 28938 28941 28943 28946 28949 28951 28954 28957 28959 28961 28964 28967 28970 28973 28976 28979 28982 28984 28987 28990 28993 28996 28999 29002 29005 29008 29011 29013 29016 29019 29022 29024 29027 29030 29033 29036 29039 29041 29044 29047 29050 29053 29056 29059 29062 29065 29068 29071 29074 29077 29079 29082 29085 29088 29090 29093 29096 29099 29101 29104 29107 29110 29113 29116 29119 29122 29125 29128 29131 29134 29137 29140 29143 29146 29149 29152 29155 29158 29161 29164 29167 29170 29173 29176 29179 29182 29185 29188 29191 29194 29197 29199 29202 29205 29208 29211 29214 29217 29220 29223 29226 29229 29232 29235 29238 29241 29244 29247 29250 29253 29256 29259 29262 29265 29268 29271 29273 29276 29278 29281 29284 29286 29289 29292 29295 29298 29301 29304 29307 29310 29313 29315 29318 29321 29324 29327 29330 29333 29336 29339 29342 29345 29348 29351 29354 29357 29359 29362 29365 29368 29371 29373 29376 29379 29382 29384 29387 29390 29393 29396 29399 29402 29405 29408 29411 29414 29417 29420 29423 29426 29429 29432 29435 29438 29441 29444 29447 29450 29453 29456 29459 29462 29465 29468 29471 29474 29477 29480 29483 29486 29489 29492 29495 29498 29501 29504 29507 29510 29513 29516 29519 29522 29525 29528 29531 29534 29537 29540 29543 29546 29549 29552 29555 29558 29561 29564 29567 29570 29573 29576 29579 29582 29585 29588 29591 29594 29597 29600 29603 29606 29609 29612 29615 29618 29621 29624 29627 29630 29633 29636 29639 29642 29645 29648 29651 29654 29657 29660 29663 29666 29669 29672 29675 29678 29681 29684 29687 29690 29693 29696 29699 29702 29705 29708 29711 29714 29717 29720 29723 29726 29729 29732 29735 29738 29741 29744 29747 29750 29753 29756 29759 29762 29765 29768 29771 29774 29777 29780 29783 29786 29789 29792 29795 29798 29801 29804 29807 29810 29813 29816 29819 29822 29825 29828 29831 29834 29837 29840 29843 29846 29849 29852 29855 29858 29861 29864 29867 29870 29873 29876 29879 29882 29885 29888 29891 29894 29897 29900 29903 29906 29909 29912 29915 29918 29921 29924 29927 29930 29933 29936 29939 29942 29945 29948 29951 29953 29956 29959 29962 29965 29968 29971 29974 29977 29980 29983 29986 29989 29992 29995 29998 30001 30003 30006 30009 30012 30015 30018 30021 30024 30027 30029 30032 30035 30038 30041 30043 30046 30049 30052 30055 30058 30061 30064 30067 30070 30073 30076 30079 30082 30085 30088 30091 30094 30097 30100 30103 30106 30109 30111 30114 30117 30120 30123 30126 30129 30132 30135 30138 30141 30144 30147 30150 30152 30154 30157 30160 30163 30166 30169 30171 30174 30176 30179 30182 30185 30188 30191 30194 30197 30200 30203 30206 30209 30211 30214 30217 30220 30223 30226 30229 30232 30234 30237 30240 30243 30246 30249 30252 30255 30258 30261 30264 30267 30270 30273 30276 30279 30281 30283 30286 30289 30292 30295 30298 30301 30304 30307 30310 30313 30316 30319 30321 30324 30327 30330 30333 30336 30339 30342 30345 30348 30351 30354 30357 30360 30363 30366 30369 30371 30374 30377 30380 30383 30386 30389 30392 30394 30397 30400 30403 30406 30409 30412 30415 30418 30421 30424 30426 30428 30431 30434 30437 30440 30443 30446 30449 30452 30455 30458 30461 30464 30467 30470 30473 30476 30479 30482 30485 30488 30491 30494 30497 30500 30503 30506 30509 30512 30515 30518 30520 30523 30526 30529 30532 30535 30537 30540 30543 30546 30549 30552 30555 30558 30561 30564 30567 30569 30572 30575 30578 30581 30583 30586 30589 30592 30595 30598 30601 30604 30607 30610 30613 30615 30618 30620 30623 30626 30629 30632 30635 30638 30641 30644 30647 30650 30653 30656 30659 30662 30665 30668 30671 30674 30677 30680 30683 30686 30689 30692 30695 30698 30701 30704 30707 30710 30713 30715 30718 30721 30724 30727 30730 30732 30735 30738 30741 30744 30747 30750 30753 30756 30759 30762 30765 30768 30771 30774 30777 30780 30783 30786 30788 30791 30794 30796 30799 30802 30805 30807 30810 30813 30816 30819 30822 30824 30827 30830 30833 30836 30839 30842 30845 30848 30851 30854 30856 30859 30862 30865 30868 30871 30874 30876 30879 30882 30885 30888 30891 30893 30895 30898 30901 30903 30906 30909 30911 30914 30917 30920 30923 30926 30929 30932 30935 30938 30941 30943 30946 30949 30951 30954 30957 30959 30962 30965 30967 30970 30973 30975 30978 30981 30983 30986 30989 30992 30995 30998 31001 31003 31006 31009 31012 31015 31018 31021 31024 31027 31030 31033 31036 31038 31041 31044 31047 31050 31053 31056 31059 31061 31064 31067 31070 31073 31075 31078 31081 31084 31086 31089 31092 31095 31098 31101 31104 31107 31110 31113 31116 31119 31121 31124 31127 31130 31133 31136 31139 31142 31145 31148 31151 31154 31157 31160 31163 31166 31169 31172 31175 31178 31181 31184 31187 31190 31193 31195 31198 31201 31204 31207 31210 31212 31215 31218 31221 31224 31227 31230 31233 31236 31239 31242 31245 31248 31251 31254 31256 31259 31262 31264 31267 31269 31272 31275 31278 31281 31283 31286 31288 31290 31293 31295 31298 31301 31304 31307 31310 31313 31316 31318 31321 31323 31326 31329 31332 31335 31338 31341 31343 31346 31349 31352 31355 31358 31361 31363 31366 31369 31372 31375 31377 31380 31383 31386 31389 31392 31394 31397 31400 31402 31405 31408 31411 31414 31416 31419 31422 31425 31428 31430 31433 31436 31439 31442 31445 31448 31450 31453 31456 31459 31462 31465 31468 31471 31474 31477 31479 31482 31485 31488 31491 31494 31497 31499 31502 31505 31508 31511 31513 31516 31519 31522 31525 31528 31531 31534 31537 31540 31543 31546 31549 31552 31555 31558 31561 31563 31566 31569 31572 31574 31577 31580 31582 31585 31588 31591 31594 31597 31600 31603 31606 31609 31612 31615 31618 31621 31624 31627 31630 31632 31635 31637 31640 31643 31646 31649 31652 31655 31658 31661 31664 31667 31670 31673 31676 31679 31682 31685 31688 31691 31694 31697 31700 31703 31706 31709 31712 31715 31717 31720 31723 31725 31728 31731 31734 31737 31740 31743 31746 31749 31752 31755 31757 31760 31763 31766 31769 31771 31774 31777 31780 31783 31785 31788 31791 31794 31797 31800 31803 31806 31809 31812 31814 31817 31820 31823 31826 31829 31832 31835 31838 31841 31844 31847 31850 31853 31856 31859 31862 31865 31868 31871 31874 31877 31880 31883 31886 31889 31892 31895 31898 
</DataArray>
<DataArray type="UInt32" Name="types" format="ascii">
5 5 5 5 5 3 5 5 5 5 5 5 5 3 5 5 5 5 3 5 5 3 5 5 5 5 3 5 5 5 5 3 5 5 5 5 5 5 5 5 5 5 5 5 5 3 5 5 3 5 5 5 5 5 3 5 5 5 5 5 5 5 3 5 5 5 5 3 5 5 5 5 5 5 5 5 5 3 5 5 3 5 5 3 5 5 5 5 3 5 5 5 5 5 5 5 3 3 3 5 5 3 5 5 5 5 5 3 5 5 5 5 5 5 5 5 5 5 5 5 5 3 5 5 5 3 5 5 5 5 5 5 3 5 5 5 5 5 5 5 5 5 5 5 5 5 5 5 5 5 5 5 5 5 5 5 5 5 3 5 5 5 3 5 5 3 5 5 5 5 5 5 5 5 5 5 5 3 5 5 5 5 5 5 5 5 3 5 5 5 5 5 5 5 5 3 5 5 5 5 5 5 5 5 5 3 5 5 5 5 5 5 5 5 5 5 5 5 5 5 5 5 5 5 5 5 5 5 5 3 5 5 5 3 5 3 5 3 5 5 3 5 5 5 3 5 3 5 3 5 3 3 5 3 5 5 3 5 3 5 5 5 3 5 3 3 5 5 3 5 5 5 3 5 3 3 3 5 3 5 5 5 3 5 3 3 3 5 5 3 3 5 5 5 5 3 5 3 5 5 3 5 5 5 3 5 3 3 3 5 5 5 3 5 3 3 3 3 5 5 5 3 3 5 5 3 3 3 5 3 5 5 5 5 3 5 5 5 5 5 5 5 3 5 5 5 5 5 5 3 3 5 5 5 3 5 5 5 3 5 3 5 3 3 5 5 5 5 3 5 5 3 5 5 5 5 3 5 3 5 5 5 5 5 3 3 5 5 5 5 5 5 5 5 3 5 5 5 3 5 5 3 5 3 5 5 5 5 5 5 5 5 5 5 5 3 5 3 5 3 5 5 5 3 5 3 5 3 5 5 5 5 5 5 3 5 3 5 5 5 3 5 5 5 3 5 3 3 5 5 5 5 3 5 5 5 5 3 3 5 5 3 5 3 5 3 3 5 5 5 3 5 5 5 5 3 5 5 5 5 5 5 5 5 5 5 5 3 5 5 5 5 3 5 5 5 3 5 3 3 3 5 5 5 3 3 5 3 5 5 3 5 5 5 5 3 5 5 5 5 5 5 5 5 5 5 5 3 3 5 5 3 5 5 5 3 5 5 5 5 5 5 3 5 5 5 3 5 5 5 3 5 5 5 5 5 5 5 5 5 5 5 3 5 5 5 3 5 5 5 5 5 5 5 3 5 5 5 5 5 3 5 5 5 5 5 5 5 5 5 5 5 5 5 5 5 5 5 5 5 3 5 5 5 5 3 5 5 3 5 5 5 5 5 5 5 3 5 5 5 5 5 5 5 5 3 5 3 5 5 3 5 5 5 3 5 5 3 5 5 5 3 5 3 5 5 3 5 3 5 5 5 5 5 5 5 5 5 5 5 5 5 5 5 5 5 5 5 5 5 5 3 5 3 5 3 5 5 5 5 5 5 5 5 5 5 5 5 5 5 5 3 5 5 5 5 5 5 5 5 5 3 5 5 5 5 5 5 5 5 5 5 5 5 5 5 5 5 5 5 5 5 5 5 5 5 5 5 5 5 5 3 5 5 3 5 5 5 3 3 5 3 5 5 5 5 5 3 5 5 5 5 5 3 5 5 5 5 5 5 5 5 5 5 5 5 5 5 5 5 5 5 5 5 5 5 5 5 5 5 5 5 5 5 5 5 5 5 5 5 5 5 5 5 5 5 5 5 5 5 5 5 5 3 5 5 5 5 5 5 5 5 5 5 5 5 5 5 5 3 5 5 5 5 3 5 5 5 5 5 5 5 5 5 5 5 5 5 5 5 5 5 5 5 5 5 5 5 5 5 5 5 3 5 5 3 5 3 3 3 3 5 5 3 5 5 5 5 5 5 5 5 5 5 5 5 5 5 5 5 5 3 5 5 3 5 3 5 5 5 5 3 5 3 5 5 5 5 3 5 5 5 3 5 5 5 5 5 3 5 3 5 5 3 3 5 3 5 5 5 5 5 5 5 5 5 5 5 3 5 5 5 3 5 5 5 3 5 5 3 3 3 5 5 5 5 5 5 5 5 5 5 5 3 5 5 5 5 5 5 5 5 3 3 3 5 5 5 5 5 5 5 5 3 3 5 5 5 3 5 5 3 5 5 5 5 5 5 5 5 5 5 5 3 5 5 5 5 5 5 5 5 3 5 5 5 5 5 5 5 5 5 5 3 5 3 3 3 5 5 5 5 5 5 5 3 3 5 3 5 5 5 5 5 3 5 3 3 5 5 5 3 5 3 5 5 5 5 3 5 5 5 5 5 5 5 5 5 5 5 5 5 5 5 5 5 3 5 5 5 3 5 5 5 5 5 3 5 5 5 5 5 5 3 5 3 5 5 5 5 5 5 5 5 3 5 5 5 3 5 5 5 5 5 5 5 5 5 5 5 5 5 5 5 5 5 5 5 5 5 5 5 5 5 3 3 3 5 5 5 5 3 5 5 5 5 3 5 5 5 5 5 5 5 3 5 5 5 5 5 5 5 5 3 5 5 5 5 5 5 5 5 5 5 5 5 3 5 5 5 5 5 5 3 5 5 5 5 5 5 5 5 3 5 5 5 3 5 5 5 5 5 5 5 5 5 5 5 5 3 5 5 5 5 5 5 5 5 5 5 5 5 5 5 5 5 5 5 5 5 5 5 5 5 5 5 5 5 5 5 5 5 5 5 5 5 5 5 5 5 5 5 5 5 5 5 5 3 5 5 5 5 5 5 5 5 5 5 5 5 5 5 5 5 5 5 5 5 5 5 5 5 3 5 5 5 5 5 5 5 5 5 5 3 5 5 3 5 5 5 5 5 5 5 5 5 3 5 3 5 5 5 5 3 5 5 3 5 3 5 5 5 5 5 3 5 5 5 5 5 5 5 5 3 5 5 5 5 5 5 5 5 5 5 5 5 5 5 3 5 3 3 5 5 5 5 5 3 5 5 5 5 5 5 5 5 5 5 5 5 5 5 5 3 5 5 5 5 5 5 5 5 5 5 5 5 5 5 5 5 3 5 5 5 5 5 3 3 5 5 3 5 5 5 5 5 5 5 5 5 5 3 5 5 5 5 5 5 5 5 5 3 5 3 5 5 5 5 5 3 5 5 5 5 3 5 5 5 3 5 5 5 3 5 5 3 5 5 5 5 5 5 5 5 5 5 5 5 5 5 5 5 3 5 5 5 5 5 5 5 3 5 5 5 5 5 5 5 5 5 5 5 5 5 5 5 5 5 5 5 5 5 5 5 5 5 5 5 3 5 5 5 5 3 5 5 5 3 5 5 5 5 5 5 5 5 5 3 5 3 5 5 5 5 5 5 5 5 5 5 5 5 5 5 5 5 5 5 3 3 5 5 5 3 5 5 3 5 5 3 5 5 5 3 5 5 3 5 5 5 5 5 5 5 5 5 5 5 5 5 5 5 5 5 5 5 5 3 5 3 5 5 5 5 5 5 5 5 5 5 5 3 5 3 5 5 5 3 5 5 5 5 5 3 5 5 5 5 5 5 3 5 5 5 5 5 5 5 5 5 5 5 3 5 5 5 5 5 5 5 5 3 5 5 5 3 5 5 3 5 5 5 5 5 3 5 5 5 5 5 5 5 5 5 3 5 5 3 5 3 5 3 3 3 5 3 5 5 5 5 5 5 3 5 5 5 5 5 5 3 5 5 5 5 5 5 5 3 5 5 5 5 3 5 5 5 5 5 3 5 3 5 5 5 5 5 5 5 5 5 5 3 5 5 5 5 5 5 5 3 5 5 5 5 5 5 5 3 5 3 5 5 5 5 5 5 5 5 3 5 5 5 3 3 5 5 5 5 5 3 3 5 3 5 5 3 5 5 3 5 5 5 5 5 5 5 5 3 5 5 5 5 5 3 5 5 5 5 3 5 5 3 5 5 5 5 5 5 5 5 5 5 5 5 5 5 5 5 5 5 5 5 5 5 5 5 5 5 5 5 5 5 5 5 5 5 5 5 5 5 5 5 5 3 5 5 3 5 5 5 5 5 3 5 5 5 5 3 5 5 5 5 5 5 5 5 5 5 5 5 5 5 5 5 5 5 5 5 5 5 5 5 3 5 5 5 3 5 5 5 5 5 5 3 5 5 5 5 5 5 5 5 5 5 5 3 5 3 3 5 5 3 5 5 5 5 5 5 5 5 5 5 5 3 5 5 3 5 5 5 5 5 5 5 5 5 5 5 5 5 5 5 3 5 5 5 5 5 5 5 3 5 3 5 5 5 5 3 5 3 5 5 5 5 5 5 5 5 5 3 5 5 5 5 5 5 5 5 5 5 5 5 5 5 5 5 5 3 5 5 5 5 5 5 5 5 5 5 5 5 5 5 5 5 5 5 5 5 5 5 5 5 5 3 3 5 5 5 5 5 5 5 5 5 5 5 3 5 5 5 5 3 5 5 5 5 3 5 5 5 5 5 5 5 5 3 5 5 5 5 5 5 5 5 5 3 5 5 5 5 5 5 5 5 5 5 5 5 5 5 5 5 5 5 5 5 3 5 5 5 5 5 5 5 5 5 5 5 5 5 5 3 5 3 5 5 5 5 5 5 5 5 3 5 5 3 5 5 5 5 5 5 5 5 5 5 5 5 5 5 5 5 5 5 5 5 5 5 5 5 5 5 5 5 5 5 5 5 5 5 5 5 3 5 5 3 5 5 5 5 3 5 3 5 5 3 5 3 5 5 5 5 5 3 5 5 5 5 5 5 5 5 5 5 5 5 3 5 5 5 3 5 5 5 5 5 5 5 5 5 3 5 5 5 5 3 3 5 5 5 5 5 5 5 5 3 5 5 5 5 5 3 5 5 5 3 5 5 5 3 5 5 5 5 3 5 5 5 5 5 5 5 5 5 5 5 5 5 5 3 5 5 5 5 5 5 3 5 3 3 5 3 5 3 5 5 5 5 3 5 5 5 5 3 5 5 5 5 5 5 5 5 5 3 5 5 5 5 5 5 5 5 5 5 5 5 5 5 3 5 5 5 3 5 5 5 3 5 3 5 5 5 5 5 5 5 5 5 5 5 5 5 5 5 5 3 5 5 5 5 5 5 3 5 5 5 5 5 5 5 5 5 5 5 5 5 5 5 5 5 5 3 5 5 5 5 5 5 5 5 5 5 5 5 5 5 5 5 5 5 5 5 5 5 5 5 5 5 5 5 5 5 5 5 5 5 3 5 5 5 5 3 5 5 5 5 5 5 5 3 5 5 5 5 5 5 5 5 5 3 5 5 3 5 5 5 5 5 3 5 5 5 3 5 5 3 5 5 5 5 5 5 5 5 5 5 5 5 5 5 5 5 5 5 5 5 3 5 5 5 5 5 5 5 5 5 5 3 3 5 3 5 5 5 5 5 3 5 5 5 5 3 5 5 5 5 5 3 5 3 5 5 3 5 5 5 5 5 5 5 5 3 5 5 5 5 5 5 3 5 5 5 5 5 5 3 5 5 5 5 3 5 5 3 5 3 5 5 3 5 5 5 5 5 5 3 5 5 5 5 3 5 5 5 5 5 5 5 5 3 3 5 5 5 5 5 5 5 5 3 5 5 5 5 5 5 3 5 5 5 5 5 5 5 3 5 5 5 3 5 5 5 5 5 5 5 5 5 5 5 5 3 5 5 5 5 3 5 5 3 5 5 5 5 3 5 5 5 3 3 5 5 5 3 5 5 5 3 5 5 5 5 5 5 5 5 5 3 5 5 5 3 5 5 5 5 5 5 5 5 5 5 5 5 3 5 3 5 5 3 5 5 3 5 5 5 5 5 5 5 3 5 5 5 5 5 3 5 3 5 5 5 3 3 5 3 3 5 3 5 5 5 5 5 5 3 5 3 5 5 5 5 5 5 5 5 5 5 5 5 5 3 5 5 3 5 3 5 5 3 5 5 5 3 3 5 5 3 5 5 5 5 5 5 5 5 5 5 5 5 5 5 5 5 5 5 5 5 5 5 5 3 3 5 3 5 3 5 5 3 3 5 5 3 5 5 3 5 5 3 5 3 5 5 5 5 3 5 5 5 5 3 5 3 3 5 3 5 5 3 3 5 5 5 3 5 5 5 5 3 3 5 5 5 5 5 3 5 5 5 5 5 5 5 5 5 5 5 3 5 3 5 3 5 5 3 5 3 5 5 5 5 5 5 5 5 3 5 5 3 5 5 5 5 3 5 5 5 5 5 5 5 5 5 5 5 5 3 5 5 5 5 5 5 5 5 5 5 5 3 5 5 5 5 5 5 3 5 3 5 5 3 5 5 5 5 5 5 5 5 5 5 5 5 5 5 5 5 5 3 3 5 5 5 3 5 5 3 5 5 5 5 5 5 5 5 5 5 5 5 5 5 5 5 5 5 5 5 5 5 5 5 5 3 3 5 5 5 5 5 5 5 5 5 5 5 3 5 5 5 5 5 5 5 5 5 5 5 5 5 5 5 5 5 5 5 5 5 5 5 5 5 5 5 5 5 5 5 5 5 3 5 5 5 5 5 3 5 5 3 5 5 3 3 5 5 5 5 5 5 5 5 5 5 5 5 5 3 5 5 3 5 5 5 5 5 5 3 5 5 3 5 5 5 5 5 5 5 5 5 5 5 5 5 3 5 5 5 5 5 5 5 3 5 5 5 5 5 5 5 5 5 5 5 5 3 5 5 3 5 5 5 5 5 5 5 5 5 5 5 5 5 5 5 5 5 5 5 5 3 5 5 3 5 3 5 5 5 3 5 5 3 5 3 5 5 5 3 5 5 5 5 3 5 5 5 5 5 5 5 3 5 5 5 3 5 5 5 5 5 5 5 5 5 5 5 5 3 5 5 5 5 5 5 5 5 3 5 5 5 5 5 5 5 5 5 5 5 3 5 5 5 5 5 5 5 5 5 5 5 5 5 5 5 5 5 5 5 3 3 5 5 5 3 5 5 5 5 5 5 5 5 5 5 5 5 3 5 5 5 5 5 5 5 5 5 3 5 5 5 5 5 5 5 5 5 5 5 5 5 5 5 5 3 5 3 5 5 5 5 5 3 5 5 5 5 3 5 5 5 3 5 5 5 3 5 5 5 5 5 5 5 5 5 3 5 5 5 3 5 5 3 5 5 5 5 5 5 3 5 5 5 5 5 5 5 5 3 5 5 5 3 5 5 5 5 5 5 5 5 5 5 5 5 5 5 5 5 5 5 5 5 5 5 5 5 5 5 5 3 5 5 5 5 5 5 5 3 5 5 5 5 5 5 5 5 5 5 5 5 5 5 5 5 5 5 5 5 5 5 5 5 5 3 5 3 5 5 5 5 5 5 3 5 5 5 3 5 5 3 5 5 5 5 5 5 5 5 5 5 5 5 3 5 5 5 5 5 3 5 5 5 5 5 5 5 5 5 5 5 5 5 3 5 5 5 3 5 5 5 5 5 5 5 5 5 5 5 5 3 3 5 5 5 5 3 5 5 5 5 5 5 5 5 5 3 3 5 5 5 5 5 3 5 5 5 5 5 3 5 5 5 5 5 3 5 3 5 5 5 5 3 5 3 5 3 3 5 5 5 5 5 5 5 3 3 5 5 5 5 5 5 3 3 3 5 3 3 5 5 5 3 5 5 5 5 5 3 3 3 5 3 5 5 5 3 5 3 3 5 5 5 5 5 5 5 3 3 5 5 3 3 3 5 5 5 5 5 5 5 5 5 5 5 5 5 5 5 5 5 5 5 5 5 5 5 5 5 5 5 5 5 5 5 5 5 5 5 5 5 5 5 5 3 5 5 5 5 5 5 5 5 5 5 3 5 5 5 5 5 5 3 5 5 3 5 5 5 5 5 5 5 5 5 5 5 5 5 3 5 3 5 5 5 5 3 5 5 5 3 5 5 3 5 5 5 3 5 5 3 5 5 5 5 5 3 5 5 5 5 5 5 5 3 5 5 5 5 5 5 5 3 5 5 3 5 5 5 5 3 5 3 5 5 5 5 5 3 5 5 5 5 3 5 5 5 5 5 5 3 3 5 5 5 5 5 3 5 5 3 5 5 5 5 5 5 5 5 5 5 3 5 5 5 5 5 5 5 5 5 5 5 5 5 5 5 5 5 5 3 5 5 5 5 5 5 3 5 5 5 5 5 5 5 3 3 5 5 5 5 3 5 5 5 5 5 5 5 3 5 5 3 5 3 3 3 5 5 5 5 5 5 3 5 5 5 5 5 3 5 5 5 5 3 5 5 5 3 5 5 5 3 5 5 5 5 5 5 5 5 5 5 5 5 5 5 5 5 5 5 5 5 5 5 5 5 5 3 5 5 5 5 5 5 5 3 5 3 5 5 5 5 5 5 3 5 5 3 5 5 5 3 5 5 3 5 5 5 5 5 3 5 5 5 3 3 5 5 5 5 5 5 5 5 5 5 5 5 3 5 5 5 5 5 5 5 5 5 3 5 5 5 5 5 3 3 5 5 5 5 5 5 5 5 5 3 5 5 5 5 5 5 5 5 3 5 5 5 5 5 5 5 5 5 5 5 5 5 5 5 5 5 5 3 5 5 5 5 3 5 3 5 3 5 5 5 5 5 5 5 5 5 5 5 5 5 5 5 5 5 3 5 5 5 5 5 3 5 5 5 3 3 5 5 5 5 5 3 5 5 5 5 3 5 5 5 5 5 5 5 5 3 5 5 5 5 5 5 5 3 5 5 5 5 5 5 5 5 5 3 5 5 5 5 5 5 5 5 5 5 5 5 5 5 5 5 5 5 3 5 5 5 5 5 5 5 5 5 5 5 5 5 3 5 5 5 5 5 5 3 5 5 3 5 5 3 5 5 5 5 5 5 5 5 5 5 5 5 5 5 5 5 5 5 5 5 5 5 5 5 5 5 3 5 3 5 3 3 5 5 5 3 5 5 5 5 5 5 5 5 5 3 3 5 3 5 5 5 5 5 5 5 5 5 5 5 5 5 5 3 5 3 3 5 3 5 5 5 5 5 5 5 5 5 3 3 5 5 5 5 5 5 5 5 5 5 5 5 5 5 5 5 5 5 5 5 5 5 3 5 5 5 5 5 3 5 5 5 5 5 3 5 5 5 3 5 5 5 5 5 5 5 5 5 3 5 5 5 5 3 5 5 5 5 5 5 3 5 5 5 5 5 5 5 3 5 5 5 5 3 5 5 5 5 5 5 5 5 5 5 3 5 5 5 5 3 5 5 5 3 5 5 5 5 5 3 5 5 5 5 5 5 5 5 5 5 5 5 5 5 3 3 5 5 3 5 5 5 5 5 5 5 3 5 5 5 5 5 5 3 5 5 5 5 5 5 5 5 5 5 5 5 5 5 5 5 5 5 5 5 5 5 5 3 5 5 5 5 5 5 5 5 3 5 5 5 5 3 5 5 5 5 5 3 5 3 5 3 5 5 5 5 5 5 5 3 5 5 5 3 5 5 5 5 5 3 5 5 5 5 5 3 5 3 5 5 3 5 3 5 5 5 5 5 3 5 5 5 3 5 5 5 5 5 5 5 5 5 5 3 5 5 5 5 5 5 5 5 5 5 5 5 5 5 5 5 5 5 5 5 5 5 3 5 5 5 5 5 5 5 5 5 5 5 5 5 5 5 5 5 5 3 5 5 5 3 5 5 5 5 5 5 3 5 5 5 3 3 5 3 5 3 3 5 3 5 5 3 5 5 3 3 5 5 5 5 5 5 5 5 3 5 3 5 5 5 5 5 5 5 5 5 5 5 5 5 5 5 5 5 5 5 5 5 5 3 5 5 5 5 5 5 5 5 3 5 5 3 5 5 3 3 5 5 3 5 5 5 5 5 5 5 5 5 5 5 5 5 5 5 5 5 5 5 5 5 5 5 5 5 5 5 5 5 5 5 5 5 5 5 5 5 5 5 3 5 3 5 5 5 5 5 5 5 5 5 5 5 5 5 5 5 5 5 5 5 5 5 5 5 5 5 5 5 5 5 5 5 5 5 5 5 5 5 5 5 5 3 5 5 3 5 5 5 5 5 3 5 3 5 5 3 5 5 5 5 5 5 3 5 5 5 5 5 5 5 5 5 5 5 3 5 5 3 3 5 3 5 5 3 5 5 5 5 3 5 5 5 5 5 5 5 5 5 3 5 3 5 5 5 5 5 5 5 3 5 3 5 5 5 5 5 5 5 5 5 3 5 3 5 5 5 5 5 5 5 5 5 5 3 5 5 5 3 5 5 3 5 5 3 5 5 5 5 3 5 5 5 3 5 5 5 5 5 5 5 5 5 5 5 5 5 5 3 5 5 5 5 5 5 3 5 3 5 3 5 5 5 3 5 5 5 5 5 5 5 5 3 5 5 5 5 5 3 5 5 3 5 5 5 5 5 5 5 5 5 3 5 5 5 3 5 5 5 5 5 5 3 5 5 5 5 5 5 5 5 5 5 5 5 5 5 5 5 5 5 5 5 5 5 5 5 5 5 5 5 5 5 5 3 5 5 5 5 5 3 5 5 3 3 5 5 5 5 3 5 5 5 5 5 3 5 5 5 5 5 5 5 5 5 5 5 5 5 5 5 5 3 5 5 5 5 5 5 5 5 3 3 5 5 5 5 5 5 3 5 5 5 5 3 5 5 5 5 5 5 5 5 5 5 5 5 5 5 5 5 5 5 5 5 5 5 5 5 3 5 5 3 5 5 5 5 5 5 5 5 5 5 5 5 5 5 5 5 5 5 5 5 5 5 5 5 5 5 5 3 5 3 5 5 5 5 5 3 5 5 5 5 5 5 5 5 5 5 5 5 5 5 5 5 5 5 5 5 3 3 5 3 5 5 5 5 5 5 5 5 5 5 5 5 5 5 5 5 3 5 5 5 3 5 5 5 5 5 5 5 5 5 5 5 5 5 3 5 5 5 5 5 5 5 5 5 5 5 5 5 5 5 5 5 5 5 5 5 5 3 5 5 5 5 5 5 5 5 5 5 5 5 5 3 5 3 5 5 3 3 5 5 5 5 5 5 5 5 5 5 5 5 5 5 5 5 5 5 5 5 3 5 5 3 5 5 5 3 5 5 5 5 5 5 3 5 5 5 3 5 5 5 5 5 5 5 5 3 5 5 3 5 5 3 5 3 5 5 5 5 3 3 5 5 3 3 5 5 3 5 5 5 5 3 5 5 3 3 5 3 5 5 5 5 5 5 5 5 5 5 5 5 5 5 5 5 5 5 5 5 3 5 5 5 5 3 5 5 5 5 3 3 5 5 5 5 5 5 5 5 5 5 5 5 3 5 5 5 3 5 5 5 5 5 5 5 3 5 5 5 3 5 5 3 3 5 5 5 3 5 5 5 3 5 5 5 5 5 5 5 5 5 5 5 5 5 5 5 5 5 5 3 5 5 5 5 5 5 5 5 5 5 5 5 5 5 5 5 5 5 3 3 5 5 5 5 5 3 3 5 3 5 5 5 5 5 5 5 5 5 3 5 5 5 3 5 5 5 5 5 5 5 5 5 5 5 5 5 5 3 5 5 5 5 5 5 5 3 5 5 3 5 5 5 5 5 5 3 5 5 5 5 3 5 5 5 5 5 5 3 5 5 5 5 5 5 5 5 3 3 5 5 5 3 3 5 5 5 5 5 3 5 5 5 5 5 5 3 5 5 5 5 3 5 5 5 5 5 3 5 5 5 5 3 5 5 5 5 5 5 5 5 5 5 5 5 5 5 5 5 5 5 5 5 5 5 5 5 5 3 5 5 5 5 3 5 3 5 3 5 5 3 5 5 3 5 5 3 5 5 5 5 5 5 3 5 5 3 5 3 3 3 5 5 3 5 3 3 5 5 5 3 5 3 5 5 5 5 5 5 3 5 5 5 3 5 5 5 5 5 5 5 3 5 5 5 3 5 3 3 5 5 5 5 5 5 5 3 5 5 5 5 5 5 5 5 3 3 5 5 5 5 3 5 5 3 5 5 5 3 5 5 5 3 3 5 5 5 5 3 5 5 5 5 5 3 3 5 5 5 5 5 5 5 5 5 5 5 5 5 5 5 5 5 5 5 5 5 5 5 5 5 5 5 5 5 5 5 3 5 5 5 3 5 5 5 5 5 5 5 5 5 5 5 5 5 5 5 3 5 3 3 5 5 3 5 5 5 5 5 5 5 5 5 5 5 5 5 5 5 5 5 5 5 5 5 5 5 3 5 5 3 3 5 5 5 5 5 5 5 3 5 5 5 3 5 5 5 5 3 3 5 5 5 5 5 5 5 3 5 5 5 5 3 5 5 5 5 3 5 5 5 5 5 5 5 5 5 5 5 5 5 5 5 5 5 5 5 3 5 5 5 5 5 5 5 5 5 5 5 5 5 5 5 5 3 5 5 5 3 5 5 5 5 5 5 5 5 5 3 5 5 5 5 5 5 5 5 5 5 5 5 5 5 5 5 5 5 5 5 5 3 5 5 5 5 5 5 5 5 5 5 5 5 5 5 5 5 5 3 5 5 5 5 5 3 5 5 5 5 5 5 5 5 5 5 5 5 5 5 5 5 5 5 5 5 5 5 5 5 5 5 5 3 5 5 3 5 5 5 3 5 5 5 5 5 5 5 5 5 5 5 5 5 5 5 3 5 3 5 5 5 5 5 5 5 5 5 3 5 5 5 5 5 5 5 5 5 3 3 5 5 5 5 5 5 5 5 5 5 5 5 5 5 5 5 5 5 5 5 5 5 5 5 5 5 5 5 5 5 5 5 5 5 5 5 5 5 5 5 5 5 5 5 5 5 5 5 5 5 5 5 5 5 5 5 5 5 5 5 5 5 5 5 5 5 5 5 5 5 5 3 5 5 5 5 5 5 3 5 5 5 5 5 5 5 5 5 3 5 3 5 5 5 5 5 5 5 5 5 5 5 5 5 5 5 5 5 5 5 5 5 5 5 5 5 5 5 5 5 5 5 5 5 5 3 5 5 5 3 3 5 5 5 5 5 5 5 5 5 5 5 5 5 5 5 5 5 5 5 5 5 5 3 3 5 5 5 5 5 5 5 5 3 5 5 5 5 5 5 3 5 5 5 5 5 3 5 5 5 5 3 5 5 5 3 5 5 5 3 5 5 3 5 5 5 5 5 5 5 5 5 5 5 5 5 3 5 5 5 5 5 5 5 5 3 5 5 5 5 5 5 5 5 5 5 5 3 5 5 5 3 5 5 5 5 3 5 5 5 5 5 5 5 5 3 5 3 5 5 3 5 5 5 5 5 3 5 5 5 5 5 5 5 5 5 5 5 5 3 5 5 5 5 5 5 5 5 5 3 5 5 5 5 5 5 3 5 5 5 5 5 5 5 3 5 5 5 5 5 3 5 5 5 5 5 5 5 5 5 5 5 5 5 5 5 5 5 5 5 5 5 5 5 5 5 5 5 5 5 5 5 5 5 5 5 5 5 5 5 5 5 5 5 5 5 5 5 3 5 3 5 5 5 5 5 5 5 5 5 5 5 5 5 5 3 5 5 5 5 5 5 5 5 5 5 5 5 5 5 5 3 5 5 3 5 3 5 5 5 5 5 3 5 5 5 5 5 5 5 5 5 5 5 5 5 5 5 5 5 5 5 5 3 5 5 5 5 5 5 5 5 5 5 5 3 5 3 5 5 3 5 3 5 5 5 5 5 5 5 3 5 3 5 5 5 5 3 5 5 5 5 3 3 5 5 3 5 5 5 5 5 5 5 5 5 5 5 5 5 5 5 5 3 5 5 5 5 5 5 5 5 5 5 5 5 5 5 3 5 3 5 5 5 5 5 5 5 3 5 3 5 5 5 5 5 5 5 5 5 3 3 5 5 5 3 5 5 5 5 3 5 3 5 5 3 5 3 3 3 5 5 3 5 5 5 3 3 3 5 5 5 5 5 5 5 5 5 5 5 3 5 5 5 5 5 5 3 5 5 5 3 5 5 5 5 5 5 5 5 3 5 5 5 3 5 5 5 5 5 5 5 5 5 5 5 5 5 5 5 5 5 5 5 5 5 5 5 5 5 5 5 5 5 5 5 5 5 5 5 5 5 5 5 5 5 5 5 5 5 5 5 5 5 5 5 5 5 5 5 5 5 5 5 5 3 5 5 5 5 5 3 5 5 5 5 3 5 5 5 3 5 5 5 5 5 5 5 5 5 5 5 5 5 5 5 5 5 5 5 5 5 5 5 5 5 5 5 5 5 5 5 5 5 5 5 5 5 5 5 5 3 5 5 3 5 5 5 5 5 5 5 3 5 5 5 5 5 5 5 5 5 5 5 3 5 5 3 5 3 5 5 5 3 5 5 5 5 5 5 5 5 3 5 5 5 5 3 5 5 5 5 3 5 3 5 5 5 5 5 5 5 5 5 5 5 5 3 5 3 5 5 5 5 5 5 5 5 5 5 5 5 5 3 5 5 5 5 5 5 5 5 5 3 5 5 5 3 5 5 5 5 5 5 5 5 5 5 5 5 5 5 5 5 5 5 5 5 5 5 5 5 5 5 5 5 5 5 5 5 5 5 5 3 5 5 3 5 5 5 5 3 5 5 5 5 5 5 5 5 5 5 5 5 5 5 5 3 5 5 5 5 5 5 5 5 5 3 5 3 5 5 5 5 5 5 5 3 5 5 5 5 5 5 5 5 5 5 5 5 5 5 3 5 5 5 5 5 5 5 5 5 5 5 3 5 5 5 5 5 5 5 5 5 5 5 5 5 5 5 5 5 5 5 5 5 5 5 3 5 3 5 5 5 5 5 5 3 5 3 5 5 5 3 5 5 5 3 5 5 5 3 5 5 3 5 5 5 5 5 5 5 3 5 5 5 5 5 5 5 3 5 5 5 5 5 5 5 5 5 5 5 5 5 3 5 5 5 5 5 5 5 5 3 5 5 5 5 5 5 5 5 5 5 5 5 5 5 5 5 5 5 5 5 3 5 5 5 5 5 5 5 5 5 5 5 5 5 5 5 5 5 5 5 5 5 5 5 5 5 5 5 5 5 5 5 5 5 5 5 5 5 5 5 5 5 5 5 5 5 5 5 5 5 5 3 5 3 5 5 5 3 5 5 3 3 5 3 5 5 5 5 5 5 5 5 5 5 5 5 5 5 5 5 5 5 5 5 5 5 5 5 5 5 5 5 5 5 5 5 5 5 5 3 5 5 5 5 3 5 5 3 5 5 5 3 5 5 5 5 3 5 3 3 5 5 5 5 3 5 5 5 3 5 5 5 3 5 5 5 5 5 5 3 5 5 5 5 5 5 5 5 5 5 5 5 5 5 5 5 5 5 5 5 3 5 5 5 5 5 5 5 5 5 5 5 5 5 5 5 5 5 5 3 5 5 3 5 5 3 5 5 5 5 5 5 5 5 5 5 5 3 5 5 5 5 3 5 5 5 5 3 5 5 5 3 5 5 5 5 5 5 5 5 5 5 5 5 5 5 5 5 5 5 5 5 5 5 5 5 5 3 5 5 5 5 5 5 5 5 3 5 5 5 3 5 5 5 5 5 5 5 5 5 5 5 5 5 5 5 5 5 5 5 5 5 5 5 5 3 5 5 5 3 5 5 5 5 5 5 5 5 3 5 5 3 5 5 5 5 3 5 5 5 5 5 5 5 3 5 3 5 5 3 5 5 3 3 5 5 5 5 5 5 5 5 5 5 5 5 5 5 5 5 5 5 5 5 5 3 5 5 5 5 3 5 5 5 5 5 5 5 5 5 5 5 5 5 3 5 5 3 5 5 5 5 5 5 5 5 5 5 5 5 5 5 5 5 5 5 5 5 5 5 5 5 5 5 5 5 5 5 5 5 5 5 5 5 5 5 5 5 5 5 5 5 5 5 5 5 5 5 5 5 5 5 5 5 5 5 5 5 5 5 5 5 5 5 5 5 5 5 5 5 5 5 5 5 5 5 5 5 5 5 5 5 5 5 5 5 5 5 5 5 5 5 5 5 5 5 5 5 5 5 5 5 5 5 5 5 5 5 5 5 5 5 5 5 5 5 5 5 5 5 5 5 5 5 5 5 3 5 5 5 5 5 5 5 3 5 5 5 5 5 5 5 5 5 3 5 3 5 5 5 3 5 5 3 5 5 5 5 5 5 5 5 5 5 5 5 5 5 5 5 5 5 5 5 5 5 5 5 5 5 5 5 5 5 5 5 5 5 5 5 5 3 5 5 3 3 5 5 3 5 5 3 5 5 5 3 5 5 5 5 5 5 5 5 5 3 5 5 5 5 5 5 3 5 5 5 5 5 5 5 5 5 5 5 5 5 5 5 5 5 5 5 5 5 5 5 5 5 5 5 5 5 5 5 3 5 5 5 5 5 5 5 5 5 5 5 5 5 5 5 5 5 5 5 5 5 5 5 5 5 5 5 5 5 5 5 5 5 5 5 5 5 5 5 5 5 5 5 5 5 5 3 5 3 5 5 5 5 3 5 5 5 5 3 5 5 5 5 3 5 5 5 5 5 5 5 5 3 5 5 3 5 3 5 5 5 5 3 5 5 3 3 5 5 5 5 5 5 3 5 5 5 5 5 5 5 5 5 5 3 3 5 5 5 5 5 3 5 5 3 5 5 5 5 3 5 5 3 5 5 5 5 5 5 5 5 5 5 5 5 5 5 5 5 5 5 5 5 5 5 5 5 5 5 5 5 5 3 5 3 5 5 5 5 5 5 5 5 5 5 5 5 5 3 5 5 5 5 3 3 5 5 5 5 5 5 5 5 5 5 5 5 5 5 5 5 5 5 5 5 5 5 5 5 5 5 5 5 5 5 5 5 5 5 5 5 5 5 5 5 5 5 3 5 5 5 3 5 5 5 5 5 5 5 5 5 5 5 5 5 5 5 5 5 5 5 5 3 5 5 3 5 5 5 5 5 5 5 5 5 3 5 5 5 5 5 3 5 5 5 5 5 3 5 3 5 5 5 5 5 5 5 5 5 5 5 5 5 3 5 5 5 3 3 5 5 5 5 5 5 5 5 3 5 5 3 5 5 3 3 5 5 5 5 5 3 5 5 5 5 5 5 5 3 5 5 3 3 5 5 5 5 5 5 3 3 5 5 5 3 5 5 5 5 5 5 5 3 5 5 5 5 5 5 5 5 5 5 5 5 5 5 5 5 5 5 5 5 5 5 5 5 5 5 3 5 5 5 5 5 5 5 3 5 5 5 5 5 5 5 5 5 5 5 3 5 5 5 5 5 5 5 5 3 5 5 5 5 5 5 5 5 5 5 5 5 5 5 5 5 3 5 5 5 3 5 5 5 5 5 3 5 5 5 5 5 5 5 5 5 5 5 5 5 5 3 5 5 5 5 3 5 5 3 5 5 5 5 5 3 5 5 5 5 5 5 5 5 5 5 5 5 5 5 3 5 3 5 5 5 3 5 3 5 3 5 5 5 5 5 5 3 3 5 5 5 5 5 5 3 5 3 5 5 5 5 5 5 5 5 5 5 5 5 5 5 5 5 5 3 5 5 5 3 3 5 5 5 5 5 3 5 5 3 3 5 5 5 5 5 5 5 5 5 5 5 5 5 5 5 5 5 5 5 5 5 5 5 5 5 5 5 5 5 5 5 5 5 5 5 5 5 5 5 5 5 5 5 5 3 5 5 3 3 3 5 5 5 5 5 5 3 5 5 5 5 5 5 5 5 5 3 5 5 5 3 5 5 5 5 5 5 5 5 5 5 5 5 5 5 5 5 5 5 5 5 3 5 5 5 5 3 5 5 5 5 5 5 5 5 5 5 5 5 5 5 5 5 5 5 5 5 5 5 5 5 5 5 5 5 5 5 5 5 5 5 3 5 3 5 5 5 5 5 5 5 5 3 5 5 5 3 5 3 5 5 5 5 5 5 5 5 3 5 5 5 5 3 5 5 5 5 3 5 5 5 5 5 5 5 3 5 5 5 5 3 5 5 5 5 5 5 5 5 5 5 5 5 5 5 5 5 5 5 5 5 5 5 5 5 5 5 5 5 5 5 5 5 5 5 5 5 5 5 5 5 5 5 5 5 5 5 3 5 5 5 5 3 3 5 5 3 3 5 5 5 5 5 5 5 5 5 5 5 5 5 5 5 5 5 5 5 3 5 5 5 3 3 5 5 5 5 5 5 5 5 5 5 5 5 5 5 5 5 5 5 5 5 5 5 5 5 5 5 5 3 5 5 5 5 5 5 5 3 5 5 5 5 5 5 5 5 5 5 5 5 5 5 5 3 5 5 5 5 5 5 5 5 3 5 3 3 5 5 5 5 5 5 5 5 5 5 5 5 3 5 5 5 5 5 5 5 5 5 5 5 5 5 5 5 5 5 5 3 5 5 5 3 5 5 5 5 5 5 5 5 3 5 5 5 5 5 5 5 5 5 5 5 5 5 5 5 3 5 5 5 3 5 5 5 5 5 5 5 5 5 5 5 5 5 5 5 5 5 5 5 5 5 5 5 5 5 5 5 5 5 5 5 5 5 3 5 3 5 5 5 5 5 5 5 5 3 5 5 5 5 5 5 5 5 5 3 5 5 3 5 5 5 5 5 3 5 5 5 5 3 5 5 5 5 3 5 5 5 3 5 3 5 5 3 5 5 5 5 5 5 5 5 5 5 5 5 5 5 3 5 5 3 5 3 5 5 5 3 5 5 3 5 5 5 5 3 5 3 5 5 5 5 5 5 3 5 3 5 5 5 5 5 3 5 5 5 5 3 5 5 5 5 5 5 3 5 5 5 5 5 5 5 5 5 5 5 5 5 5 5 5 5 5 5 5 5 5 5 5 5 5 5 5 5 5 5 5 5 3 3 5 5 5 5 5 5 5 5 5 5 3 5 5 3 3 5 3 5 5 5 5 5 5 5 3 5 5 5 5 5 5 5 5 5 5 5 5 3 5 5 5 5 3 5 5 5 5 5 5 5 5 5 5 5 5 3 5 5 5 5 5 5 5 5 5 5 5 5 5 5 5 5 5 3 5 5 5 5 5 3 5 5 5 3 5 5 5 5 5 5 3 5 3 5 5 5 3 5 5 5 5 5 5 5 5 5 3 5 5 3 5 5 5 5 5 5 5 3 5 5 5 5 5 5 5 5 5 5 5 5 5 3 5 5 3 5 5 5 5 5 5 3 5 5 5 5 5 5 3 5 5 5 5 5 5 5 3 5 5 5 5 5 5 5 5 5 5 5 5 5 5 5 5 5 5 5 5 5 5 3 5 5 5 5 5 5 5 5 5 5 3 5 5 5 5 3 3 5 5 5 5 3 5 5 5 5 5 5 5 5 5 3 5 5 5 5 5 5 5 5 5 5 5 3 5 5 5 3 5 5 5 3 5 5 5 5 5 5 5 5 5 5 5 5 3 5 5 5 5 5 3 5 5 3 5 5 5 5 5 5 5 5 5 5 5 5 5 5 3 5 5 5 5 5 5 5 3 5 5 5 3 5 5 5 5 5 3 5 5 5 5 5 5 5 5 5 3 5 5 5 5 5 5 5 5 3 5 5 5 5 5 3 5 5 5 5 5 5 5 3 5 5 5 5 5 5 5 5 5 5 5 5 5 5 5 5 5 5 5 5 5 5 5 5 5 5 5 5 5 5 5 5 5 5 5 5 5 5 5 5 5 5 5 5 5 5 5 5 3 5 5 5 5 5 5 5 3 5 5 5 5 5 5 5 5 5 5 5 5 5 5 5 5 5 5 5 5 5 5 3 3 5 5 3 3 5 5 5 5 5 5 5 3 5 5 5 5 5 5 5 5 5 5 5 5 5 5 3 5 5 5 5 5 5 5 5 3 5 5 3 5 5 5 3 5 5 5 5 5 5 5 5 5 5 5 5 5 5 5 5 5 5 5 5 5 5 5 5 5 5 5 5 3 5 5 5 5 5 5 5 5 3 5 5 5 5 5 5 3 3 5 5 5 5 3 5 5 3 5 5 3 5 5 5 5 5 5 3 5 5 5 5 5 5 5 5 3 5 5 5 5 5 5 5 5 5 5 5 3 5 5 3 5 5 5 5 5 5 5 3 5 5 5 3 5 3 5 3 5 5 5 5 5 5 5 5 5 5 5 5 5 5 5 5 5 3 5 3 5 5 5 5 5 5 5 5 5 5 3 5 5 5 5 5 5 5 3 5 5 5 3 5 3 3 5 5 3 5 5 5 5 3 5 5 5 3 5 5 5 3 5 3 3 5 5 5 5 5 5 3 5 5 5 5 5 5 5 5 3 3 3 5 3 5 5 3 3 5 5 3 5 5 5 5 5 5 5 5 5 5 5 3 5 5 5 5 5 5 5 5 5 5 5 5 5 3 3 5 5 5 5 3 5 5 5 3 5 5 5 5 5 3 3 5 5 5 3 5 5 5 5 5 5 5 5 5 5 5 5 5 5 5 3 5 5 5 3 5 5 5 3 5 5 5 5 5 5 3 5 5 5 5 5 3 5 5 5 5 5 5 5 5 3 5 5 5 5 5 5 5 5 5 3 5 5 5 5 3 5 3 5 5 3 5 3 5 5 5 5 5 5 3 5 3 3 5 5 5 5 5 5 5 5 3 5 3 5 3 5 3 5 5 5 5 5 5 5 5 5 5 5 3 5 5 5 3 5 5 5 5 5 5 5 5 3 5 5 5 5 5 5 5 5 5 3 5 5 5 5 3 5 5 3 5 5 5 5 5 5 5 5 5 3 5 5 5 3 5 5 5 5 5 5 5 5 5 5 5 5 5 5 5 5 5 5 5 3 5 5 5 5 5 5 5 5 5 5 3 5 5 5 5 5 5 5 5 5 5 5 5 5 5 5 5 5 5 5 5 5 5 5 5 5 5 5 5 5 5 5 5 5 5 5 5 5 5 5 5 5 5 5 5 5 3 3 5 5 5 5 5 5 5 5 5 5 5 5 5 3 3 5 5 5 3 5 5 3 5 5 5 3 5 5 5 3 5 5 5 5 5 5 5 5 3 5 5 3 5 3 3 5 5 5 5 5 5 3 5 3 3 3 5 5 3 5 5 3 3 5 5 5 5 5 5 5 5 5 5 5 5 5 5 5 5 5 5 5 5 5 3 5 5 5 5 5 5 5 5 5 3 5 5 5 5 5 5 5 3 3 5 5 5 5 5 5 5 5 5 5 5 5 5 5 5 5 5 5 5 5 5 5 5 3 5 3 5 5 5 5 5 5 5 3 5 5 5 3 3 5 5 3 5 5 5 5 3 5 5 5 3 5 5 5 3 5 5 5 5 5 5 5 5 5 3 3 5 5 5 5 5 3 5 5 3 3 3 5 5 5 5 5 3 5 5 5 5 5 5 5 5 5 3 5 3 5 5 5 5 5 5 5 5 5 5 5 5 5 5 5 5 5 5 5 5 5 5 5 5 3 5 5 5 5 3 3 5 5 5 3 5 5 5 5 5 5 5 5 5 5 5 5 5 5 5 5 3 5 5 5 3 5 5 3 5 5 5 5 5 5 5 5 5 5 5 5 5 3 5 5 3 5 5 5 3 5 3 5 3 5 3 3 3 5 5 5 5 5 5 5 5 3 5 5 5 5 5 5 5 5 3 5 5 3 5 5 5 5 5 5 5 5 5 5 5 5 5 5 5 5 5 5 5 5 5 3 5 5 5 5 5 5 5 5 5 5 3 5 3 5 5 3 5 3 5 3 5 5 3 5 3 5 5 3 5 5 5 3 5 5 5 5 5 5 5 5 5 5 5 5 5 5 5 5 5 5 5 5 5 5 5 5 5 5 5 5 5 5 5 5 5 5 5 5 5 5 5 5 5 5 5 5 5 5 5 5 5 5 5 5 5 5 5 5 5 5 5 5 5 3 5 5 3 5 5 5 5 5 5 3 3 5 5 5 5 5 5 5 5 5 5 5 5 5 5 5 5 5 5 3 5 5 5 3 5 5 5 5 5 5 5 5 5 5 5 5 5 5 5 5 3 5 5 5 5 5 5 5 3 5 5 5 5 5 5 5 5 3 5 3 5 5 5 5 5 5 5 5 5 5 5 5 5 5 5 5 3 5 5 5 5 5 5 5 3 5 5 5 5 3 5 5 5 5 5 5 5 3 5 5 3 3 5 5 3 5 5 5 5 5 5 3 5 5 5 5 5 5 5 5 5 3 5 5 3 5 5 3 5 5 3 5 5 5 5 5 3 5 5 5 5 5 5 5 5 3 5 5 5 5 5 5 5 3 5 5 5 5 5 5 5 5 5 5 5 5 3 5 5 5 5 5 5 5 3 3 5 3 5 3 5 5 5 5 5 5 5 5 5 5 5 5 5 5 5 3 5 3 5 5 5 5 5 5 5 5 3 5 3 5 3 5 3 5 3 5 5 3 5 5 5 5 5 3 5 5 5 5 5 5 5 5 3 5 5 5 5 5 3 5 5 3 5 3 3 5 5 5 5 5 5 5 5 3 5 5 5 5 5 5 5 5 5 5 5 5 5 3 5 5 5 5 5 5 5 3 5 5 5 3 5 5 5 5 5 5 5 5 5 5 5 5 5 5 5 5 5 3 5 5 5 5 5 5 5 3 5 5 3 5 5 5 5 5 5 5 5 5 5 5 5 5 5 5 3 5 5 5 5 3 5 5 5 5 5 5 5 5 5 5 5 5 5 5 5 5 5 5 5 5 5 5 5 5 5 3 5 5 5 5 5 5 3 5 5 5 5 5 5 5 5 5 3 3 5 5 5 3 5 3 5 5 5 5 5 5 5 5 5 5 5 5 5 5 5 3 5 5 5 5 5 5 5 5 5 5 5 5 3 3 5 5 5 5 5 5 5 5 3 5 5 3 5 5 3 3 5 5 5 5 5 5 5 3 5 5 5 5 5 5 5 5 5 3 5 5 5 3 5 5 5 5 5 3 5 5 5 5 5 5 5 5 5 5 5 5 3 5 5 5 3 5 5 5 3 5 5 5 5 5 5 5 5 5 5 5 5 5 5 5 5 5 5 5 5 5 5 5 5 5 5 5 5 5 5 5 5 3 5 5 5 5 5 5 5 5 5 5 5 5 5 5 5 5 5 5 5 5 5 5 5 5 3 5 3 5 5 3 5 5 5 5 5 5 5 5 5 3 5 5 5 5 5 5 5 5 5 5 5 5 5 5 3 5 5 5 5 3 5 5 5 3 5 5 5 5 5 5 5 5 5 5 5 5 5 5 5 5 5 5 5 5 5 5 5 5 5 5 5 5 5 5 5 5 5 5 5 5 5 5 5 5 5 5 5 5 5 5 5 5 5 5 5 5 5 5 5 5 5 5 5 5 5 5 5 5 5 5 5 5 5 5 5 5 5 5 5 5 5 5 5 5 5 5 5 5 5 5 5 5 5 5 5 5 5 5 5 5 5 5 5 5 5 5 5 5 5 5 5 5 5 5 5 5 5 5 5 5 5 5 5 5 5 5 5 5 5 5 5 5 5 5 5 5 5 5 5 5 5 5 5 5 5 5 5 5 5 5 5 5 5 5 5 5 5 5 5 5 5 5 5 5 5 5 5 5 5 5 5 5 5 5 5 5 5 5 5 5 5 5 5 5 5 5 5 5 5 5 5 5 5 3 5 5 5 5 5 5 5 5 5 5 5 5 5 5 5 5 3 5 5 5 5 5 5 5 5 3 5 5 5 5 3 5 5 5 5 5 5 5 5 5 5 5 5 5 5 5 5 5 5 5 5 5 5 3 5 5 5 5 5 5 5 5 5 5 5 5 5 3 3 5 5 5 5 5 3 5 3 5 5 5 5 5 5 5 5 5 5 5 3 5 5 5 5 5 5 5 3 5 5 5 5 5 5 5 5 5 5 5 5 5 5 5 3 3 5 5 5 5 5 5 5 5 5 5 5 5 3 5 5 5 5 5 5 5 5 5 5 5 5 5 5 5 5 3 5 5 5 5 5 5 5 3 5 5 5 5 5 5 5 5 5 5 3 3 5 5 5 5 5 5 5 5 5 5 5 5 5 5 5 5 5 5 5 5 5 5 5 5 5 5 5 5 5 5 3 5 5 5 5 5 3 5 5 5 5 5 5 5 5 5 5 3 5 5 5 5 3 5 5 5 5 5 5 5 5 5 5 3 5 3 5 5 5 5 5 5 5 5 5 5 5 5 5 5 5 5 5 5 5 5 5 5 5 5 5 5 5 5 5 5 5 3 5 5 5 5 5 3 5 5 5 5 5 5 5 5 5 5 5 5 5 5 5 5 5 5 3 5 5 3 5 5 5 3 5 5 5 5 5 3 5 5 5 5 5 5 5 5 5 5 3 5 5 5 5 5 5 3 5 5 5 5 5 3 3 5 5 3 5 5 3 5 5 5 5 5 5 5 5 5 5 3 5 5 3 5 5 3 5 5 3 5 5 3 5 5 3 5 5 5 5 5 5 3 5 5 5 5 5 5 5 5 5 5 5 3 5 5 5 5 5 5 5 3 5 5 5 5 3 5 5 5 3 5 5 5 5 5 5 5 5 5 5 5 3 5 5 5 5 5 5 5 5 5 5 5 5 5 5 5 5 5 5 5 5 5 5 5 5 3 5 5 5 5 5 3 5 5 5 5 5 5 5 5 5 5 5 5 5 5 3 5 5 3 5 3 5 5 5 5 3 5 3 3 5 3 5 5 5 5 5 5 5 3 5 3 5 5 5 5 5 5 3 5 5 5 5 5 5 3 5 5 5 5 3 5 5 5 5 5 3 5 5 3 5 5 5 5 3 5 5 5 5 3 5 5 5 5 5 5 3 5 5 5 5 5 5 5 5 5 3 5 5 5 5 5 5 3 5 5 5 5 3 5 5 5 5 5 5 5 5 5 5 5 5 5 5 5 5 3 5 5 5 3 5 5 3 5 5 5 5 5 5 5 5 5 5 5 5 5 5 5 5 3 5 3 5 5 5 5 5 5 5 5 5 5 5 5 5 5 5 5 5 5 5 5 5 5 5 5 5 5 3 5 5 3 5 5 5 5 5 5 5 5 5 5 3 5 5 5 5 3 5 5 5 5 3 5 5 5 5 5 5 5 5 5 3 5 5 5 5 5 5 5 5 5 5 5 5 5 5 5 5 5 5 5 5 5 5 5 5 5 5 5 5 
</DataArray>
</Cells>
<PointData Scalars="" Vectors="displacement," Tensors="">
<DataArray type="Float64" Name="displacement" NumberOfComponents="3" format="ascii">
-0.094992183764730065 -7.2667390231918367e-07 0 -0.092596570411216453 -0.00048238177570924373 0 -0.09499363906167764 -2.012274829622398e-06 0 -0.094992183764730065 -7.2667390231918367e-07 0 -0.090842315831805617 -0.00031970924097718975 0 -0.092596570411216453 -0.00048238177570924373 0 -0.094992183764730065 -7.2667390231918367e-07 0 -0.090842315831805617 -0.00031970924097718975 0 -0.08524000010419365 -7.046011034684813e-07 0 -0.090842315831805617 -0.00031970924097718975 0 -0.08524000010419365 -7.046011034684813e-07 0 -0.089149086799255317 0.00022334732178536099 0 -0.08524000010419365 -7.046011034684813e-07 0 -0.089149086799255317 0.00022334732178536099 0 -0.084709595148818082 -0.00018296549297717646 0 -0.090044884708436079 0.00059464332965517214 0 -0.090514016265384703 0.00059664970234198078 0 -0.089149086799255317 0.00022334732178536099 0 -0.087505404014700111 0.00094670654777830651 0 -0.087355539487376566 0.00030445699033696325 0 -0.089149086799255317 0.00022334732178536099 0 -0.087355539487376566 0.00030445699033696325 0 -0.087503210153505234 2.935627706496641e-05 0 -0.090842315831805617 -0.00031970924097718975 0 -0.089149086799255317 0.00022334732178536099 0 -0.092596570411216453 -0.00048238177570924373 0 -0.089149086799255317 0.00022334732178536099 0 -0.092596570411216453 -0.00048238177570924373 0 -0.093489197971153196 0.00073580786949391903 0 -0.092596570411216453 -0.00048238177570924373 0 -0.09468712156164516 -7.7572548837041077e-05 0 -0.093489197971153196 0.00073580786949391903 0 -0.092596570411216453 -0.00048238177570924373 0 -0.09499363906167764 -2.012274829622398e-06 0 -0.09468712156164516 -7.7572548837041077e-05 0 -0.094999996767101191 2.710964984048101e-10 0 -0.094995985344798459 -1.143043428988049e-06 0 -0.094999995090317466 -1.4663073301367699e-09 0 -0.094997075819413898 1.1507275767861471e-06 0 -0.093553558171068016 0.00036725604791766853 0 -0.094999995090317466 -1.4663073301367699e-09 0 -0.09499526019428324 -2.0841219485519534e-06 0 -0.094997990335034296 -3.4016090535823058e-06 0 -0.094999995090317466 -1.4663073301367699e-09 0 -0.09499999190583297 -5.1467730576831721e-09 0 -0.094997990335034296 -3.4016090535823058e-06 0 -0.094995985344798459 -1.143043428988049e-06 0 -0.094999995090317466 -1.4663073301367699e-09 0 -0.09499526019428324 -2.0841219485519534e-06 0 -0.094995985344798459 -1.143043428988049e-06 0 -0.09499526019428324 -2.0841219485519534e-06 0 -0.094990089636552311 -1.6371518710024621e-06 0 -0.093553558171068016 0.00036725604791766853 0 -0.091324974271186118 0.00043617557067057256 0 -0.09499526019428324 -2.0841219485519534e-06 0 -0.09499413042227299 -2.2482381985905118e-06 0 -0.094990089636552311 -1.6371518710024621e-06 0 -0.09499526019428324 -2.0841219485519534e-06 0 -0.09499413042227299 -2.2482381985905118e-06 0 -0.094997990335034296 -3.4016090535823058e-06 0 -0.092758266234620246 0.00018182320513731941 0 -0.091324974271186118 0.00043617557067057256 0 -0.090889814661985022 0.00039687461338552105 0 -0.090392520063813694 0.00098362531474794029 0 -0.089684930958105064 0.00069626850511712174 0 -0.090889814661985022 0.00039687461338552105 0 -0.090392520063813694 0.00098362531474794029 0 -0.091025800381114422 0.0011254554798773458 0 -0.090392520063813694 0.00098362531474794029 0 -0.089684930958105064 0.00069626850511712174 0 -0.090261854677689185 0.0017074181645846975 0 -0.086650553835069283 0.0011099424435396322 0 -0.086323094097858807 0.0005705248023441232 0 -0.086967426075157256 0.00066940139111902532 0 -0.091324974271186118 0.00043617557067057256 0 -0.088977696136387438 0.0010282010676513579 0 -0.086323094097858807 0.0005705248023441232 0 -0.086967426075157256 0.00066940139111902532 0 -0.086784502822911197 0.00033812157197044869 0 -0.090261854677689185 0.0017074181645846975 0 -0.091025800381114422 0.0011254554798773458 0 -0.091217747978493136 0.0017536833485590599 0 -0.090392520063813694 0.00098362531474794029 0 -0.090261854677689185 0.0017074181645846975 0 -0.091025800381114422 0.0011254554798773458 0 -0.086650553835069283 0.0011099424435396322 0 -0.087505404014700111 0.00094670654777830651 0 -0.086967426075157256 0.00066940139111902532 0 -0.091324974271186118 0.00043617557067057256 0 -0.090514016265384703 0.00059664970234198078 0 -0.09468712156164516 -7.7572548837041077e-05 0 -0.09501982185781041 0.00065604145076086505 0 -0.093489197971153196 0.00073580786949391903 0 -0.086967426075157256 0.00066940139111902532 0 -0.087355539487376566 0.00030445699033696325 0 -0.087098940867506178 0.00036707597960983777 0 -0.086967426075157256 0.00066940139111902532 0 -0.087098940867506178 0.00036707597960983777 0 -0.086784502822911197 0.00033812157197044869 0 -0.087505404014700111 0.00094670654777830651 0 -0.086967426075157256 0.00066940139111902532 0 -0.087355539487376566 0.00030445699033696325 0 -0.087355539487376566 0.00030445699033696325 0 -0.087353614249854994 0.00018333357435682281 0 -0.087503210153505234 2.935627706496641e-05 0 -0.087353614249854994 0.00018333357435682281 0 -0.087369677287617478 0.0003032208328195794 0 -0.087503210153505234 2.935627706496641e-05 0 -0.087353614249854994 0.00018333357435682281 0 -0.087284085173770939 0.00019650422475905584 0 -0.087310284252041681 0.00022923315701691097 0 -0.087353614249854994 0.00018333357435682281 0 -0.087246699438466621 0.00023524035442839595 0 -0.087284085173770939 0.00019650422475905584 0 -0.087355539487376566 0.00030445699033696325 0 -0.087353614249854994 0.00018333357435682281 0 -0.087246699438466621 0.00023524035442839595 0 -0.087355539487376566 0.00030445699033696325 0 -0.087098940867506178 0.00036707597960983777 0 -0.087246699438466621 0.00023524035442839595 0 -0.087098940867506178 0.00036707597960983777 0 -0.087246699438466621 0.00023524035442839595 0 -0.087115067259157394 0.00020016852862441028 0 -0.087098940867506178 0.00036707597960983777 0 -0.087115067259157394 0.00020016852862441028 0 -0.086784502822911197 0.00033812157197044869 0 -0.087115067259157394 0.00020016852862441028 0 -0.086784502822911197 0.00033812157197044869 0 -0.086782221434432372 2.6522756428313136e-05 0 -0.078431066546411743 0.0022165956260603351 0 -0.078146702016061234 0.0023711361027816641 0 -0.087115067259157394 0.00020016852862441028 0 -0.087220207890816942 0.00016326587622307159 0 -0.087133868141352572 1.4716494081168547e-05 0 -0.087115067259157394 0.00020016852862441028 0 -0.087042963319066788 -0.00012684210507779608 0 -0.086782221434432372 2.6522756428313136e-05 0 -0.078417726911228461 0.0024618245227971112 0 -0.078146702016061234 0.0023711361027816641 0 -0.087220207890816942 0.00016326587622307159 0 -0.087310284252041681 0.00022923315701691097 0 -0.087332549113676175 0.00024198253456847503 0 -0.087246699438466621 0.00023524035442839595 0 -0.087284085173770939 0.00019650422475905584 0 -0.087220207890816942 0.00016326587622307159 0 -0.087246699438466621 0.00023524035442839595 0 -0.087115067259157394 0.00020016852862441028 0 -0.087220207890816942 0.00016326587622307159 0 -0.087284085173770939 0.00019650422475905584 0 -0.087220207890816942 0.00016326587622307159 0 -0.087310284252041681 0.00022923315701691097 0 -0.087310284252041681 0.00022923315701691097 0 -0.087332549113676175 0.00024198253456847503 0 -0.087330735036281262 0.00031812268067343542 0 -0.078146702016061234 0.0023711361027816641 0 -0.076052481414669096 0.0018634313899770609 0 -0.087332549113676175 0.00024198253456847503 0 -0.087330735036281262 0.00031812268067343542 0 -0.087365603463959954 0.00040410757305044733 0 -0.087330735036281262 0.00031812268067343542 0 -0.087369677287617478 0.0003032208328195794 0 -0.087295011414897955 0.00042888269993845876 0 -0.087369677287617478 0.0003032208328195794 0 -0.087295011414897955 0.00042888269993845876 0 -0.087310612481487165 0.00048901111555340704 0 -0.087310284252041681 0.00022923315701691097 0 -0.087330735036281262 0.00031812268067343542 0 -0.087369677287617478 0.0003032208328195794 0 -0.087353614249854994 0.00018333357435682281 0 -0.087310284252041681 0.00022923315701691097 0 -0.087369677287617478 0.0003032208328195794 0 -0.086323094097858807 0.0005705248023441232 0 -0.085913930364188346 -2.1341493744700908e-05 0 -0.08643462398287434 6.5763939322312153e-05 0 -0.090261854677689185 0.0017074181645846975 0 -0.090832529397116529 0.0026803473218932603 0 -0.091217747978493136 0.0017536833485590599 0 -0.088977696136387438 0.0010282010676513579 0 -0.087154230696187648 0.0019852777885434338 0 -0.085913930364188346 -2.1341493744700908e-05 0 -0.08643462398287434 6.5763939322312153e-05 0 -0.086221629636751687 -0.00023460363486828907 0 -0.086323094097858807 0.0005705248023441232 0 -0.08643462398287434 6.5763939322312153e-05 0 -0.086784502822911197 0.00033812157197044869 0 -0.08643462398287434 6.5763939322312153e-05 0 -0.086784502822911197 0.00033812157197044869 0 -0.086782221434432372 2.6522756428313136e-05 0 -0.087042963319066788 -0.00012684210507779608 0 -0.086568015582981772 -0.0003471059617141384 0 -0.086592438959178911 -0.00087421881063546431 0 -0.078146702016061234 0.0023711361027816641 0 -0.076375300328550041 0.0026348365510153143 0 -0.08643462398287434 6.5763939322312153e-05 0 -0.086782221434432372 2.6522756428313136e-05 0 -0.086568015582981772 -0.0003471059617141384 0 -0.087042963319066788 -0.00012684210507779608 0 -0.086782221434432372 2.6522756428313136e-05 0 -0.086568015582981772 -0.0003471059617141384 0 -0.08643462398287434 6.5763939322312153e-05 0 -0.086568015582981772 -0.0003471059617141384 0 -0.086221629636751687 -0.00023460363486828907 0 -0.086568015582981772 -0.0003471059617141384 0 -0.086221629636751687 -0.00023460363486828907 0 -0.08597160646074424 -0.00063971509636862403 0 -0.085913930364188346 -2.1341493744700908e-05 0 -0.08597160646074424 -0.00063971509636862403 0 -0.085530091421129259 -0.00064579042058038533 0 -0.085913930364188346 -2.1341493744700908e-05 0 -0.086221629636751687 -0.00023460363486828907 0 -0.08597160646074424 -0.00063971509636862403 0 -0.08597160646074424 -0.00063971509636862403 0 -0.086092033029428791 -0.0010916035537661959 0 -0.086592438959178911 -0.00087421881063546431 0 -0.08597160646074424 -0.00063971509636862403 0 -0.086092033029428791 -0.0010916035537661959 0 -0.08568417534760743 -0.0011475628458690336 0 -0.086568015582981772 -0.0003471059617141384 0 -0.08597160646074424 -0.00063971509636862403 0 -0.086592438959178911 -0.00087421881063546431 0 -0.076375300328550041 0.0026348365510153143 0 -0.071644050436242959 0.0030381183666756085 0 -0.07453743249357625 0.0023422145980905077 0 -0.074785754188158096 0.0014150863453232258 0 -0.074007060554699591 0.0014274431403131546 0 -0.07453743249357625 0.0023422145980905077 0 -0.074785754188158096 0.0014150863453232258 0 -0.074927372981441989 0.0023361284566744221 0 -0.071657999259925234 0.0011602869975436193 0 -0.071644050436242959 0.0030381183666756085 0 -0.086113204333675974 -0.0017122691191917563 0 -0.08568417534760743 -0.0011475628458690336 0 -0.085451936445937127 -0.0017149120693329873 0 -0.086092033029428791 -0.0010916035537661959 0 -0.086113204333675974 -0.0017122691191917563 0 -0.08568417534760743 -0.0011475628458690336 0 -0.071644050436242959 0.0030381183666756085 0 -0.07588524640677248 0.0027995027291058093 0 -0.086092033029428791 -0.0010916035537661959 0 -0.086592438959178911 -0.00087421881063546431 0 -0.086113204333675974 -0.0017122691191917563 0 -0.075072710320775921 0.0032556028111399432 0 -0.07453743249357625 0.0023422145980905077 0 -0.074927372981441989 0.0023361284566744221 0 -0.087330735036281262 0.00031812268067343542 0 -0.087295011414897955 0.00042888269993845876 0 -0.087365603463959954 0.00040410757305044733 0 -0.087339746805696311 0.00049287852843390675 0 -0.087295011414897955 0.00042888269993845876 0 -0.087365603463959954 0.00040410757305044733 0 -0.071657999259925234 0.0011602869975436193 0 -0.076052481414669096 0.0018634313899770609 0 -0.087339746805696311 0.00049287852843390675 0 -0.087295011414897955 0.00042888269993845876 0 -0.087260135290153723 0.00049899764878214459 0 -0.087295011414897955 0.00042888269993845876 0 -0.087259767723192203 0.00046221792902173585 0 -0.087260135290153723 0.00049899764878214459 0 -0.087259767723192203 0.00046221792902173585 0 -0.087177270431257239 0.00051481396646327175 0 -0.087260135290153723 0.00049899764878214459 0 -0.087295011414897955 0.00042888269993845876 0 -0.087259767723192203 0.00046221792902173585 0 -0.087310612481487165 0.00048901111555340704 0 -0.087259767723192203 0.00046221792902173585 0 -0.087246609220934815 0.00046218774865176783 0 -0.087310612481487165 0.00048901111555340704 0 -0.086000287732654349 0.0016838773167316425 0 -0.080621703481525905 0.0019938591600751499 0 -0.084323737742402177 0.00057903211963752704 0 -0.064512175726910731 0.0044978758001359594 0 -0.065086488475143922 0.0023144991904273425 0 -0.067651846873814953 0.0028472553514454746 0 -0.07682691743239102 -0.0015256958398137685 0 -0.074378007388177014 -0.00011807719511399511 0 -0.07682691743239102 -0.0015256958398137685 0 -0.076852252026268247 -0.0015163894891447576 0 -0.07682691743239102 -0.0015256958398137685 0 -0.074752780042449743 0.00047805367838988993 0 -0.087259767723192203 0.00046221792902173585 0 -0.087246609220934815 0.00046218774865176783 0 -0.087208607012283598 0.00047575430815370887 0 -0.087259767723192203 0.00046221792902173585 0 -0.087208607012283598 0.00047575430815370887 0 -0.087177270431257239 0.00051481396646327175 0 -0.074752780042449743 0.00047805367838988993 0 -0.072497299423097294 0.001967393280163677 0 -0.065086488475143922 0.0023144991904273425 0 -0.066571914977041582 0.0015114040723461018 0 -0.065667565053504531 7.5020049721870674e-05 0 -0.066571914977041582 0.0015114040723461018 0 -0.067651846873814953 0.0028472553514454746 0 -0.067422735226898026 2.0790054551477314e-05 0 -0.067651846873814953 0.0028472553514454746 0 -0.069298648413804828 -0.00034405730596591031 0 -0.067422735226898026 2.0790054551477314e-05 0 -0.066571914977041582 0.0015114040723461018 0 -0.067422735226898026 2.0790054551477314e-05 0 -0.065667565053504531 7.5020049721870674e-05 0 -0.065086488475143922 0.0023144991904273425 0 -0.066571914977041582 0.0015114040723461018 0 -0.067651846873814953 0.0028472553514454746 0 -0.07238338423592415 5.1986266279969277e-07 0 -0.074378007388177014 -0.00011807719511399511 0 -0.072371941334576778 4.8648854292063942e-06 0 -0.067651846873814953 0.0028472553514454746 0 -0.069298648413804828 -0.00034405730596591031 0 -0.072389285976494508 7.678400192444682e-06 0 -0.080621703481525905 0.0019938591600751499 0 -0.07789657454321329 -1.3730698448193702e-06 0 -0.080621703481525905 0.0019938591600751499 0 -0.084323737742402177 0.00057903211963752704 0 -0.07789657454321329 -1.3730698448193702e-06 0 -0.084323737742402177 0.00057903211963752704 0 -0.07789657454321329 -1.3730698448193702e-06 0 -0.084709595148818082 -0.00018296549297717646 0 -0.08524000010419365 -7.046011034684813e-07 0 -0.07789657454321329 -1.3730698448193702e-06 0 -0.084709595148818082 -0.00018296549297717646 0 -0.084323737742402177 0.00057903211963752704 0 -0.084709595148818082 -0.00018296549297717646 0 -0.086681258053776702 6.8491184991725841e-05 0 -0.089149086799255317 0.00022334732178536099 0 -0.084709595148818082 -0.00018296549297717646 0 -0.086681258053776702 6.8491184991725841e-05 0 -0.089149086799255317 0.00022334732178536099 0 -0.086681258053776702 6.8491184991725841e-05 0 -0.087503210153505234 2.935627706496641e-05 0 -0.086681258053776702 6.8491184991725841e-05 0 -0.087503210153505234 2.935627706496641e-05 0 -0.086698714140803032 0.00038494436979664433 0 -0.087503210153505234 2.935627706496641e-05 0 -0.087310612481487165 0.00048901111555340704 0 -0.086698714140803032 0.00038494436979664433 0 -0.087369677287617478 0.0003032208328195794 0 -0.087503210153505234 2.935627706496641e-05 0 -0.087310612481487165 0.00048901111555340704 0 -0.08611072813884954 0.0016031022453961183 0 -0.087310612481487165 0.00048901111555340704 0 -0.086164054348352642 0.0013252210231536334 0 -0.087310612481487165 0.00048901111555340704 0 -0.086164054348352642 0.0013252210231536334 0 -0.086698714140803032 0.00038494436979664433 0 -0.07682691743239102 -0.0015256958398137685 0 -0.079362066723164482 -0.0021499001719113447 0 -0.084323737742402177 0.00057903211963752704 0 -0.086164054348352642 0.0013252210231536334 0 -0.086698714140803032 0.00038494436979664433 0 -0.086000287732654349 0.0016838773167316425 0 -0.084323737742402177 0.00057903211963752704 0 -0.086164054348352642 0.0013252210231536334 0 -0.084323737742402177 0.00057903211963752704 0 -0.086681258053776702 6.8491184991725841e-05 0 -0.086698714140803032 0.00038494436979664433 0 -0.087633369926457566 0.0010109872208392686 0 -0.083565515961049566 0.0035662280853699748 0 -0.094389932818647285 -0.00091863135533118 0 -0.094520527602406174 -0.0039890960363622979 0 -0.092880615028648333 -0.0015071649359048801 0 -0.094823130762474728 0.0002818989292378086 0 -0.094880414063669274 0.0002163868479208022 0 -0.094894077612189126 0.00036653864697406066 0 -0.094823130762474728 0.0002818989292378086 0 -0.094806757525996654 0.00040801093358720081 0 -0.094894077612189126 0.00036653864697406066 0 -0.094823130762474728 0.0002818989292378086 0 -0.094741032113234952 0.00039990758256418024 0 -0.094806757525996654 0.00040801093358720081 0 -0.094823130762474728 0.0002818989292378086 0 -0.094834470861031972 0.00015569639551276643 0 -0.094849071977632635 0.0001448907617460284 0 -0.094823130762474728 0.0002818989292378086 0 -0.094834470861031972 0.00015569639551276643 0 -0.094880414063669274 0.0002163868479208022 0 -0.087633369926457566 0.0010109872208392686 0 -0.088857287355210798 0.0007328302277974162 0 -0.094834470861031972 0.00015569639551276643 0 -0.094880414063669274 0.0002163868479208022 0 -0.094707210593385827 0.00015286332817173931 0 -0.094389932818647285 -0.00091863135533118 0 -0.094707210593385827 0.00015286332817173931 0 -0.093066619067306081 0.00013221585654074551 0 -0.094707210593385827 0.00015286332817173931 0 -0.094999726199522516 3.0863911308912698e-07 0 -0.094887811328426316 9.6706175560166358e-05 0 -0.094707210593385827 0.00015286332817173931 0 -0.094999726199522516 3.0863911308912698e-07 0 -0.09425355660362629 0.00018567482472656605 0 -0.094999726199522516 3.0863911308912698e-07 0 -0.094887811328426316 9.6706175560166358e-05 0 -0.094999813155064339 -1.0442326527927449e-08 0 -0.094834470861031972 0.00015569639551276643 0 -0.094707210593385827 0.00015286332817173931 0 -0.094887811328426316 9.6706175560166358e-05 0 -0.094834470861031972 0.00015569639551276643 0 -0.094887811328426316 9.6706175560166358e-05 0 -0.094849071977632635 0.0001448907617460284 0 -0.094849071977632635 0.0001448907617460284 0 -0.094902261685003958 2.8025815181832833e-05 0 -0.094812472538891399 0.00010919269655518977 0 -0.094887811328426316 9.6706175560166358e-05 0 -0.094849071977632635 0.0001448907617460284 0 -0.094902261685003958 2.8025815181832833e-05 0 -0.094999813155064339 -1.0442326527927449e-08 0 -0.094902261685003958 2.8025815181832833e-05 0 -0.094999802141506259 2.6154497741478355e-08 0 -0.094887811328426316 9.6706175560166358e-05 0 -0.094999813155064339 -1.0442326527927449e-08 0 -0.094902261685003958 2.8025815181832833e-05 0 -0.094902261685003958 2.8025815181832833e-05 0 -0.094999802141506259 2.6154497741478355e-08 0 -0.09485733558126512 -2.5364785793563674e-05 0 -0.09485733558126512 -2.5364785793563674e-05 0 -0.094812472538891399 0.00010919269655518977 0 -0.094582833250329998 9.1558607811926163e-05 0 -0.094902261685003958 2.8025815181832833e-05 0 -0.09485733558126512 -2.5364785793563674e-05 0 -0.094812472538891399 0.00010919269655518977 0 -0.094812472538891399 0.00010919269655518977 0 -0.094650350928256494 0.00025171384896907742 0 -0.094582833250329998 9.1558607811926163e-05 0 -0.094650350928256494 0.00025171384896907742 0 -0.094636981707603832 0.00038595426134064984 0 -0.094507383101163342 0.00037619207726413651 0 -0.094650350928256494 0.00025171384896907742 0 -0.094772488658292062 0.00026070591031291247 0 -0.094636981707603832 0.00038595426134064984 0 -0.094812472538891399 0.00010919269655518977 0 -0.094650350928256494 0.00025171384896907742 0 -0.094772488658292062 0.00026070591031291247 0 -0.094823130762474728 0.0002818989292378086 0 -0.094849071977632635 0.0001448907617460284 0 -0.094772488658292062 0.00026070591031291247 0 -0.094849071977632635 0.0001448907617460284 0 -0.094812472538891399 0.00010919269655518977 0 -0.094772488658292062 0.00026070591031291247 0 -0.094823130762474728 0.0002818989292378086 0 -0.094772488658292062 0.00026070591031291247 0 -0.094741032113234952 0.00039990758256418024 0 -0.094772488658292062 0.00026070591031291247 0 -0.094741032113234952 0.00039990758256418024 0 -0.094636981707603832 0.00038595426134064984 0 -0.094741032113234952 0.00039990758256418024 0 -0.094636981707603832 0.00038595426134064984 0 -0.094606902942372811 0.0005171607713929131 0 -0.094636981707603832 0.00038595426134064984 0 -0.09445087063465471 0.00049615114403611833 0 -0.094606902942372811 0.0005171607713929131 0 -0.094636981707603832 0.00038595426134064984 0 -0.094507383101163342 0.00037619207726413651 0 -0.09445087063465471 0.00049615114403611833 0 -0.088942435835480227 0.0030772690454359338 0 -0.08955849644268099 0.0027138454085657484 0 -0.094336616679902285 0.00058879027476206993 0 -0.094160822913454137 0.00060082843144237052 0 -0.094270290646327928 0.00037610525340059039 0 -0.094507383101163342 0.00037619207726413651 0 -0.09445087063465471 0.00049615114403611833 0 -0.094270290646327928 0.00037610525340059039 0 -0.093690674966613971 0.0023723320251395987 0 -0.093483250613459842 0.0016127321533378803 0 -0.094184234865280686 0.00022042468806945885 0 -0.08887271720264206 0.0027938476130148172 0 -0.090272420631491004 0.0027486031091099529 0 -0.093690674966613971 0.0023723320251395987 0 -0.093483250613459842 0.0016127321533378803 0 -0.092707079388051006 0.0015317392706561061 0 -0.093483250613459842 0.0016127321533378803 0 -0.094184234865280686 0.00022042468806945885 0 -0.09367302561695634 0.00057034746392310709 0 -0.08887271720264206 0.0027938476130148172 0 -0.090724441396515851 0.0007396313243415633 0 -0.094160822913454137 0.00060082843144237052 0 -0.094184234865280686 0.00022042468806945885 0 -0.094270290646327928 0.00037610525340059039 0 -0.093483250613459842 0.0016127321533378803 0 -0.093360896298839952 0.0009549119077339862 0 -0.092974524236422162 0.0010724540365802972 0 -0.093483250613459842 0.0016127321533378803 0 -0.093360896298839952 0.0009549119077339862 0 -0.09367302561695634 0.00057034746392310709 0 -0.093360896298839952 0.0009549119077339862 0 -0.093210321197012364 0.0005308455184123603 0 -0.092974524236422162 0.0010724540365802972 0 -0.093360896298839952 0.0009549119077339862 0 -0.093210321197012364 0.0005308455184123603 0 -0.09367302561695634 0.00057034746392310709 0 -0.094184234865280686 0.00022042468806945885 0 -0.094453425517109169 0.00027528879544930728 0 -0.094582833250329998 9.1558607811926163e-05 0 -0.094184234865280686 0.00022042468806945885 0 -0.094270290646327928 0.00037610525340059039 0 -0.094453425517109169 0.00027528879544930728 0 -0.094650350928256494 0.00025171384896907742 0 -0.094507383101163342 0.00037619207726413651 0 -0.094453425517109169 0.00027528879544930728 0 -0.094507383101163342 0.00037619207726413651 0 -0.094270290646327928 0.00037610525340059039 0 -0.094453425517109169 0.00027528879544930728 0 -0.094650350928256494 0.00025171384896907742 0 -0.094453425517109169 0.00027528879544930728 0 -0.094582833250329998 9.1558607811926163e-05 0 -0.09485733558126512 -2.5364785793563674e-05 0 -0.094582833250329998 9.1558607811926163e-05 0 -0.09414356738841019 -0.00023987214293736528 0 -0.094476180091322429 -9.8389260522165902e-05 0 -0.094249042773488043 -7.2925606532034515e-05 0 -0.09485733558126512 -2.5364785793563674e-05 0 -0.094964069797379799 -5.7044192828303017e-06 0 -0.095001231892538882 -3.0254861601225176e-05 0 -0.094184234865280686 0.00022042468806945885 0 -0.094582833250329998 9.1558607811926163e-05 0 -0.09414356738841019 -0.00023987214293736528 0 -0.094999802141506259 2.6154497741478355e-08 0 -0.095000035152999124 -9.951484680313687e-09 0 -0.09499109448493058 -3.3200619811039858e-06 0 -0.094999802141506259 2.6154497741478355e-08 0 -0.094964069797379799 -5.7044192828303017e-06 0 -0.09499109448493058 -3.3200619811039858e-06 0 -0.094999802141506259 2.6154497741478355e-08 0 -0.09485733558126512 -2.5364785793563674e-05 0 -0.094964069797379799 -5.7044192828303017e-06 0 -0.094964069797379799 -5.7044192828303017e-06 0 -0.09499109448493058 -3.3200619811039858e-06 0 -0.095001231892538882 -3.0254861601225176e-05 0 -0.09499109448493058 -3.3200619811039858e-06 0 -0.095001231892538882 -3.0254861601225176e-05 0 -0.095001990640063774 -7.3076243940174204e-06 0 -0.095000035152999124 -9.951484680313687e-09 0 -0.09499109448493058 -3.3200619811039858e-06 0 -0.095001990640063774 -7.3076243940174204e-06 0 -0.094249042773488043 -7.2925606532034515e-05 0 -0.093621075950057073 2.800219254900213e-05 0 -0.095001231892538882 -3.0254861601225176e-05 0 -0.094999731588116254 -7.2070379839765562e-06 0 -0.095001990640063774 -7.3076243940174204e-06 0 -0.093210321197012364 0.0005308455184123603 0 -0.09414356738841019 -0.00023987214293736528 0 -0.092411334955658772 -1.1404972513718996e-05 0 -0.094184234865280686 0.00022042468806945885 0 -0.09367302561695634 0.00057034746392310709 0 -0.09414356738841019 -0.00023987214293736528 0 -0.093210321197012364 0.0005308455184123603 0 -0.09367302561695634 0.00057034746392310709 0 -0.09414356738841019 -0.00023987214293736528 0 -0.094999731588116254 -7.2070379839765562e-06 0 -0.095001990640063774 -7.3076243940174204e-06 0 -0.094997990335034296 -3.4016090535823058e-06 0 -0.095000035152999124 -9.951484680313687e-09 0 -0.095001990640063774 -7.3076243940174204e-06 0 -0.09499999190583297 -5.1467730576831721e-09 0 -0.095001990640063774 -7.3076243940174204e-06 0 -0.09499999190583297 -5.1467730576831721e-09 0 -0.094997990335034296 -3.4016090535823058e-06 0 -0.09499413042227299 -2.2482381985905118e-06 0 -0.094999731588116254 -7.2070379839765562e-06 0 -0.094997990335034296 -3.4016090535823058e-06 0 -0.092758266234620246 0.00018182320513731941 0 -0.093621075950057073 2.800219254900213e-05 0 -0.090889814661985022 0.00039687461338552105 0 -0.091025800381114422 0.0011254554798773458 0 -0.091733085696882419 0.00069228757308369474 0 -0.090889814661985022 0.00039687461338552105 0 -0.092411334955658772 -1.1404972513718996e-05 0 -0.091733085696882419 0.00069228757308369474 0 -0.091025800381114422 0.0011254554798773458 0 -0.091733085696882419 0.00069228757308369474 0 -0.091633689095158136 0.0012505782629983115 0 -0.092411334955658772 -1.1404972513718996e-05 0 -0.091733085696882419 0.00069228757308369474 0 -0.092563607479878171 0.00077275990122674994 0 -0.093210321197012364 0.0005308455184123603 0 -0.092411334955658772 -1.1404972513718996e-05 0 -0.092563607479878171 0.00077275990122674994 0 -0.093210321197012364 0.0005308455184123603 0 -0.092563607479878171 0.00077275990122674994 0 -0.092974524236422162 0.0010724540365802972 0 -0.092563607479878171 0.00077275990122674994 0 -0.092974524236422162 0.0010724540365802972 0 -0.092707079388051006 0.0015317392706561061 0 -0.091733085696882419 0.00069228757308369474 0 -0.09229939982152939 0.0013165606725096634 0 -0.091633689095158136 0.0012505782629983115 0 -0.091733085696882419 0.00069228757308369474 0 -0.092563607479878171 0.00077275990122674994 0 -0.092707079388051006 0.0015317392706561061 0 -0.090490421716286767 0.0025527569952816177 0 -0.090272420631491004 0.0027486031091099529 0 -0.09229939982152939 0.0013165606725096634 0 -0.091885931586574487 0.0015841088918800469 0 -0.091633689095158136 0.0012505782629983115 0 -0.093483250613459842 0.0016127321533378803 0 -0.092974524236422162 0.0010724540365802972 0 -0.092707079388051006 0.0015317392706561061 0 -0.09229939982152939 0.0013165606725096634 0 -0.092365598065029517 0.0016313078766877162 0 -0.091885931586574487 0.0015841088918800469 0 -0.092883234421493474 0.0018512680290765522 0 -0.09229939982152939 0.0013165606725096634 0 -0.092365598065029517 0.0016313078766877162 0 -0.092365598065029517 0.0016313078766877162 0 -0.092053569086341602 0.0019153814877103919 0 -0.092199525962645676 0.0022765558885426656 0 -0.092365598065029517 0.0016313078766877162 0 -0.092053569086341602 0.0019153814877103919 0 -0.091885931586574487 0.0015841088918800469 0 -0.092053569086341602 0.0019153814877103919 0 -0.091885931586574487 0.0015841088918800469 0 -0.091617351527430516 0.0022074995949183471 0 -0.091885931586574487 0.0015841088918800469 0 -0.091217747978493136 0.0017536833485590599 0 -0.091617351527430516 0.0022074995949183471 0 -0.091025800381114422 0.0011254554798773458 0 -0.091217747978493136 0.0017536833485590599 0 -0.091633689095158136 0.0012505782629983115 0 -0.091885931586574487 0.0015841088918800469 0 -0.091217747978493136 0.0017536833485590599 0 -0.091633689095158136 0.0012505782629983115 0 -0.090832529397116529 0.0026803473218932603 0 -0.091217747978493136 0.0017536833485590599 0 -0.091617351527430516 0.0022074995949183471 0 -0.090832529397116529 0.0026803473218932603 0 -0.091617351527430516 0.0022074995949183471 0 -0.09153482042532303 0.0028910433816146147 0 -0.091617351527430516 0.0022074995949183471 0 -0.091985317908635553 0.0027215826432863844 0 -0.09153482042532303 0.0028910433816146147 0 -0.092365598065029517 0.0016313078766877162 0 -0.092199525962645676 0.0022765558885426656 0 -0.092754244377998035 0.0026065138201586432 0 -0.092053569086341602 0.0019153814877103919 0 -0.091617351527430516 0.0022074995949183471 0 -0.092199525962645676 0.0022765558885426656 0 -0.092199525962645676 0.0022765558885426656 0 -0.092385801083398819 0.0026932258570091464 0 -0.091985317908635553 0.0027215826432863844 0 -0.092199525962645676 0.0022765558885426656 0 -0.092385801083398819 0.0026932258570091464 0 -0.092754244377998035 0.0026065138201586432 0 -0.091617351527430516 0.0022074995949183471 0 -0.092199525962645676 0.0022765558885426656 0 -0.091985317908635553 0.0027215826432863844 0 -0.091985317908635553 0.0027215826432863844 0 -0.091906117141696095 0.0031919171731637536 0 -0.09153482042532303 0.0028910433816146147 0 -0.091906117141696095 0.0031919171731637536 0 -0.091362235405530554 0.0036158575827243918 0 -0.092483152822683198 0.0036394468477906929 0 -0.091985317908635553 0.0027215826432863844 0 -0.092310111013960097 0.0029664415067493645 0 -0.091906117141696095 0.0031919171731637536 0 -0.092385801083398819 0.0026932258570091464 0 -0.091985317908635553 0.0027215826432863844 0 -0.092310111013960097 0.0029664415067493645 0 -0.092385801083398819 0.0026932258570091464 0 -0.092310111013960097 0.0029664415067493645 0 -0.092684456213495622 0.0028975567413354231 0 -0.086749154147642657 0.0038919786804436935 0 -0.086206340194739065 0.0039903912772150697 0 -0.092310111013960097 0.0029664415067493645 0 -0.091906117141696095 0.0031919171731637536 0 -0.092483152822683198 0.0036394468477906929 0 -0.092310111013960097 0.0029664415067493645 0 -0.092483152822683198 0.0036394468477906929 0 -0.092655552123532367 0.0029027982163132267 0 -0.090832529397116529 0.0026803473218932603 0 -0.09153482042532303 0.0028910433816146147 0 -0.091362235405530554 0.0036158575827243918 0 -0.087154230696187648 0.0019852777885434338 0 -0.084816261257704514 0.003231458498691111 0 -0.091906117141696095 0.0031919171731637536 0 -0.09153482042532303 0.0028910433816146147 0 -0.091362235405530554 0.0036158575827243918 0 -0.085048845963293443 0.0029502374208412036 0 -0.084816261257704514 0.003231458498691111 0 -0.08597160646074424 -0.00063971509636862403 0 -0.085403111610390173 -0.00063341671246956591 0 -0.08568417534760743 -0.0011475628458690336 0 -0.084816261257704514 0.003231458498691111 0 -0.081273170478878234 0.0028720049432346376 0 -0.085403111610390173 -0.00063341671246956591 0 -0.08568417534760743 -0.0011475628458690336 0 -0.08508627261027378 -0.0011665596435834499 0 -0.08568417534760743 -0.0011475628458690336 0 -0.08508627261027378 -0.0011665596435834499 0 -0.085451936445937127 -0.0017149120693329873 0 -0.07588524640677248 0.0027995027291058093 0 -0.077546335420965007 0.0032679801764378931 0 -0.08508627261027378 -0.0011665596435834499 0 -0.085451936445937127 -0.0017149120693329873 0 -0.084767730696885951 -0.0017043755833249441 0 -0.081290516668136067 0.0033790714254349871 0 -0.08111849380591922 0.0031338323206263142 0 -0.08101612531713745 0.0036131334056679278 0 -0.079612500956596791 0.0047692118210286467 0 -0.079764980142374972 0.0041476085968877108 0 -0.07990778921525156 0.0044834582687722606 0 -0.077504091233962041 0.0034619619207166257 0 -0.083596323394366234 0.0036578268620789211 0 -0.077357437004796928 0.0034562367513719518 0 -0.076562034527431044 0.0034672301030145279 0 -0.077403053278206652 0.0032609157697661164 0 -0.077504091233962041 0.0034619619207166257 0 -0.076553869300298408 0.004603123943608089 0 -0.077092549397960605 0.0032352617047138772 0 -0.076755909111153958 0.0032401611902858249 0 -0.076992715996205566 0.0036636010543763336 0 -0.077504091233962041 0.0034619619207166257 0 -0.077546335420965007 0.0032679801764378931 0 -0.081290516668136067 0.0033790714254349871 0 -0.08111849380591922 0.0031338323206263142 0 -0.081147064505308661 0.0031334077143910202 0 -0.081273170478878234 0.0028720049432346376 0 -0.077546335420965007 0.0032679801764378931 0 -0.084816261257704514 0.003231458498691111 0 -0.083596323394366234 0.0036578268620789211 0 -0.081433215418989527 0.003624975030624626 0 -0.081290516668136067 0.0033790714254349871 0 -0.08101612531713745 0.0036131334056679278 0 -0.083596323394366234 0.0036578268620789211 0 -0.082390642315285603 0.004723927619130759 0 -0.080091686878481935 0.0041578524317040337 0 -0.07990778921525156 0.0044834582687722606 0 -0.080265141776316482 0.0045763321025327295 0 -0.079764980142374972 0.0041476085968877108 0 -0.080091686878481935 0.0041578524317040337 0 -0.07990778921525156 0.0044834582687722606 0 -0.076553869300298408 0.004603123943608089 0 -0.076473849294863561 0.0074026512726470626 0 -0.07990778921525156 0.0044834582687722606 0 -0.079803664066667987 0.0047668794368161491 0 -0.080265141776316482 0.0045763321025327295 0 -0.076553869300298408 0.004603123943608089 0 -0.07825235535160957 0.0062339515194214084 0 -0.079612500956596791 0.0047692118210286467 0 -0.07990778921525156 0.0044834582687722606 0 -0.079803664066667987 0.0047668794368161491 0 -0.077191955907655499 0.0063752136040075074 0 -0.076950097809386067 0.0063816594610469823 0 -0.076985899745214317 0.0064638969913323498 0 -0.077917827332260201 0.008399557904570169 0 -0.078040783556262677 0.0086842549193570477 0 -0.07730831116711899 0.0086784549427935519 0 -0.076473849294863561 0.0074026512726470626 0 -0.07825235535160957 0.0062339515194214084 0 -0.080667559405338526 0.0056753165575311277 0 -0.080626946713034331 0.0055883780371592407 0 -0.080528877886814065 0.0056731518960872508 0 -0.082390642315285603 0.004723927619130759 0 -0.07825235535160957 0.0062339515194214084 0 -0.082390642315285603 0.004723927619130759 0 -0.081957081269166357 0.0062718769053331574 0 -0.084251083627153084 0.004926326904536895 0 -0.084123898793068003 0.0050363189445005157 0 -0.083928205734620537 0.0049194811523300018 0 -0.084123898793068003 0.0050363189445005157 0 -0.084333568441068416 0.0051116338996018739 0 -0.084104622622195757 0.0051545169621775369 0 -0.085921883508499178 0.0041388926528267977 0 -0.086782755293422983 0.0043039338134408002 0 -0.084123898793068003 0.0050363189445005157 0 -0.084104622622195757 0.0051545169621775369 0 -0.084001906918091743 0.0050699543805890106 0 -0.084118375477404125 0.0045439095130756224 0 -0.084442090248062235 0.00382266011113003 0 -0.084281369712166598 0.0038524713394198344 0 -0.084118375477404125 0.0045439095130756224 0 -0.084754534577649185 0.0045614903704607537 0 -0.084442090248062235 0.00382266011113003 0 -0.082390642315285603 0.004723927619130759 0 -0.085921883508499178 0.0041388926528267977 0 -0.084251083627153084 0.004926326904536895 0 -0.084123898793068003 0.0050363189445005157 0 -0.084333568441068416 0.0051116338996018739 0 -0.083596323394366234 0.0036578268620789211 0 -0.086206340194739065 0.0039903912772150697 0 -0.086206340194739065 0.0039903912772150697 0 -0.086788717562327256 0.0038536610736805482 0 -0.085921883508499178 0.0041388926528267977 0 -0.086788717562327256 0.0038536610736805482 0 -0.087041792026226791 0.0045359695035070285 0 -0.086577732626359941 0.0046223421005526658 0 -0.086754578234679511 0.0038635037430054782 0 -0.085921883508499178 0.0041388926528267977 0 -0.086206340194739065 0.0039903912772150697 0 -0.092883234421493474 0.0018512680290765522 0 -0.092365598065029517 0.0016313078766877162 0 -0.092715520052908965 0.0025169792326069302 0 -0.087739884286134037 0.0038380494379464322 0 -0.087841852933588649 0.0033927770565194172 0 -0.087159430220450265 0.0033503578847333209 0 -0.087774027187372358 0.0032360222208185326 0 -0.087841852933588649 0.0033927770565194172 0 -0.087159430220450265 0.0033503578847333209 0 -0.087779471769516143 0.0036884269602657166 0 -0.086788717562327256 0.0038536610736805482 0 -0.092385801083398819 0.0026932258570091464 0 -0.092684456213495622 0.0028975567413354231 0 -0.092754244377998035 0.0026065138201586432 0 -0.08887271720264206 0.0027938476130148172 0 -0.086788717562327256 0.0038536610736805482 0 -0.08887271720264206 0.0027938476130148172 0 -0.086782755293422983 0.0043039338134408002 0 -0.088942435835480227 0.0030772690454359338 0 -0.086871637512614786 0.0041572453816265354 0 -0.094336616679902285 0.00058879027476206993 0 -0.094160822913454137 0.00060082843144237052 0 -0.09434691307315074 0.00077400802287701286 0 -0.094336616679902285 0.00058879027476206993 0 -0.09434691307315074 0.00077400802287701286 0 -0.094395346676607345 0.00076537910033584798 0 -0.086782755293422983 0.0043039338134408002 0 -0.086871637512614786 0.0041572453816265354 0 -0.086871637512614786 0.0041572453816265354 0 -0.0862904277248632 0.0038176916372249588 0 -0.09445087063465471 0.00049615114403611833 0 -0.09452445514455432 0.00065056161907030925 0 -0.094606902942372811 0.0005171607713929131 0 -0.084536070528255958 0.0045942437651597711 0 -0.084620978959649637 0.004577620684498589 0 -0.084554419148654261 0.0046384061718300626 0 -0.09452445514455432 0.00065056161907030925 0 -0.094606902942372811 0.0005171607713929131 0 -0.094722263213099511 0.00061491330742897781 0 -0.094741032113234952 0.00039990758256418024 0 -0.094606902942372811 0.0005171607713929131 0 -0.094722263213099511 0.00061491330742897781 0 -0.0862904277248632 0.0038176916372249588 0 -0.086319755408525628 0.0035188603203091698 0 -0.082108020472152321 0.006836624322664916 0 -0.081695858734091006 0.0064478980486731372 0 -0.081346446949750253 0.0069765180111652529 0 -0.087024083944175587 0.0027621365428202108 0 -0.0862904277248632 0.0038176916372249588 0 -0.094741032113234952 0.00039990758256418024 0 -0.094725056141646724 0.00044783121410039663 0 -0.094806757525996654 0.00040801093358720081 0 -0.082108020472152321 0.006836624322664916 0 -0.081695858734091006 0.0064478980486731372 0 -0.082179923751465059 0.0060419609510694037 0 -0.0862904277248632 0.0038176916372249588 0 -0.082967993284506145 0.0055493715570887935 0 -0.081695858734091006 0.0064478980486731372 0 -0.081737612544794891 0.0060704409862115177 0 -0.082179923751465059 0.0060419609510694037 0 -0.083449505536385291 0.0059323557365637165 0 -0.082997198250531742 0.004974197876132359 0 -0.082672001753227073 0.0052806424198893085 0 -0.084620978959649637 0.004577620684498589 0 -0.084554419148654261 0.0046384061718300626 0 -0.084606907137055987 0.0046864555357216692 0 -0.084938030501181636 0.0048751368084723945 0 -0.082967993284506145 0.0055493715570887935 0 -0.084123898793068003 0.0050363189445005157 0 -0.084001906918091743 0.0050699543805890106 0 -0.083928205734620537 0.0049194811523300018 0 -0.084938030501181636 0.0048751368084723945 0 -0.081957081269166357 0.0062718769053331574 0 -0.086782755293422983 0.0043039338134408002 0 -0.084938030501181636 0.0048751368084723945 0 -0.086871637512614786 0.0041572453816265354 0 -0.084938030501181636 0.0048751368084723945 0 -0.08590522647001822 0.0051918785136158023 0 -0.085698103064060518 0.0052302378593324528 0 -0.085532435009048557 0.0048780102767965253 0 -0.080626946713034331 0.0055883780371592407 0 -0.080528877886814065 0.0056731518960872508 0 -0.080511450058366685 0.005637968942765411 0 -0.082997198250531742 0.004974197876132359 0 -0.082701134822927735 0.0049663458472153886 0 -0.082672001753227073 0.0052806424198893085 0 -0.081957081269166357 0.0062718769053331574 0 -0.081717843342307306 0.0066041425548418967 0 -0.081003694632002521 0.00646570476043866 0 -0.08101835952785022 0.006499785217700455 0 -0.081022256351755473 0.0064663143969994575 0 -0.081957081269166357 0.0062718769053331574 0 -0.08060318306355789 0.0070962400598554472 0 -0.08060318306355789 0.0070962400598554472 0 -0.081717843342307306 0.0066041425548418967 0 -0.076473849294863561 0.0074026512726470626 0 -0.076680791543692395 0.011300462356776755 0 -0.07825235535160957 0.0062339515194214084 0 -0.08060318306355789 0.0070962400598554472 0 -0.078040783556262677 0.0086842549193570477 0 -0.077175011913678107 0.0090428204625316779 0 -0.07730831116711899 0.0086784549427935519 0 -0.077917827332260201 0.008399557904570169 0 -0.07730831116711899 0.0086784549427935519 0 -0.077232454877553314 0.0084131277467103995 0 -0.077175011913678107 0.0090428204625316779 0 -0.07730831116711899 0.0086784549427935519 0 -0.077222159606510257 0.0085052099912354302 0 -0.08060318306355789 0.0070962400598554472 0 -0.076937981940692235 0.011126027610283262 0 -0.07691071497362971 0.011031663207077123 0 -0.076937981940692235 0.011126027610283262 0 -0.07730831116711899 0.0086784549427935519 0 -0.077223853617540625 0.0085050685777887484 0 -0.077232454877553314 0.0084131277467103995 0 -0.076605267046393408 0.012271238983784726 0 -0.076701003779023016 0.011269150972164984 0 -0.076125979181341494 0.011277551310361938 0 -0.076937981940692235 0.011126027610283262 0 -0.076674720717876871 0.011613108774967877 0 -0.076937981940692235 0.011126027610283262 0 -0.076680791543692395 0.011300462356776755 0 -0.076680791543692395 0.011300462356776755 0 -0.076674720717876871 0.011613108774967877 0 -0.077597042176456688 0.010554583303067125 0 -0.077192785957309121 0.010926071473674508 0 -0.076939592838976958 0.010879709952386355 0 -0.076674720717876871 0.011613108774967877 0 -0.074408130465320133 0.015710580634300302 0 -0.077597042176456688 0.010554583303067125 0 -0.076939592838976958 0.010879709952386355 0 -0.076704001125328797 0.010573863126177285 0 -0.077646560513018589 0.010656143116558686 0 -0.077597042176456688 0.010554583303067125 0 -0.077408865126749438 0.01086835477479556 0 -0.077597042176456688 0.010554583303067125 0 -0.077408865126749438 0.01086835477479556 0 -0.077192785957309121 0.010926071473674508 0 -0.077596784035253025 0.011250049925355339 0 -0.077646560513018589 0.010656143116558686 0 -0.077408865126749438 0.01086835477479556 0 -0.08060318306355789 0.0070962400598554472 0 -0.080573597895771232 0.0075163089354202389 0 -0.077586860586789139 0.011251906202609274 0 -0.077408865126749438 0.01086835477479556 0 -0.077283805108504827 0.011164464599137947 0 -0.077408865126749438 0.01086835477479556 0 -0.077192785957309121 0.010926071473674508 0 -0.077283805108504827 0.011164464599137947 0 -0.077192785957309121 0.010926071473674508 0 -0.077055888423987501 0.011101968731863436 0 -0.077283805108504827 0.011164464599137947 0 -0.077055888423987501 0.011101968731863436 0 -0.076831790256691623 0.011252932285776231 0 -0.076939592838976958 0.010879709952386355 0 -0.077192785957309121 0.010926071473674508 0 -0.077055888423987501 0.011101968731863436 0 -0.076939592838976958 0.010879709952386355 0 -0.077109809191114986 0.011314000925054088 0 -0.077559199627775424 0.011535608857327316 0 -0.076821023354803272 0.011514539389583422 0 -0.077055888423987501 0.011101968731863436 0 -0.077109809191114986 0.011314000925054088 0 -0.076831790256691623 0.011252932285776231 0 -0.081717843342307306 0.0066041425548418967 0 -0.078713477395592951 0.0087310766924854292 0 -0.08219705734794204 0.0058732395952088888 0 -0.082045240741337636 0.0059300910451400872 0 -0.081476506933268023 0.0058557604099237805 0 -0.077055888423987501 0.011101968731863436 0 -0.077109809191114986 0.011314000925054088 0 -0.077283805108504827 0.011164464599137947 0 -0.077109809191114986 0.011314000925054088 0 -0.077283805108504827 0.011164464599137947 0 -0.077559199627775424 0.011535608857327316 0 -0.077586860586789139 0.011251906202609274 0 -0.077283805108504827 0.011164464599137947 0 -0.077559199627775424 0.011535608857327316 0 -0.081737612544794891 0.0060704409862115177 0 -0.082045240741337636 0.0059300910451400872 0 -0.082179923751465059 0.0060419609510694037 0 -0.08219705734794204 0.0058732395952088888 0 -0.082045240741337636 0.0059300910451400872 0 -0.08218216304785915 0.0060452346055522499 0 -0.081717843342307306 0.0066041425548418967 0 -0.082967993284506145 0.0055493715570887935 0 -0.082953193694572464 0.0055465674886217972 0 -0.082967993284506145 0.0055493715570887935 0 -0.081737612544794891 0.0060704409862115177 0 -0.082045240741337636 0.0059300910451400872 0 -0.081476506933268023 0.0058557604099237805 0 -0.076831790256691623 0.011252932285776231 0 -0.076554838170961564 0.010644905095146512 0 -0.076134065357869013 0.01148928325763216 0 -0.076821023354803272 0.011514539389583422 0 -0.076831790256691623 0.011252932285776231 0 -0.076134065357869013 0.01148928325763216 0 -0.078713477395592951 0.0087310766924854292 0 -0.075107882786084115 0.010858620090083849 0 -0.081476506933268023 0.0058557604099237805 0 -0.080757139045139148 0.0058398606133627448 0 -0.081193679589151399 0.0063187235768363409 0 -0.077109809191114986 0.011314000925054088 0 -0.076821023354803272 0.011514539389583422 0 -0.076831790256691623 0.011252932285776231 0 -0.076831790256691623 0.011252932285776231 0 -0.076554838170961564 0.010644905095146512 0 -0.076707596022055138 0.01064397352710054 0 -0.074483776562977042 0.014140958889516301 0 -0.074408130465320133 0.015710580634300302 0 -0.076831790256691623 0.011252932285776231 0 -0.076939592838976958 0.010879709952386355 0 -0.076704001125328797 0.010573863126177285 0 -0.073933814324723013 0.016302146045569215 0 -0.074408130465320133 0.015710580634300302 0 -0.061095098219618706 0.021741379687376838 0 -0.06491546121234415 0.019275621584104091 0 -0.064508673330040706 0.014753056138904612 0 -0.073933814324723013 0.016302146045569215 0 -0.072030563473863218 0.01910610921334667 0 -0.073933814324723013 0.016302146045569215 0 -0.075107882786084115 0.010858620090083849 0 -0.061095098219618706 0.021741379687376838 0 -0.06491546121234415 0.019275621584104091 0 -0.068868409489406521 0.021675865752286277 0 -0.06491546121234415 0.019275621584104091 0 -0.067186319488071855 0.016783909649518126 0 -0.068868409489406521 0.021675865752286277 0 -0.06491546121234415 0.019275621584104091 0 -0.067186319488071855 0.016783909649518126 0 -0.064508673330040706 0.014753056138904612 0 -0.063818891363208397 0.014274840601884081 0 -0.066605766666126526 0.01344806848970367 0 -0.070963490623638617 0.014342540456272979 0 -0.075107882786084115 0.010858620090083849 0 -0.072831124414950418 0.011920140815137559 0 -0.067186319488071855 0.016783909649518126 0 -0.064508673330040706 0.014753056138904612 0 -0.069951676926756093 0.014741517224283554 0 -0.063818891363208397 0.014274840601884081 0 -0.066605766666126526 0.01344806848970367 0 -0.066285822093179111 0.009214906143232884 0 -0.075107882786084115 0.010858620090083849 0 -0.0769111197102538 0.0078818097333563635 0 -0.080757139045139148 0.0058398606133627448 0 -0.080516240446330808 0.0063362909615173879 0 -0.081193679589151399 0.0063187235768363409 0 -0.080516240446330808 0.0063362909615173879 0 -0.081193679589151399 0.0063187235768363409 0 -0.080910714917238835 0.0066861574272836797 0 -0.065983326873683634 0.00940599258900531 0 -0.066553193768408805 0.0081695814655859643 0 -0.065009319926617501 0.00072880650142134837 0 -0.066605766666126526 0.01344806848970367 0 -0.066079901180603903 0.0093149012922065233 0 -0.068235829415843219 0.011287812897112434 0 -0.076447360742863277 0.0084756472906862695 0 -0.0769111197102538 0.0078818097333563635 0 -0.066079901180603903 0.0093149012922065233 0 -0.066553193768408805 0.0081695814655859643 0 -0.068676242285842848 0.0083844177474508372 0 -0.0769111197102538 0.0078818097333563635 0 -0.076837852932429868 0.0079428427700559013 0 -0.081695858734091006 0.0064478980486731372 0 -0.081193679589151399 0.0063187235768363409 0 -0.081346446949750253 0.0069765180111652529 0 -0.081737612544794891 0.0060704409862115177 0 -0.081476506933268023 0.0058557604099237805 0 -0.081193679589151399 0.0063187235768363409 0 -0.081695858734091006 0.0064478980486731372 0 -0.081737612544794891 0.0060704409862115177 0 -0.081193679589151399 0.0063187235768363409 0 -0.081193679589151399 0.0063187235768363409 0 -0.081346446949750253 0.0069765180111652529 0 -0.080910714917238835 0.0066861574272836797 0 -0.081346446949750253 0.0069765180111652529 0 -0.080910714917238835 0.0066861574272836797 0 -0.080587626821372993 0.0071126492886774044 0 -0.0769111197102538 0.0078818097333563635 0 -0.083565515961049566 0.0035662280853699748 0 -0.086319755408525628 0.0035188603203091698 0 -0.083565515961049566 0.0035662280853699748 0 -0.080516240446330808 0.0063362909615173879 0 -0.080910714917238835 0.0066861574272836797 0 -0.080587626821372993 0.0071126492886774044 0 -0.066553193768408805 0.0081695814655859643 0 -0.065009319926617501 0.00072880650142134837 0 -0.06758378712355359 0.0054290100843816498 0 -0.073090562384130586 0.024589360562719383 0 -0.072434569103110635 0.025455704208139768 0 -0.07396253695362362 0.023635724454418309 0 -0.073090562384130586 0.024589360562719383 0 -0.072508671095819308 0.02519721243838844 0 -0.072516490769696698 0.024466267522740219 0 -0.073090562384130586 0.024589360562719383 0 -0.073163709104377445 0.02405920677008111 0 -0.072516490769696698 0.024466267522740219 0 -0.073163709104377445 0.02405920677008111 0 -0.073041832641572213 0.023292785267868186 0 -0.072516490769696698 0.024466267522740219 0 -0.073090562384130586 0.024589360562719383 0 -0.073163709104377445 0.02405920677008111 0 -0.07396253695362362 0.023635724454418309 0 -0.076182491625284149 0.02706017490257874 0 -0.077432156253993648 0.025149646650392727 0 -0.076155382513289252 0.023962551965817147 0 -0.074288764717844069 0.023653964790273499 0 -0.07412508656554273 0.023765723927499181 0 -0.0746855406202169 0.024983523452950997 0 -0.07396253695362362 0.023635724454418309 0 -0.074157205527412895 0.023117612944199235 0 -0.076182491625284149 0.02706017490257874 0 -0.076155382513289252 0.023962551965817147 0 -0.074157205527412895 0.023117612944199235 0 -0.074572600398119249 0.024987428174799493 0 -0.0746855406202169 0.024983523452950997 0 -0.07396253695362362 0.023635724454418309 0 -0.076366956783643927 0.018401866896364246 0 -0.076667957651862975 0.021588606906998514 0 -0.074572600398119249 0.024987428174799493 0 -0.074267958100219772 0.025478061634389131 0 -0.07396253695362362 0.023635724454418309 0 -0.07466943018832832 0.024972966884364182 0 -0.074267958100219772 0.025478061634389131 0 -0.074986537301067593 0.025811963684086735 0 -0.076366956783643927 0.018401866896364246 0 -0.07596096639169013 0.01758872899415594 0 -0.074572600398119249 0.024987428174799493 0 -0.07466943018832832 0.024972966884364182 0 -0.074267958100219772 0.025478061634389131 0 -0.076350815326224022 0.018414754797093275 0 -0.076366956783643927 0.018401866896364246 0 -0.072434569103110635 0.025455704208139768 0 -0.07258843975343203 0.025208560283976483 0 -0.072392620943618757 0.025323767384540431 0 -0.073090562384130586 0.024589360562719383 0 -0.072434569103110635 0.025455704208139768 0 -0.07258843975343203 0.025208560283976483 0 -0.073090562384130586 0.024589360562719383 0 -0.07258843975343203 0.025208560283976483 0 -0.072508671095819308 0.02519721243838844 0 -0.07258843975343203 0.025208560283976483 0 -0.072508671095819308 0.02519721243838844 0 -0.072392620943618757 0.025323767384540431 0 -0.072508671095819308 0.02519721243838844 0 -0.072392620943618757 0.025323767384540431 0 -0.072319009976679463 0.025536533414655636 0 -0.072434569103110635 0.025455704208139768 0 -0.072392620943618757 0.025323767384540431 0 -0.072084225101734609 0.024894313209706774 0 -0.072392620943618757 0.025323767384540431 0 -0.072234826383806364 0.024897541284090694 0 -0.072319009976679463 0.025536533414655636 0 -0.072392620943618757 0.025323767384540431 0 -0.072084225101734609 0.024894313209706774 0 -0.072234826383806364 0.024897541284090694 0 -0.071590425113259831 0.024151656906151148 0 -0.071921354803741178 0.024388113073134553 0 -0.072259950645527954 0.023602999986360118 0 -0.072234826383806364 0.024897541284090694 0 -0.071921354803741178 0.024388113073134553 0 -0.072259950645527954 0.023602999986360118 0 -0.072084225101734609 0.024894313209706774 0 -0.072234826383806364 0.024897541284090694 0 -0.071921354803741178 0.024388113073134553 0 -0.074321209291375076 0.017689486549649771 0 -0.07596096639169013 0.01758872899415594 0 -0.074581211587392365 0.016234482267282888 0 -0.075481466163995981 0.016221554418637464 0 -0.075236793886102729 0.014898298645291949 0 -0.074408130465320133 0.015710580634300302 0 -0.074321209291375076 0.017689486549649771 0 -0.071590425113259831 0.024151656906151148 0 -0.071921354803741178 0.024388113073134553 0 -0.07148614812184384 0.024366324101229794 0 -0.073933814324723013 0.016302146045569215 0 -0.074321209291375076 0.017689486549649771 0 -0.072084225101734609 0.024894313209706774 0 -0.071921354803741178 0.024388113073134553 0 -0.07148614812184384 0.024366324101229794 0 -0.072434569103110635 0.025455704208139768 0 -0.072084225101734609 0.024894313209706774 0 -0.07148614812184384 0.024366324101229794 0 -0.074267958100219772 0.025478061634389131 0 -0.074532848240428426 0.02668866084156345 0 -0.074986537301067593 0.025811963684086735 0 -0.074288764717844069 0.023653964790273499 0 -0.074321209291375076 0.017689486549649771 0 -0.075605813588556031 0.014895738366551387 0 -0.074867798609623462 0.014499855271945026 0 -0.075396620423625813 0.015320507463489157 0 -0.07596096639169013 0.01758872899415594 0 -0.076037636630596026 0.017286065846297726 0 -0.07585444454658441 0.014740949854781452 0 -0.076364781584597738 0.014877953002032242 0 -0.076141797059466665 0.01534538375292234 0 -0.076674720717876871 0.011613108774967877 0 -0.07596096639169013 0.01758872899415594 0 -0.07585444454658441 0.014740949854781452 0 -0.076338773587679515 0.014740012014411729 0 -0.076364781584597738 0.014877953002032242 0 -0.075015706210174324 0.013656982799787769 0 -0.075605813588556031 0.014895738366551387 0 -0.074867798609623462 0.014499855271945026 0 -0.074948442606835891 0.013657699756855834 0 -0.075015706210174324 0.013656982799787769 0 -0.074867798609623462 0.014499855271945026 0 -0.07539058628851826 0.0097454179891901388 0 -0.076112232435541965 0.0097385365548672848 0 -0.075859675654512237 0.010064282832642792 0 -0.07539058628851826 0.0097454179891901388 0 -0.075859675654512237 0.010064282832642792 0 -0.075683215644650595 0.010438087058528136 0 -0.076112232435541965 0.0097385365548672848 0 -0.075859675654512237 0.010064282832642792 0 -0.076045452193646876 0.010434171015704272 0 -0.076680791543692395 0.011300462356776755 0 -0.075309968059749724 0.012120946067430492 0 -0.075859675654512237 0.010064282832642792 0 -0.075683215644650595 0.010438087058528136 0 -0.076045452193646876 0.010434171015704272 0 -0.074665971526765171 0.0091787829660066982 0 -0.073929864047207389 0.012490969875017717 0 -0.070679084039098283 0.0067215916680543478 0 -0.07128544729360041 0.0081170470731296972 0 -0.07050044009686772 0.0076945909987929575 0 -0.074867798609623462 0.014499855271945026 0 -0.074792814586635198 0.015335113014935836 0 -0.075396620423625813 0.015320507463489157 0 -0.075683215644650595 0.010438087058528136 0 -0.076045452193646876 0.010434171015704272 0 -0.075977649400582714 0.0111357263122465 0 -0.075309968059749724 0.012120946067430492 0 -0.073929864047207389 0.012490969875017717 0 -0.070609758231626588 0.0083360309444704718 0 -0.07128544729360041 0.0081170470731296972 0 -0.07050044009686772 0.0076945909987929575 0 -0.070609758231626588 0.0083360309444704718 0 -0.07128544729360041 0.0081170470731296972 0 -0.0711950515502556 0.0090867307728434103 0 -0.070609758231626588 0.0083360309444704718 0 -0.070745108189285449 0.0091712545464586702 0 -0.0711950515502556 0.0090867307728434103 0 -0.073929864047207389 0.012490969875017717 0 -0.072587347895413615 0.013474919651773304 0 -0.072110837621795168 0.012782242338316804 0 -0.072908221770130746 0.014644970006088217 0 -0.073104378340278456 0.012595441866349753 0 -0.073961413145621921 0.01502850242555283 0 -0.073929864047207389 0.012490969875017717 0 -0.076366956783643927 0.018401866896364246 0 -0.073961413145621921 0.01502850242555283 0 -0.075961441935509813 0.015666376544945012 0 -0.075014834232412522 0.015842645841439816 0 -0.075396620423625813 0.015320507463489157 0 -0.075961441935509813 0.015666376544945012 0 -0.075596130187856117 0.014915852937285038 0 -0.075396620423625813 0.015320507463489157 0 -0.075014834232412522 0.015842645841439816 0 -0.074792814586635198 0.015335113014935836 0 -0.075396620423625813 0.015320507463489157 0 -0.07944056009394683 0.026416116442443301 0 -0.077432156253993648 0.025149646650392727 0 -0.078482141182124029 0.024171306871801804 0 -0.073961413145621921 0.01502850242555283 0 -0.075519868939646712 0.018011939198057731 0 -0.076182491625284149 0.02706017490257874 0 -0.07944056009394683 0.026416116442443301 0 -0.077432156253993648 0.025149646650392727 0 -0.077432156253993648 0.025149646650392727 0 -0.078482141182124029 0.024171306871801804 0 -0.077259754458708363 0.023573779714842612 0 -0.077432156253993648 0.025149646650392727 0 -0.077259754458708363 0.023573779714842612 0 -0.076155382513289252 0.023962551965817147 0 -0.060565983303703406 0.010135415175317252 0 -0.060514144650127277 0.010072248588465631 0 -0.060409342309155026 0.010200014040314958 0 -0.072180067256234506 0.013856484963661207 0 -0.070212317993250131 0.012315853959073265 0 -0.070212317993250131 0.012315853959073265 0 -0.072587347895413615 0.013474919651773304 0 -0.071964787126894469 0.01065281395532163 0 -0.075578617963165187 0.014866617769882781 0 -0.071488404359151658 0.015634879548634583 0 -0.074564734834007995 0.01493693176546643 0 -0.075093840270771761 0.016161266723382625 0 -0.074007578872283222 0.015615302716075094 0 -0.073961413145621921 0.01502850242555283 0 -0.072587347895413615 0.013474919651773304 0 -0.074564734834007995 0.01493693176546643 0 -0.074007578872283222 0.015615302716075094 0 -0.074063182986410805 0.01503089189967677 0 -0.072180067256234506 0.013856484963661207 0 -0.072587347895413615 0.013474919651773304 0 -0.060514144650127277 0.010072248588465631 0 -0.060409342309155026 0.010200014040314958 0 -0.060269174864405792 0.010106713472479602 0 -0.070212317993250131 0.012315853959073265 0 -0.063195997414413715 0.0099100426835285454 0 -0.063195997414413715 0.0099100426835285454 0 -0.053039517730076077 0.0080520378827356586 0 -0.069073841174132733 0.0093545777495832611 0 -0.068049974739901431 0.0076905622084575027 0 -0.067461270051415473 0.0096502676213529783 0 -0.069073841174132733 0.0093545777495832611 0 -0.069428742408666769 0.0076055307360420373 0 -0.068049974739901431 0.0076905622084575027 0 -0.070609758231626588 0.0083360309444704718 0 -0.070745108189285449 0.0091712545464586702 0 -0.069428742408666769 0.0076055307360420373 0 -0.070212317993250131 0.012315853959073265 0 -0.069218753929647561 0.010256965011445776 0 -0.070652541755749351 0.0090609227254406111 0 -0.069073841174132733 0.0093545777495832611 0 -0.069428742408666769 0.0076055307360420373 0 -0.070609758231626588 0.0083360309444704718 0 -0.07050044009686772 0.0076945909987929575 0 -0.069428742408666769 0.0076055307360420373 0 -0.070679084039098283 0.0067215916680543478 0 -0.07050044009686772 0.0076945909987929575 0 -0.069428742408666769 0.0076055307360420373 0 -0.070679084039098283 0.0067215916680543478 0 -0.069428742408666769 0.0076055307360420373 0 -0.068986535677979466 0.0068692049697736939 0 -0.076473849294863561 0.0074026512726470626 0 -0.074665971526765171 0.0091787829660066982 0 -0.0700976037169804 0.0053618557313106175 0 -0.070679084039098283 0.0067215916680543478 0 -0.069231448454901839 0.0060414450591785998 0 -0.070679084039098283 0.0067215916680543478 0 -0.069231448454901839 0.0060414450591785998 0 -0.068986535677979466 0.0068692049697736939 0 -0.068363532393469609 0.0053898660419842981 0 -0.0700976037169804 0.0053618557313106175 0 -0.069231448454901839 0.0060414450591785998 0 -0.068363532393469609 0.0053898660419842981 0 -0.068277270402018475 0.0059174210004813719 0 -0.069231448454901839 0.0060414450591785998 0 -0.069231448454901839 0.0060414450591785998 0 -0.068228648916125872 0.0064819042741807191 0 -0.068986535677979466 0.0068692049697736939 0 -0.068277270402018475 0.0059174210004813719 0 -0.069231448454901839 0.0060414450591785998 0 -0.068228648916125872 0.0064819042741807191 0 -0.069428742408666769 0.0076055307360420373 0 -0.068986535677979466 0.0068692049697736939 0 -0.068049974739901431 0.0076905622084575027 0 -0.068228648916125872 0.0064819042741807191 0 -0.068986535677979466 0.0068692049697736939 0 -0.068049974739901431 0.0076905622084575027 0 -0.068228648916125872 0.0064819042741807191 0 -0.068049974739901431 0.0076905622084575027 0 -0.067658211285173159 0.0066224581415314189 0 -0.068049974739901431 0.0076905622084575027 0 -0.06707393528999242 0.006948347168914187 0 -0.066574154619313333 0.0080770546824872301 0 -0.068049974739901431 0.0076905622084575027 0 -0.06707393528999242 0.006948347168914187 0 -0.067658211285173159 0.0066224581415314189 0 -0.075481951678863193 0.0035670720879884335 0 -0.076295734935985779 0.0037707204184231767 0 -0.068228648916125872 0.0064819042741807191 0 -0.067658211285173159 0.0066224581415314189 0 -0.067638924039219367 0.005840214924526045 0 -0.070811927183918363 0.0018510783502938459 0 -0.073134060183642269 0.0018133470711979344 0 -0.073233488912924499 0.0023059975172312758 0 -0.06707393528999242 0.006948347168914187 0 -0.067658211285173159 0.0066224581415314189 0 -0.067638924039219367 0.005840214924526045 0 -0.068363532393469609 0.0053898660419842981 0 -0.068277270402018475 0.0059174210004813719 0 -0.06770005389251714 0.0056690792571117039 0 -0.076553869300298408 0.004603123943608089 0 -0.076295734935985779 0.0037707204184231767 0 -0.076562034527431044 0.0034672301030145279 0 -0.077403053278206652 0.0032609157697661164 0 -0.077439792798173784 0.0031034821652429411 0 -0.073134060183642269 0.0018133470711979344 0 -0.073285452772274939 0.0020848135679595895 0 -0.073233488912924499 0.0023059975172312758 0 -0.068277270402018475 0.0059174210004813719 0 -0.068228648916125872 0.0064819042741807191 0 -0.06770005389251714 0.0056690792571117039 0 -0.077546335420965007 0.0032679801764378931 0 -0.07706549579922066 0.00340495484394955 0 -0.068228648916125872 0.0064819042741807191 0 -0.067638924039219367 0.005840214924526045 0 -0.067682288858456133 0.0056624842385090707 0 -0.077504091233962041 0.0034619619207166257 0 -0.07706549579922066 0.00340495484394955 0 -0.07706549579922066 0.00340495484394955 0 -0.076295734935985779 0.0037707204184231767 0 -0.076268398574864921 0.0038031270784911254 0 -0.076295734935985779 0.0037707204184231767 0 -0.070811927183918363 0.0018510783502938459 0 -0.073233488912924499 0.0023059975172312758 0 -0.069590350773234153 0.0038185640367193073 0 -0.06707393528999242 0.006948347168914187 0 -0.067638924039219367 0.005840214924526045 0 -0.065673395657654232 0.0064911307600575511 0 -0.067638924039219367 0.005840214924526045 0 -0.067681926157888053 0.005663809038891925 0 -0.065673395657654232 0.0064911307600575511 0 -0.076295734935985779 0.0037707204184231767 0 -0.063398715047705459 0.0032877334164996188 0 -0.056822282835673164 0.0058216817217579663 0 -0.063398715047705459 0.0032877334164996188 0 -0.06707393528999242 0.006948347168914187 0 -0.066574154619313333 0.0080770546824872301 0 -0.065673395657654232 0.0064911307600575511 0 -0.056822282835673164 0.0058216817217579663 0 -0.053039517730076077 0.0080520378827356586 0 -0.038403028778353429 0.0076264531075294247 0 -0.037617963149654675 0.0061913920302312832 0 -0.038949720237508222 0.0068671231953842879 0 -0.068049974739901431 0.0076905622084575027 0 -0.066574154619313333 0.0080770546824872301 0 -0.067461270051415473 0.0096502676213529783 0 -0.053039517730076077 0.0080520378827356586 0 -0.043271146768687166 0.0077154279520998837 0 -0.037617963149654675 0.0061913920302312832 0 -0.038944072034968039 0.0059217283095937623 0 -0.038949720237508222 0.0068671231953842879 0 -0.038390516871733456 0.0053633054994504199 0 -0.037617530540361141 0.0043818520673714022 0 -0.038846857577557625 0.0039729057762167459 0 -0.037169407574609084 0.0055343417802806195 0 -0.038390516871733456 0.0053633054994504199 0 -0.037617530540361141 0.0043818520673714022 0 -0.037169407574609084 0.0055343417802806195 0 -0.037617530540361141 0.0043818520673714022 0 -0.036380805116884046 0.0040062153590567197 0 -0.053039517730076077 0.0080520378827356586 0 -0.050883341725513363 0.0063821707076671215 0 -0.037617530540361141 0.0043818520673714022 0 -0.037899613959520094 0.0030225855455127196 0 -0.036380805116884046 0.0040062153590567197 0 -0.037617530540361141 0.0043818520673714022 0 -0.037899613959520094 0.0030225855455127196 0 -0.038846857577557625 0.0039729057762167459 0 -0.037899613959520094 0.0030225855455127196 0 -0.03778198656774126 0.0019370960715438851 0 -0.036933983712744395 0.0024167920275091907 0 -0.037899613959520094 0.0030225855455127196 0 -0.03778198656774126 0.0019370960715438851 0 -0.038307731969432733 0.0019208825315222273 0 -0.03778198656774126 0.0019370960715438851 0 -0.038131715914067242 0.0014632098887959149 0 -0.037879129583943454 0.0013570290481270939 0 -0.03778198656774126 0.0019370960715438851 0 -0.038307731969432733 0.0019208825315222273 0 -0.038131715914067242 0.0014632098887959149 0 -0.03778198656774126 0.0019370960715438851 0 -0.036933983712744395 0.0024167920275091907 0 -0.03749488778214792 0.0013910996122115436 0 -0.036933983712744395 0.0024167920275091907 0 -0.03749488778214792 0.0013910996122115436 0 -0.036399004180023148 0.0015101006267348922 0 -0.037899613959520094 0.0030225855455127196 0 -0.036933983712744395 0.0024167920275091907 0 -0.036380805116884046 0.0040062153590567197 0 -0.060326460731629221 0.010631091323477926 0 -0.060385022230408016 0.010560709311052073 0 -0.060179327712114948 0.010397404875868608 0 -0.036933983712744395 0.0024167920275091907 0 -0.035640607996004943 0.0025695584796376447 0 -0.036380805116884046 0.0040062153590567197 0 -0.051731968202040866 0.0060057596177176984 0 -0.050883341725513363 0.0063821707076671215 0 -0.051731968202040866 0.0060057596177176984 0 -0.044119253283961282 0.0059123440518211879 0 -0.036933983712744395 0.0024167920275091907 0 -0.035640607996004943 0.0025695584796376447 0 -0.036399004180023148 0.0015101006267348922 0 -0.048409902174348485 0.0051650717624598125 0 -0.047494236705071941 0.0064639078146582112 0 -0.04849995344843544 0.0067868131501603148 0 -0.051731968202040866 0.0060057596177176984 0 -0.060460406861482942 0.010989961252253063 0 -0.060345053484794256 0.010620660366888012 0 -0.060484977694336618 0.010612373244501721 0 -0.060472495439153784 0.010813277185683041 0 -0.048409902174348485 0.0051650717624598125 0 -0.04849995344843544 0.0067868131501603148 0 -0.049328166631169922 0.0067621614362662541 0 -0.060345053484794256 0.010620660366888012 0 -0.060385022230408016 0.010560709311052073 0 -0.060484977694336618 0.010612373244501721 0 -0.051731968202040866 0.0060057596177176984 0 -0.052074698896324545 0.0060695776614393699 0 -0.060385022230408016 0.010560709311052073 0 -0.060374852820226858 0.010387778612831191 0 -0.060523899534866539 0.010385773767248996 0 -0.060385022230408016 0.010560709311052073 0 -0.060374852820226858 0.010387778612831191 0 -0.060179327712114948 0.010397404875868608 0 -0.060409342309155026 0.010200014040314958 0 -0.060269174864405792 0.010106713472479602 0 -0.060179327712114948 0.010397404875868608 0 -0.060269174864405792 0.010106713472479602 0 -0.060019198255852696 0.010144580131511949 0 -0.060179327712114948 0.010397404875868608 0 -0.060409342309155026 0.010200014040314958 0 -0.060374852820226858 0.010387778612831191 0 -0.060179327712114948 0.010397404875868608 0 -0.060409342309155026 0.010200014040314958 0 -0.060374852820226858 0.010387778612831191 0 -0.060523899534866539 0.010385773767248996 0 -0.072180067256234506 0.013856484963661207 0 -0.06963262646410015 0.014617887047531447 0 -0.060565983303703406 0.010135415175317252 0 -0.060409342309155026 0.010200014040314958 0 -0.060523899534866539 0.010385773767248996 0 -0.081313680797586704 0.024626103650667083 0 -0.080235343267049314 0.022594362992732077 0 -0.081739989961340603 0.020698230184610596 0 -0.080235343267049314 0.022594362992732077 0 -0.07986737151673709 0.021226559760039725 0 -0.081739989961340603 0.020698230184610596 0 -0.072180067256234506 0.013856484963661207 0 -0.076066530964860171 0.018805573431425197 0 -0.081313680797586704 0.024626103650667083 0 -0.080235343267049314 0.022594362992732077 0 -0.078249493822838259 0.021291427537135314 0 -0.075093840270771761 0.016161266723382625 0 -0.074007578872283222 0.015615302716075094 0 -0.075623071837006908 0.017387354723258235 0 -0.078482141182124029 0.024171306871801804 0 -0.077259754458708363 0.023573779714842612 0 -0.077519268992134308 0.021922084447144285 0 -0.075519868939646712 0.018011939198057731 0 -0.076066530964860171 0.018805573431425197 0 -0.077259754458708363 0.023573779714842612 0 -0.077519268992134308 0.021922084447144285 0 -0.076698492338599156 0.022676108414835972 0 -0.080235343267049314 0.022594362992732077 0 -0.079403116070324561 0.021446655685287305 0 -0.07986737151673709 0.021226559760039725 0 -0.080235343267049314 0.022594362992732077 0 -0.078249493822838259 0.021291427537135314 0 -0.079403116070324561 0.021446655685287305 0 -0.079403116070324561 0.021446655685287305 0 -0.07986737151673709 0.021226559760039725 0 -0.079140700162991101 0.020733101296871323 0 -0.078249493822838259 0.021291427537135314 0 -0.079403116070324561 0.021446655685287305 0 -0.079140700162991101 0.020733101296871323 0 -0.079140700162991101 0.020733101296871323 0 -0.079763335240058839 0.020169812983717207 0 -0.07833295189735727 0.019275302128886805 0 -0.07986737151673709 0.021226559760039725 0 -0.079140700162991101 0.020733101296871323 0 -0.079763335240058839 0.020169812983717207 0 -0.078249493822838259 0.021291427537135314 0 -0.079140700162991101 0.020733101296871323 0 -0.07833295189735727 0.019275302128886805 0 -0.079763335240058839 0.020169812983717207 0 -0.07833295189735727 0.019275302128886805 0 -0.079862282946664434 0.018289214613933274 0 -0.079763335240058839 0.020169812983717207 0 -0.081739989961340603 0.020698230184610596 0 -0.079862282946664434 0.018289214613933274 0 -0.081739989961340603 0.020698230184610596 0 -0.082253555569159323 0.01660827576369598 0 -0.079862282946664434 0.018289214613933274 0 -0.06963262646410015 0.014617887047531447 0 -0.066420545473645259 0.013030067150113431 0 -0.07986737151673709 0.021226559760039725 0 -0.079763335240058839 0.020169812983717207 0 -0.081739989961340603 0.020698230184610596 0 -0.060385022230408016 0.010560709311052073 0 -0.060523899534866539 0.010385773767248996 0 -0.060484977694336618 0.010612373244501721 0 -0.082253555569159323 0.01660827576369598 0 -0.079625144058629596 0.015097476303241956 0 -0.079862282946664434 0.018289214613933274 0 -0.066420545473645259 0.013030067150113431 0 -0.060460406861482942 0.010989961252253063 0 -0.082253555569159323 0.01660827576369598 0 -0.079625144058629596 0.015097476303241956 0 -0.082763298807372501 0.012337760086005107 0 -0.079625144058629596 0.015097476303241956 0 -0.077927126588863999 0.016865615853570444 0 -0.076570105125094393 0.013872502800600317 0 -0.079625144058629596 0.015097476303241956 0 -0.076570105125094393 0.013872502800600317 0 -0.079916093305184885 0.012166723061208664 0 -0.079625144058629596 0.015097476303241956 0 -0.077927126588863999 0.016865615853570444 0 -0.079862282946664434 0.018289214613933274 0 -0.07833295189735727 0.019275302128886805 0 -0.077927126588863999 0.016865615853570444 0 -0.079862282946664434 0.018289214613933274 0 -0.077927126588863999 0.016865615853570444 0 -0.075232235634976066 0.017748441685678167 0 -0.076570105125094393 0.013872502800600317 0 -0.07833295189735727 0.019275302128886805 0 -0.077927126588863999 0.016865615853570444 0 -0.075232235634976066 0.017748441685678167 0 -0.07503641396576935 0.017783209746527008 0 -0.073606836421587302 0.016151882239177705 0 -0.075232235634976066 0.017748441685678167 0 -0.076570105125094393 0.013872502800600317 0 -0.071997500838338141 0.014337635329872341 0 -0.075089732759738695 0.018493419524207598 0 -0.071057528550707433 0.017898187041664401 0 -0.071997500838338141 0.014337635329872341 0 -0.075089732759738695 0.018493419524207598 0 -0.072756487574725456 0.020775798807901587 0 -0.071057528550707433 0.017898187041664401 0 -0.075089732759738695 0.018493419524207598 0 -0.072756487574725456 0.020775798807901587 0 -0.074263057464897198 0.021373538073169353 0 -0.078249493822838259 0.021291427537135314 0 -0.07833295189735727 0.019275302128886805 0 -0.075232235634976066 0.017748441685678167 0 -0.076066530964860171 0.018805573431425197 0 -0.07503641396576935 0.017783209746527008 0 -0.075089732759738695 0.018493419524207598 0 -0.074263057464897198 0.021373538073169353 0 -0.075781138529397232 0.022072313235311728 0 -0.077519268992134308 0.021922084447144285 0 -0.075089732759738695 0.018493419524207598 0 -0.075781138529397232 0.022072313235311728 0 -0.074263057464897198 0.021373538073169353 0 -0.075781138529397232 0.022072313235311728 0 -0.074874592986364813 0.022391301131452553 0 -0.074874592986364813 0.022391301131452553 0 -0.075931730245562865 0.022761490132407199 0 -0.075296489036682235 0.023047608855390481 0 -0.075781138529397232 0.022072313235311728 0 -0.074874592986364813 0.022391301131452553 0 -0.075931730245562865 0.022761490132407199 0 -0.074874592986364813 0.022391301131452553 0 -0.075296489036682235 0.023047608855390481 0 -0.074157205527412895 0.023117612944199235 0 -0.077519268992134308 0.021922084447144285 0 -0.075781138529397232 0.022072313235311728 0 -0.076698492338599156 0.022676108414835972 0 -0.075781138529397232 0.022072313235311728 0 -0.075931730245562865 0.022761490132407199 0 -0.076698492338599156 0.022676108414835972 0 -0.077259754458708363 0.023573779714842612 0 -0.076698492338599156 0.022676108414835972 0 -0.076155382513289252 0.023962551965817147 0 -0.075931730245562865 0.022761490132407199 0 -0.076698492338599156 0.022676108414835972 0 -0.076155382513289252 0.023962551965817147 0 -0.075931730245562865 0.022761490132407199 0 -0.076155382513289252 0.023962551965817147 0 -0.075296489036682235 0.023047608855390481 0 -0.076155382513289252 0.023962551965817147 0 -0.075296489036682235 0.023047608855390481 0 -0.074157205527412895 0.023117612944199235 0 -0.073163709104377445 0.02405920677008111 0 -0.07396253695362362 0.023635724454418309 0 -0.073041832641572213 0.023292785267868186 0 -0.072756487574725456 0.020775798807901587 0 -0.074263057464897198 0.021373538073169353 0 -0.073041832641572213 0.023292785267868186 0 -0.07396253695362362 0.023635724454418309 0 -0.074157205527412895 0.023117612944199235 0 -0.073041832641572213 0.023292785267868186 0 -0.074263057464897198 0.021373538073169353 0 -0.074874592986364813 0.022391301131452553 0 -0.074157205527412895 0.023117612944199235 0 -0.074263057464897198 0.021373538073169353 0 -0.074157205527412895 0.023117612944199235 0 -0.073041832641572213 0.023292785267868186 0 -0.065866559944686404 -0.00046801528410594809 0 -0.066614964849240441 -0.00012033201690819086 0 -0.066739365102503903 -0.0012486746630374734 0 -0.065866559944686404 -0.00046801528410594809 0 -0.066614964849240441 -0.00012033201690819086 0 -0.065269833711403102 0.00075196685130798934 0 -0.056607723173388295 0.0032585020310468989 0 -0.057015531776228826 0.0038471869341099797 0 -0.066614964849240441 -0.00012033201690819086 0 -0.066739365102503903 -0.0012486746630374734 0 -0.067768718240335576 -0.00064944088286481288 0 -0.045431920070835907 0.0074786721972134674 0 -0.045148338152199943 0.0059535957282540533 0 -0.04314475203564877 0.0061742583683787756 0 -0.045431920070835907 0.0074786721972134674 0 -0.045148338152199943 0.0059535957282540533 0 -0.046806237310336035 0.0050181138934761848 0 -0.045148338152199943 0.0059535957282540533 0 -0.046806237310336035 0.0050181138934761848 0 -0.045700881559433991 0.0037211932749573653 0 -0.056607723173388295 0.0032585020310468989 0 -0.057676783125852581 0.0019436831947150933 0 -0.045431920070835907 0.0074786721972134674 0 -0.046806237310336035 0.0050181138934761848 0 -0.050476307866134752 0.0057217630720663923 0 -0.065269833711403102 0.00075196685130798934 0 -0.063539441699244775 -0.00011383671783304799 0 -0.065034774203972315 -7.8169676487673526e-05 0 -0.057676783125852581 0.0019436831947150933 0 -0.058964732105185914 3.1009878714999965e-06 0 -0.063539441699244775 -0.00011383671783304799 0 -0.063435813383455719 -1.3716017492304734e-06 0 -0.058972828276820224 3.6337894673082042e-06 0 -0.065269833711403102 0.00075196685130798934 0 -0.063539441699244775 -0.00011383671783304799 0 -0.058972828276820224 3.6337894673082042e-06 0 -0.063539441699244775 -0.00011383671783304799 0 -0.065594928621986209 -0.00051691889120682546 0 -0.063435813383455719 -1.3716017492304734e-06 0 -0.065866559944686404 -0.00046801528410594809 0 -0.065034774203972315 -7.8169676487673526e-05 0 -0.065533681066253249 -0.0012148211718610896 0 -0.065594928621986209 -0.00051691889120682546 0 -0.065034774203972315 -7.8169676487673526e-05 0 -0.066669157254367811 -0.00071710126981618886 0 -0.063539441699244775 -0.00011383671783304799 0 -0.065594928621986209 -0.00051691889120682546 0 -0.065034774203972315 -7.8169676487673526e-05 0 -0.065866559944686404 -0.00046801528410594809 0 -0.065269833711403102 0.00075196685130798934 0 -0.065034774203972315 -7.8169676487673526e-05 0 -0.069114178122071213 0.00023996103498369169 0 -0.069978704462744498 0.00040639928246796731 0 -0.065594928621986209 -0.00051691889120682546 0 -0.066669157254367811 -0.00071710126981618886 0 -0.067455094058353482 -0.00050711028715937155 0 -0.065594928621986209 -0.00051691889120682546 0 -0.067909614901304649 -2.848444630251637e-06 0 -0.067455094058353482 -0.00050711028715937155 0 -0.065594928621986209 -0.00051691889120682546 0 -0.063435813383455719 -1.3716017492304734e-06 0 -0.067909614901304649 -2.848444630251637e-06 0 -0.072371941334576778 4.8648854292063942e-06 0 -0.067909614901304649 -2.848444630251637e-06 0 -0.069298648413804828 -0.00034405730596591031 0 -0.067909614901304649 -2.848444630251637e-06 0 -0.067455094058353482 -0.00050711028715937155 0 -0.069298648413804828 -0.00034405730596591031 0 -0.066669157254367811 -0.00071710126981618886 0 -0.067455094058353482 -0.00050711028715937155 0 -0.067422735226898026 2.0790054551477314e-05 0 -0.066669157254367811 -0.00071710126981618886 0 -0.067422735226898026 2.0790054551477314e-05 0 -0.066908554808060031 4.4365335112860536e-05 0 -0.067455094058353482 -0.00050711028715937155 0 -0.069298648413804828 -0.00034405730596591031 0 -0.067422735226898026 2.0790054551477314e-05 0 -0.071450889883895349 0.0018751353448794939 0 -0.072497299423097294 0.001967393280163677 0 -0.065533681066253249 -0.0012148211718610896 0 -0.065870820112493941 -0.0022924810113660152 0 -0.066739365102503903 -0.0012486746630374734 0 -0.069978704462744498 0.00040639928246796731 0 -0.072497299423097294 0.001967393280163677 0 -0.065866559944686404 -0.00046801528410594809 0 -0.065533681066253249 -0.0012148211718610896 0 -0.066739365102503903 -0.0012486746630374734 0 -0.065870820112493941 -0.0022924810113660152 0 -0.066739365102503903 -0.0012486746630374734 0 -0.067349373723967473 -0.0022879208523543756 0 -0.072497299423097294 0.001967393280163677 0 -0.075941093709649077 0.0008118144494274331 0 -0.066739365102503903 -0.0012486746630374734 0 -0.067349373723967473 -0.0022879208523543756 0 -0.068072709523786606 -0.0016081490560379754 0 -0.068785765250417713 -0.0022904250419347781 0 -0.067349373723967473 -0.0022879208523543756 0 -0.068072709523786606 -0.0016081490560379754 0 -0.068785765250417713 -0.0022904250419347781 0 -0.068072709523786606 -0.0016081490560379754 0 -0.06893706127145581 -0.0011430422908222909 0 -0.071657999259925234 0.0011602869975436193 0 -0.075941093709649077 0.0008118144494274331 0 -0.068072709523786606 -0.0016081490560379754 0 -0.06893706127145581 -0.0011430422908222909 0 -0.067768718240335576 -0.00064944088286481288 0 -0.040731602970574231 0.0083002567048905788 0 -0.040767526116595627 0.0085166201153597 0 -0.042651803914071348 0.0080510453746687523 0 -0.062453843302968222 0.0028867397528229417 0 -0.057015531776228826 0.0038471869341099797 0 -0.066739365102503903 -0.0012486746630374734 0 -0.068072709523786606 -0.0016081490560379754 0 -0.067768718240335576 -0.00064944088286481288 0 -0.067761687054986044 0.0021024964061809809 0 -0.067921717484250313 0.0023948608057674787 0 -0.067439320523033239 0.002594390476298873 0 -0.068495177374138919 0.0018912881668197573 0 -0.070811927183918363 0.0018510783502938459 0 -0.069590350773234153 0.0038185640367193073 0 -0.071644050436242959 0.0030381183666756085 0 -0.063398715047705459 0.0032877334164996188 0 -0.067379760014611198 0.0021076386256135568 0 -0.067761687054986044 0.0021024964061809809 0 -0.067439320523033239 0.002594390476298873 0 -0.071657999259925234 0.0011602869975436193 0 -0.062453843302968222 0.0028867397528229417 0 -0.04077177022578584 0.0084818983438517109 0 -0.039674081641203091 0.0081227723520218703 0 -0.040224123396330566 0.0079212877888025675 0 -0.040731602970574231 0.0083002567048905788 0 -0.04077177022578584 0.0084818983438517109 0 -0.040224123396330566 0.0079212877888025675 0 -0.062377504940467496 0.0029323957794555743 0 -0.062453843302968222 0.0028867397528229417 0 -0.038403028778353429 0.0076264531075294247 0 -0.039237013849321212 0.00906395444088153 0 -0.039674081641203091 0.0081227723520218703 0 -0.063398715047705459 0.0032877334164996188 0 -0.062453843302968222 0.0028867397528229417 0 -0.039237013849321212 0.00906395444088153 0 -0.04077177022578584 0.0084818983438517109 0 -0.039674081641203091 0.0081227723520218703 0 -0.038403028778353429 0.0076264531075294247 0 -0.038949720237508222 0.0068671231953842879 0 -0.039674081641203091 0.0081227723520218703 0 -0.038949720237508222 0.0068671231953842879 0 -0.039674081641203091 0.0081227723520218703 0 -0.03985973947889724 0.006949388437680463 0 -0.039674081641203091 0.0081227723520218703 0 -0.03985973947889724 0.006949388437680463 0 -0.040224123396330566 0.0079212877888025675 0 -0.040731602970574231 0.0083002567048905788 0 -0.040539546659090604 0.0073484758945832548 0 -0.041435516678360519 0.0069808129584596488 0 -0.03985973947889724 0.006949388437680463 0 -0.040224123396330566 0.0079212877888025675 0 -0.040539546659090604 0.0073484758945832548 0 -0.03985973947889724 0.006949388437680463 0 -0.040539546659090604 0.0073484758945832548 0 -0.040546918926467453 0.0065378810967597883 0 -0.040731602970574231 0.0083002567048905788 0 -0.040224123396330566 0.0079212877888025675 0 -0.040539546659090604 0.0073484758945832548 0 -0.040539546659090604 0.0073484758945832548 0 -0.040546918926467453 0.0065378810967597883 0 -0.041435516678360519 0.0069808129584596488 0 -0.03985973947889724 0.006949388437680463 0 -0.040546918926467453 0.0065378810967597883 0 -0.040273352191846322 0.0055817032971732386 0 -0.040546918926467453 0.0065378810967597883 0 -0.041599041168407402 0.0050766404217978548 0 -0.040273352191846322 0.0055817032971732386 0 -0.038944072034968039 0.0059217283095937623 0 -0.03985973947889724 0.006949388437680463 0 -0.040273352191846322 0.0055817032971732386 0 -0.038944072034968039 0.0059217283095937623 0 -0.038949720237508222 0.0068671231953842879 0 -0.03985973947889724 0.006949388437680463 0 -0.042651803914071348 0.0080510453746687523 0 -0.041435516678360519 0.0069808129584596488 0 -0.04314475203564877 0.0061742583683787756 0 -0.045431920070835907 0.0074786721972134674 0 -0.042651803914071348 0.0080510453746687523 0 -0.04314475203564877 0.0061742583683787756 0 -0.040731602970574231 0.0083002567048905788 0 -0.042651803914071348 0.0080510453746687523 0 -0.041435516678360519 0.0069808129584596488 0 -0.041435516678360519 0.0069808129584596488 0 -0.04314475203564877 0.0061742583683787756 0 -0.041599041168407402 0.0050766404217978548 0 -0.040546918926467453 0.0065378810967597883 0 -0.041435516678360519 0.0069808129584596488 0 -0.041599041168407402 0.0050766404217978548 0 -0.04314475203564877 0.0061742583683787756 0 -0.041599041168407402 0.0050766404217978548 0 -0.043355086915850619 0.0041385319675171055 0 -0.041599041168407402 0.0050766404217978548 0 -0.041223422393913085 0.0035945333343810294 0 -0.040169277136978182 0.0041971092674655593 0 -0.041599041168407402 0.0050766404217978548 0 -0.041223422393913085 0.0035945333343810294 0 -0.043355086915850619 0.0041385319675171055 0 -0.041223422393913085 0.0035945333343810294 0 -0.043355086915850619 0.0041385319675171055 0 -0.041980386027025036 0.0025373555736358947 0 -0.043499734862192704 0.0035328393331396203 0 -0.042474955093227761 0.0018796904641578548 0 -0.04397031820869983 0.0022674299643668703 0 -0.042788014865719308 0.00090613063307556463 0 -0.044836850986869688 0.00090062965556468274 0 -0.043271146768687166 0.0077154279520998837 0 -0.041399563370919101 0.0070313044886108527 0 -0.038390516871733456 0.0053633054994504199 0 -0.039749071495352749 0.0052643688754301201 0 -0.038846857577557625 0.0039729057762167459 0 -0.041408617243641956 0.0067217592166818564 0 -0.041399563370919101 0.0070313044886108527 0 -0.041599041168407402 0.0050766404217978548 0 -0.039749071495352749 0.0052643688754301201 0 -0.040169277136978182 0.0041971092674655593 0 -0.039749071495352749 0.0052643688754301201 0 -0.040169277136978182 0.0041971092674655593 0 -0.038846857577557625 0.0039729057762167459 0 -0.041223422393913085 0.0035945333343810294 0 -0.040169277136978182 0.0041971092674655593 0 -0.039714787391275208 0.0032233225638695598 0 -0.040169277136978182 0.0041971092674655593 0 -0.038846857577557625 0.0039729057762167459 0 -0.039714787391275208 0.0032233225638695598 0 -0.037899613959520094 0.0030225855455127196 0 -0.038846857577557625 0.0039729057762167459 0 -0.03876854361300909 0.0025349186971866228 0 -0.038846857577557625 0.0039729057762167459 0 -0.03876854361300909 0.0025349186971866228 0 -0.039714787391275208 0.0032233225638695598 0 -0.037899613959520094 0.0030225855455127196 0 -0.03876854361300909 0.0025349186971866228 0 -0.038307731969432733 0.0019208825315222273 0 -0.041223422393913085 0.0035945333343810294 0 -0.039714787391275208 0.0032233225638695598 0 -0.03992092449711613 0.0021142656097489928 0 -0.03876854361300909 0.0025349186971866228 0 -0.039714787391275208 0.0032233225638695598 0 -0.03992092449711613 0.0021142656097489928 0 -0.03992092449711613 0.0021142656097489928 0 -0.038603894716262362 0.0014784426747665492 0 -0.039157702144012929 0.0010645311396329672 0 -0.03992092449711613 0.0021142656097489928 0 -0.040801312694652411 0.00088577188364584003 0 -0.039157702144012929 0.0010645311396329672 0 -0.03876854361300909 0.0025349186971866228 0 -0.03992092449711613 0.0021142656097489928 0 -0.038603894716262362 0.0014784426747665492 0 -0.03876854361300909 0.0025349186971866228 0 -0.038603894716262362 0.0014784426747665492 0 -0.038307731969432733 0.0019208825315222273 0 -0.038603894716262362 0.0014784426747665492 0 -0.038307731969432733 0.0019208825315222273 0 -0.038131715914067242 0.0014632098887959149 0 -0.041223422393913085 0.0035945333343810294 0 -0.03992092449711613 0.0021142656097489928 0 -0.041980386027025036 0.0025373555736358947 0 -0.042474955093227761 0.0018796904641578548 0 -0.041917481530506548 0.001089983894521218 0 -0.03992092449711613 0.0021142656097489928 0 -0.041980386027025036 0.0025373555736358947 0 -0.040801312694652411 0.00088577188364584003 0 -0.042788014865719308 0.00090613063307556463 0 -0.044077614413422589 3.5883604429086732e-05 0 -0.040801312694652411 0.00088577188364584003 0 -0.044077614413422589 3.5883604429086732e-05 0 -0.04731415340492038 0.00012997516867231605 0 -0.046278495958887673 -0.00046589322640591078 0 -0.044077614413422589 3.5883604429086732e-05 0 -0.04731415340492038 0.00012997516867231605 0 -0.044836850986869688 0.00090062965556468274 0 -0.042788014865719308 0.00090613063307556463 0 -0.044077614413422589 3.5883604429086732e-05 0 -0.044836850986869688 0.00090062965556468274 0 -0.04397031820869983 0.0022674299643668703 0 -0.044836850986869688 0.00090062965556468274 0 -0.047392528032012125 0.0023003751751485817 0 -0.04731415340492038 0.00012997516867231605 0 -0.044836850986869688 0.00090062965556468274 0 -0.047392528032012125 0.0023003751751485817 0 -0.046806237310336035 0.0050181138934761848 0 -0.047392528032012125 0.0023003751751485817 0 -0.045700881559433991 0.0037211932749573653 0 -0.046806237310336035 0.0050181138934761848 0 -0.050476307866134752 0.0057217630720663923 0 -0.047392528032012125 0.0023003751751485817 0 -0.044176595422799635 0.0047737722613791752 0 -0.043499734862192704 0.0035328393331396203 0 -0.045148338152199943 0.0059535957282540533 0 -0.04314475203564877 0.0061742583683787756 0 -0.043355086915850619 0.0041385319675171055 0 -0.045148338152199943 0.0059535957282540533 0 -0.04397031820869983 0.0022674299643668703 0 -0.045700881559433991 0.0037211932749573653 0 -0.04397031820869983 0.0022674299643668703 0 -0.047392528032012125 0.0023003751751485817 0 -0.045700881559433991 0.0037211932749573653 0 -0.050476307866134752 0.0057217630720663923 0 -0.058953623385406335 1.2990171039538172e-05 0 -0.051679680104038894 0.0004596036769494822 0 -0.050476307866134752 0.0057217630720663923 0 -0.047392528032012125 0.0023003751751485817 0 -0.051679680104038894 0.0004596036769494822 0 -0.04731415340492038 0.00012997516867231605 0 -0.047392528032012125 0.0023003751751485817 0 -0.051679680104038894 0.0004596036769494822 0 -0.051679680104038894 0.0004596036769494822 0 -0.053671569641240223 -3.5654636047929877e-06 0 -0.049372855363330997 -0.00026603542049159448 0 -0.058953623385406335 1.2990171039538172e-05 0 -0.051679680104038894 0.0004596036769494822 0 -0.053671569641240223 -3.5654636047929877e-06 0 -0.053671569641240223 -3.5654636047929877e-06 0 -0.049372855363330997 -0.00026603542049159448 0 -0.048376335334011887 -5.2453665622567182e-07 0 -0.04731415340492038 0.00012997516867231605 0 -0.051679680104038894 0.0004596036769494822 0 -0.049372855363330997 -0.00026603542049159448 0 -0.04731415340492038 0.00012997516867231605 0 -0.049372855363330997 -0.00026603542049159448 0 -0.046278495958887673 -0.00046589322640591078 0 -0.049372855363330997 -0.00026603542049159448 0 -0.046278495958887673 -0.00046589322640591078 0 -0.048376335334011887 -5.2453665622567182e-07 0 -0.048376335334011887 -5.2453665622567182e-07 0 -0.044045566359278539 -0.00068819782769564909 0 -0.043084978576824182 -1.2242305784755419e-06 0 -0.046278495958887673 -0.00046589322640591078 0 -0.048376335334011887 -5.2453665622567182e-07 0 -0.044045566359278539 -0.00068819782769564909 0 -0.046278495958887673 -0.00046589322640591078 0 -0.044045566359278539 -0.00068819782769564909 0 -0.043946533119075225 -0.0008123430927364975 0 -0.044045566359278539 -0.00068819782769564909 0 -0.043946533119075225 -0.0008123430927364975 0 -0.04166797763605732 -0.0010143805777207541 0 -0.044045566359278539 -0.00068819782769564909 0 -0.043084978576824182 -1.2242305784755419e-06 0 -0.04166797763605732 -0.0010143805777207541 0 -0.044077614413422589 3.5883604429086732e-05 0 -0.043946533119075225 -0.0008123430927364975 0 -0.042484707949828844 -0.00031426547708220728 0 -0.044077614413422589 3.5883604429086732e-05 0 -0.046278495958887673 -0.00046589322640591078 0 -0.043946533119075225 -0.0008123430927364975 0 -0.043946533119075225 -0.0008123430927364975 0 -0.042905658599089527 -0.0010727610911726803 0 -0.04166797763605732 -0.0010143805777207541 0 -0.043946533119075225 -0.0008123430927364975 0 -0.042905658599089527 -0.0010727610911726803 0 -0.042484707949828844 -0.00031426547708220728 0 -0.042905658599089527 -0.0010727610911726803 0 -0.042656940479083048 -0.00075029770110849681 0 -0.041695623518573977 -0.0015296223047507917 0 -0.042905658599089527 -0.0010727610911726803 0 -0.042656940479083048 -0.00075029770110849681 0 -0.04166797763605732 -0.0010143805777207541 0 -0.042656940479083048 -0.00075029770110849681 0 -0.04166797763605732 -0.0010143805777207541 0 -0.040727442492679053 0.00056610119738162185 0 -0.043084978576824182 -1.2242305784755419e-06 0 -0.04166797763605732 -0.0010143805777207541 0 -0.037791859627615845 -3.3087696459408892e-06 0 -0.04166797763605732 -0.0010143805777207541 0 -0.037606085192806435 6.5768902728584143e-05 0 -0.040727442492679053 0.00056610119738162185 0 -0.04166797763605732 -0.0010143805777207541 0 -0.037791859627615845 -3.3087696459408892e-06 0 -0.037606085192806435 6.5768902728584143e-05 0 -0.037791859627615845 -3.3087696459408892e-06 0 -0.037606085192806435 6.5768902728584143e-05 0 -0.032506010203183403 7.3162657205437086e-06 0 -0.037606085192806435 6.5768902728584143e-05 0 -0.032506010203183403 7.3162657205437086e-06 0 -0.035756325221367014 0.0024699385504745566 0 -0.032496576955560026 8.5058203162999589e-07 0 -0.032243026054316566 0.0001267222645288116 0 -0.032492419750505694 5.7112737329802084e-10 0 -0.031340877786557537 -9.8865889850450059e-07 0 -0.030224770333144635 -3.3125445117824177e-09 0 -0.027073594279070138 0.0020518540652381466 0 -0.030211733305535553 3.925840264747555e-06 0 -0.026815043327361926 0.00036463289181534899 0 -0.032243026054316566 0.0001267222645288116 0 -0.030225911899244742 2.7872746755098873e-06 0 -0.039711592467864681 0.0019791308329803088 0 -0.038767675577697232 0.0019966137073325479 0 -0.038615493765745842 0.0026796880107129465 0 -0.039711592467864681 0.0019791308329803088 0 -0.038767675577697232 0.0019966137073325479 0 -0.038777809268714554 0.0012670342435312763 0 -0.027073594279070138 0.0020518540652381466 0 -0.026815043327361926 0.00036463289181534899 0 -0.024105025681782594 9.4102560499669235e-05 0 -0.032243026054316566 0.0001267222645288116 0 -0.031546484707565978 0.00066699438363856554 0 -0.032243026054316566 0.0001267222645288116 0 -0.037309047006950473 -8.3224741504812251e-05 0 -0.037606085192806435 6.5768902728584143e-05 0 -0.035756325221367014 0.0024699385504745566 0 -0.040727442492679053 0.00056610119738162185 0 -0.038723317791966881 0.00022466646015744922 0 -0.037309047006950473 -8.3224741504812251e-05 0 -0.03720601646939023 0.0032624645588558705 0 -0.038615493765745842 0.0026796880107129465 0 -0.03796302656987692 0.0020509334199535771 0 -0.03720601646939023 0.0032624645588558705 0 -0.03796302656987692 0.0020509334199535771 0 -0.036908709911664735 0.0026325070859735226 0 -0.03796302656987692 0.0020509334199535771 0 -0.037163607273625249 0.0017096633859617907 0 -0.036908709911664735 0.0026325070859735226 0 -0.038767675577697232 0.0019966137073325479 0 -0.03796302656987692 0.0020509334199535771 0 -0.038777809268714554 0.0012670342435312763 0 -0.038767675577697232 0.0019966137073325479 0 -0.038615493765745842 0.0026796880107129465 0 -0.03796302656987692 0.0020509334199535771 0 -0.030288411878524466 0.00080435353915039257 0 -0.031546484707565978 0.00066699438363856554 0 -0.024475733294206898 -2.8207842842926002e-05 0 -0.023958987438924145 -0.00015093515010789418 0 -0.024105025681782594 9.4102560499669235e-05 0 -0.03796302656987692 0.0020509334199535771 0 -0.038046347436286772 0.00044860624432408792 0 -0.038777809268714554 0.0012670342435312763 0 -0.038046347436286772 0.00044860624432408792 0 -0.037160860228272204 0.00038115431850134485 0 -0.037163607273625249 0.0017096633859617907 0 -0.03796302656987692 0.0020509334199535771 0 -0.038046347436286772 0.00044860624432408792 0 -0.037163607273625249 0.0017096633859617907 0 -0.038046347436286772 0.00044860624432408792 0 -0.037160860228272204 0.00038115431850134485 0 -0.037194802746999343 -0.0009971541692674786 0 -0.030288411878524466 0.00080435353915039257 0 -0.027818335882891121 0.00078857067156664978 0 -0.024475733294206898 -2.8207842842926002e-05 0 -0.023958987438924145 -0.00015093515010789418 0 -0.024340579484160796 0.00044667860908238695 0 -0.023958987438924145 -0.00015093515010789418 0 -0.022561599862278483 0.00036013351486875408 0 -0.025500628947009905 -0.00016787622506963558 0 -0.023958987438924145 -0.00015093515010789418 0 -0.022561599862278483 0.00036013351486875408 0 -0.024340579484160796 0.00044667860908238695 0 -0.024611830322790264 -6.3328834990036227e-07 0 -0.022561599862278483 0.00036013351486875408 0 -0.025500628947009905 -0.00016787622506963558 0 -0.030211733305535553 3.925840264747555e-06 0 -0.024611830322790264 -6.3328834990036227e-07 0 -0.025500628947009905 -0.00016787622506963558 0 -0.030211733305535553 3.925840264747555e-06 0 -0.025500628947009905 -0.00016787622506963558 0 -0.026815043327361926 0.00036463289181534899 0 -0.025500628947009905 -0.00016787622506963558 0 -0.026815043327361926 0.00036463289181534899 0 -0.024105025681782594 9.4102560499669235e-05 0 -0.023958987438924145 -0.00015093515010789418 0 -0.025500628947009905 -0.00016787622506963558 0 -0.024105025681782594 9.4102560499669235e-05 0 -0.035384542876869492 0.0018746040674843933 0 -0.033968697030462597 0.0020241005901745542 0 -0.034677475026384789 0.00047658317539577233 0 -0.033968697030462597 0.0020241005901745542 0 -0.033254099840231574 3.9340720960398335e-05 0 -0.034677475026384789 0.00047658317539577233 0 -0.035384542876869492 0.0018746040674843933 0 -0.034677475026384789 0.00047658317539577233 0 -0.035687162823539474 0.0004622092952368804 0 -0.033968697030462597 0.0020241005901745542 0 -0.033254099840231574 3.9340720960398335e-05 0 -0.030756232041760884 0.00050816645298422435 0 -0.033968697030462597 0.0020241005901745542 0 -0.032758717155321249 0.0034440325036355079 0 -0.030756232041760884 0.00050816645298422435 0 -0.033254099840231574 3.9340720960398335e-05 0 -0.032210834739123152 -0.0016258343627652857 0 -0.030756232041760884 0.00050816645298422435 0 -0.033254099840231574 3.9340720960398335e-05 0 -0.032210834739123152 -0.0016258343627652857 0 -0.034132537167975145 -0.0011703429980368081 0 -0.033254099840231574 3.9340720960398335e-05 0 -0.034132537167975145 -0.0011703429980368081 0 -0.034677475026384789 0.00047658317539577233 0 -0.034677475026384789 0.00047658317539577233 0 -0.035089289418777848 -0.00074151411453405886 0 -0.035687162823539474 0.0004622092952368804 0 -0.034132537167975145 -0.0011703429980368081 0 -0.034677475026384789 0.00047658317539577233 0 -0.035089289418777848 -0.00074151411453405886 0 -0.034132537167975145 -0.0011703429980368081 0 -0.035089289418777848 -0.00074151411453405886 0 -0.03498042833987787 -0.0016814691348830957 0 -0.035089289418777848 -0.00074151411453405886 0 -0.035934020608306451 -0.00060570799452724455 0 -0.03554838898732627 -0.0014780608180246242 0 -0.035934020608306451 -0.00060570799452724455 0 -0.036192868178834603 -0.0012550000703145632 0 -0.03554838898732627 -0.0014780608180246242 0 -0.035934020608306451 -0.00060570799452724455 0 -0.036403357182965237 0.00022092854416573641 0 -0.03658419876010021 -0.00053045903987391022 0 -0.035934020608306451 -0.00060570799452724455 0 -0.03658419876010021 -0.00053045903987391022 0 -0.036192868178834603 -0.0012550000703145632 0 -0.035934020608306451 -0.00060570799452724455 0 -0.036403357182965237 0.00022092854416573641 0 -0.035687162823539474 0.0004622092952368804 0 -0.035089289418777848 -0.00074151411453405886 0 -0.035934020608306451 -0.00060570799452724455 0 -0.035687162823539474 0.0004622092952368804 0 -0.03658419876010021 -0.00053045903987391022 0 -0.037160860228272204 0.00038115431850134485 0 -0.037194802746999343 -0.0009971541692674786 0 -0.036403357182965237 0.00022092854416573641 0 -0.03658419876010021 -0.00053045903987391022 0 -0.037160860228272204 0.00038115431850134485 0 -0.037160860228272204 0.00038115431850134485 0 -0.036365556212801853 0.0012892964881332739 0 -0.037163607273625249 0.0017096633859617907 0 -0.036403357182965237 0.00022092854416573641 0 -0.037160860228272204 0.00038115431850134485 0 -0.036365556212801853 0.0012892964881332739 0 -0.035384542876869492 0.0018746040674843933 0 -0.035687162823539474 0.0004622092952368804 0 -0.036365556212801853 0.0012892964881332739 0 -0.036403357182965237 0.00022092854416573641 0 -0.035687162823539474 0.0004622092952368804 0 -0.036365556212801853 0.0012892964881332739 0 -0.035384542876869492 0.0018746040674843933 0 -0.036365556212801853 0.0012892964881332739 0 -0.036147166084783244 0.0027547613328046346 0 -0.036365556212801853 0.0012892964881332739 0 -0.036147166084783244 0.0027547613328046346 0 -0.037163607273625249 0.0017096633859617907 0 -0.036147166084783244 0.0027547613328046346 0 -0.037163607273625249 0.0017096633859617907 0 -0.036908709911664735 0.0026325070859735226 0 -0.03720601646939023 0.0032624645588558705 0 -0.036908709911664735 0.0026325070859735226 0 -0.036336763878483259 0.0031093449594003213 0 -0.036147166084783244 0.0027547613328046346 0 -0.036908709911664735 0.0026325070859735226 0 -0.036336763878483259 0.0031093449594003213 0 -0.036147166084783244 0.0027547613328046346 0 -0.035897815762903441 0.003439948416337693 0 -0.036336763878483259 0.0031093449594003213 0 -0.035897815762903441 0.003439948416337693 0 -0.034889539374144268 0.0033271667836244452 0 -0.035287084327679803 0.00383113745571591 0 -0.036147166084783244 0.0027547613328046346 0 -0.035897815762903441 0.003439948416337693 0 -0.034889539374144268 0.0033271667836244452 0 -0.035897815762903441 0.003439948416337693 0 -0.035287084327679803 0.00383113745571591 0 -0.036097788550901636 0.0033426439080595995 0 -0.035384542876869492 0.0018746040674843933 0 -0.036147166084783244 0.0027547613328046346 0 -0.034889539374144268 0.0033271667836244452 0 -0.035384542876869492 0.0018746040674843933 0 -0.033968697030462597 0.0020241005901745542 0 -0.034889539374144268 0.0033271667836244452 0 -0.032758717155321249 0.0034440325036355079 0 -0.03418780988403855 0.0040978664973880339 0 -0.03179446854300802 0.0048978042400879768 0 -0.034889539374144268 0.0033271667836244452 0 -0.032758717155321249 0.0034440325036355079 0 -0.03418780988403855 0.0040978664973880339 0 -0.033968697030462597 0.0020241005901745542 0 -0.034889539374144268 0.0033271667836244452 0 -0.032758717155321249 0.0034440325036355079 0 -0.03418780988403855 0.0040978664973880339 0 -0.03179446854300802 0.0048978042400879768 0 -0.034356479774183338 0.0039795153681605111 0 -0.034889539374144268 0.0033271667836244452 0 -0.03418780988403855 0.0040978664973880339 0 -0.035287084327679803 0.00383113745571591 0 -0.03418780988403855 0.0040978664973880339 0 -0.035287084327679803 0.00383113745571591 0 -0.035536426349094978 0.0040805827542899119 0 -0.03418780988403855 0.0040978664973880339 0 -0.035536426349094978 0.0040805827542899119 0 -0.034356479774183338 0.0039795153681605111 0 -0.035538818863983301 0.0052743283726685141 0 -0.035223953527465303 0.0058175028947331153 0 -0.035536426349094978 0.0040805827542899119 0 -0.033988904242539857 0.0063108466730958006 0 -0.034356479774183338 0.0039795153681605111 0 -0.035536426349094978 0.0040805827542899119 0 -0.03659208609573613 0.0029392323487097255 0 -0.037907814596128027 0.0025778387193705916 0 -0.03659208609573613 0.0029392323487097255 0 -0.03725220750459287 0.0021389235371001426 0 -0.037907814596128027 0.0025778387193705916 0 -0.03659208609573613 0.0029392323487097255 0 -0.036097788550901636 0.0033426439080595995 0 -0.037034964031189353 0.0022943452704819339 0 -0.035536426349094978 0.0040805827542899119 0 -0.03659208609573613 0.0029392323487097255 0 -0.036097788550901636 0.0033426439080595995 0 -0.035287084327679803 0.00383113745571591 0 -0.035536426349094978 0.0040805827542899119 0 -0.036097788550901636 0.0033426439080595995 0 -0.035897815762903441 0.003439948416337693 0 -0.036097788550901636 0.0033426439080595995 0 -0.036650904291722804 0.0028234402963522431 0 -0.036097788550901636 0.0033426439080595995 0 -0.037034964031189353 0.0022943452704819339 0 -0.036650904291722804 0.0028234402963522431 0 -0.037034964031189353 0.0022943452704819339 0 -0.037591130904340832 0.0015446162601227629 0 -0.03835853251268475 0.00050240677116237728 0 -0.037034964031189353 0.0022943452704819339 0 -0.036650904291722804 0.0028234402963522431 0 -0.03835853251268475 0.00050240677116237728 0 -0.037591130904340832 0.0015446162601227629 0 -0.03725220750459287 0.0021389235371001426 0 -0.037818797690529024 0.0016226434841199802 0 -0.037591130904340832 0.0015446162601227629 0 -0.037929335549054165 0.001152140304396275 0 -0.037818797690529024 0.0016226434841199802 0 -0.03725220750459287 0.0021389235371001426 0 -0.037907814596128027 0.0025778387193705916 0 -0.037818797690529024 0.0016226434841199802 0 -0.037034964031189353 0.0022943452704819339 0 -0.037591130904340832 0.0015446162601227629 0 -0.03725220750459287 0.0021389235371001426 0 -0.03659208609573613 0.0029392323487097255 0 -0.037034964031189353 0.0022943452704819339 0 -0.03725220750459287 0.0021389235371001426 0 -0.038723317791966881 0.00022466646015744922 0 -0.038805460015530077 0.00041051373872923657 0 -0.03720601646939023 0.0032624645588558705 0 -0.036336763878483259 0.0031093449594003213 0 -0.036117804334554054 0.0027501586687852984 0 -0.036336763878483259 0.0031093449594003213 0 -0.036650904291722804 0.0028234402963522431 0 -0.036117804334554054 0.0027501586687852984 0 -0.035897815762903441 0.003439948416337693 0 -0.036336763878483259 0.0031093449594003213 0 -0.036650904291722804 0.0028234402963522431 0 -0.036650904291722804 0.0028234402963522431 0 -0.036117804334554054 0.0027501586687852984 0 -0.03835853251268475 0.00050240677116237728 0 -0.038805460015530077 0.00041051373872923657 0 -0.038701559652448307 0.00046861692708975825 0 -0.042905658599089527 -0.0010727610911726803 0 -0.041695623518573977 -0.0015296223047507917 0 -0.042484707949828844 -0.00031426547708220728 0 -0.041695623518573977 -0.0015296223047507917 0 -0.042484707949828844 -0.00031426547708220728 0 -0.03835853251268475 0.00050240677116237728 0 -0.042484707949828844 -0.00031426547708220728 0 -0.040801312694652411 0.00088577188364584003 0 -0.03835853251268475 0.00050240677116237728 0 -0.044077614413422589 3.5883604429086732e-05 0 -0.042484707949828844 -0.00031426547708220728 0 -0.040801312694652411 0.00088577188364584003 0 -0.037929335549054165 0.001152140304396275 0 -0.038324039012400161 0.0010005930589956514 0 -0.038014205229651418 0.0011399698308299068 0 -0.037929335549054165 0.001152140304396275 0 -0.03801988332149768 0.0012974030152611976 0 -0.037818797690529024 0.0016226434841199802 0 -0.037929335549054165 0.001152140304396275 0 -0.038014205229651418 0.0011399698308299068 0 -0.03801988332149768 0.0012974030152611976 0 -0.03835853251268475 0.00050240677116237728 0 -0.039157702144012929 0.0010645311396329672 0 -0.038324039012400161 0.0010005930589956514 0 -0.037591130904340832 0.0015446162601227629 0 -0.037929335549054165 0.001152140304396275 0 -0.03835853251268475 0.00050240677116237728 0 -0.037929335549054165 0.001152140304396275 0 -0.03835853251268475 0.00050240677116237728 0 -0.038324039012400161 0.0010005930589956514 0 -0.040801312694652411 0.00088577188364584003 0 -0.03835853251268475 0.00050240677116237728 0 -0.039157702144012929 0.0010645311396329672 0 -0.038603894716262362 0.0014784426747665492 0 -0.039157702144012929 0.0010645311396329672 0 -0.038324039012400161 0.0010005930589956514 0 -0.038603894716262362 0.0014784426747665492 0 -0.038324039012400161 0.0010005930589956514 0 -0.038199354762301588 0.0011903451551466241 0 -0.038324039012400161 0.0010005930589956514 0 -0.038199354762301588 0.0011903451551466241 0 -0.038014205229651418 0.0011399698308299068 0 -0.038603894716262362 0.0014784426747665492 0 -0.038199354762301588 0.0011903451551466241 0 -0.038131715914067242 0.0014632098887959149 0 -0.038131715914067242 0.0014632098887959149 0 -0.037879129583943454 0.0013570290481270939 0 -0.038011294910620504 0.0011788392807028827 0 -0.038199354762301588 0.0011903451551466241 0 -0.038131715914067242 0.0014632098887959149 0 -0.038011294910620504 0.0011788392807028827 0 -0.03778198656774126 0.0019370960715438851 0 -0.037879129583943454 0.0013570290481270939 0 -0.03749488778214792 0.0013910996122115436 0 -0.037879129583943454 0.0013570290481270939 0 -0.037792769874568206 0.0012541921697087196 0 -0.03749488778214792 0.0013910996122115436 0 -0.037879129583943454 0.0013570290481270939 0 -0.037792769874568206 0.0012541921697087196 0 -0.037907599482827695 0.0011869389321468317 0 -0.037792769874568206 0.0012541921697087196 0 -0.037907599482827695 0.0011869389321468317 0 -0.037878001877844868 0.0011038840937089487 0 -0.037879129583943454 0.0013570290481270939 0 -0.037907599482827695 0.0011869389321468317 0 -0.038011294910620504 0.0011788392807028827 0 -0.037907599482827695 0.0011869389321468317 0 -0.038011294910620504 0.0011788392807028827 0 -0.037952514563954313 0.0011430217080488608 0 -0.037907599482827695 0.0011869389321468317 0 -0.037952514563954313 0.0011430217080488608 0 -0.037878001877844868 0.0011038840937089487 0 -0.038199354762301588 0.0011903451551466241 0 -0.038011294910620504 0.0011788392807028827 0 -0.038014205229651418 0.0011399698308299068 0 -0.037952514563954313 0.0011430217080488608 0 -0.03801988332149768 0.0012974030152611976 0 -0.038311736175671303 0.0015302241264055446 0 -0.038014205229651418 0.0011399698308299068 0 -0.037952514563954313 0.0011430217080488608 0 -0.03801988332149768 0.0012974030152611976 0 -0.035780060176859606 0.0053742572402171174 0 -0.035106083257955424 0.0063938171767665428 0 -0.038011294910620504 0.0011788392807028827 0 -0.038014205229651418 0.0011399698308299068 0 -0.037952514563954313 0.0011430217080488608 0 -0.037952514563954313 0.0011430217080488608 0 -0.037878001877844868 0.0011038840937089487 0 -0.038311736175671303 0.0015302241264055446 0 -0.036852482620317338 0.0074107058763338614 0 -0.032898169506703809 0.008558366493005785 0 -0.035124050730676447 0.0069478908259154488 0 -0.03551443047270797 0.0074152790011140354 0 -0.035741260746751206 0.0060581705623014397 0 -0.036852482620317338 0.0074107058763338614 0 -0.037942715558586741 0.0083775067626380862 0 -0.036852482620317338 0.0074107058763338614 0 -0.035106083257955424 0.0063938171767665428 0 -0.036852482620317338 0.0074107058763338614 0 -0.035780060176859606 0.0053742572402171174 0 -0.036852482620317338 0.0074107058763338614 0 -0.044119253283961282 0.0059123440518211879 0 -0.037203740280695181 0.00038587819184994276 0 -0.037585046254007985 0.00084041787217603906 0 -0.03749488778214792 0.0013910996122115436 0 -0.037203740280695181 0.00038587819184994276 0 -0.03749488778214792 0.0013910996122115436 0 -0.036399004180023148 0.0015101006267348922 0 -0.035780060176859606 0.0053742572402171174 0 -0.035911530568565074 0.0048251569828910703 0 -0.037792769874568206 0.0012541921697087196 0 -0.037878001877844868 0.0011038840937089487 0 -0.03749488778214792 0.0013910996122115436 0 -0.046534595912903695 0.0078124451799150276 0 -0.047494236705071941 0.0064639078146582112 0 -0.047752353056254075 0.0075771381954477532 0 -0.047494236705071941 0.0064639078146582112 0 -0.04849995344843544 0.0067868131501603148 0 -0.047752353056254075 0.0075771381954477532 0 -0.048837918305457959 0.0073316909210938376 0 -0.049213084278743373 0.0078926673508715722 0 -0.049328166631169922 0.0067621614362662541 0 -0.04849995344843544 0.0067868131501603148 0 -0.048388783707342509 0.0074106880684573356 0 -0.048837918305457959 0.0073316909210938376 0 -0.04849995344843544 0.0067868131501603148 0 -0.048388783707342509 0.0074106880684573356 0 -0.047752353056254075 0.0075771381954477532 0 -0.04849995344843544 0.0067868131501603148 0 -0.048837918305457959 0.0073316909210938376 0 -0.049328166631169922 0.0067621614362662541 0 -0.049213084278743373 0.0078926673508715722 0 -0.048774269460429863 0.0084814177475444341 0 -0.049417486179013335 0.0090306947359320121 0 -0.048837918305457959 0.0073316909210938376 0 -0.049213084278743373 0.0078926673508715722 0 -0.048555667319982357 0.0078678787777304426 0 -0.048388783707342509 0.0074106880684573356 0 -0.048555667319982357 0.0078678787777304426 0 -0.047752353056254075 0.0075771381954477532 0 -0.048388783707342509 0.0074106880684573356 0 -0.048837918305457959 0.0073316909210938376 0 -0.048555667319982357 0.0078678787777304426 0 -0.048555667319982357 0.0078678787777304426 0 -0.048774269460429863 0.0084814177475444341 0 -0.048139561454952989 0.0082946196500676972 0 -0.049213084278743373 0.0078926673508715722 0 -0.048555667319982357 0.0078678787777304426 0 -0.048774269460429863 0.0084814177475444341 0 -0.046534595912903695 0.0078124451799150276 0 -0.047752353056254075 0.0075771381954477532 0 -0.047394216121205084 0.0084408393006558911 0 -0.036786730537398102 0.0084464091161506397 0 -0.035745606466902405 0.0076702857656946438 0 -0.035430418547035783 0.0068041283352552303 0 -0.048555667319982357 0.0078678787777304426 0 -0.047752353056254075 0.0075771381954477532 0 -0.048139561454952989 0.0082946196500676972 0 -0.047752353056254075 0.0075771381954477532 0 -0.048139561454952989 0.0082946196500676972 0 -0.047394216121205084 0.0084408393006558911 0 -0.037942715558586741 0.0083775067626380862 0 -0.036987859392695527 0.0084533561118417307 0 -0.048139561454952989 0.0082946196500676972 0 -0.047394216121205084 0.0084408393006558911 0 -0.048223010005827231 0.009107257332248847 0 -0.035745606466902405 0.0076702857656946438 0 -0.035430418547035783 0.0068041283352552303 0 -0.034738473748812358 0.0068454382700407967 0 -0.032898169506703809 0.008558366493005785 0 -0.036987859392695527 0.0084533561118417307 0 -0.044530817042997856 0.010222082081766684 0 -0.042943153202266562 0.010315020471641709 0 -0.042492258544198185 0.0085257631372172189 0 -0.036987859392695527 0.0084533561118417307 0 -0.047267677444402939 0.00836322337622308 0 -0.023798955181467567 0.016295172819753012 0 -0.021764571143738087 0.016427484599579441 0 -0.019868809519475467 0.012105676665451811 0 -0.048774269460429863 0.0084814177475444341 0 -0.048223010005827231 0.009107257332248847 0 -0.049417486179013335 0.0090306947359320121 0 -0.048774269460429863 0.0084814177475444341 0 -0.048139561454952989 0.0082946196500676972 0 -0.048223010005827231 0.009107257332248847 0 -0.02983746984487121 0.0089034021973275462 0 -0.028617479529898345 0.0075306199076097292 0 -0.028335936000482887 0.0073699691373411572 0 -0.036987859392695527 0.0084533561118417307 0 -0.032021991290559097 0.0075751086576578992 0 -0.021764571143738087 0.016427484599579441 0 -0.019868809519475467 0.012105676665451811 0 -0.016422247509158383 0.012140873715560632 0 -0.032898169506703809 0.008558366493005785 0 -0.0261875875346326 0.0076869995214932504 0 -0.028576752136368171 0.0075154498920835446 0 -0.029252963136522776 0.0069026828122685799 0 -0.028507845349769429 0.0066753366841380921 0 -0.028617479529898345 0.0075306199076097292 0 -0.028335936000482887 0.0073699691373411572 0 -0.027421192714692663 0.0061590792483040965 0 -0.029701566209128883 0.0088414373420532544 0 -0.029906404729211657 0.0075376228792547609 0 -0.031032915093884509 0.0076219498257963742 0 -0.029701566209128883 0.0088414373420532544 0 -0.028576752136368171 0.0075154498920835446 0 -0.029906404729211657 0.0075376228792547609 0 -0.032898169506703809 0.008558366493005785 0 -0.030588321624149165 0.0071381862550355469 0 -0.028576752136368171 0.0075154498920835446 0 -0.029906404729211657 0.0075376228792547609 0 -0.029252963136522776 0.0069026828122685799 0 -0.029906404729211657 0.0075376228792547609 0 -0.030595289915676678 0.00641188589519728 0 -0.029252963136522776 0.0069026828122685799 0 -0.029906404729211657 0.0075376228792547609 0 -0.031032915093884509 0.0076219498257963742 0 -0.030595289915676678 0.00641188589519728 0 -0.034362327021246204 0.0067603214566965743 0 -0.031646737471705738 0.0068571301032428686 0 -0.031032915093884509 0.0076219498257963742 0 -0.032079848405599735 0.0086854815522390844 0 -0.032407045667256718 0.00668735649767174 0 -0.033988904242539857 0.0063108466730958006 0 -0.033377416521624674 0.0038330607356780759 0 -0.034356479774183338 0.0039795153681605111 0 -0.033988904242539857 0.0063108466730958006 0 -0.032821883650964487 0.0072923800408479875 0 -0.033377416521624674 0.0038330607356780759 0 -0.033988904242539857 0.0063108466730958006 0 -0.032821883650964487 0.0072923800408479875 0 -0.033307532767388216 0.0072967409217112892 0 -0.034701167019986934 0.0072361286960831109 0 -0.034361190243345177 0.0072326764971468848 0 -0.034808990782231729 0.0065845558103905799 0 -0.034362327021246204 0.0067603214566965743 0 -0.03477705897038029 0.0065495278020498782 0 -0.037907814596128027 0.0025778387193705916 0 -0.038214585139863776 0.0019775276895516039 0 -0.037818797690529024 0.0016226434841199802 0 -0.035223953527465303 0.0058175028947331153 0 -0.03477705897038029 0.0065495278020498782 0 -0.038214585139863776 0.0019775276895516039 0 -0.037818797690529024 0.0016226434841199802 0 -0.038311736175671303 0.0015302241264055446 0 -0.03801988332149768 0.0012974030152611976 0 -0.037818797690529024 0.0016226434841199802 0 -0.038311736175671303 0.0015302241264055446 0 -0.034362327021246204 0.0067603214566965743 0 -0.035106083257955424 0.0063938171767665428 0 -0.03477705897038029 0.0065495278020498782 0 -0.035106083257955424 0.0063938171767665428 0 -0.029701566209128883 0.0088414373420532544 0 -0.031032915093884509 0.0076219498257963742 0 -0.032079848405599735 0.0086854815522390844 0 -0.032898169506703809 0.008558366493005785 0 -0.034362327021246204 0.0067603214566965743 0 -0.034894768348018031 0.0074896177351343402 0 -0.035141172297337063 0.0074726906370105707 0 -0.035132461181053128 0.0075279973579993331 0 -0.035042438369414779 0.0076598192475130578 0 -0.034894768348018031 0.0074896177351343402 0 -0.035132461181053128 0.0075279973579993331 0 -0.074090025416178956 0.010419146650308232 0 -0.073356691135707142 0.0067907311393300088 0 -0.069725799261583607 0.0094242562253480638 0 -0.074090025416178956 0.010419146650308232 0 -0.076605105387523978 0.0067980450413313706 0 -0.073356691135707142 0.0067907311393300088 0 -0.076570105125094393 0.013872502800600317 0 -0.074090025416178956 0.010419146650308232 0 -0.071997500838338141 0.014337635329872341 0 -0.076570105125094393 0.013872502800600317 0 -0.074090025416178956 0.010419146650308232 0 -0.077981213481635475 0.00994748109186731 0 -0.074090025416178956 0.010419146650308232 0 -0.077981213481635475 0.00994748109186731 0 -0.076605105387523978 0.0067980450413313706 0 -0.077981213481635475 0.00994748109186731 0 -0.079717837739649369 0.0066810795057615432 0 -0.076605105387523978 0.0067980450413313706 0 -0.077981213481635475 0.00994748109186731 0 -0.079916093305184885 0.012166723061208664 0 -0.081265127686267605 0.0095342711558804045 0 -0.077981213481635475 0.00994748109186731 0 -0.081265127686267605 0.0095342711558804045 0 -0.079717837739649369 0.0066810795057615432 0 -0.076570105125094393 0.013872502800600317 0 -0.077981213481635475 0.00994748109186731 0 -0.079916093305184885 0.012166723061208664 0 -0.060460406861482942 0.010989961252253063 0 -0.060693001749220779 0.0098914315313449967 0 -0.079916093305184885 0.012166723061208664 0 -0.082763298807372501 0.012337760086005107 0 -0.081265127686267605 0.0095342711558804045 0 -0.079625144058629596 0.015097476303241956 0 -0.079916093305184885 0.012166723061208664 0 -0.082763298807372501 0.012337760086005107 0 -0.049213084278743373 0.0078926673508715722 0 -0.049328166631169922 0.0067621614362662541 0 -0.049970680308643142 0.0078527984458415384 0 -0.060693001749220779 0.0098914315313449967 0 -0.058812308412955094 0.0078927777902338507 0 -0.049213084278743373 0.0078926673508715722 0 -0.049970680308643142 0.0078527984458415384 0 -0.049417486179013335 0.0090306947359320121 0 -0.049970680308643142 0.0078527984458415384 0 -0.049417486179013335 0.0090306947359320121 0 -0.050617088747873552 0.0089529454680154063 0 -0.042943153202266562 0.010315020471641709 0 -0.042492258544198185 0.0085257631372172189 0 -0.041336137551272585 0.010422238500757049 0 -0.047267677444402939 0.00836322337622308 0 -0.058812308412955094 0.0078927777902338507 0 -0.042492258544198185 0.0085257631372172189 0 -0.040313283618516743 0.0086518521030298969 0 -0.041336137551272585 0.010422238500757049 0 -0.078631867260194624 0.0024613210486155272 0 -0.080730746078401111 0.0062506621403147023 0 -0.077050840795740608 0.0064950165786415116 0 -0.054029413492235473 0.0075180272519015275 0 -0.058812308412955094 0.0078927777902338507 0 -0.058812308412955094 0.0078927777902338507 0 -0.069707851823754052 0.0071671355226268791 0 -0.069707851823754052 0.0071671355226268791 0 -0.071552236363191454 0.0070357581683943623 0 -0.078631867260194624 0.0024613210486155272 0 -0.077050840795740608 0.0064950165786415116 0 -0.074311269013684761 0.0029577180839786468 0 -0.078631867260194624 0.0024613210486155272 0 -0.074311269013684761 0.0029577180839786468 0 -0.076480185753456914 -0.0014130714423594259 0 -0.074311269013684761 0.0029577180839786468 0 -0.07055151874453458 0.0048610899664231341 0 -0.071270111632545236 0.0012671156103970739 0 -0.074311269013684761 0.0029577180839786468 0 -0.07311880029277959 0.0001723883895854018 0 -0.071270111632545236 0.0012671156103970739 0 -0.074311269013684761 0.0029577180839786468 0 -0.073356691135707142 0.0067907311393300088 0 -0.07055151874453458 0.0048610899664231341 0 -0.077050840795740608 0.0064950165786415116 0 -0.074311269013684761 0.0029577180839786468 0 -0.073356691135707142 0.0067907311393300088 0 -0.074236196304574412 -0.0053339709907618106 0 -0.073655746507228476 -0.004065833128149828 0 -0.076480185753456914 -0.0014130714423594259 0 -0.072269364562172103 -0.0049529874897448374 0 -0.073655746507228476 -0.004065833128149828 0 -0.073196064611443692 -0.0062222219778776513 0 -0.072269364562172103 -0.0049529874897448374 0 -0.073655746507228476 -0.004065833128149828 0 -0.072109450893600671 -0.0033101973928078739 0 -0.072269364562172103 -0.0049529874897448374 0 -0.072109450893600671 -0.0033101973928078739 0 -0.070741906880258304 -0.0048002872586495387 0 -0.074236196304574412 -0.0053339709907618106 0 -0.073655746507228476 -0.004065833128149828 0 -0.073125158357741457 -0.006194316250469201 0 -0.033952498341853717 0.0035962777878778499 0 -0.032275758326860145 0.0039557166981922737 0 -0.073655746507228476 -0.004065833128149828 0 -0.073812509057891121 -0.0018651632630733665 0 -0.076480185753456914 -0.0014130714423594259 0 -0.073655746507228476 -0.004065833128149828 0 -0.072109450893600671 -0.0033101973928078739 0 -0.073812509057891121 -0.0018651632630733665 0 -0.072109450893600671 -0.0033101973928078739 0 -0.071855070050272224 -0.0012469355621412604 0 -0.073812509057891121 -0.0018651632630733665 0 -0.074311269013684761 0.0029577180839786468 0 -0.07311880029277959 0.0001723883895854018 0 -0.076480185753456914 -0.0014130714423594259 0 -0.071855070050272224 -0.0012469355621412604 0 -0.07311880029277959 0.0001723883895854018 0 -0.073812509057891121 -0.0018651632630733665 0 -0.07311880029277959 0.0001723883895854018 0 -0.073812509057891121 -0.0018651632630733665 0 -0.076480185753456914 -0.0014130714423594259 0 -0.071855070050272224 -0.0012469355621412604 0 -0.07311880029277959 0.0001723883895854018 0 -0.071270111632545236 0.0012671156103970739 0 -0.040313283618516743 0.0086518521030298969 0 -0.039263380168013562 0.0068357176410706946 0 -0.040389591489974071 0.0067717926160938873 0 -0.054029413492235473 0.0075180272519015275 0 -0.046490325235185509 0.006656768854489045 0 -0.03304352472996773 0.0044642283966989191 0 -0.029492490096981946 0.0052939264178308932 0 -0.03304352472996773 0.0044642283966989191 0 -0.046490325235185509 0.006656768854489045 0 -0.038216441486759012 0.0049706395005306913 0 -0.039263380168013562 0.0068357176410706946 0 -0.040389591489974071 0.0067717926160938873 0 -0.0077767304088520468 0.0046051060073979307 0 -0.010439326830788586 0.0050695809293457728 0 -0.011464869503057105 0.0079806034749247152 0 -0.010439326830788586 0.0050695809293457728 0 -0.013212100912076643 0.0055044217839834838 0 -0.010710090292729575 0.0033167243021206797 0 -0.012282187124785541 0.0056705345089768378 0 -0.014505848602620268 0.0052579905794447454 0 -0.0123645473712173 0.0036526904942142118 0 -0.013212100912076643 0.0055044217839834838 0 -0.011464869503057105 0.0079806034749247152 0 -0.013842721035563933 0.007785549770776101 0 -0.010439326830788586 0.0050695809293457728 0 -0.013212100912076643 0.0055044217839834838 0 -0.011464869503057105 0.0079806034749247152 0 -0.042492258544198185 0.0085257631372172189 0 -0.040313283618516743 0.0086518521030298969 0 -0.040389591489974071 0.0067717926160938873 0 -0.016422247509158383 0.012140873715560632 0 -0.011464869503057105 0.0079806034749247152 0 -0.013842721035563933 0.007785549770776101 0 -0.032021991290559097 0.0075751086576578992 0 -0.029492490096981946 0.0052939264178308932 0 -0.019633767094487692 0.0056638784604174236 0 -0.020350834952782487 0.0056634092813045867 0 -0.019868809519475467 0.012105676665451811 0 -0.016422247509158383 0.012140873715560632 0 -0.016051816442967524 0.0080811199202814373 0 -0.016422247509158383 0.012140873715560632 0 -0.013842721035563933 0.007785549770776101 0 -0.016051816442967524 0.0080811199202814373 0 -0.028335936000482887 0.0073699691373411572 0 -0.026887882483825155 0.0058326801600900556 0 -0.027421192714692663 0.0061590792483040965 0 -0.0261875875346326 0.0076869995214932504 0 -0.020350834952782487 0.0056634092813045867 0 -0.014331713125186827 0.0084070747128971411 0 -0.014505848602620268 0.0052579905794447454 0 -0.016801936409224963 0.0065409900546148482 0 -0.012282187124785541 0.0056705345089768378 0 -0.014331713125186827 0.0084070747128971411 0 -0.014505848602620268 0.0052579905794447454 0 -0.017053278175348189 0.0042708726747449997 0 -0.020350834952782487 0.0056634092813045867 0 -0.013212100912076643 0.0055044217839834838 0 -0.013842721035563933 0.007785549770776101 0 -0.015772201578151502 0.0080596575705621839 0 -0.013959728770724168 0.002540608971855097 0 -0.016790361126863055 0.0038876576685801302 0 -0.015951621973351503 0.00046618124728041406 0 -0.014505848602620268 0.0052579905794447454 0 -0.013959728770724168 0.002540608971855097 0 -0.016790361126863055 0.0038876576685801302 0 -0.014505848602620268 0.0052579905794447454 0 -0.013959728770724168 0.002540608971855097 0 -0.0123645473712173 0.0036526904942142118 0 -0.013959728770724168 0.002540608971855097 0 -0.013428330143008881 0.00037599652256533836 0 -0.015951621973351503 0.00046618124728041406 0 -0.013428330143008881 0.00037599652256533836 0 -0.015951621973351503 0.00046618124728041406 0 -0.014240896057246478 -0.0014776119806373961 0 -0.013428330143008881 0.00037599652256533836 0 -0.011396174263681462 0.0013472035160347901 0 -0.011930168219633391 -0.001216339154593067 0 -0.013959728770724168 0.002540608971855097 0 -0.013428330143008881 0.00037599652256533836 0 -0.011396174263681462 0.0013472035160347901 0 -0.011396174263681462 0.0013472035160347901 0 -0.0123645473712173 0.0036526904942142118 0 -0.010710090292729575 0.0033167243021206797 0 -0.013959728770724168 0.002540608971855097 0 -0.011396174263681462 0.0013472035160347901 0 -0.0123645473712173 0.0036526904942142118 0 -0.012282187124785541 0.0056705345089768378 0 -0.0123645473712173 0.0036526904942142118 0 -0.010710090292729575 0.0033167243021206797 0 -0.017053278175348189 0.0042708726747449997 0 -0.015800675063312786 0.0035773487036049132 0 -0.0077767304088520468 0.0046051060073979307 0 -0.010439326830788586 0.0050695809293457728 0 -0.0093388747310866639 0.0034707138717939134 0 -0.010439326830788586 0.0050695809293457728 0 -0.010710090292729575 0.0033167243021206797 0 -0.0093388747310866639 0.0034707138717939134 0 -0.0077767304088520468 0.0046051060073979307 0 -0.0093388747310866639 0.0034707138717939134 0 -0.0080854601090040983 0.0029452027910637549 0 -0.0093388747310866639 0.0034707138717939134 0 -0.0088450626540291857 0.0018369357428652893 0 -0.0080854601090040983 0.0029452027910637549 0 -0.0093388747310866639 0.0034707138717939134 0 -0.0100021196304342 0.0020928143232123728 0 -0.0088450626540291857 0.0018369357428652893 0 -0.010710090292729575 0.0033167243021206797 0 -0.0093388747310866639 0.0034707138717939134 0 -0.0100021196304342 0.0020928143232123728 0 -0.011396174263681462 0.0013472035160347901 0 -0.010710090292729575 0.0033167243021206797 0 -0.0100021196304342 0.0020928143232123728 0 -0.011396174263681462 0.0013472035160347901 0 -0.0100021196304342 0.0020928143232123728 0 -0.0092257516080204785 0.00076110726130518508 0 -0.0092895249061937281 0.00068106920471854894 0 -0.0083375412973011095 -8.1642151404925627e-05 0 -0.011396174263681462 0.0013472035160347901 0 -0.0092257516080204785 0.00076110726130518508 0 -0.0093012708931364783 -0.0012304378265513695 0 -0.0092257516080204785 0.00076110726130518508 0 -0.0081891189070159662 0.00093129810218918593 0 -0.0080965894703804268 -7.1330977796318682e-05 0 -0.0092257516080204785 0.00076110726130518508 0 -0.0080965894703804268 -7.1330977796318682e-05 0 -0.0093012708931364783 -0.0012304378265513695 0 -0.0092257516080204785 0.00076110726130518508 0 -0.0088450626540291857 0.0018369357428652893 0 -0.0081891189070159662 0.00093129810218918593 0 -0.0100021196304342 0.0020928143232123728 0 -0.0092257516080204785 0.00076110726130518508 0 -0.0088450626540291857 0.0018369357428652893 0 -0.0088450626540291857 0.0018369357428652893 0 -0.0076018565683453132 0.0016202176494990949 0 -0.0081891189070159662 0.00093129810218918593 0 -0.0076018565683453132 0.0016202176494990949 0 -0.0081891189070159662 0.00093129810218918593 0 -0.0071998369801601573 0.00055269621005134251 0 -0.0080965894703804268 -7.1330977796318682e-05 0 -0.0071998369801601573 0.00055269621005134251 0 -0.0074695078503937236 -0.0010100804019120499 0 -0.0081891189070159662 0.00093129810218918593 0 -0.0080965894703804268 -7.1330977796318682e-05 0 -0.0071998369801601573 0.00055269621005134251 0 -0.0071998369801601573 0.00055269621005134251 0 -0.006726321648943618 0.00073929217173582772 0 -0.0074695078503937236 -0.0010100804019120499 0 -0.019801712923930848 0.0039975410759576077 0 -0.02008222673215071 0.0039428256786883525 0 -0.024068998255856771 0.0025827987391810062 0 -0.024282604161724657 0.0035439440545288366 0 -0.023788408953992368 0.002692076390217965 0 -0.02008222673215071 0.0039428256786883525 0 -0.027150875659242884 0.0034982589063715648 0 -0.02008222673215071 0.0039428256786883525 0 -0.020293079986602514 0.003804185393685649 0 -0.027150875659242884 0.0034982589063715648 0 -0.020293079986602514 0.003804185393685649 0 -0.0076018565683453132 0.0016202176494990949 0 -0.0066391410447162614 0.00076585998606889074 0 -0.0069487787129189601 0.0027741577774008206 0 -0.0076018565683453132 0.0016202176494990949 0 -0.0071998369801601573 0.00055269621005134251 0 -0.0066391410447162614 0.00076585998606889074 0 -0.028464207919606001 0.0019881239994061139 0 -0.028913720862622547 0.0040923036282357467 0 -0.023575919506854982 -0.00025257368436635549 0 -0.0088450626540291857 0.0018369357428652893 0 -0.0076018565683453132 0.0016202176494990949 0 -0.0080854601090040983 0.0029452027910637549 0 -0.0076018565683453132 0.0016202176494990949 0 -0.0069487787129189601 0.0027741577774008206 0 -0.0080854601090040983 0.0029452027910637549 0 -0.030042090034621761 0.0051636870124961189 0 -0.029413529660172529 0.0040691922366627234 0 -0.029568642723004513 0.0047819120581991652 0 -0.0077767304088520468 0.0046051060073979307 0 -0.0069487787129189601 0.0027741577774008206 0 -0.0080854601090040983 0.0029452027910637549 0 -0.03304352472996773 0.0044642283966989191 0 -0.027150875659242884 0.0034982589063715648 0 -0.03304352472996773 0.0044642283966989191 0 -0.032275758326860145 0.0039557166981922737 0 -0.072269364562172103 -0.0049529874897448374 0 -0.073196064611443692 -0.0062222219778776513 0 -0.070991966449731561 -0.0063503365643790702 0 -0.027150875659242884 0.0034982589063715648 0 -0.032275758326860145 0.0039557166981922737 0 -0.027635457805060552 0.0072906394215218832 0 -0.024242762653072476 0.0044862117078225639 0 -0.028764043897827562 0.0032268170398767537 0 -0.027635457805060552 0.0072906394215218832 0 -0.024242762653072476 0.0044862117078225639 0 -0.023994039901490665 0.010324193606062295 0 -0.027635457805060552 0.0072906394215218832 0 -0.03179446854300802 0.0048978042400879768 0 -0.028764043897827562 0.0032268170398767537 0 -0.032758717155321249 0.0034440325036355079 0 -0.03179446854300802 0.0048978042400879768 0 -0.028764043897827562 0.0032268170398767537 0 -0.027635457805060552 0.0072906394215218832 0 -0.03179446854300802 0.0048978042400879768 0 -0.030551895966054302 0.011629114066511882 0 -0.031790227328676132 0.0061316943376582859 0 -0.031646737471705738 0.0068571301032428686 0 -0.03179446854300802 0.0048978042400879768 0 -0.034214023159474069 0.0040560944635243783 0 -0.034356479774183338 0.0039795153681605111 0 -0.031646737471705738 0.0068571301032428686 0 -0.031788148740629456 0.006820824941973491 0 -0.031646737471705738 0.0068571301032428686 0 -0.027740155012589873 0.0069741680480477934 0 -0.031032915093884509 0.0076219498257963742 0 -0.032407045667256718 0.00668735649767174 0 -0.030595289915676678 0.00641188589519728 0 -0.027635457805060552 0.0072906394215218832 0 -0.030551895966054302 0.011629114066511882 0 -0.023994039901490665 0.010324193606062295 0 -0.023994039901490665 0.010324193606062295 0 -0.018734559199604438 0.0094347809598970666 0 -0.019960221590645297 0.0058815196681293608 0 -0.027740155012589873 0.0069741680480477934 0 -0.024037336347163908 0.0065557652133389618 0 -0.030595289915676678 0.00641188589519728 0 -0.029252963136522776 0.0069026828122685799 0 -0.028770278887490765 0.0061218715666569888 0 -0.020350834952782487 0.0056634092813045867 0 -0.024037336347163908 0.0065557652133389618 0 -0.026887882483825155 0.0058326801600900556 0 -0.027421192714692663 0.0061590792483040965 0 -0.028770278887490765 0.0061218715666569888 0 -0.014331713125186827 0.0084070747128971411 0 -0.018734559199604438 0.0094347809598970666 0 -0.016801936409224963 0.0065409900546148482 0 -0.028576752136368171 0.0075154498920835446 0 -0.027421192714692663 0.0061590792483040965 0 -0.028507845349769429 0.0066753366841380921 0 -0.027421192714692663 0.0061590792483040965 0 -0.028507845349769429 0.0066753366841380921 0 -0.028770278887490765 0.0061218715666569888 0 -0.030588321624149165 0.0071381862550355469 0 -0.029761283007433578 0.0065539582063662708 0 -0.029252963136522776 0.0069026828122685799 0 -0.028507845349769429 0.0066753366841380921 0 -0.028770278887490765 0.0061218715666569888 0 -0.018734559199604438 0.0094347809598970666 0 -0.016801936409224963 0.0065409900546148482 0 -0.019960221590645297 0.0058815196681293608 0 -0.016801936409224963 0.0065409900546148482 0 -0.019960221590645297 0.0058815196681293608 0 -0.016790361126863055 0.0038876576685801302 0 -0.014505848602620268 0.0052579905794447454 0 -0.016801936409224963 0.0065409900546148482 0 -0.016790361126863055 0.0038876576685801302 0 -0.024242762653072476 0.0044862117078225639 0 -0.023994039901490665 0.010324193606062295 0 -0.019960221590645297 0.0058815196681293608 0 -0.024242762653072476 0.0044862117078225639 0 -0.019960221590645297 0.0058815196681293608 0 -0.02015941632534303 0.0023447724368609387 0 -0.02015941632534303 0.0023447724368609387 0 -0.016790361126863055 0.0038876576685801302 0 -0.015951621973351503 0.00046618124728041406 0 -0.019960221590645297 0.0058815196681293608 0 -0.02015941632534303 0.0023447724368609387 0 -0.016790361126863055 0.0038876576685801302 0 -0.02015941632534303 0.0023447724368609387 0 -0.015951621973351503 0.00046618124728041406 0 -0.020109312905945677 -0.0011857812900472509 0 -0.02015941632534303 0.0023447724368609387 0 -0.020109312905945677 -0.0011857812900472509 0 -0.025341127578889708 0.0010301220841001252 0 -0.020109312905945677 -0.0011857812900472509 0 -0.025341127578889708 0.0010301220841001252 0 -0.027455152628515837 -0.0034481427483991378 0 -0.024242762653072476 0.0044862117078225639 0 -0.025341127578889708 0.0010301220841001252 0 -0.028764043897827562 0.0032268170398767537 0 -0.024242762653072476 0.0044862117078225639 0 -0.02015941632534303 0.0023447724368609387 0 -0.025341127578889708 0.0010301220841001252 0 -0.025341127578889708 0.0010301220841001252 0 -0.028764043897827562 0.0032268170398767537 0 -0.030756232041760884 0.00050816645298422435 0 -0.032758717155321249 0.0034440325036355079 0 -0.028764043897827562 0.0032268170398767537 0 -0.030756232041760884 0.00050816645298422435 0 -0.032210834739123152 -0.0016258343627652857 0 -0.030756232041760884 0.00050816645298422435 0 -0.027455152628515837 -0.0034481427483991378 0 -0.025341127578889708 0.0010301220841001252 0 -0.030756232041760884 0.00050816645298422435 0 -0.027455152628515837 -0.0034481427483991378 0 -0.023974619550997441 -0.0023497786204841041 0 -0.024893073234721532 -0.0026316908005492093 0 -0.02145051292995185 -0.001708573639955119 0 -0.02196435803773315 -0.0028225804738597699 0 -0.023603281871106177 -0.002334222436497578 0 -0.032210834739123152 -0.0016258343627652857 0 -0.027455152628515837 -0.0034481427483991378 0 -0.032206549928368994 -0.0035512861081738998 0 -0.02196435803773315 -0.0028225804738597699 0 -0.021174468972406622 -0.0041046776449161189 0 -0.023418110309765369 -0.0034214922398709061 0 -0.014723092809627908 -0.0032906565662273093 0 -0.016004185695170602 -0.002673451802718154 0 -0.00783398747204141 -0.0029172494292959692 0 -0.0070412601170117255 -0.0025358125012566635 0 -0.0071935386931833659 -0.0017977211137788596 0 -0.021174468972406622 -0.0041046776449161189 0 -0.020114513304765849 -0.002560295756831804 0 -0.017670810881513545 -0.0049006367036802459 0 -0.02196435803773315 -0.0028225804738597699 0 -0.021174468972406622 -0.0041046776449161189 0 -0.020114513304765849 -0.002560295756831804 0 -0.02145051292995185 -0.001708573639955119 0 -0.02196435803773315 -0.0028225804738597699 0 -0.020114513304765849 -0.002560295756831804 0 -0.020109312905945677 -0.0011857812900472509 0 -0.02145051292995185 -0.001708573639955119 0 -0.020114513304765849 -0.002560295756831804 0 -0.022629224893862789 -0.0019635806346037818 0 -0.023974619550997441 -0.0023497786204841041 0 -0.020109312905945677 -0.0011857812900472509 0 -0.020114513304765849 -0.002560295756831804 0 -0.017289785261880443 -0.0022529695202511291 0 -0.015951621973351503 0.00046618124728041406 0 -0.020109312905945677 -0.0011857812900472509 0 -0.017289785261880443 -0.0022529695202511291 0 -0.015951621973351503 0.00046618124728041406 0 -0.017289785261880443 -0.0022529695202511291 0 -0.014240896057246478 -0.0014776119806373961 0 -0.017289785261880443 -0.0022529695202511291 0 -0.014500481023551703 -0.0030047128657462855 0 -0.014240896057246478 -0.0014776119806373961 0 -0.017289785261880443 -0.0022529695202511291 0 -0.014500481023551703 -0.0030047128657462855 0 -0.017670810881513545 -0.0049006367036802459 0 -0.020114513304765849 -0.002560295756831804 0 -0.017289785261880443 -0.0022529695202511291 0 -0.017670810881513545 -0.0049006367036802459 0 -0.014723092809627908 -0.0032906565662273093 0 -0.013861994454273115 -0.0036957844026425752 0 -0.00783398747204141 -0.0029172494292959692 0 -0.0091201038864772103 -0.0038110232450149573 0 -0.0085732200034434325 -0.0027136116359428118 0 -0.013861994454273115 -0.0036957844026425752 0 -0.013354067922578268 -0.0038306868396504028 0 -0.0091201038864772103 -0.0038110232450149573 0 -0.0085732200034434325 -0.0027136116359428118 0 -0.011794745291946542 -0.0040221158988989472 0 -0.014500481023551703 -0.0030047128657462855 0 -0.017670810881513545 -0.0049006367036802459 0 -0.011794745291946542 -0.0040221158988989472 0 -0.0085732200034434325 -0.0027136116359428118 0 -0.011794745291946542 -0.0040221158988989472 0 -0.0094309749442966096 -0.0024445056366044545 0 -0.0085732200034434325 -0.0027136116359428118 0 -0.0076277045844743169 -0.002176621058185696 0 -0.0076957228405744437 -0.0019840479472247661 0 -0.0076277045844743169 -0.002176621058185696 0 -0.0076957228405744437 -0.0019840479472247661 0 -0.0073133158369731773 -0.0016219678698695221 0 -0.0076277045844743169 -0.002176621058185696 0 -0.0073133158369731773 -0.0016219678698695221 0 -0.0071935386931833659 -0.0017977211137788596 0 -0.00783398747204141 -0.0029172494292959692 0 -0.0076277045844743169 -0.002176621058185696 0 -0.0071935386931833659 -0.0017977211137788596 0 -0.00783398747204141 -0.0029172494292959692 0 -0.0085732200034434325 -0.0027136116359428118 0 -0.0076277045844743169 -0.002176621058185696 0 -0.0065222277007915492 -0.00055089472270981215 0 -0.0083375412973011095 -8.1642151404925627e-05 0 -0.0074855648011866735 -0.003645644986066396 0 -0.0074695078503937236 -0.0010100804019120499 0 -0.0062065538629171848 -0.0021315958196327194 0 -0.006726321648943618 0.00073929217173582772 0 -0.0074695078503937236 -0.0010100804019120499 0 -0.0062065538629171848 -0.0021315958196327194 0 -0.0074855648011866735 -0.003645644986066396 0 -0.0074695078503937236 -0.0010100804019120499 0 -0.0093012708931364783 -0.0012304378265513695 0 -0.02008222673215071 0.0039428256786883525 0 -0.011208537663794151 0.00096115645524709524 0 -0.0080965894703804268 -7.1330977796318682e-05 0 -0.0074695078503937236 -0.0010100804019120499 0 -0.0093012708931364783 -0.0012304378265513695 0 -0.0094361749659802301 -0.0024808849625157251 0 -0.010034882015988384 -0.0012307657939371801 0 -0.010064714061495198 -0.0028647140514560941 0 -0.010034882015988384 -0.0012307657939371801 0 -0.0109670654438984 -0.0028011353937852559 0 -0.010064714061495198 -0.0028647140514560941 0 -0.0109670654438984 -0.0028011353937852559 0 -0.012443473188596513 -0.0025981567050315877 0 -0.011794745291946542 -0.0040221158988989472 0 -0.0109670654438984 -0.0028011353937852559 0 -0.011930168219633391 -0.001216339154593067 0 -0.012443473188596513 -0.0025981567050315877 0 -0.011396174263681462 0.0013472035160347901 0 -0.010034882015988384 -0.0012307657939371801 0 -0.011930168219633391 -0.001216339154593067 0 -0.010034882015988384 -0.0012307657939371801 0 -0.0109670654438984 -0.0028011353937852559 0 -0.011930168219633391 -0.001216339154593067 0 -0.011930168219633391 -0.001216339154593067 0 -0.014240896057246478 -0.0014776119806373961 0 -0.012443473188596513 -0.0025981567050315877 0 -0.013428330143008881 0.00037599652256533836 0 -0.011930168219633391 -0.001216339154593067 0 -0.014240896057246478 -0.0014776119806373961 0 -0.014500481023551703 -0.0030047128657462855 0 -0.012443473188596513 -0.0025981567050315877 0 -0.011794745291946542 -0.0040221158988989472 0 -0.014500481023551703 -0.0030047128657462855 0 -0.014240896057246478 -0.0014776119806373961 0 -0.012443473188596513 -0.0025981567050315877 0 -0.011794745291946542 -0.0040221158988989472 0 -0.010777895627823983 -0.0030667401712825334 0 -0.010798162533220496 -0.0033283891046801189 0 -0.011794745291946542 -0.0040221158988989472 0 -0.010777895627823983 -0.0030667401712825334 0 -0.0094309749442966096 -0.0024445056366044545 0 -0.010777895627823983 -0.0030667401712825334 0 -0.010798162533220496 -0.0033283891046801189 0 -0.01025746238252504 -0.0028771372390307597 0 -0.010798162533220496 -0.0033283891046801189 0 -0.0099642053981633671 -0.0031172392567394647 0 -0.01025746238252504 -0.0028771372390307597 0 -0.0109670654438984 -0.0028011353937852559 0 -0.011794745291946542 -0.0040221158988989472 0 -0.010798162533220496 -0.0033283891046801189 0 -0.0109670654438984 -0.0028011353937852559 0 -0.010798162533220496 -0.0033283891046801189 0 -0.010064714061495198 -0.0028647140514560941 0 -0.010798162533220496 -0.0033283891046801189 0 -0.010064714061495198 -0.0028647140514560941 0 -0.0099642053981633671 -0.0031172392567394647 0 -0.010064714061495198 -0.0028647140514560941 0 -0.0099642053981633671 -0.0031172392567394647 0 -0.0095761239167555575 -0.0029580652404903444 0 -0.0099642053981633671 -0.0031172392567394647 0 -0.0093628604515365796 -0.003105813106332058 0 -0.009336053056130264 -0.002996172963289813 0 -0.0099642053981633671 -0.0031172392567394647 0 -0.0093628604515365796 -0.003105813106332058 0 -0.0095761239167555575 -0.0029580652404903444 0 -0.0093628604515365796 -0.003105813106332058 0 -0.0095761239167555575 -0.0029580652404903444 0 -0.0091757892812302632 -0.0029949453994644114 0 -0.0093628604515365796 -0.003105813106332058 0 -0.0091428639707271178 -0.0031696675979476928 0 -0.0091757892812302632 -0.0029949453994644114 0 -0.0094361749659802301 -0.0024808849625157251 0 -0.0095761239167555575 -0.0029580652404903444 0 -0.0091757892812302632 -0.0029949453994644114 0 -0.0094361749659802301 -0.0024808849625157251 0 -0.010064714061495198 -0.0028647140514560941 0 -0.0095761239167555575 -0.0029580652404903444 0 -0.0065222277007915492 -0.00055089472270981215 0 -0.0047068015391000225 0.0016147206388642051 0 -0.00054206419344528202 0.0069503909771758774 0 -0.002144463074953066 0.0049496276243942185 0 -0.0026565021791024059 0.0036540015007184923 0 -0.0029597761024111316 0.0038324902852107387 0 0.0028627037915533214 0.01126826178701237 0 0.0037283086972144368 0.01240997910184642 0 0.0042182660685542656 0.014843768452991166 0 -0.0018363063350489799 0.0058291408079615345 0 -0.0014909559327174178 0.007457635303964762 0 -0.0021958059166233448 0.0049075863777133626 0 -0.0082947426256379173 -0.0029014193274386497 0 -0.0087291705487377684 -0.0031102591426806284 0 -0.0091428639707271178 -0.0031696675979476928 0 0.0028627037915533214 0.01126826178701237 0 0.0037283086972144368 0.01240997910184642 0 0.0032593738873494646 0.0098206982172371286 0 -0.0013126096374692837 0.0066525497134947891 0 -0.00054206419344528202 0.0069503909771758774 0 -0.0082947426256379173 -0.0029014193274386497 0 -0.0079435682201403294 -0.0032250522836629941 0 -0.0061448520613003113 -0.0015995920164142243 0 -0.0079435682201403294 -0.0032250522836629941 0 -0.0087291705487377684 -0.0031102591426806284 0 -0.0088241037180428247 -0.0030088223708166816 0 -0.0082947426256379173 -0.0029014193274386497 0 -0.0079435682201403294 -0.0032250522836629941 0 -0.0087291705487377684 -0.0031102591426806284 0 -0.0091004109767057161 -0.0030872859259878063 0 -0.0087291705487377684 -0.0031102591426806284 0 -0.0091428639707271178 -0.0031696675979476928 0 -0.0013126096374692837 0.0066525497134947891 0 -0.0029597761024111316 0.0038324902852107387 0 -0.0093628604515365796 -0.003105813106332058 0 -0.0091004109767057161 -0.0030872859259878063 0 -0.0091428639707271178 -0.0031696675979476928 0 -0.0093628604515365796 -0.003105813106332058 0 -0.0091004109767057161 -0.0030872859259878063 0 -0.009336053056130264 -0.002996172963289813 0 -0.0091004109767057161 -0.0030872859259878063 0 -0.0087291705487377684 -0.0031102591426806284 0 -0.009336053056130264 -0.002996172963289813 0 -0.0087291705487377684 -0.0031102591426806284 0 -0.009336053056130264 -0.002996172963289813 0 -0.0088241037180428247 -0.0030088223708166816 0 -0.009336053056130264 -0.002996172963289813 0 -0.0093851767415963922 -0.002888954687319594 0 -0.0088241037180428247 -0.0030088223708166816 0 -0.009336053056130264 -0.002996172963289813 0 -0.0093851767415963922 -0.002888954687319594 0 -0.01025746238252504 -0.0028771372390307597 0 -0.0099642053981633671 -0.0031172392567394647 0 -0.009336053056130264 -0.002996172963289813 0 -0.01025746238252504 -0.0028771372390307597 0 -0.0075291051483055713 -0.0021942912231753555 0 -0.0071265527091814926 -0.0019144851377873428 0 -0.0079435682201403294 -0.0032250522836629941 0 -0.0033117805272568535 -0.0016645548384687091 0 -0.0061448520613003113 -0.0015995920164142243 0 -0.0079435682201403294 -0.0032250522836629941 0 -0.0093851767415963922 -0.002888954687319594 0 -0.010308874147568627 -0.0028258830875107725 0 -0.0079435682201403294 -0.0032250522836629941 0 -0.0093851767415963922 -0.002888954687319594 0 -0.0088241037180428247 -0.0030088223708166816 0 -0.0093851767415963922 -0.002888954687319594 0 -0.010308874147568627 -0.0028258830875107725 0 -0.01025746238252504 -0.0028771372390307597 0 -0.010308874147568627 -0.0028258830875107725 0 -0.01025746238252504 -0.0028771372390307597 0 -0.010264178454943512 -0.0024832223446591643 0 -0.010777895627823983 -0.0030667401712825334 0 -0.010264178454943512 -0.0024832223446591643 0 -0.0094309749442966096 -0.0024445056366044545 0 -0.010777895627823983 -0.0030667401712825334 0 -0.01025746238252504 -0.0028771372390307597 0 -0.010264178454943512 -0.0024832223446591643 0 -0.010308874147568627 -0.0028258830875107725 0 -0.010264178454943512 -0.0024832223446591643 0 -0.0095837750083152002 -0.0014198304194194013 0 -0.0071265527091814926 -0.0019144851377873428 0 -0.0068433596813626107 -0.0014604806572815234 0 -0.0033117805272568535 -0.0016645548384687091 0 -0.0033366645037920381 -0.00087779081152972041 0 -0.0041639736881022189 -0.00028509220903808743 0 -0.0033366645037920381 -0.00087779081152972041 0 -0.0038122118707901863 -0.00098036198638296133 0 -0.0041639736881022189 -0.00028509220903808743 0 -0.0033366645037920381 -0.00087779081152972041 0 -0.0038122118707901863 -0.00098036198638296133 0 -0.0031526627048235516 -0.0005125632893666751 0 -0.0038122118707901863 -0.00098036198638296133 0 -0.0031526627048235516 -0.0005125632893666751 0 -0.0032389095315865399 -0.00089391697418680091 0 -0.0033366645037920381 -0.00087779081152972041 0 -0.0031526627048235516 -0.0005125632893666751 0 -0.0039380200352561292 -0.00065808325699575644 0 -0.0031526627048235516 -0.0005125632893666751 0 -0.0030439424861380842 -1.8840692153212904e-05 0 -0.0024058377847241633 -0.00032510951988704451 0 -0.0031526627048235516 -0.0005125632893666751 0 -0.0039380200352561292 -0.00065808325699575644 0 -0.0030439424861380842 -1.8840692153212904e-05 0 -0.0033117805272568535 -0.0016645548384687091 0 -0.0033366645037920381 -0.00087779081152972041 0 -0.0039380200352561292 -0.00065808325699575644 0 -0.0033117805272568535 -0.0016645548384687091 0 -0.0061448520613003113 -0.0015995920164142243 0 -0.0039380200352561292 -0.00065808325699575644 0 -0.0061448520613003113 -0.0015995920164142243 0 -0.0048182223468344783 -0.00064175260203948379 0 -0.0052474047171467203 -0.00012404110115729511 0 -0.0061448520613003113 -0.0015995920164142243 0 -0.0048182223468344783 -0.00064175260203948379 0 -0.0039380200352561292 -0.00065808325699575644 0 -0.0039380200352561292 -0.00065808325699575644 0 -0.0042345375353969534 -0.00036214865173830158 0 -0.0030439424861380842 -1.8840692153212904e-05 0 -0.0025872351574927569 0.0026159253558396159 0 -0.002640846381636417 0.0016920467715892556 0 -0.0030439424861380842 -1.8840692153212904e-05 0 -0.0052474047171467203 -0.00012404110115729511 0 -0.0012873896907798573 0.00048580093562287366 0 -0.0048182223468344783 -0.00064175260203948379 0 -0.0039380200352561292 -0.00065808325699575644 0 -0.0042345375353969534 -0.00036214865173830158 0 -0.0042345375353969534 -0.00036214865173830158 0 -0.0030439424861380842 -1.8840692153212904e-05 0 -0.0052474047171467203 -0.00012404110115729511 0 -0.0048182223468344783 -0.00064175260203948379 0 -0.0042345375353969534 -0.00036214865173830158 0 -0.0052474047171467203 -0.00012404110115729511 0 0.002846713950547434 0.0083576091060745018 0 0.0033538964356812735 0.00608891442696492 0 0.0017904122557815211 0.0026277054210775328 0 0.0010510452698038642 0.0072023144505431189 0 0.0026827692368525222 0.007421363382208117 0 0.0017904122557815211 0.0026277054210775328 0 0.00072469443231415291 0.0074224690893387821 0 0.00072235563362465962 0.0063159297206193069 0 0.0039338276348240648 0.0049273165074341027 0 0.0033538964356812735 0.00608891442696492 0 0.0017904122557815211 0.0026277054210775328 0 0.0044307312919990953 0.0067652355293908997 0 0.0054655277037015948 0.007825641850337647 0 0.0055621145819269718 0.0056566971374390779 0 0.0039338276348240648 0.0049273165074341027 0 0.0044307312919990953 0.0067652355293908997 0 0.0055621145819269718 0.0056566971374390779 0 0.0039338276348240648 0.0049273165074341027 0 0.0033538964356812735 0.00608891442696492 0 0.0044307312919990953 0.0067652355293908997 0 0.0033538964356812735 0.00608891442696492 0 0.0044307312919990953 0.0067652355293908997 0 0.0039387017812239763 0.007396207820684929 0 0.0044307312919990953 0.0067652355293908997 0 0.0039387017812239763 0.007396207820684929 0 0.0054655277037015948 0.007825641850337647 0 0.002846713950547434 0.0083576091060745018 0 0.0039387017812239763 0.007396207820684929 0 0.0054655277037015948 0.007825641850337647 0 0.002846713950547434 0.0083576091060745018 0 0.0033538964356812735 0.00608891442696492 0 0.0039387017812239763 0.007396207820684929 0 0.00072469443231415291 0.0074224690893387821 0 -0.00054206419344528202 0.0069503909771758774 0 0.0028627037915533214 0.01126826178701237 0 0.0010510452698038642 0.0072023144505431189 0 0.0032593738873494646 0.0098206982172371286 0 -0.0013471705147049646 0.0065927761494010712 0 -0.0014742654756627121 0.0061132172517698305 0 -0.0020642337323326736 0.0061871597348773935 0 -0.0082947426256379173 -0.0029014193274386497 0 -0.0061448520613003113 -0.0015995920164142243 0 -0.0052474047171467203 -0.00012404110115729511 0 -0.0026565021791024059 0.0036540015007184923 0 -0.0025872351574927569 0.0026159253558396159 0 0.0010510452698038642 0.0072023144505431189 0 0.0026827692368525222 0.007421363382208117 0 0.0032593738873494646 0.0098206982172371286 0 -0.0072582756108745365 -0.001460612245355075 0 -0.0080547281150071398 -0.0018482973797279696 0 -0.0069331569678403558 -0.00081476798972834376 0 -0.0072582756108745365 -0.001460612245355075 0 -0.0069331569678403558 -0.00081476798972834376 0 -0.0070656506770543151 -0.0013369817977428545 0 -0.0072582756108745365 -0.001460612245355075 0 -0.0070656506770543151 -0.0013369817977428545 0 -0.0073008316748791246 -0.0014267535244957186 0 -0.0073133158369731773 -0.0016219678698695221 0 -0.0072582756108745365 -0.001460612245355075 0 -0.0073008316748791246 -0.0014267535244957186 0 -0.0076957228405744437 -0.0019840479472247661 0 -0.0073133158369731773 -0.0016219678698695221 0 -0.0072582756108745365 -0.001460612245355075 0 -0.0076957228405744437 -0.0019840479472247661 0 -0.0072582756108745365 -0.001460612245355075 0 -0.0080547281150071398 -0.0018482973797279696 0 -0.0085732200034434325 -0.0027136116359428118 0 -0.0076957228405744437 -0.0019840479472247661 0 -0.0080547281150071398 -0.0018482973797279696 0 -0.0085732200034434325 -0.0027136116359428118 0 -0.0080547281150071398 -0.0018482973797279696 0 -0.0094309749442966096 -0.0024445056366044545 0 -0.0080547281150071398 -0.0018482973797279696 0 -0.0094309749442966096 -0.0024445056366044545 0 -0.0095837750083152002 -0.0014198304194194013 0 -0.010264178454943512 -0.0024832223446591643 0 -0.0094309749442966096 -0.0024445056366044545 0 -0.0095837750083152002 -0.0014198304194194013 0 -0.0080547281150071398 -0.0018482973797279696 0 -0.0095837750083152002 -0.0014198304194194013 0 -0.0069331569678403558 -0.00081476798972834376 0 -0.0068433596813626107 -0.0014604806572815234 0 -0.006776198629829794 -0.0012909580145152254 0 -0.0041639736881022189 -0.00028509220903808743 0 -0.0054467936620089608 -0.0016336271093600268 0 -0.0069331569678403558 -0.00081476798972834376 0 -0.0038122118707901863 -0.00098036198638296133 0 -0.0041639736881022189 -0.00028509220903808743 0 -0.0054467936620089608 -0.0016336271093600268 0 -0.0038122118707901863 -0.00098036198638296133 0 -0.0054467936620089608 -0.0016336271093600268 0 -0.0038339745146099449 -0.0016694836462583719 0 -0.0054467936620089608 -0.0016336271093600268 0 -0.0065748441220374928 -0.0017929200507542417 0 -0.0069331569678403558 -0.00081476798972834376 0 -0.0065748441220374928 -0.0017929200507542417 0 -0.0069331569678403558 -0.00081476798972834376 0 -0.0070656506770543151 -0.0013369817977428545 0 -0.0065748441220374928 -0.0017929200507542417 0 -0.0070656506770543151 -0.0013369817977428545 0 -0.007029156207135622 -0.0018375589898122879 0 -0.007029156207135622 -0.0018375589898122879 0 -0.0077695636847495341 -0.0017220983688611459 0 -0.0074900941180349482 -0.0014932904957285571 0 -0.007029156207135622 -0.0018375589898122879 0 -0.0077695636847495341 -0.0017220983688611459 0 -0.0070344103927752243 -0.002333723176113355 0 -0.0077695636847495341 -0.0017220983688611459 0 -0.0074900941180349482 -0.0014932904957285571 0 -0.008047587025082667 -0.0015045326453872532 0 -0.0070656506770543151 -0.0013369817977428545 0 -0.007029156207135622 -0.0018375589898122879 0 -0.0074900941180349482 -0.0014932904957285571 0 -0.0074900941180349482 -0.0014932904957285571 0 -0.0076734722320296756 -0.0013940703859807106 0 -0.0073008316748791246 -0.0014267535244957186 0 -0.0070656506770543151 -0.0013369817977428545 0 -0.0074900941180349482 -0.0014932904957285571 0 -0.0073008316748791246 -0.0014267535244957186 0 -0.0074900941180349482 -0.0014932904957285571 0 -0.0076734722320296756 -0.0013940703859807106 0 -0.008047587025082667 -0.0015045326453872532 0 -0.0076734722320296756 -0.0013940703859807106 0 -0.0074923884112692617 -0.0013760142745074455 0 -0.0079265728650621207 -0.0011656040230129533 0 -0.0076734722320296756 -0.0013940703859807106 0 -0.0073008316748791246 -0.0014267535244957186 0 -0.0074923884112692617 -0.0013760142745074455 0 -0.0073133158369731773 -0.0016219678698695221 0 -0.0073008316748791246 -0.0014267535244957186 0 -0.0074923884112692617 -0.0013760142745074455 0 -0.008748387179580543 -0.0012961986391599389 0 -0.0087398259520582045 -0.0014624712824636626 0 -0.0095010184088071721 -0.001242659882407759 0 -0.008748387179580543 -0.0012961986391599389 0 -0.0082751910648727698 -0.0013624039383221072 0 -0.0084926926066640953 -0.0010024156644457139 0 -0.008748387179580543 -0.0012961986391599389 0 -0.0095010184088071721 -0.001242659882407759 0 -0.0092771911594646574 -0.00049751715316761688 0 -0.0082751910648727698 -0.0013624039383221072 0 -0.0079265728650621207 -0.0011656040230129533 0 -0.0084926926066640953 -0.0010024156644457139 0 -0.0076734722320296756 -0.0013940703859807106 0 -0.0082751910648727698 -0.0013624039383221072 0 -0.0079265728650621207 -0.0011656040230129533 0 -0.0076734722320296756 -0.0013940703859807106 0 -0.0082751910648727698 -0.0013624039383221072 0 -0.008047587025082667 -0.0015045326453872532 0 -0.0082751910648727698 -0.0013624039383221072 0 -0.0087398259520582045 -0.0014624712824636626 0 -0.008047587025082667 -0.0015045326453872532 0 -0.008748387179580543 -0.0012961986391599389 0 -0.0082751910648727698 -0.0013624039383221072 0 -0.0087398259520582045 -0.0014624712824636626 0 -0.0087398259520582045 -0.0014624712824636626 0 -0.0083579402030997847 -0.0015662737552056976 0 -0.0085969489112680073 -0.0014564343606144827 0 -0.0087398259520582045 -0.0014624712824636626 0 -0.0083579402030997847 -0.0015662737552056976 0 -0.008047587025082667 -0.0015045326453872532 0 -0.0077695636847495341 -0.0017220983688611459 0 -0.0083579402030997847 -0.0015662737552056976 0 -0.008047587025082667 -0.0015045326453872532 0 -0.0077695636847495341 -0.0017220983688611459 0 -0.0083579402030997847 -0.0015662737552056976 0 -0.0082720234682222993 -0.0018339048165981102 0 -0.0083579402030997847 -0.0015662737552056976 0 -0.0084223423694708092 -0.0014294280206132704 0 -0.0082720234682222993 -0.0018339048165981102 0 -0.0084223423694708092 -0.0014294280206132704 0 -0.0075848131247472361 -0.0012458573704318126 0 -0.0082499955008386618 -0.0012035038556346526 0 -0.0075848131247472361 -0.0012458573704318126 0 -0.0082499955008386618 -0.0012035038556346526 0 -0.0077663777706174705 -0.00094677581624317273 0 -0.0084223423694708092 -0.0014294280206132704 0 -0.0082499955008386618 -0.0012035038556346526 0 -0.0088808706341473934 -0.0013465564230518707 0 -0.0082499955008386618 -0.0012035038556346526 0 -0.0089292690491667871 -0.001110431443060077 0 -0.0084274581283279564 -0.00080339546076406019 0 -0.0082499955008386618 -0.0012035038556346526 0 -0.0089292690491667871 -0.001110431443060077 0 -0.0088808706341473934 -0.0013465564230518707 0 -0.0087398259520582045 -0.0014624712824636626 0 -0.0088808706341473934 -0.0013465564230518707 0 -0.0085969489112680073 -0.0014564343606144827 0 -0.0083579402030997847 -0.0015662737552056976 0 -0.0084223423694708092 -0.0014294280206132704 0 -0.0085969489112680073 -0.0014564343606144827 0 -0.0084223423694708092 -0.0014294280206132704 0 -0.0088808706341473934 -0.0013465564230518707 0 -0.0085969489112680073 -0.0014564343606144827 0 -0.002182570576444207 1.4403636886024371e-06 0 -0.0013269662971959412 3.9324959406231833e-05 0 0.0030393260670164395 -0.00017077654636222728 0 -0.0077699122126962889 -0.00086232631491235104 0 -0.0070875269163307867 -0.0010468299881119022 0 -0.0077663777706174705 -0.00094677581624317273 0 -0.0077699122126962889 -0.00086232631491235104 0 -0.0077663777706174705 -0.00094677581624317273 0 -0.0079653581898811582 -0.00054528417598588043 0 -0.0075848131247472361 -0.0012458573704318126 0 -0.0070875269163307867 -0.0010468299881119022 0 -0.0077663777706174705 -0.00094677581624317273 0 -0.0082499955008386618 -0.0012035038556346526 0 -0.0077663777706174705 -0.00094677581624317273 0 -0.0084274581283279564 -0.00080339546076406019 0 -0.0084274581283279564 -0.00080339546076406019 0 -0.0079653581898811582 -0.00054528417598588043 0 -0.0084491088193108244 -0.00056782949777258514 0 -0.0077663777706174705 -0.00094677581624317273 0 -0.0084274581283279564 -0.00080339546076406019 0 -0.0079653581898811582 -0.00054528417598588043 0 -0.002182570576444207 1.4403636886024371e-06 0 -0.0013269662971959412 3.9324959406231833e-05 0 -0.0070763641001603131 -8.3110826869156555e-05 0 -0.0077699122126962889 -0.00086232631491235104 0 -0.0079653581898811582 -0.00054528417598588043 0 -0.0070763641001603131 -8.3110826869156555e-05 0 -0.002182570576444207 1.4403636886024371e-06 0 -0.0077924246291763959 -1.8335944648802423e-06 0 -0.0070763641001603131 -8.3110826869156555e-05 0 -0.0020037181483241319 -0.001088321154567031 0 -0.0027386372596145563 -0.0012706518972792017 0 -0.0079653581898811582 -0.00054528417598588043 0 -0.0070763641001603131 -8.3110826869156555e-05 0 -0.0084491088193108244 -0.00056782949777258514 0 -0.0077924246291763959 -1.8335944648802423e-06 0 -0.0087922506977393261 -0.00048603268824725233 0 -0.010885483593414605 -0.00054824897010897415 0 -0.0077924246291763959 -1.8335944648802423e-06 0 -0.0070763641001603131 -8.3110826869156555e-05 0 -0.0087922506977393261 -0.00048603268824725233 0 -0.0070763641001603131 -8.3110826869156555e-05 0 -0.0087922506977393261 -0.00048603268824725233 0 -0.0084491088193108244 -0.00056782949777258514 0 -0.0087922506977393261 -0.00048603268824725233 0 -0.0094131258290518945 -0.00089529045048616061 0 -0.010885483593414605 -0.00054824897010897415 0 -0.0087922506977393261 -0.00048603268824725233 0 -0.0094131258290518945 -0.00089529045048616061 0 -0.0084491088193108244 -0.00056782949777258514 0 -0.0084274581283279564 -0.00080339546076406019 0 -0.0094131258290518945 -0.00089529045048616061 0 -0.0084491088193108244 -0.00056782949777258514 0 -0.0089292690491667871 -0.001110431443060077 0 -0.0084274581283279564 -0.00080339546076406019 0 -0.0094131258290518945 -0.00089529045048616061 0 -0.0094131258290518945 -0.00089529045048616061 0 -0.010804925514443916 -0.0010098271119120645 0 -0.0095800314870525625 -0.0012062032126085142 0 -0.0094131258290518945 -0.00089529045048616061 0 -0.010804925514443916 -0.0010098271119120645 0 -0.010885483593414605 -0.00054824897010897415 0 -0.010804925514443916 -0.0010098271119120645 0 -0.010885483593414605 -0.00054824897010897415 0 -0.012455203566248768 -0.00057482802834230289 0 -0.0077924246291763959 -1.8335944648802423e-06 0 -0.010885483593414605 -0.00054824897010897415 0 -0.013398042415973133 -1.4057208100926881e-06 0 -0.0087398259520582045 -0.0014624712824636626 0 -0.0088808706341473934 -0.0013465564230518707 0 -0.0092911706291037028 -0.0013312615152442698 0 -0.0087398259520582045 -0.0014624712824636626 0 -0.0092911706291037028 -0.0013312615152442698 0 -0.0095010184088071721 -0.001242659882407759 0 -0.0088808706341473934 -0.0013465564230518707 0 -0.0092911706291037028 -0.0013312615152442698 0 -0.0095800314870525625 -0.0012062032126085142 0 -0.0089292690491667871 -0.001110431443060077 0 -0.0088808706341473934 -0.0013465564230518707 0 -0.0095800314870525625 -0.0012062032126085142 0 -0.0089292690491667871 -0.001110431443060077 0 -0.0094131258290518945 -0.00089529045048616061 0 -0.0095800314870525625 -0.0012062032126085142 0 -0.0092911706291037028 -0.0013312615152442698 0 -0.0095800314870525625 -0.0012062032126085142 0 -0.01010108504446279 -0.0011566347711988942 0 -0.010804925514443916 -0.0010098271119120645 0 -0.01010108504446279 -0.0011566347711988942 0 -0.011008887502911784 -0.00087689497864557736 0 -0.010804925514443916 -0.0010098271119120645 0 -0.0095800314870525625 -0.0012062032126085142 0 -0.01010108504446279 -0.0011566347711988942 0 -0.01010108504446279 -0.0011566347711988942 0 -0.0095010184088071721 -0.001242659882407759 0 -0.011008887502911784 -0.00087689497864557736 0 -0.0092911706291037028 -0.0013312615152442698 0 -0.01010108504446279 -0.0011566347711988942 0 -0.0095010184088071721 -0.001242659882407759 0 -0.0095010184088071721 -0.001242659882407759 0 -0.011008887502911784 -0.00087689497864557736 0 -0.0092771911594646574 -0.00049751715316761688 0 -0.011008887502911784 -0.00087689497864557736 0 -0.014937756083653577 -2.6484112738632339e-05 0 -0.010703944509515988 0.0009371350857677659 0 -0.01436641889303643 4.4835212735998027e-05 0 -0.014052020799655106 0.00010956921407765755 0 -0.011008887502911784 -0.00087689497864557736 0 -0.010703944509515988 0.0009371350857677659 0 -0.0092771911594646574 -0.00049751715316761688 0 -0.010703944509515988 0.0009371350857677659 0 -0.0090474279334474914 0.00061071124744517633 0 -0.0092771911594646574 -0.00049751715316761688 0 -0.010885483593414605 -0.00054824897010897415 0 -0.013398042415973133 -1.4057208100926881e-06 0 -0.012455203566248768 -0.00057482802834230289 0 -0.010804925514443916 -0.0010098271119120645 0 -0.011008887502911784 -0.00087689497864557736 0 -0.012455203566248768 -0.00057482802834230289 0 -0.011008887502911784 -0.00087689497864557736 0 -0.012455203566248768 -0.00057482802834230289 0 -0.014937756083653577 -2.6484112738632339e-05 0 -0.013398042415973133 -1.4057208100926881e-06 0 -0.012455203566248768 -0.00057482802834230289 0 -0.014937756083653577 -2.6484112738632339e-05 0 -0.013398042415973133 -1.4057208100926881e-06 0 -0.014937756083653577 -2.6484112738632339e-05 0 -0.01900329009023223 1.3259751594861707e-08 0 -0.014937756083653577 -2.6484112738632339e-05 0 -0.01900329009023223 1.3259751594861707e-08 0 -0.018340707257791911 -0.00018676331532565643 0 -0.014937756083653577 -2.6484112738632339e-05 0 -0.018340707257791911 -0.00018676331532565643 0 -0.016582324436370831 -0.00028227176478394235 0 -0.022561599862278483 0.00036013351486875408 0 -0.018340707257791911 -0.00018676331532565643 0 -0.016704296009649379 0.00084509144014434736 0 -0.021177949413327072 0.00024462109439311126 0 -0.020759938342955631 0.00013395602076488055 0 -0.022561599862278483 0.00036013351486875408 0 -0.01900329009023223 1.3259751594861707e-08 0 -0.018340707257791911 -0.00018676331532565643 0 -0.024611830322790264 -6.3328834990036227e-07 0 -0.022561599862278483 0.00036013351486875408 0 -0.01900329009023223 1.3259751594861707e-08 0 -0.014052020799655106 0.00010956921407765755 0 -0.014378379697438782 -4.5864463277973187e-05 0 -0.016325740244474484 7.9936336937117301e-05 0 -0.015931295100263487 0.00031987546016480867 0 -0.015796408426877101 -5.9828894338188884e-05 0 -0.016325740244474484 7.9936336937117301e-05 0 -0.016560155345066815 -0.00014730086049326261 0 -0.015796408426877101 -5.9828894338188884e-05 0 -0.014937756083653577 -2.6484112738632339e-05 0 -0.016560155345066815 -0.00014730086049326261 0 -0.016582324436370831 -0.00028227176478394235 0 -0.016325740244474484 7.9936336937117301e-05 0 -0.016560155345066815 -0.00014730086049326261 0 -0.016582324436370831 -0.00028227176478394235 0 -0.018340707257791911 -0.00018676331532565643 0 -0.016582324436370831 -0.00028227176478394235 0 -0.016704296009649379 0.00084509144014434736 0 -0.016325740244474484 7.9936336937117301e-05 0 -0.016582324436370831 -0.00028227176478394235 0 -0.016704296009649379 0.00084509144014434736 0 -0.024475733294206898 -2.8207842842926002e-05 0 -0.024340579484160796 0.00044667860908238695 0 -0.024837729052899115 0.00049536951137490743 0 -0.016325740244474484 7.9936336937117301e-05 0 -0.016704296009649379 0.00084509144014434736 0 -0.015931295100263487 0.00031987546016480867 0 -0.024475733294206898 -2.8207842842926002e-05 0 -0.02495493322674492 0.00031141670400081941 0 -0.024837729052899115 0.00049536951137490743 0 -0.020759938342955631 0.00013395602076488055 0 -0.020540359708050484 -0.00018276607981410496 0 -0.02495493322674492 0.00031141670400081941 0 -0.024837729052899115 0.00049536951137490743 0 -0.025348206468659887 0.00057792937984574354 0 -0.020540359708050484 -0.00018276607981410496 0 -0.020288613110497601 -0.0009105047361017243 0 -0.03658419876010021 -0.00053045903987391022 0 -0.037194802746999343 -0.0009971541692674786 0 -0.036192868178834603 -0.0012550000703145632 0 -0.015931295100263487 0.00031987546016480867 0 -0.015796408426877101 -5.9828894338188884e-05 0 -0.01531845770747684 0.00013346578914916657 0 -0.0090474279334474914 0.00061071124744517633 0 -0.0084027252018968861 -1.1100816094822354e-05 0 -0.0080601236861108268 0.00037803093338156882 0 -0.015796408426877101 -5.9828894338188884e-05 0 -0.015257566739452414 8.9574505497595544e-05 0 -0.01531845770747684 0.00013346578914916657 0 -0.014378379697438782 -4.5864463277973187e-05 0 -0.018802431119958152 -0.0012776666799620892 0 -0.0084027252018968861 -1.1100816094822354e-05 0 -0.0080601236861108268 0.00037803093338156882 0 -0.0079760125691089555 -0.00026349146239591488 0 -0.035575555430100929 -0.003107288146972332 0 -0.035258271366779212 -0.0029307300673675793 0 -0.03509488862182291 -0.0032972491204423717 0 -0.020288613110497601 -0.0009105047361017243 0 -0.019664594305263221 -0.0014140057528813348 0 -0.018607867917322558 -0.0016932803497149628 0 -0.018521428846149008 -0.0017505839479413929 0 -0.018686636613238428 -0.0017177676952823673 0 -0.018802431119958152 -0.0012776666799620892 0 -0.020288613110497601 -0.0009105047361017243 0 -0.037194802746999343 -0.0009971541692674786 0 -0.035868549925452298 -0.0021173437508849213 0 -0.036192868178834603 -0.0012550000703145632 0 -0.035575555430100929 -0.003107288146972332 0 -0.035463817520053335 -0.0026563170304221562 0 -0.035868549925452298 -0.0021173437508849213 0 -0.035463817520053335 -0.0026563170304221562 0 -0.035258271366779212 -0.0029307300673675793 0 -0.03515207899153077 -0.0024806033829515963 0 -0.037194802746999343 -0.0009971541692674786 0 -0.035575555430100929 -0.003107288146972332 0 -0.035868549925452298 -0.0021173437508849213 0 -0.035575555430100929 -0.003107288146972332 0 -0.035463817520053335 -0.0026563170304221562 0 -0.035258271366779212 -0.0029307300673675793 0 -0.027818335882891121 0.00078857067156664978 0 -0.020288613110497601 -0.0009105047361017243 0 -0.035463817520053335 -0.0026563170304221562 0 -0.035868549925452298 -0.0021173437508849213 0 -0.03515207899153077 -0.0024806033829515963 0 -0.03554838898732627 -0.0014780608180246242 0 -0.03498042833987787 -0.0016814691348830957 0 -0.03515207899153077 -0.0024806033829515963 0 -0.035868549925452298 -0.0021173437508849213 0 -0.03554838898732627 -0.0014780608180246242 0 -0.03515207899153077 -0.0024806033829515963 0 -0.035868549925452298 -0.0021173437508849213 0 -0.036192868178834603 -0.0012550000703145632 0 -0.03554838898732627 -0.0014780608180246242 0 -0.034132537167975145 -0.0011703429980368081 0 -0.03498042833987787 -0.0016814691348830957 0 -0.034458013403650282 -0.0021595832135237625 0 -0.034373768169461028 -0.0028948156894547045 0 -0.032206549928368994 -0.0035512861081738998 0 -0.03509488862182291 -0.0032972491204423717 0 -0.035089289418777848 -0.00074151411453405886 0 -0.03554838898732627 -0.0014780608180246242 0 -0.03498042833987787 -0.0016814691348830957 0 -0.033595559724528101 -0.0025027031242196821 0 -0.034373768169461028 -0.0028948156894547045 0 -0.032206549928368994 -0.0035512861081738998 0 -0.024893073234721532 -0.0026316908005492093 0 -0.019664594305263221 -0.0014140057528813348 0 -0.03498042833987787 -0.0016814691348830957 0 -0.034458013403650282 -0.0021595832135237625 0 -0.03515207899153077 -0.0024806033829515963 0 -0.034132537167975145 -0.0011703429980368081 0 -0.034458013403650282 -0.0021595832135237625 0 -0.033595559724528101 -0.0025027031242196821 0 -0.034458013403650282 -0.0021595832135237625 0 -0.033595559724528101 -0.0025027031242196821 0 -0.034373768169461028 -0.0028948156894547045 0 -0.035258271366779212 -0.0029307300673675793 0 -0.03497113053247277 -0.0029067882155454183 0 -0.03509488862182291 -0.0032972491204423717 0 -0.035258271366779212 -0.0029307300673675793 0 -0.03497113053247277 -0.0029067882155454183 0 -0.03515207899153077 -0.0024806033829515963 0 -0.034373768169461028 -0.0028948156894547045 0 -0.03497113053247277 -0.0029067882155454183 0 -0.03515207899153077 -0.0024806033829515963 0 -0.034373768169461028 -0.0028948156894547045 0 -0.03497113053247277 -0.0029067882155454183 0 -0.03509488862182291 -0.0032972491204423717 0 -0.034458013403650282 -0.0021595832135237625 0 -0.034373768169461028 -0.0028948156894547045 0 -0.03515207899153077 -0.0024806033829515963 0 -0.032210834739123152 -0.0016258343627652857 0 -0.033595559724528101 -0.0025027031242196821 0 -0.032206549928368994 -0.0035512861081738998 0 -0.032210834739123152 -0.0016258343627652857 0 -0.034132537167975145 -0.0011703429980368081 0 -0.033595559724528101 -0.0025027031242196821 0 -0.023603281871106177 -0.002334222436497578 0 -0.023418110309765369 -0.0034214922398709061 0 -0.02556934248182724 -0.0028902384389239465 0 -0.0070412601170117255 -0.0025358125012566635 0 -0.0066568564363093689 -0.0023107756809713901 0 -0.0071935386931833659 -0.0017977211137788596 0 -0.02196435803773315 -0.0028225804738597699 0 -0.023603281871106177 -0.002334222436497578 0 -0.023418110309765369 -0.0034214922398709061 0 -0.0070412601170117255 -0.0025358125012566635 0 -0.0062749295315766397 -0.0026445825253507711 0 -0.0066568564363093689 -0.0023107756809713901 0 -0.016004185695170602 -0.002673451802718154 0 -0.019664594305263221 -0.0014140057528813348 0 -0.0062095354984021906 -0.0026245160210198433 0 -0.0062749295315766397 -0.0026445825253507711 0 -0.0066568564363093689 -0.0023107756809713901 0 -0.018802431119958152 -0.0012776666799620892 0 -0.019664594305263221 -0.0014140057528813348 0 -0.018802431119958152 -0.0012776666799620892 0 -0.012695464927219615 -0.0031477822625243929 0 -0.0080601236861108268 0.00037803093338156882 0 -0.0075065291848269832 -0.00044162031838829716 0 -0.0079760125691089555 -0.00026349146239591488 0 -0.0079760125691089555 -0.00026349146239591488 0 -0.0076353150203215016 -0.00099144025865741743 0 -0.0082075864368261319 -0.00059342789129552371 0 -0.0075065291848269832 -0.00044162031838829716 0 -0.0079760125691089555 -0.00026349146239591488 0 -0.0076353150203215016 -0.00099144025865741743 0 -0.0075065291848269832 -0.00044162031838829716 0 -0.0076353150203215016 -0.00099144025865741743 0 -0.0071935386931833659 -0.0017977211137788596 0 -0.0076353150203215016 -0.00099144025865741743 0 -0.0071935386931833659 -0.0017977211137788596 0 -0.00736036713132379 -0.0014625753696950131 0 -0.012695464927219615 -0.0031477822625243929 0 -0.011237634641216552 -0.0034676471739440167 0 -0.0076353150203215016 -0.00099144025865741743 0 -0.0074923884112692617 -0.0013760142745074455 0 -0.00736036713132379 -0.0014625753696950131 0 -0.0073133158369731773 -0.0016219678698695221 0 -0.0071935386931833659 -0.0017977211137788596 0 -0.00736036713132379 -0.0014625753696950131 0 -0.0073133158369731773 -0.0016219678698695221 0 -0.0074923884112692617 -0.0013760142745074455 0 -0.00736036713132379 -0.0014625753696950131 0 -0.0076353150203215016 -0.00099144025865741743 0 -0.0079265728650621207 -0.0011656040230129533 0 -0.0082075864368261319 -0.00059342789129552371 0 -0.0076353150203215016 -0.00099144025865741743 0 -0.0074923884112692617 -0.0013760142745074455 0 -0.0079265728650621207 -0.0011656040230129533 0 -0.0084926926066640953 -0.0010024156644457139 0 -0.0087034332097748052 -0.00029976969122075221 0 -0.0082075864368261319 -0.00059342789129552371 0 -0.0079265728650621207 -0.0011656040230129533 0 -0.0084926926066640953 -0.0010024156644457139 0 -0.0082075864368261319 -0.00059342789129552371 0 -0.0084926926066640953 -0.0010024156644457139 0 -0.0092771911594646574 -0.00049751715316761688 0 -0.0087034332097748052 -0.00029976969122075221 0 -0.008748387179580543 -0.0012961986391599389 0 -0.0084926926066640953 -0.0010024156644457139 0 -0.0092771911594646574 -0.00049751715316761688 0 -0.0090474279334474914 0.00061071124744517633 0 -0.0092771911594646574 -0.00049751715316761688 0 -0.0087034332097748052 -0.00029976969122075221 0 -0.0090474279334474914 0.00061071124744517633 0 -0.0084027252018968861 -1.1100816094822354e-05 0 -0.0087034332097748052 -0.00029976969122075221 0 -0.0084027252018968861 -1.1100816094822354e-05 0 -0.0087034332097748052 -0.00029976969122075221 0 -0.0082075864368261319 -0.00059342789129552371 0 -0.0084027252018968861 -1.1100816094822354e-05 0 -0.0079760125691089555 -0.00026349146239591488 0 -0.0082075864368261319 -0.00059342789129552371 0 -0.010294709864919611 0.0065292661620892159 0 -0.0092736303595869572 0.0036534800662652253 0 -0.012851964946132553 0.0029514753510247365 0 -0.010294709864919611 0.0065292661620892159 0 -0.0063870999573351333 0.0043978382763566774 0 -0.0092736303595869572 0.0036534800662652253 0 -0.020832950866118596 0.0048260137804191595 0 -0.022214338529123419 0.0057952282957361339 0 -0.010294709864919611 0.0065292661620892159 0 -0.01462214830310871 0.0069409944423511087 0 -0.012851964946132553 0.0029514753510247365 0 -0.01462214830310871 0.0069409944423511087 0 -0.012851964946132553 0.0029514753510247365 0 -0.017855465905174294 0.0062050413107878578 0 -0.010294709864919611 0.0065292661620892159 0 -0.012652229757859984 0.008425112997944996 0 -0.01462214830310871 0.0069409944423511087 0 -0.012652229757859984 0.008425112997944996 0 -0.01462214830310871 0.0069409944423511087 0 -0.014394172863905014 0.009846271408733254 0 -0.01462214830310871 0.0069409944423511087 0 -0.014394172863905014 0.009846271408733254 0 -0.017866579172472769 0.0086721896156359193 0 -0.01462214830310871 0.0069409944423511087 0 -0.017855465905174294 0.0062050413107878578 0 -0.017866579172472769 0.0086721896156359193 0 -0.014394172863905014 0.009846271408733254 0 -0.017866579172472769 0.0086721896156359193 0 -0.016447774032090124 0.01163834000793615 0 -0.012652229757859984 0.008425112997944996 0 -0.014394172863905014 0.009846271408733254 0 -0.011385246410024219 0.010894664824811755 0 -0.014394172863905014 0.009846271408733254 0 -0.011385246410024219 0.010894664824811755 0 -0.013632156608044668 0.01254970814955624 0 -0.010294709864919611 0.0065292661620892159 0 -0.011385246410024219 0.010894664824811755 0 -0.0064499080563361622 0.010155452841658152 0 -0.010294709864919611 0.0065292661620892159 0 -0.012652229757859984 0.008425112997944996 0 -0.011385246410024219 0.010894664824811755 0 -0.0078341465049930614 0.011657159818075878 0 -0.0045752107736098269 0.010707425269962344 0 -0.0063870999573351333 0.0043978382763566774 0 -0.0078341465049930614 0.011657159818075878 0 -0.0045752107736098269 0.010707425269962344 0 -0.0050582499986949279 0.014539974605891612 0 -0.0024071987145164418 0.0087610562715402206 0 -0.0045752107736098269 0.010707425269962344 0 -0.0012047511410276796 0.012806330049696026 0 -0.0024071987145164418 0.0087610562715402206 0 -0.0027617748229389542 0.0052050578352313623 0 -0.0063870999573351333 0.0043978382763566774 0 -0.0024071987145164418 0.0087610562715402206 0 -0.0045752107736098269 0.010707425269962344 0 -0.0063870999573351333 0.0043978382763566774 0 -0.0066698415694046997 0.011828149731461172 0 -0.0062660713398827433 0.0083500118791234521 0 -0.010294709864919611 0.0065292661620892159 0 -0.0064499080563361622 0.010155452841658152 0 -0.0063870999573351333 0.0043978382763566774 0 -0.0063870999573351333 0.0043978382763566774 0 -0.00257243162674127 0.0024706954683714108 0 -0.0077180356223341051 0.00097265601055343954 0 -0.0063870999573351333 0.0043978382763566774 0 -0.0077180356223341051 0.00097265601055343954 0 -0.0092736303595869572 0.0036534800662652253 0 -0.0027617748229389542 0.0052050578352313623 0 -0.0063870999573351333 0.0043978382763566774 0 -0.00257243162674127 0.0024706954683714108 0 -0.00257243162674127 0.0024706954683714108 0 -0.0077180356223341051 0.00097265601055343954 0 -0.003208675601457647 -0.0018841919092160598 0 -0.018623553626487006 0.0034542575987267128 0 -0.016095060861120745 0.0017773556239702056 0 -0.031042130464691418 0.0059658131529028097 0 -0.031845603017369863 0.0059648614398878381 0 -0.029515500953638332 0.0062563372970684313 0 -0.028677237461793476 0.0062761542970335817 0 -0.029465496958019647 0.0065095360261508053 0 -0.029515500953638332 0.0062563372970684313 0 -0.027799434179253745 0.0049099698452347877 0 -0.028677237461793476 0.0062761542970335817 0 -0.018623553626487006 0.0034542575987267128 0 -0.020832950866118596 0.0048260137804191595 0 -0.0077180356223341051 0.00097265601055343954 0 -0.0092736303595869572 0.0036534800662652253 0 -0.012851964946132553 0.0029514753510247365 0 -0.027799434179253745 0.0049099698452347877 0 -0.026461581321986199 0.0057743897197561223 0 -0.028677237461793476 0.0062761542970335817 0 -0.027799434179253745 0.0049099698452347877 0 -0.026461581321986199 0.0057743897197561223 0 -0.024852845892547933 0.005343887500649314 0 -0.026461581321986199 0.0057743897197561223 0 -0.028677237461793476 0.0062761542970335817 0 -0.026254935586031192 0.0069848851222355981 0 -0.028677237461793476 0.0062761542970335817 0 -0.026254935586031192 0.0069848851222355981 0 -0.03099564123406702 0.0078853672069419678 0 -0.028886083948691986 0.0063358321077492362 0 -0.027276503826977761 0.0064545825404037308 0 -0.026677430606691529 0.0058520976359760311 0 -0.028886083948691986 0.0063358321077492362 0 -0.027276503826977761 0.0064545825404037308 0 -0.027737680636064688 0.0075091228990585585 0 -0.025911144656478261 0.0066394607243623026 0 -0.025857472625734387 0.0074515188023366536 0 -0.0269570267746801 0.0076726925482890739 0 -0.025901059145363919 0.0061881262711314293 0 -0.027276503826977761 0.0064545825404037308 0 -0.027737680636064688 0.0075091228990585585 0 -0.025901059145363919 0.0061881262711314293 0 -0.025911144656478261 0.0066394607243623026 0 -0.0269570267746801 0.0076726925482890739 0 -0.027419170237256364 0.0065584242756700981 0 -0.028150367063705082 0.0071422800735668245 0 -0.025911144656478261 0.0066394607243623026 0 -0.02498762666481278 0.0071675023695060396 0 -0.025857472625734387 0.0074515188023366536 0 -0.025901059145363919 0.0061881262711314293 0 -0.027276503826977761 0.0064545825404037308 0 -0.026677430606691529 0.0058520976359760311 0 -0.025901059145363919 0.0061881262711314293 0 -0.025911144656478261 0.0066394607243623026 0 -0.025646224776189008 0.0053203838992882261 0 -0.025901059145363919 0.0061881262711314293 0 -0.026677430606691529 0.0058520976359760311 0 -0.025646224776189008 0.0053203838992882261 0 -0.026677430606691529 0.0058520976359760311 0 -0.026459680236450071 0.0051372540245966259 0 -0.025646224776189008 0.0053203838992882261 0 -0.028886083948691986 0.0063358321077492362 0 -0.026677430606691529 0.0058520976359760311 0 -0.026459680236450071 0.0051372540245966259 0 -0.026461581321986199 0.0057743897197561223 0 -0.026254935586031192 0.0069848851222355981 0 -0.024958362794511704 0.0056688690461804995 0 -0.026254935586031192 0.0069848851222355981 0 -0.023498057633926411 0.0054011362372445434 0 -0.024958362794511704 0.0056688690461804995 0 -0.023498057633926411 0.0054011362372445434 0 -0.024958362794511704 0.0056688690461804995 0 -0.023810963272541331 0.0053468060573229944 0 -0.027346988197159101 0.0065109537199672185 0 -0.026109292840511104 0.0057555519938428997 0 -0.026461581321986199 0.0057743897197561223 0 -0.024958362794511704 0.0056688690461804995 0 -0.024852845892547933 0.005343887500649314 0 0.0065516138883270339 0.011958512475023709 0 0.0071028610712664713 0.013102601356633664 0 -0.023784679439651159 0.0072904639004924545 0 -0.024451411197234013 0.006106672697845008 0 -0.023258751546196856 0.0053406483258334027 0 -0.023784679439651159 0.0072904639004924545 0 -0.023258751546196856 0.0053406483258334027 0 -0.022064447312311986 0.007624761996693691 0 -0.023784679439651159 0.0072904639004924545 0 -0.024451411197234013 0.006106672697845008 0 -0.02498762666481278 0.0071675023695060396 0 -0.025911144656478261 0.0066394607243623026 0 -0.02498762666481278 0.0071675023695060396 0 -0.025109956167465152 0.0061808557313999856 0 -0.024451411197234013 0.006106672697845008 0 -0.02498762666481278 0.0071675023695060396 0 -0.025109956167465152 0.0061808557313999856 0 -0.0083195486075449306 0.011133014024523808 0 -0.0051076534995240803 0.011256119845096274 0 -0.024451411197234013 0.006106672697845008 0 -0.02506926149098981 0.0048072848430514943 0 -0.023258751546196856 0.0053406483258334027 0 -0.025911144656478261 0.0066394607243623026 0 -0.025109956167465152 0.0061808557313999856 0 -0.02506926149098981 0.0048072848430514943 0 -0.024451411197234013 0.006106672697845008 0 -0.025109956167465152 0.0061808557313999856 0 -0.02506926149098981 0.0048072848430514943 0 0.039297613090041116 0.016727051741718731 0 0.039292884777668589 0.016226062515270721 0 0.038608975611305128 0.015979690736209154 0 0.0065516138883270339 0.011958512475023709 0 0.0054111227071692745 0.012207391765201317 0 0.039297613090041116 0.016727051741718731 0 0.039292884777668589 0.016226062515270721 0 0.039789386707516097 0.0164181073841945 0 0.039292884777668589 0.016226062515270721 0 0.039131475403170156 0.015796398679268443 0 0.039550908905489367 0.015995243884365767 0 0.039292884777668589 0.016226062515270721 0 0.038608975611305128 0.015979690736209154 0 0.039131475403170156 0.015796398679268443 0 -0.0051076534995240803 0.011256119845096274 0 0.0054111227071692745 0.012207391765201317 0 -0.025646224776189008 0.0053203838992882261 0 -0.025202243384338269 0.0055964139652425931 0 -0.025016212909495635 0.0056668663302816454 0 -0.02506926149098981 0.0048072848430514943 0 -0.023258751546196856 0.0053406483258334027 0 -0.024379703356406969 0.0030780640180347323 0 0.036279542368257263 0.019981254504058757 0 0.034486954720509978 0.016404580223523275 0 0.037467429617986804 0.016871612635000959 0 0.0054111227071692745 0.012207391765201317 0 0.0036884105453140752 0.019264759226161794 0 -0.025016212909495635 0.0056668663302816454 0 -0.024298752466771219 0.0060274088904912707 0 -0.024304560932811865 0.0079429916359272709 0 -0.025202243384338269 0.0055964139652425931 0 -0.025016212909495635 0.0056668663302816454 0 -0.024304560932811865 0.0079429916359272709 0 0.0054111227071692745 0.012207391765201317 0 0.018073861518123253 0.010826266976493271 0 0.038608975611305128 0.015979690736209154 0 0.039131475403170156 0.015796398679268443 0 0.038664022777852629 0.015115008672880804 0 0.039131475403170156 0.015796398679268443 0 0.038664022777852629 0.015115008672880804 0 0.039629228668967849 0.015580198704518293 0 0.039131475403170156 0.015796398679268443 0 0.039550908905489367 0.015995243884365767 0 0.039629228668967849 0.015580198704518293 0 -0.027799434179253745 0.0049099698452347877 0 -0.024852845892547933 0.005343887500649314 0 -0.02219240353122311 0.005672165744105207 0 -0.012851964946132553 0.0029514753510247365 0 -0.017855465905174294 0.0062050413107878578 0 -0.02219240353122311 0.005672165744105207 0 -0.023564456306220283 0.0054376293948258303 0 -0.024852845892547933 0.005343887500649314 0 -0.02219240353122311 0.005672165744105207 0 -0.023564456306220283 0.0054376293948258303 0 -0.02301348971452747 0.0055354071371271343 0 -0.023326041311178613 0.005501908622471516 0 -0.02301348971452747 0.0055354071371271343 0 -0.0228995692174165 0.0056931912016417313 0 -0.023326041311178613 0.005501908622471516 0 -0.02301348971452747 0.0055354071371271343 0 -0.0228995692174165 0.0056931912016417313 0 -0.02219240353122311 0.005672165744105207 0 -0.023564456306220283 0.0054376293948258303 0 -0.02301348971452747 0.0055354071371271343 0 -0.02219240353122311 0.005672165744105207 0 -0.023564456306220283 0.0054376293948258303 0 -0.023810963272541331 0.0053468060573229944 0 -0.023326041311178613 0.005501908622471516 0 -0.023564456306220283 0.0054376293948258303 0 -0.024852845892547933 0.005343887500649314 0 -0.023810963272541331 0.0053468060573229944 0 -0.024958362794511704 0.0056688690461804995 0 -0.024852845892547933 0.005343887500649314 0 -0.023810963272541331 0.0053468060573229944 0 -0.023498057633926411 0.0054011362372445434 0 -0.023617500162822505 0.0054110430180724202 0 -0.023993473976914707 0.0055893323226262059 0 -0.026459680236450071 0.0051372540245966259 0 -0.025646224776189008 0.0053203838992882261 0 -0.025016212909495635 0.0056668663302816454 0 -0.023498057633926411 0.0054011362372445434 0 -0.025016212909495635 0.0056668663302816454 0 -0.023993473976914707 0.0055893323226262059 0 -0.026109292840511104 0.0057555519938428997 0 -0.025838494881025562 0.005690603322146345 0 -0.023810963272541331 0.0053468060573229944 0 -0.023617500162822505 0.0054110430180724202 0 -0.023326041311178613 0.005501908622471516 0 -0.023498057633926411 0.0054011362372445434 0 -0.023810963272541331 0.0053468060573229944 0 -0.023617500162822505 0.0054110430180724202 0 -0.025016212909495635 0.0056668663302816454 0 -0.023993473976914707 0.0055893323226262059 0 -0.024298752466771219 0.0060274088904912707 0 -0.023993473976914707 0.0055893323226262059 0 -0.023326041311178613 0.005501908622471516 0 -0.023641580083110653 0.0061498473522731264 0 -0.023617500162822505 0.0054110430180724202 0 -0.023993473976914707 0.0055893323226262059 0 -0.023326041311178613 0.005501908622471516 0 -0.023326041311178613 0.005501908622471516 0 -0.023162996712719049 0.0058682881078206016 0 -0.023641580083110653 0.0061498473522731264 0 -0.0228995692174165 0.0056931912016417313 0 -0.023326041311178613 0.005501908622471516 0 -0.023162996712719049 0.0058682881078206016 0 -0.0040649770586130918 0.01878942902877867 0 0.0036884105453140752 0.019264759226161794 0 -0.023162996712719049 0.0058682881078206016 0 -0.023641580083110653 0.0061498473522731264 0 -0.022690583601303198 0.0062614773819287027 0 -0.023641580083110653 0.0061498473522731264 0 -0.024298752466771219 0.0060274088904912707 0 -0.024304560932811865 0.0079429916359272709 0 -0.022690583601303198 0.0062614773819287027 0 -0.022627180985944507 0.011260152997778617 0 -0.026588269870697828 0.013356145580390139 0 -0.023641580083110653 0.0061498473522731264 0 -0.022690583601303198 0.0062614773819287027 0 -0.024304560932811865 0.0079429916359272709 0 -0.023993473976914707 0.0055893323226262059 0 -0.023641580083110653 0.0061498473522731264 0 -0.024298752466771219 0.0060274088904912707 0 -0.020862144556156981 0.0099133624913238655 0 -0.022690583601303198 0.0062614773819287027 0 -0.022627180985944507 0.011260152997778617 0 -0.020862144556156981 0.0099133624913238655 0 -0.021231118299243207 0.0074822815182160321 0 -0.019949550339297781 0.0086152441899141827 0 -0.020862144556156981 0.0099133624913238655 0 -0.021231118299243207 0.0074822815182160321 0 -0.022690583601303198 0.0062614773819287027 0 -0.021231118299243207 0.0074822815182160321 0 -0.019827259286093628 0.0073582383104658167 0 -0.019949550339297781 0.0086152441899141827 0 -0.021231118299243207 0.0074822815182160321 0 -0.02219240353122311 0.005672165744105207 0 -0.019827259286093628 0.0073582383104658167 0 -0.0228995692174165 0.0056931912016417313 0 -0.02219240353122311 0.005672165744105207 0 -0.022690583601303198 0.0062614773819287027 0 -0.021231118299243207 0.0074822815182160321 0 -0.02219240353122311 0.005672165744105207 0 -0.022690583601303198 0.0062614773819287027 0 -0.0228995692174165 0.0056931912016417313 0 -0.023162996712719049 0.0058682881078206016 0 -0.022690583601303198 0.0062614773819287027 0 -0.017855465905174294 0.0062050413107878578 0 -0.019827259286093628 0.0073582383104658167 0 -0.017866579172472769 0.0086721896156359193 0 -0.017855465905174294 0.0062050413107878578 0 -0.02219240353122311 0.005672165744105207 0 -0.019827259286093628 0.0073582383104658167 0 -0.019827259286093628 0.0073582383104658167 0 -0.017866579172472769 0.0086721896156359193 0 -0.019949550339297781 0.0086152441899141827 0 -0.017866579172472769 0.0086721896156359193 0 -0.018910609822187573 0.010433877969457361 0 -0.016447774032090124 0.01163834000793615 0 -0.017866579172472769 0.0086721896156359193 0 -0.019949550339297781 0.0086152441899141827 0 -0.018910609822187573 0.010433877969457361 0 -0.020862144556156981 0.0099133624913238655 0 -0.019949550339297781 0.0086152441899141827 0 -0.018910609822187573 0.010433877969457361 0 -0.018910609822187573 0.010433877969457361 0 -0.019118413537561718 0.013056793815458545 0 -0.016447774032090124 0.01163834000793615 0 -0.020862144556156981 0.0099133624913238655 0 -0.018910609822187573 0.010433877969457361 0 -0.019118413537561718 0.013056793815458545 0 -0.019118413537561718 0.013056793815458545 0 -0.018213315088970276 0.017547212378775448 0 -0.015170533371778564 0.015064551023015987 0 -0.019118413537561718 0.013056793815458545 0 -0.021565025558854072 0.014962017144197193 0 -0.018213315088970276 0.017547212378775448 0 -0.019118413537561718 0.013056793815458545 0 -0.021565025558854072 0.014962017144197193 0 -0.022627180985944507 0.011260152997778617 0 -0.020862144556156981 0.0099133624913238655 0 -0.019118413537561718 0.013056793815458545 0 -0.022627180985944507 0.011260152997778617 0 -0.021565025558854072 0.014962017144197193 0 -0.022627180985944507 0.011260152997778617 0 -0.026588269870697828 0.013356145580390139 0 -0.021565025558854072 0.014962017144197193 0 -0.026588269870697828 0.013356145580390139 0 -0.022523799846125864 0.020398076779815769 0 0.0036884105453140752 0.019264759226161794 0 0.0013206073841178633 0.026776758494267267 0 0.017527858003335041 0.048294777921305765 0 0.014435606843948002 0.042387684006586164 0 0.018092459528922442 0.042105146168529034 0 -0.021565025558854072 0.014962017144197193 0 -0.022523799846125864 0.020398076779815769 0 -0.018213315088970276 0.017547212378775448 0 -0.022523799846125864 0.020398076779815769 0 -0.018213315088970276 0.017547212378775448 0 -0.017210117164989998 0.022119644224942146 0 0.038664022777852629 0.015115008672880804 0 0.039846856066412424 0.015071765156924618 0 0.0397559164571583 0.014263000135539858 0 0.018073861518123253 0.010826266976493271 0 0.021823360671498503 0.010327456999670958 0 0.038664022777852629 0.015115008672880804 0 0.039629228668967849 0.015580198704518293 0 0.039846856066412424 0.015071765156924618 0 0.034486954720509978 0.016404580223523275 0 0.037467429617986804 0.016871612635000959 0 0.036844170182656205 0.013522882416250047 0 0.017527858003335041 0.048294777921305765 0 0.021340579977833098 0.043426524490080665 0 0.018092459528922442 0.042105146168529034 0 0.0036884105453140752 0.019264759226161794 0 0.018877718789977672 0.021667632276492516 0 0.037467429617986804 0.016871612635000959 0 0.036844170182656205 0.013522882416250047 0 0.038656575799423255 0.013756780647192738 0 0.038664022777852629 0.015115008672880804 0 0.038656575799423255 0.013756780647192738 0 0.0397559164571583 0.014263000135539858 0 0.036844170182656205 0.013522882416250047 0 0.038656575799423255 0.013756780647192738 0 0.03850262256384742 0.012677996889150027 0 0.038656575799423255 0.013756780647192738 0 0.039216245844452963 0.012749176644452893 0 0.03850262256384742 0.012677996889150027 0 0.038656575799423255 0.013756780647192738 0 0.039216245844452963 0.012749176644452893 0 0.039447819235793609 0.013501478021197106 0 0.038656575799423255 0.013756780647192738 0 0.039447819235793609 0.013501478021197106 0 0.0397559164571583 0.014263000135539858 0 0.021340579977833098 0.043426524490080665 0 0.025338833908578461 0.038567479231242173 0 0.02491332250645923 0.038782220411585036 0 0.036844170182656205 0.013522882416250047 0 0.038723630401323358 0.011248648268207432 0 0.03850262256384742 0.012677996889150027 0 0.021340579977833098 0.043426524490080665 0 0.02491332250645923 0.038782220411585036 0 0.020710935779905924 0.03908366050342494 0 0.018877718789977672 0.021667632276492516 0 0.028243232113575843 0.021899077738587115 0 0.025368503691583447 0.038582628384440876 0 0.02491332250645923 0.038782220411585036 0 0.025058303185069662 0.037547759643072186 0 0.028243232113575843 0.021899077738587115 0 0.028204204677804889 0.021939064263891771 0 0.038723630401323358 0.011248648268207432 0 0.03895940244003044 0.012126209922885501 0 0.039609580957875187 0.011707659075208651 0 0.03895940244003044 0.012126209922885501 0 0.039216245844452963 0.012749176644452893 0 0.039609580957875187 0.011707659075208651 0 0.038723630401323358 0.011248648268207432 0 0.03895940244003044 0.012126209922885501 0 0.03850262256384742 0.012677996889150027 0 0.03895940244003044 0.012126209922885501 0 0.039216245844452963 0.012749176644452893 0 0.03850262256384742 0.012677996889150027 0 0.02491332250645923 0.038782220411585036 0 0.020710935779905924 0.03908366050342494 0 0.023717974182705985 0.036833785674038666 0 0.021340579977833098 0.043426524490080665 0 0.020710935779905924 0.03908366050342494 0 0.018092459528922442 0.042105146168529034 0 0.020710935779905924 0.03908366050342494 0 0.018092459528922442 0.042105146168529034 0 0.016683397296118514 0.038087525684392207 0 0.020332621838540243 0.035875872669995673 0 0.022947505922525334 0.034091378698362602 0 0.017467955494509649 0.033373894486702353 0 0.020332621838540243 0.035875872669995673 0 0.016683397296118514 0.038087525684392207 0 0.017467955494509649 0.033373894486702353 0 0.020710935779905924 0.03908366050342494 0 0.020332621838540243 0.035875872669995673 0 0.016683397296118514 0.038087525684392207 0 0.020710935779905924 0.03908366050342494 0 0.020332621838540243 0.035875872669995673 0 0.023717974182705985 0.036833785674038666 0 0.023717974182705985 0.036833785674038666 0 0.022947505922525334 0.034091378698362602 0 0.025726335750208291 0.035834256913800891 0 0.020332621838540243 0.035875872669995673 0 0.023717974182705985 0.036833785674038666 0 0.022947505922525334 0.034091378698362602 0 0.022947505922525334 0.034091378698362602 0 0.025726335750208291 0.035834256913800891 0 0.026630061686851329 0.033434055491435889 0 0.025726335750208291 0.035834256913800891 0 0.025058303185069662 0.037547759643072186 0 0.026257722245158942 0.037642711977005743 0 0.023717974182705985 0.036833785674038666 0 0.025726335750208291 0.035834256913800891 0 0.025058303185069662 0.037547759643072186 0 0.02491332250645923 0.038782220411585036 0 0.023717974182705985 0.036833785674038666 0 0.025058303185069662 0.037547759643072186 0 0.025368503691583447 0.038582628384440876 0 0.025058303185069662 0.037547759643072186 0 0.026257722245158942 0.037642711977005743 0 0.028243232113575843 0.021899077738587115 0 0.028005044532237414 0.022328377554503776 0 0.0013206073841178633 0.026776758494267267 0 0.00011829307350604054 0.027888764772686963 0 -0.022523799846125864 0.020398076779815769 0 -0.017210117164989998 0.022119644224942146 0 -0.018388328637603504 0.028018906153389655 0 0.014435606843948002 0.042387684006586164 0 0.018092459528922442 0.042105146168529034 0 0.016683397296118514 0.038087525684392207 0 0.014435606843948002 0.042387684006586164 0 0.016683397296118514 0.038087525684392207 0 0.011263536092009054 0.036349036264824233 0 0.00011829307350604054 0.027888764772686963 0 0.011628015975610778 0.028548814256694092 0 0.016683397296118514 0.038087525684392207 0 0.011263536092009054 0.036349036264824233 0 0.017467955494509649 0.033373894486702353 0 0.0052201173057872868 0.039400469336319424 0 0.014898383673234478 0.034670253021893686 0 0.0074710509922888959 0.032273700389418639 0 0.00011829307350604054 0.027888764772686963 0 -0.00046792112690969401 0.027426677945376156 0 -0.0052337366399118328 0.023178084587136893 0 -0.0049309595698020904 0.02324753956549239 0 -0.0046565334888393015 0.02364733015100887 0 -0.0049309595698020904 0.02324753956549239 0 -0.005837350227256571 0.023164971884242713 0 -0.0055092446890530585 0.023007761463791382 0 0.00011829307350604054 0.027888764772686963 0 -0.0037797638463454419 0.027757785786054309 0 -0.0052337366399118328 0.023178084587136893 0 -0.0049309595698020904 0.02324753956549239 0 -0.0055092446890530585 0.023007761463791382 0 -0.005837350227256571 0.023164971884242713 0 -0.0049879466310995659 0.022970263359271187 0 -0.004230340494500536 0.023596059050722627 0 -0.0049309595698020904 0.02324753956549239 0 -0.005837350227256571 0.023164971884242713 0 -0.004230340494500536 0.023596059050722627 0 -0.007214539417770679 0.020269977629833021 0 -0.0071379916695589064 0.017573701167413424 0 -0.005837350227256571 0.023164971884242713 0 -0.00724421074810581 0.021989855524242548 0 -0.0055092446890530585 0.023007761463791382 0 -0.005837350227256571 0.023164971884242713 0 -0.00724421074810581 0.021989855524242548 0 -0.0068174759919552904 0.019169667418609204 0 -0.0043839745393843416 0.027382346391551213 0 -0.0037797638463454419 0.027757785786054309 0 -0.00724421074810581 0.021989855524242548 0 -0.013298636578041624 0.025557387837946196 0 -0.013481055788124625 0.019308531440931125 0 -0.017210117164989998 0.022119644224942146 0 -0.013298636578041624 0.025557387837946196 0 -0.013481055788124625 0.019308531440931125 0 -0.017210117164989998 0.022119644224942146 0 -0.018388328637603504 0.028018906153389655 0 -0.013298636578041624 0.025557387837946196 0 -0.018213315088970276 0.017547212378775448 0 -0.017210117164989998 0.022119644224942146 0 -0.013481055788124625 0.019308531440931125 0 -0.018213315088970276 0.017547212378775448 0 -0.013481055788124625 0.019308531440931125 0 -0.015170533371778564 0.015064551023015987 0 -0.013481055788124625 0.019308531440931125 0 -0.010805599334787133 0.015387239496343545 0 -0.015170533371778564 0.015064551023015987 0 -0.00724421074810581 0.021989855524242548 0 -0.013481055788124625 0.019308531440931125 0 -0.0094626227953112235 0.019047996562352291 0 -0.00724421074810581 0.021989855524242548 0 -0.0094626227953112235 0.019047996562352291 0 -0.0068174759919552904 0.019169667418609204 0 -0.0094626227953112235 0.019047996562352291 0 -0.010805599334787133 0.015387239496343545 0 -0.0068174759919552904 0.019169667418609204 0 -0.013481055788124625 0.019308531440931125 0 -0.0094626227953112235 0.019047996562352291 0 -0.010805599334787133 0.015387239496343545 0 -0.011385246410024219 0.010894664824811755 0 -0.0064499080563361622 0.010155452841658152 0 -0.010805599334787133 0.015387239496343545 0 -0.0064499080563361622 0.010155452841658152 0 -0.010805599334787133 0.015387239496343545 0 -0.0068174759919552904 0.019169667418609204 0 -0.011385246410024219 0.010894664824811755 0 -0.010805599334787133 0.015387239496343545 0 -0.013632156608044668 0.01254970814955624 0 -0.019118413537561718 0.013056793815458545 0 -0.016447774032090124 0.01163834000793615 0 -0.015170533371778564 0.015064551023015987 0 -0.013632156608044668 0.01254970814955624 0 -0.016447774032090124 0.01163834000793615 0 -0.015170533371778564 0.015064551023015987 0 -0.014394172863905014 0.009846271408733254 0 -0.013632156608044668 0.01254970814955624 0 -0.016447774032090124 0.01163834000793615 0 -0.010805599334787133 0.015387239496343545 0 -0.013632156608044668 0.01254970814955624 0 -0.015170533371778564 0.015064551023015987 0 -0.0045752107736098269 0.010707425269962344 0 -0.0050582499986949279 0.014539974605891612 0 -0.0012047511410276796 0.012806330049696026 0 -0.0050582499986949279 0.014539974605891612 0 -0.0012047511410276796 0.012806330049696026 0 -0.0014005430261372154 0.017648674533979544 0 -0.0078341465049930614 0.011657159818075878 0 -0.0050582499986949279 0.014539974605891612 0 -0.0077702964977044257 0.01887860106776303 0 -0.0066698415694046997 0.011828149731461172 0 -0.0071379916695589064 0.017573701167413424 0 -0.0050582499986949279 0.014539974605891612 0 -0.0077702964977044257 0.01887860106776303 0 -0.0051471078824004294 0.019070601634186307 0 -0.0026475418539663796 0.015178248480577345 0 -0.00066886621654558772 0.016525202478012473 0 -0.0050582499986949279 0.014539974605891612 0 -0.0051471078824004294 0.019070601634186307 0 -0.0031455308339513846 0.020196008619297205 0 -0.0048520837185934357 0.021760342735380706 0 -0.0041000621923723739 0.021855403096609237 0 -0.0031455308339513846 0.020196008619297205 0 -0.0051471078824004294 0.019070601634186307 0 -0.0048520837185934357 0.021760342735380706 0 -0.0031455308339513846 0.020196008619297205 0 -0.005837350227256571 0.023164971884242713 0 -0.0077702964977044257 0.01887860106776303 0 -0.0048520837185934357 0.021760342735380706 0 -0.0077702964977044257 0.01887860106776303 0 -0.0051471078824004294 0.019070601634186307 0 -0.0048520837185934357 0.021760342735380706 0 -0.0048520837185934357 0.021760342735380706 0 -0.0049879466310995659 0.022970263359271187 0 -0.0046637567685850513 0.02263072875776817 0 -0.005837350227256571 0.023164971884242713 0 -0.0048520837185934357 0.021760342735380706 0 -0.0049879466310995659 0.022970263359271187 0 -0.0048520837185934357 0.021760342735380706 0 -0.0041000621923723739 0.021855403096609237 0 -0.0046637567685850513 0.02263072875776817 0 -0.0041000621923723739 0.021855403096609237 0 -0.0044088123498494365 0.022220730622017747 0 -0.0046637567685850513 0.02263072875776817 0 0.0021313715735352024 0.021532285066003139 0 0.0051153205993758775 0.017321308315418456 0 -0.0014005430261372154 0.017648674533979544 0 -0.0041000621923723739 0.021855403096609237 0 -0.004255294282860706 0.022143041113140832 0 -0.0044088123498494365 0.022220730622017747 0 0.0033969602936860617 0.017139821307220637 0 -0.00066886621654558772 0.016525202478012473 0 -0.0041000621923723739 0.021855403096609237 0 -0.004255294282860706 0.022143041113140832 0 -0.0031455308339513846 0.020196008619297205 0 0.0033969602936860617 0.017139821307220637 0 0.010522673768334474 0.014238164068771592 0 0.0021313715735352024 0.021532285066003139 0 0.0076851013127136021 0.022071358782603984 0 0.00569324342303005 0.025541060224468635 0 0.023050825638721604 0.0082137366693315495 0 0.019557255148255983 0.0069506200756336428 0 0.020406511317830139 0.012393308105664635 0 0.023050825638721604 0.0082137366693315495 0 0.019557255148255983 0.0069506200756336428 0 0.023362669668618757 0.0055525950696745955 0 0.01164592163527922 0.013360230493357109 0 0.010943159919168673 0.012432419168614574 0 0.0076851013127136021 0.022071358782603984 0 0.0051153205993758775 0.017321308315418456 0 0.0097387192266197662 0.018546934230111421 0 0.0021313715735352024 0.021532285066003139 0 0.0076851013127136021 0.022071358782603984 0 0.0051153205993758775 0.017321308315418456 0 0.0051153205993758775 0.017321308315418456 0 0.0083301793205591244 0.015715227905453724 0 0.0097387192266197662 0.018546934230111421 0 0.0051153205993758775 0.017321308315418456 0 0.0083301793205591244 0.015715227905453724 0 0.0066163125248073183 0.01201552542661133 0 0.0083301793205591244 0.015715227905453724 0 0.0066163125248073183 0.01201552542661133 0 0.011855186819364583 0.014921599067028953 0 0.0091241104887147522 0.010747035527870381 0 0.0090390563018685997 0.009616751979237918 0 0.0051153205993758775 0.017321308315418456 0 0.0066163125248073183 0.01201552542661133 0 0.0022717950949774019 0.013947420736332192 0 0.0066163125248073183 0.01201552542661133 0 0.0022717950949774019 0.013947420736332192 0 0.0023655378837616611 0.0097903328938585086 0 0.0022717950949774019 0.013947420736332192 0 -0.0012047511410276796 0.012806330049696026 0 0.0023655378837616611 0.0097903328938585086 0 0.0051153205993758775 0.017321308315418456 0 0.0022717950949774019 0.013947420736332192 0 -0.0014005430261372154 0.017648674533979544 0 0.0022717950949774019 0.013947420736332192 0 -0.0012047511410276796 0.012806330049696026 0 -0.0014005430261372154 0.017648674533979544 0 -0.0014742654756627121 0.0061132172517698305 0 -0.0020642337323326736 0.0061871597348773935 0 -0.0018965289493514616 0.0057452581758328019 0 0.00072469443231415291 0.0074224690893387821 0 0.0032268212802831382 0.0083429617448063636 0 0.002846713950547434 0.0083576091060745018 0 0.0080854116483861198 0.011275796563291397 0 0.0054655277037015948 0.007825641850337647 0 0.0080854116483861198 0.011275796563291397 0 0.0077084512101005228 0.0068495212276957016 0 0.010154293014588674 0.0075930857901956774 0 0.0080854116483861198 0.011275796563291397 0 0.0054655277037015948 0.007825641850337647 0 0.0077084512101005228 0.0068495212276957016 0 0.0054655277037015948 0.007825641850337647 0 0.0055621145819269718 0.0056566971374390779 0 0.0077084512101005228 0.0068495212276957016 0 0.0055621145819269718 0.0056566971374390779 0 0.0077084512101005228 0.0068495212276957016 0 0.0069360580937356635 0.0043351056049909277 0 0.0077084512101005228 0.0068495212276957016 0 0.0069360580937356635 0.0043351056049909277 0 0.0092068985755229728 0.0047977611032817028 0 0.0077084512101005228 0.0068495212276957016 0 0.010154293014588674 0.0075930857901956774 0 0.0092068985755229728 0.0047977611032817028 0 0.010154293014588674 0.0075930857901956774 0 0.012577027757315926 0.0057253044105814123 0 0.012739604769592797 0.01007856623351323 0 0.010154293014588674 0.0075930857901956774 0 0.012577027757315926 0.0057253044105814123 0 0.0092068985755229728 0.0047977611032817028 0 0.0080854116483861198 0.011275796563291397 0 0.010154293014588674 0.0075930857901956774 0 0.012739604769592797 0.01007856623351323 0 0.0080854116483861198 0.011275796563291397 0 0.012739604769592797 0.01007856623351323 0 0.012997124051818212 0.014105930432270753 0 0.0032268212802831382 0.0083429617448063636 0 0.0058289908030585034 0.0090887216278710582 0 0.012739604769592797 0.01007856623351323 0 0.016316812814269863 0.012315298384342848 0 0.012997124051818212 0.014105930432270753 0 0.012739604769592797 0.01007856623351323 0 0.016316812814269863 0.012315298384342848 0 0.016082909635674544 0.0084205969408633549 0 0.012577027757315926 0.0057253044105814123 0 0.012739604769592797 0.01007856623351323 0 0.016082909635674544 0.0084205969408633549 0 0.012577027757315926 0.0057253044105814123 0 0.016082909635674544 0.0084205969408633549 0 0.015087000221890324 0.0032835181818274359 0 0.016082909635674544 0.0084205969408633549 0 0.019557255148255983 0.0069506200756336428 0 0.015087000221890324 0.0032835181818274359 0 0.016082909635674544 0.0084205969408633549 0 0.019557255148255983 0.0069506200756336428 0 0.020406511317830139 0.012393308105664635 0 0.016316812814269863 0.012315298384342848 0 0.016082909635674544 0.0084205969408633549 0 0.020406511317830139 0.012393308105664635 0 0.0083301793205591244 0.015715227905453724 0 0.0097387192266197662 0.018546934230111421 0 0.011855186819364583 0.014921599067028953 0 0.010943159919168673 0.012432419168614574 0 0.0090390563018685997 0.009616751979237918 0 0.016316812814269863 0.012315298384342848 0 0.020406511317830139 0.012393308105664635 0 0.017841055702735784 0.01678886669330041 0 0.011176803863104916 0.014311071768009179 0 0.013357586513396656 0.010416331522361523 0 0.01046764752967801 0.011361808004186456 0 0.0066163125248073183 0.01201552542661133 0 0.011176803863104916 0.014311071768009179 0 0.01046764752967801 0.011361808004186456 0 0.0090390563018685997 0.009616751979237918 0 0.0053961027061236134 0.0072037607677265438 0 -0.0033867166551289703 0.0054064984340223199 0 -0.0026966606398347143 0.005099007685474318 0 -0.0029831016470700106 0.004668713759822871 0 -0.0033867166551289703 0.0054064984340223199 0 -0.0027436298757040401 0.0057835461210265287 0 -0.0026966606398347143 0.005099007685474318 0 0.0090390563018685997 0.009616751979237918 0 0.0058289908030585034 0.0090887216278710582 0 0.016316812814269863 0.012315298384342848 0 0.017841055702735784 0.01678886669330041 0 0.012997124051818212 0.014105930432270753 0 -0.0027436298757040401 0.0057835461210265287 0 -0.0022841147876769179 0.0054604323298165771 0 -0.0026966606398347143 0.005099007685474318 0 -0.0020642337323326736 0.0061871597348773935 0 -0.0027436298757040401 0.0057835461210265287 0 -0.0022841147876769179 0.0054604323298165771 0 -0.0022841147876769179 0.0054604323298165771 0 -0.0026966606398347143 0.005099007685474318 0 -0.0022980734242891813 0.0048628079553636313 0 -0.0022980734242891813 0.0048628079553636313 0 -0.0017229448191249598 0.0052519742532399763 0 -0.0019380392608726127 0.0044871417923589511 0 -0.002144463074953066 0.0049496276243942185 0 -0.0036828968971839553 0.0028797129035212014 0 -0.0021798773139484863 0.0042001383560539059 0 -0.0021958059166233448 0.0049075863777133626 0 -0.0028054887477555216 0.0026638458958321049 0 -0.0022841147876769179 0.0054604323298165771 0 -0.0022980734242891813 0.0048628079553636313 0 -0.0017229448191249598 0.0052519742532399763 0 -0.0018363063350489799 0.0058291408079615345 0 -0.0021798773139484863 0.0042001383560539059 0 -0.0021958059166233448 0.0049075863777133626 0 -0.0022841147876769179 0.0054604323298165771 0 -0.0017229448191249598 0.0052519742532399763 0 -0.0018965289493514616 0.0057452581758328019 0 -0.0020642337323326736 0.0061871597348773935 0 -0.0022841147876769179 0.0054604323298165771 0 -0.0018965289493514616 0.0057452581758328019 0 -0.0014742654756627121 0.0061132172517698305 0 -0.0017229448191249598 0.0052519742532399763 0 -0.0018965289493514616 0.0057452581758328019 0 -0.0074855648011866735 -0.003645644986066396 0 -0.0055821953335353398 -0.0048516323657947441 0 -0.0058085066130404974 -0.0059823015311223507 0 -0.0021802144933760169 0.0040599378087396096 0 -0.0022487767931910212 0.0040544881290219695 0 -0.002283550440717048 0.003781809913995945 0 -0.0022487767931910212 0.0040544881290219695 0 -0.0020876780594779563 0.0044444033597967935 0 -0.0024878902456352417 0.0044667321938160623 0 -0.0038292202100903097 0.0028701051629785117 0 -0.004069970981375644 0.0023404556642455001 0 -0.0022487767931910212 0.0040544881290219695 0 -0.0021601940333318315 0.0041987962559373801 0 -0.002195868928512301 0.004247825462904641 0 -0.0021802144933760169 0.0040599378087396096 0 -0.0022487767931910212 0.0040544881290219695 0 -0.0021601940333318315 0.0041987962559373801 0 -0.0059542170618747149 0.00081242235559948934 0 -0.0047068015391000225 0.0016147206388642051 0 -0.0038131087455504195 0.0035884188049483262 0 -0.0040738918642469861 0.0023017943850360571 0 -0.0041721430691487515 0.0026913008327763117 0 -0.0029597761024111316 0.0038324902852107387 0 -0.0047068015391000225 0.0016147206388642051 0 -0.0040738918642469861 0.0023017943850360571 0 -0.0041721430691487515 0.0026913008327763117 0 -0.0042197846100941825 0.0025111120327546187 0 -0.0047068015391000225 0.0016147206388642051 0 -0.004069970981375644 0.0023404556642455001 0 -0.0036828968971839553 0.0028797129035212014 0 -0.004069970981375644 0.0023404556642455001 0 -0.0029597761024111316 0.0038324902852107387 0 -0.0036828968971839553 0.0028797129035212014 0 -0.0022980734242891813 0.0048628079553636313 0 -0.0019380392608726127 0.0044871417923589511 0 -0.0019671951697978977 0.0043798418265354033 0 -0.0040070722075173926 0.0027434986485993466 0 -0.004069970981375644 0.0023404556642455001 0 -0.0024878902456352417 0.0044667321938160623 0 -0.0025957643274724389 0.0040052374189182846 0 -0.0029831016470700106 0.004668713759822871 0 -0.0026966606398347143 0.005099007685474318 0 -0.0022980734242891813 0.0048628079553636313 0 -0.0024878902456352417 0.0044667321938160623 0 -0.0026966606398347143 0.005099007685474318 0 -0.0024878902456352417 0.0044667321938160623 0 -0.0029831016470700106 0.004668713759822871 0 -0.0022980734242891813 0.0048628079553636313 0 -0.0020876780594779563 0.0044444033597967935 0 -0.0024878902456352417 0.0044667321938160623 0 -0.0022487767931910212 0.0040544881290219695 0 -0.0024878902456352417 0.0044667321938160623 0 -0.0025957643274724389 0.0040052374189182846 0 -0.0022487767931910212 0.0040544881290219695 0 -0.0025957643274724389 0.0040052374189182846 0 -0.002283550440717048 0.003781809913995945 0 0.0024097218156333439 0.0036621653853210179 0 0.0053961027061236134 0.0072037607677265438 0 0.015486430112081048 0.006394195307853995 0 0.012648548161212055 0.0074457330788708833 0 0.011472108390018925 0.0046952228766322136 0 0.015486430112081048 0.006394195307853995 0 0.012648548161212055 0.0074457330788708833 0 0.013357586513396656 0.010416331522361523 0 0.012648548161212055 0.0074457330788708833 0 0.013357586513396656 0.010416331522361523 0 0.010301303922595879 0.0082687171376927202 0 0.013357586513396656 0.010416331522361523 0 0.01046764752967801 0.011361808004186456 0 0.010301303922595879 0.0082687171376927202 0 0.010301303922595879 0.0082687171376927202 0 0.011472108390018925 0.0046952228766322136 0 0.0067530624027635714 0.0064112549839921837 0 0.012648548161212055 0.0074457330788708833 0 0.010301303922595879 0.0082687171376927202 0 0.011472108390018925 0.0046952228766322136 0 0.0072974261567176832 0.0042892828610986084 0 0.0049938172943948169 0.003162287769310507 0 0.0120419313164873 0.00063341840901041198 0 0.0075076715948758426 0.001713632638913494 0 0.0087624423701599032 -0.0020597581494734736 0 0.011472108390018925 0.0046952228766322136 0 0.0120419313164873 0.00063341840901041198 0 0.0075076715948758426 0.001713632638913494 0 0.0120419313164873 0.00063341840901041198 0 0.0143968553444809 0.0031396480472708726 0 0.01498923803098101 0.00084815890609724997 0 0.0120419313164873 0.00063341840901041198 0 0.01498923803098101 0.00084815890609724997 0 0.014219156534803663 -0.0012084516628931392 0 0.015486430112081048 0.006394195307853995 0 0.011472108390018925 0.0046952228766322136 0 0.0143968553444809 0.0031396480472708726 0 0.011472108390018925 0.0046952228766322136 0 0.0120419313164873 0.00063341840901041198 0 0.0143968553444809 0.0031396480472708726 0 -0.0025957643274724389 0.0040052374189182846 0 -0.0023559933822512292 0.0036032951344501479 0 -0.002283550440717048 0.003781809913995945 0 0.0024097218156333439 0.0036621653853210179 0 -0.0036001351165387543 0.00057920566076254446 0 0.015486430112081048 0.006394195307853995 0 0.0143968553444809 0.0031396480472708726 0 0.017654406137378967 0.0023445347254934215 0 0.01498923803098101 0.00084815890609724997 0 0.017654406137378967 0.0023445347254934215 0 0.016489418746642559 -0.00061870885978286213 0 0.0143968553444809 0.0031396480472708726 0 0.01498923803098101 0.00084815890609724997 0 0.017654406137378967 0.0023445347254934215 0 -0.0022426457084613383 0.003400595476669677 0 -0.0022738264085832758 0.0035082503970037936 0 -0.002218451859838821 0.003642797811122095 0 -0.0036001351165387543 0.00057920566076254446 0 -0.020293079986602514 0.003804185393685649 0 -0.0023559933822512292 0.0036032951344501479 0 -0.0022738264085832758 0.0035082503970037936 0 -0.0022786901861559972 0.0033891498825505666 0 0.017654406137378967 0.0023445347254934215 0 0.019834014982413342 -0.0016885455049259789 0 0.016489418746642559 -0.00061870885978286213 0 -0.0023559933822512292 0.0036032951344501479 0 -0.0022738264085832758 0.0035082503970037936 0 -0.002218451859838821 0.003642797811122095 0 -0.0074855648011866735 -0.003645644986066396 0 -0.0055821953335353398 -0.0048516323657947441 0 -0.0062065538629171848 -0.0021315958196327194 0 -0.0022426744225150573 0.0039458168258685042 0 -0.002218451859838821 0.003642797811122095 0 -0.002283550440717048 0.003781809913995945 0 -0.0059542170618747149 0.00081242235559948934 0 -0.011208537663794151 0.00096115645524709524 0 -0.0023559933822512292 0.0036032951344501479 0 -0.002218451859838821 0.003642797811122095 0 -0.002283550440717048 0.003781809913995945 0 -0.0059542170618747149 0.00081242235559948934 0 -0.0055754973168086683 0.0016489157595764089 0 0.0023655378837616611 0.0097903328938585086 0 0.0067530624027635714 0.0064112549839921837 0 0.0010333691724914999 0.0049220661728278286 0 -0.0024071987145164418 0.0087610562715402206 0 -0.0027617748229389542 0.0052050578352313623 0 0.0010333691724914999 0.0049220661728278286 0 -0.0024071987145164418 0.0087610562715402206 0 0.0023655378837616611 0.0097903328938585086 0 0.0010333691724914999 0.0049220661728278286 0 -0.0024071987145164418 0.0087610562715402206 0 -0.0012047511410276796 0.012806330049696026 0 0.0023655378837616611 0.0097903328938585086 0 0.0066163125248073183 0.01201552542661133 0 0.0023655378837616611 0.0097903328938585086 0 0.0067530624027635714 0.0064112549839921837 0 0.0066163125248073183 0.01201552542661133 0 0.010301303922595879 0.0082687171376927202 0 0.0067530624027635714 0.0064112549839921837 0 0.0066163125248073183 0.01201552542661133 0 0.01046764752967801 0.011361808004186456 0 0.010301303922595879 0.0082687171376927202 0 0.0067530624027635714 0.0064112549839921837 0 0.0044089330150351366 0.0022116488952132075 0 0.0010333691724914999 0.0049220661728278286 0 0.011472108390018925 0.0046952228766322136 0 0.0067530624027635714 0.0064112549839921837 0 0.0083503114162182535 0.0014619324910309325 0 0.0067530624027635714 0.0064112549839921837 0 0.0083503114162182535 0.0014619324910309325 0 0.0044089330150351366 0.0022116488952132075 0 0.0049938172943948169 0.003162287769310507 0 -0.00066802201858085896 0.0013610649334034588 0 0.0083503114162182535 0.0014619324910309325 0 0.0044089330150351366 0.0022116488952132075 0 0.0048484933100798157 -0.0019355151495536998 0 0.0044089330150351366 0.0022116488952132075 0 0.00099238222212354437 0.00011625005995532093 0 0.0048484933100798157 -0.0019355151495536998 0 0.0044089330150351366 0.0022116488952132075 0 0.00099238222212354437 0.00011625005995532093 0 0.0010333691724914999 0.0049220661728278286 0 -0.00257243162674127 0.0024706954683714108 0 0.00099238222212354437 0.00011625005995532093 0 0.0010333691724914999 0.0049220661728278286 0 -0.0027617748229389542 0.0052050578352313623 0 -0.00257243162674127 0.0024706954683714108 0 0.0010333691724914999 0.0049220661728278286 0 -0.00257243162674127 0.0024706954683714108 0 0.00099238222212354437 0.00011625005995532093 0 -0.003208675601457647 -0.0018841919092160598 0 0.00099238222212354437 0.00011625005995532093 0 0.0012391416762374996 -0.005138072034388032 0 -0.003208675601457647 -0.0018841919092160598 0 -0.01196934813874366 -0.0013733790861377227 0 -0.016095060861120745 0.0017773556239702056 0 -0.028927077716264349 0.0062325053570071445 0 -0.02888747609216007 0.0062619652381688913 0 -0.029336777666885441 0.006476726430149779 0 -0.029158728023400776 0.0061769328613284951 0 -0.028927077716264349 0.0062325053570071445 0 -0.029336777666885441 0.006476726430149779 0 -0.029158728023400776 0.0061769328613284951 0 -0.028927077716264349 0.0062325053570071445 0 -0.028975260647314458 0.0061290697130327101 0 -0.028865253382091734 0.0061648462132857466 0 -0.028874948903082329 0.006274812234396028 0 -0.028739120328395221 0.0060813924215420553 0 -0.028911258542742464 0.0061495596425516549 0 -0.028927077716264349 0.0062325053570071445 0 -0.028975260647314458 0.0061290697130327101 0 -0.028865253382091734 0.0061648462132857466 0 -0.028911258542742464 0.0061495596425516549 0 -0.028927077716264349 0.0062325053570071445 0 -0.028865253382091734 0.0061648462132857466 0 -0.028927077716264349 0.0062325053570071445 0 -0.028874948903082329 0.006274812234396028 0 -0.01208499505760224 -0.0013987901588828041 0 -0.01196934813874366 -0.0013733790861377227 0 0.00099238222212354437 0.00011625005995532093 0 0.0012391416762374996 -0.005138072034388032 0 0.0048484933100798157 -0.0019355151495536998 0 -0.01196934813874366 -0.0013733790861377227 0 -0.00066802201858085896 0.0013610649334034588 0 0.0036323884833321099 -0.0014505319596608435 0 0.0061908413899378276 -0.0045345763626568579 0 0.0087624423701599032 -0.0020597581494734736 0 0.0075076715948758426 0.001713632638913494 0 0.0036323884833321099 -0.0014505319596608435 0 0.0087624423701599032 -0.0020597581494734736 0 0.0061908413899378276 -0.0045345763626568579 0 0.0042808331560014127 -0.0081343702748303548 0 0.0097298210838611763 -0.0059566450961804022 0 0.0061908413899378276 -0.0045345763626568579 0 0.0087624423701599032 -0.0020597581494734736 0 0.0097298210838611763 -0.0059566450961804022 0 0.0061908413899378276 -0.0045345763626568579 0 0.003589784864729305 -0.0047481726556897431 0 0.0042808331560014127 -0.0081343702748303548 0 -0.00021426267771826684 -0.0047177163184883991 0 0.0036323884833321099 -0.0014505319596608435 0 0.003589784864729305 -0.0047481726556897431 0 -0.00021426267771826684 -0.0047177163184883991 0 0.003589784864729305 -0.0047481726556897431 0 0.0042808331560014127 -0.0081343702748303548 0 0.0036323884833321099 -0.0014505319596608435 0 0.0061908413899378276 -0.0045345763626568579 0 0.003589784864729305 -0.0047481726556897431 0 -0.027338290346539056 0.00099423572397017721 0 -0.03436768340940824 0.00098232291854407857 0 -0.028440806584739301 0.0059605479839431623 0 -0.028739120328395221 0.0060813924215420553 0 -0.028755452923837466 0.0058411543474346161 0 -0.054016953580053893 -0.0038530645762703919 0 -0.056850087859252767 -0.00175647879511587 0 -0.059476990747792835 -0.0031076261949260294 0 -0.054016953580053893 -0.0038530645762703919 0 -0.059807141467270883 -0.0060452043619060357 0 -0.059476990747792835 -0.0031076261949260294 0 -0.027338290346539056 0.00099423572397017721 0 -0.026837339089592443 -0.0013997482501046372 0 -0.027338290346539056 0.00099423572397017721 0 -0.034116166753655378 0.0035937628384573833 0 -0.056850087859252767 -0.00175647879511587 0 -0.053677955616721416 -0.00043253507127868505 0 -0.057818365501471063 0.0013800503021258648 0 -0.054137554712283195 -0.0038613222843345233 0 -0.056850087859252767 -0.00175647879511587 0 -0.053677955616721416 -0.00043253507127868505 0 -0.054137554712283195 -0.0038613222843345233 0 -0.053677955616721416 -0.00043253507127868505 0 -0.050940475413731479 -0.002651748086633527 0 -0.053677955616721416 -0.00043253507127868505 0 -0.050940475413731479 -0.002651748086633527 0 -0.049944715005830531 0.0008708688181807649 0 -0.047795607251489472 -0.001448328907882931 0 -0.050940475413731479 -0.002651748086633527 0 -0.049944715005830531 0.0008708688181807649 0 -0.036375464810983422 0.0022851977570197959 0 -0.03436768340940824 0.00098232291854407857 0 -0.036375464810983422 0.0022851977570197959 0 -0.038618591822578714 0.0032106841657730703 0 -0.047399793720506789 -0.0019328889694987268 0 -0.046647393439542835 0.0028109807966937451 0 -0.042534913466049942 -1.8745895295262095e-05 0 -0.036375464810983422 0.0022851977570197959 0 -0.037066270853775771 0.0021527196682257495 0 -0.029158728023400776 0.0061769328613284951 0 -0.028998484393651356 0.0059945854704805427 0 -0.029367691484463981 0.0061764270540862996 0 -0.029058128482124329 0.0057383893502408988 0 -0.028998484393651356 0.0059945854704805427 0 -0.029367691484463981 0.0061764270540862996 0 -0.036375464810983422 0.0022851977570197959 0 -0.033039065443783218 0.004692600870046317 0 -0.029158728023400776 0.0061769328613284951 0 -0.028998484393651356 0.0059945854704805427 0 -0.028975260647314458 0.0061290697130327101 0 -0.028998484393651356 0.0059945854704805427 0 -0.028975260647314458 0.0061290697130327101 0 -0.028878008221815271 0.0060698637062275851 0 -0.01196934813874366 -0.0013733790861377227 0 -0.027338290346539056 0.00099423572397017721 0 -0.028874948903082329 0.006274812234396028 0 -0.028440806584739301 0.0059605479839431623 0 -0.028739120328395221 0.0060813924215420553 0 -0.028911258542742464 0.0061495596425516549 0 -0.028975260647314458 0.0061290697130327101 0 -0.028878008221815271 0.0060698637062275851 0 -0.028865253382091734 0.0061648462132857466 0 -0.028911258542742464 0.0061495596425516549 0 -0.028878008221815271 0.0060698637062275851 0 -0.028865253382091734 0.0061648462132857466 0 -0.028878008221815271 0.0060698637062275851 0 -0.028739120328395221 0.0060813924215420553 0 -0.028878008221815271 0.0060698637062275851 0 -0.028739120328395221 0.0060813924215420553 0 -0.028755452923837466 0.0058411543474346161 0 -0.029058128482124329 0.0057383893502408988 0 -0.028998484393651356 0.0059945854704805427 0 -0.028755452923837466 0.0058411543474346161 0 -0.028998484393651356 0.0059945854704805427 0 -0.028878008221815271 0.0060698637062275851 0 -0.028755452923837466 0.0058411543474346161 0 -0.073196064611443692 -0.0062222219778776513 0 -0.070991966449731561 -0.0063503365643790702 0 -0.069097504892140865 -0.0095390821572897549 0 -0.032275758326860145 0.0039557166981922737 0 -0.028902226153179538 0.0024458459576283285 0 -0.069369159509277772 -0.0062401090753985665 0 -0.069097504892140865 -0.0095390821572897549 0 -0.066999485998886443 -0.0060936617888838951 0 -0.070991966449731561 -0.0063503365643790702 0 -0.069369159509277772 -0.0062401090753985665 0 -0.070741906880258304 -0.0048002872586495387 0 -0.070991966449731561 -0.0063503365643790702 0 -0.069369159509277772 -0.0062401090753985665 0 -0.069097504892140865 -0.0095390821572897549 0 -0.028464207919606001 0.0019881239994061139 0 -0.026529676474659907 -0.0014030832424493781 0 -0.023575919506854982 -0.00025257368436635549 0 0.019834014982413342 -0.0016885455049259789 0 0.017937718067448653 -0.002456406162530123 0 0.016489418746642559 -0.00061870885978286213 0 -0.020293079986602514 0.003804185393685649 0 -0.028902226153179538 0.0024458459576283285 0 -0.0022426457084613383 0.003400595476669677 0 -0.0022738264085832758 0.0035082503970037936 0 -0.0022786901861559972 0.0033891498825505666 0 0.016489418746642559 -0.00061870885978286213 0 0.014941438215186266 -0.0037463193173026621 0 0.014219156534803663 -0.0012084516628931392 0 0.017937718067448653 -0.002456406162530123 0 0.016489418746642559 -0.00061870885978286213 0 0.014941438215186266 -0.0037463193173026621 0 0.01498923803098101 0.00084815890609724997 0 0.016489418746642559 -0.00061870885978286213 0 0.014219156534803663 -0.0012084516628931392 0 -0.028902226153179538 0.0024458459576283285 0 -0.027628916234382184 -0.00022586201995823926 0 -0.065601255534434535 -0.0082005124535593985 0 -0.066999485998886443 -0.0060936617888838951 0 -0.064252848698618859 -0.0040695757063071445 0 -0.069097504892140865 -0.0095390821572897549 0 -0.065601255534434535 -0.0082005124535593985 0 -0.066999485998886443 -0.0060936617888838951 0 -0.027628916234382184 -0.00022586201995823926 0 -0.026837339089592443 -0.0013997482501046372 0 0.014941438215186266 -0.0037463193173026621 0 0.011968960876004868 -0.0024757575288875517 0 0.0097298210838611763 -0.0059566450961804022 0 -0.065601255534434535 -0.0082005124535593985 0 -0.059807141467270883 -0.0060452043619060357 0 -0.064252848698618859 -0.0040695757063071445 0 0.014941438215186266 -0.0037463193173026621 0 0.011968960876004868 -0.0024757575288875517 0 0.014219156534803663 -0.0012084516628931392 0 0.0120419313164873 0.00063341840901041198 0 0.011968960876004868 -0.0024757575288875517 0 0.014219156534803663 -0.0012084516628931392 0 0.0120419313164873 0.00063341840901041198 0 0.011968960876004868 -0.0024757575288875517 0 0.0087624423701599032 -0.0020597581494734736 0 0.011968960876004868 -0.0024757575288875517 0 0.0087624423701599032 -0.0020597581494734736 0 0.0097298210838611763 -0.0059566450961804022 0 -0.059476990747792835 -0.0031076261949260294 0 -0.061363477993391355 -0.00077988060956380454 0 -0.064252848698618859 -0.0040695757063071445 0 -0.059807141467270883 -0.0060452043619060357 0 -0.059476990747792835 -0.0031076261949260294 0 -0.064252848698618859 -0.0040695757063071445 0 -0.056850087859252767 -0.00175647879511587 0 -0.059476990747792835 -0.0031076261949260294 0 -0.061363477993391355 -0.00077988060956380454 0 -0.056850087859252767 -0.00175647879511587 0 -0.061363477993391355 -0.00077988060956380454 0 -0.057818365501471063 0.0013800503021258648 0 -0.061363477993391355 -0.00077988060956380454 0 -0.064722389407366882 -0.0010434889850383347 0 -0.064252848698618859 -0.0040695757063071445 0 -0.061363477993391355 -0.00077988060956380454 0 -0.062958682660853027 0.0011709265006957571 0 -0.06090102803031882 0.001834208186456795 0 -0.061363477993391355 -0.00077988060956380454 0 -0.064722389407366882 -0.0010434889850383347 0 -0.062958682660853027 0.0011709265006957571 0 -0.064722389407366882 -0.0010434889850383347 0 -0.065476674719129643 0.0018626500373772623 0 -0.062958682660853027 0.0011709265006957571 0 -0.066999485998886443 -0.0060936617888838951 0 -0.064252848698618859 -0.0040695757063071445 0 -0.066543999448793606 -0.0030426318948510223 0 -0.066999485998886443 -0.0060936617888838951 0 -0.066543999448793606 -0.0030426318948510223 0 -0.068691195244578132 -0.0041784189094305332 0 -0.069369159509277772 -0.0062401090753985665 0 -0.066999485998886443 -0.0060936617888838951 0 -0.068691195244578132 -0.0041784189094305332 0 -0.066543999448793606 -0.0030426318948510223 0 -0.067761105672438204 -0.001093925339198944 0 -0.068691195244578132 -0.0041784189094305332 0 -0.064722389407366882 -0.0010434889850383347 0 -0.064252848698618859 -0.0040695757063071445 0 -0.066543999448793606 -0.0030426318948510223 0 -0.064722389407366882 -0.0010434889850383347 0 -0.066543999448793606 -0.0030426318948510223 0 -0.067761105672438204 -0.001093925339198944 0 -0.064722389407366882 -0.0010434889850383347 0 -0.067761105672438204 -0.001093925339198944 0 -0.065476674719129643 0.0018626500373772623 0 -0.067761105672438204 -0.001093925339198944 0 -0.069945733380477063 -0.00047470408263300683 0 -0.068370583286214273 0.0024075139128155367 0 -0.067761105672438204 -0.001093925339198944 0 -0.069945733380477063 -0.00047470408263300683 0 -0.07026965082276046 -0.0028102069586291578 0 -0.071855070050272224 -0.0012469355621412604 0 -0.069945733380477063 -0.00047470408263300683 0 -0.071270111632545236 0.0012671156103970739 0 -0.071855070050272224 -0.0012469355621412604 0 -0.069945733380477063 -0.00047470408263300683 0 -0.07026965082276046 -0.0028102069586291578 0 -0.072109450893600671 -0.0033101973928078739 0 -0.071855070050272224 -0.0012469355621412604 0 -0.07026965082276046 -0.0028102069586291578 0 -0.072109450893600671 -0.0033101973928078739 0 -0.07026965082276046 -0.0028102069586291578 0 -0.070741906880258304 -0.0048002872586495387 0 -0.067761105672438204 -0.001093925339198944 0 -0.07026965082276046 -0.0028102069586291578 0 -0.068691195244578132 -0.0041784189094305332 0 -0.07026965082276046 -0.0028102069586291578 0 -0.068691195244578132 -0.0041784189094305332 0 -0.070741906880258304 -0.0048002872586495387 0 -0.069369159509277772 -0.0062401090753985665 0 -0.068691195244578132 -0.0041784189094305332 0 -0.070741906880258304 -0.0048002872586495387 0 -0.072269364562172103 -0.0049529874897448374 0 -0.070991966449731561 -0.0063503365643790702 0 -0.070741906880258304 -0.0048002872586495387 0 -0.07055151874453458 0.0048610899664231341 0 -0.068370583286214273 0.0024075139128155367 0 -0.067760171060976718 0.0061199151288034159 0 -0.073356691135707142 0.0067907311393300088 0 -0.07055151874453458 0.0048610899664231341 0 -0.069725799261583607 0.0094242562253480638 0 -0.07055151874453458 0.0048610899664231341 0 -0.067760171060976718 0.0061199151288034159 0 -0.069725799261583607 0.0094242562253480638 0 -0.07055151874453458 0.0048610899664231341 0 -0.071270111632545236 0.0012671156103970739 0 -0.068370583286214273 0.0024075139128155367 0 -0.069945733380477063 -0.00047470408263300683 0 -0.071270111632545236 0.0012671156103970739 0 -0.068370583286214273 0.0024075139128155367 0 -0.067761105672438204 -0.001093925339198944 0 -0.068370583286214273 0.0024075139128155367 0 -0.065476674719129643 0.0018626500373772623 0 -0.068370583286214273 0.0024075139128155367 0 -0.065476674719129643 0.0018626500373772623 0 -0.065768372353424878 0.0045473950561275185 0 -0.067760171060976718 0.0061199151288034159 0 -0.065768372353424878 0.0045473950561275185 0 -0.064635962569535271 0.008980276165792906 0 -0.068370583286214273 0.0024075139128155367 0 -0.067760171060976718 0.0061199151288034159 0 -0.065768372353424878 0.0045473950561275185 0 -0.066105395760832839 0.0007465931104869805 0 -0.062074442192384449 0.004014054004642228 0 -0.067248659139024891 0.0065886294076298842 0 -0.063934125477221423 0.0050885056076715174 0 -0.065417124002938337 0.0082044727420219638 0 -0.065768372353424878 0.0045473950561275185 0 -0.063271927396588906 0.0039636752074605659 0 -0.064635962569535271 0.008980276165792906 0 -0.065476674719129643 0.0018626500373772623 0 -0.065768372353424878 0.0045473950561275185 0 -0.063271927396588906 0.0039636752074605659 0 -0.064411667277532059 0.0045190153807807025 0 -0.063934125477221423 0.0050885056076715174 0 -0.065476674719129643 0.0018626500373772623 0 -0.062958682660853027 0.0011709265006957571 0 -0.062639712920072629 0.0037761121620963705 0 -0.062958682660853027 0.0011709265006957571 0 -0.062639712920072629 0.0037761121620963705 0 -0.06090102803031882 0.001834208186456795 0 -0.061363477993391355 -0.00077988060956380454 0 -0.06090102803031882 0.001834208186456795 0 -0.057818365501471063 0.0013800503021258648 0 -0.062639712920072629 0.0037761121620963705 0 -0.06090102803031882 0.001834208186456795 0 -0.059982894910750234 0.0037166648019716884 0 -0.06090102803031882 0.001834208186456795 0 -0.059982894910750234 0.0037166648019716884 0 -0.057818365501471063 0.0013800503021258648 0 -0.063934125477221423 0.0050885056076715174 0 -0.061006576312697278 0.0062508511748807106 0 -0.059982894910750234 0.0037166648019716884 0 -0.058950138973302937 0.0063819377450919394 0 -0.057280719015209515 0.004024223938454018 0 -0.062639712920072629 0.0037761121620963705 0 -0.059982894910750234 0.0037166648019716884 0 -0.058950138973302937 0.0063819377450919394 0 -0.062074442192384449 0.004014054004642228 0 -0.063502474980809812 0.0087076499982744904 0 -0.067248659139024891 0.0065886294076298842 0 -0.063502474980809812 0.0087076499982744904 0 -0.068288979636740313 0.012381023975430984 0 -0.061706774304807047 0.013135271926993345 0 -0.065417124002938337 0.0082044727420219638 0 -0.066841225162647483 0.012763386739913838 0 -0.063502474980809812 0.0087076499982744904 0 -0.067248659139024891 0.0065886294076298842 0 -0.068288979636740313 0.012381023975430984 0 -0.067760171060976718 0.0061199151288034159 0 -0.064635962569535271 0.008980276165792906 0 -0.069725799261583607 0.0094242562253480638 0 -0.064635962569535271 0.008980276165792906 0 -0.069725799261583607 0.0094242562253480638 0 -0.066148637508363542 0.013805892384808161 0 -0.069725799261583607 0.0094242562253480638 0 -0.071997500838338141 0.014337635329872341 0 -0.066148637508363542 0.013805892384808161 0 -0.074090025416178956 0.010419146650308232 0 -0.069725799261583607 0.0094242562253480638 0 -0.071997500838338141 0.014337635329872341 0 -0.051070520659744267 0.0045849101489611882 0 -0.05153899100059163 0.0082996319646755339 0 -0.047315623830622572 0.007172043499100389 0 -0.051070520659744267 0.0045849101489611882 0 -0.046647393439542835 0.0028109807966937451 0 -0.047315623830622572 0.007172043499100389 0 -0.046647393439542835 0.0028109807966937451 0 -0.047315623830622572 0.007172043499100389 0 -0.041125546584981625 0.0057087509296010345 0 -0.047399793720506789 -0.0019328889694987268 0 -0.046647393439542835 0.0028109807966937451 0 -0.049944715005830531 0.0008708688181807649 0 -0.051070520659744267 0.0045849101489611882 0 -0.049944715005830531 0.0008708688181807649 0 -0.052471086069345793 0.0018078183939782843 0 -0.051070520659744267 0.0045849101489611882 0 -0.046647393439542835 0.0028109807966937451 0 -0.049944715005830531 0.0008708688181807649 0 -0.051070520659744267 0.0045849101489611882 0 -0.052471086069345793 0.0018078183939782843 0 -0.054847561287503392 0.00295081824567068 0 -0.053677955616721416 -0.00043253507127868505 0 -0.049944715005830531 0.0008708688181807649 0 -0.052471086069345793 0.0018078183939782843 0 -0.053677955616721416 -0.00043253507127868505 0 -0.052471086069345793 0.0018078183939782843 0 -0.054847561287503392 0.00295081824567068 0 -0.053677955616721416 -0.00043253507127868505 0 -0.054847561287503392 0.00295081824567068 0 -0.057818365501471063 0.0013800503021258648 0 -0.054847561287503392 0.00295081824567068 0 -0.057818365501471063 0.0013800503021258648 0 -0.057280719015209515 0.004024223938454018 0 -0.059982894910750234 0.0037166648019716884 0 -0.057818365501471063 0.0013800503021258648 0 -0.057280719015209515 0.004024223938454018 0 -0.058950138973302937 0.0063819377450919394 0 -0.057280719015209515 0.004024223938454018 0 -0.054845968128986039 0.0058978980013288515 0 -0.054847561287503392 0.00295081824567068 0 -0.057280719015209515 0.004024223938454018 0 -0.054845968128986039 0.0058978980013288515 0 -0.051070520659744267 0.0045849101489611882 0 -0.054845968128986039 0.0058978980013288515 0 -0.05153899100059163 0.0082996319646755339 0 -0.051070520659744267 0.0045849101489611882 0 -0.054847561287503392 0.00295081824567068 0 -0.054845968128986039 0.0058978980013288515 0 -0.055519485277649605 0.0089063725304691591 0 -0.052915019185766278 0.011132526187184444 0 -0.05153899100059163 0.0082996319646755339 0 -0.054845968128986039 0.0058978980013288515 0 -0.055519485277649605 0.0089063725304691591 0 -0.05153899100059163 0.0082996319646755339 0 -0.058950138973302937 0.0063819377450919394 0 -0.054845968128986039 0.0058978980013288515 0 -0.055519485277649605 0.0089063725304691591 0 -0.061006576312697278 0.0062508511748807106 0 -0.05780170132902096 0.0082497023953119735 0 -0.062074442192384449 0.004014054004642228 0 -0.063502474980809812 0.0087076499982744904 0 -0.057896025108536898 0.0072799144090212858 0 -0.063502474980809812 0.0087076499982744904 0 -0.057896025108536898 0.0072799144090212858 0 -0.061706774304807047 0.013135271926993345 0 -0.057896025108536898 0.0072799144090212858 0 -0.061706774304807047 0.013135271926993345 0 -0.056814631206517606 0.013872508523312024 0 -0.05780170132902096 0.0082497023953119735 0 -0.056091918729523689 0.0094571306434669492 0 -0.057896025108536898 0.0072799144090212858 0 -0.052915019185766278 0.011132526187184444 0 -0.056814631206517606 0.013872508523312024 0 -0.052915019185766278 0.011132526187184444 0 -0.05153899100059163 0.0082996319646755339 0 -0.04788107291791914 0.011606476481618402 0 -0.05153899100059163 0.0082996319646755339 0 -0.047315623830622572 0.007172043499100389 0 -0.04788107291791914 0.011606476481618402 0 -0.047315623830622572 0.007172043499100389 0 -0.04788107291791914 0.011606476481618402 0 -0.044111487759324018 0.009437411168299905 0 -0.04788107291791914 0.011606476481618402 0 -0.042441492907670644 0.013267980270827442 0 -0.044111487759324018 0.009437411168299905 0 -0.042441492907670644 0.013267980270827442 0 -0.040483728829729553 0.0095782893531538588 0 -0.044111487759324018 0.009437411168299905 0 -0.038868161147646581 0.012040409197511629 0 -0.037188303968874445 0.014305865804533704 0 -0.042441492907670644 0.013267980270827442 0 -0.040483728829729553 0.0095782893531538588 0 -0.037936227711072218 0.013936413131757733 0 -0.040483728829729553 0.0095782893531538588 0 -0.041125546584981625 0.0057087509296010345 0 -0.03874217694496003 0.0065475025049621409 0 -0.040483728829729553 0.0095782893531538588 0 -0.037158958384635093 0.0073977034559310293 0 -0.03874217694496003 0.0065475025049621409 0 -0.040483728829729553 0.0095782893531538588 0 -0.044111487759324018 0.009437411168299905 0 -0.041125546584981625 0.0057087509296010345 0 -0.047315623830622572 0.007172043499100389 0 -0.044111487759324018 0.009437411168299905 0 -0.041125546584981625 0.0057087509296010345 0 -0.03540787894530132 0.01016148098419848 0 -0.031558521070943646 0.012446112408180587 0 -0.033718286397451634 0.015111727500187907 0 -0.03540787894530132 0.01016148098419848 0 -0.033718286397451634 0.015111727500187907 0 -0.03681382422794377 0.0141289221561062 0 -0.040483728829729553 0.0095782893531538588 0 -0.03540787894530132 0.01016148098419848 0 -0.03681382422794377 0.0141289221561062 0 -0.040483728829729553 0.0095782893531538588 0 -0.037158958384635093 0.0073977034559310293 0 -0.03540787894530132 0.01016148098419848 0 -0.037158958384635093 0.0073977034559310293 0 -0.03540787894530132 0.01016148098419848 0 -0.034891362176079396 0.007329599794096326 0 -0.03540787894530132 0.01016148098419848 0 -0.032556661244562662 0.0066510405149032116 0 -0.031558521070943646 0.012446112408180587 0 -0.030431682271496358 0.012354440970186769 0 -0.031261329660764073 0.014526395761995508 0 -0.03540787894530132 0.01016148098419848 0 -0.034891362176079396 0.007329599794096326 0 -0.032556661244562662 0.0066510405149032116 0 -0.030076368925857622 0.011575265344886331 0 -0.032021320211261715 0.01188019936691684 0 -0.030431682271496358 0.012354440970186769 0 -0.032021320211261715 0.01188019936691684 0 -0.030993626692715506 0.012166084990728826 0 -0.031024915567476267 0.012021251638543352 0 -0.030761756300057178 0.012083332226825515 0 -0.034891362176079396 0.007329599794096326 0 -0.032556661244562662 0.0066510405149032116 0 -0.036543287391240707 0.0054765917936324994 0 -0.030076368925857622 0.011575265344886331 0 -0.030431682271496358 0.012354440970186769 0 -0.027280660999410376 0.014157510830660911 0 -0.027167194003347148 0.014729347406250308 0 -0.02675299631552638 0.01428314952081226 0 -0.035547279440357432 0.0043895444604193246 0 -0.036543287391240707 0.0054765917936324994 0 -0.036184642680130136 0.0039802732208278555 0 -0.037158958384635093 0.0073977034559310293 0 -0.034891362176079396 0.007329599794096326 0 -0.036543287391240707 0.0054765917936324994 0 -0.037158958384635093 0.0073977034559310293 0 -0.036543287391240707 0.0054765917936324994 0 -0.03874217694496003 0.0065475025049621409 0 -0.036543287391240707 0.0054765917936324994 0 -0.036184642680130136 0.0039802732208278555 0 -0.037569267641262769 0.0048079731854699893 0 -0.036543287391240707 0.0054765917936324994 0 -0.03874217694496003 0.0065475025049621409 0 -0.037569267641262769 0.0048079731854699893 0 -0.036184642680130136 0.0039802732208278555 0 -0.035605216225049807 0.0044705837366395438 0 -0.036148319679081144 0.0042644803024887842 0 -0.036184642680130136 0.0039802732208278555 0 -0.036472437876134051 0.002996022424569793 0 -0.035605216225049807 0.0044705837366395438 0 -0.036184642680130136 0.0039802732208278555 0 -0.037569267641262769 0.0048079731854699893 0 -0.036472437876134051 0.002996022424569793 0 -0.035547279440357432 0.0043895444604193246 0 -0.036184642680130136 0.0039802732208278555 0 -0.036148319679081144 0.0042644803024887842 0 -0.028794413957783451 0.014635089675430125 0 -0.029194743191397355 0.012801475354352778 0 -0.02784989590034994 0.013130746397172653 0 -0.030076368925857622 0.011575265344886331 0 -0.031183301673137431 0.0093781723628330368 0 -0.041125546584981625 0.0057087509296010345 0 -0.03874217694496003 0.0065475025049621409 0 -0.037569267641262769 0.0048079731854699893 0 -0.041125546584981625 0.0057087509296010345 0 -0.037569267641262769 0.0048079731854699893 0 -0.036472437876134051 0.002996022424569793 0 -0.036928512918883126 0.002275431202873217 0 -0.037066270853775771 0.0021527196682257495 0 -0.041125546584981625 0.0057087509296010345 0 -0.036472437876134051 0.002996022424569793 0 -0.042534913466049942 -1.8745895295262095e-05 0 -0.046647393439542835 0.0028109807966937451 0 -0.041125546584981625 0.0057087509296010345 0 -0.042534913466049942 -1.8745895295262095e-05 0 -0.032415635042176462 0.004199671228737681 0 -0.034053687519403103 0.0056361983949721377 0 -0.032523556420582689 0.0075669198706589868 0 -0.0302111500552837 0.0050695037108646496 0 -0.032415635042176462 0.004199671228737681 0 -0.032523556420582689 0.0075669198706589868 0 -0.033467292647474133 0.0070599152165107945 0 -0.034053687519403103 0.0056361983949721377 0 -0.032523556420582689 0.0075669198706589868 0 -0.033467292647474133 0.0070599152165107945 0 -0.034317355261350109 0.0063174840905446525 0 -0.033637949738228312 0.0074831014294732085 0 -0.033467292647474133 0.0070599152165107945 0 -0.034053687519403103 0.0056361983949721377 0 -0.034317355261350109 0.0063174840905446525 0 -0.034053687519403103 0.0056361983949721377 0 -0.035605216225049807 0.0044705837366395438 0 -0.034317355261350109 0.0063174840905446525 0 -0.036472437876134051 0.002996022424569793 0 -0.032415635042176462 0.004199671228737681 0 -0.034053687519403103 0.0056361983949721377 0 -0.036472437876134051 0.002996022424569793 0 -0.034053687519403103 0.0056361983949721377 0 -0.035605216225049807 0.0044705837366395438 0 -0.035605216225049807 0.0044705837366395438 0 -0.036148319679081144 0.0042644803024887842 0 -0.035271964314039922 0.0059079932300668868 0 -0.035605216225049807 0.0044705837366395438 0 -0.034317355261350109 0.0063174840905446525 0 -0.035271964314039922 0.0059079932300668868 0 -0.029194743191397355 0.012801475354352778 0 -0.028758481198405347 0.011546256019647838 0 -0.029599778551372358 0.010965146536036263 0 -0.036148319679081144 0.0042644803024887842 0 -0.035747565157565137 0.0064901159515250604 0 -0.035271964314039922 0.0059079932300668868 0 -0.029194743191397355 0.012801475354352778 0 -0.027864266159892397 0.011700604784946953 0 -0.02784989590034994 0.013130746397172653 0 -0.031183301673137431 0.0093781723628330368 0 -0.031530864068441883 0.0085510897050502747 0 -0.029194743191397355 0.012801475354352778 0 -0.028758481198405347 0.011546256019647838 0 -0.027864266159892397 0.011700604784946953 0 -0.029599778551372358 0.010965146536036263 0 -0.028373648482139371 0.010717019996751292 0 -0.028291180287684726 0.0093408690095366648 0 -0.028758481198405347 0.011546256019647838 0 -0.028373648482139371 0.010717019996751292 0 -0.027864266159892397 0.011700604784946953 0 -0.028758481198405347 0.011546256019647838 0 -0.029599778551372358 0.010965146536036263 0 -0.028373648482139371 0.010717019996751292 0 -0.03520696536139073 0.0067616943003517239 0 -0.03419731201742663 0.0070958708463349403 0 -0.032311547833248203 0.008418161255578956 0 -0.034317355261350109 0.0063174840905446525 0 -0.035271964314039922 0.0059079932300668868 0 -0.03419731201742663 0.0070958708463349403 0 -0.03520696536139073 0.0067616943003517239 0 -0.035271964314039922 0.0059079932300668868 0 -0.03419731201742663 0.0070958708463349403 0 -0.031530864068441883 0.0085510897050502747 0 -0.031596510850833349 0.0084985014357023408 0 -0.034317355261350109 0.0063174840905446525 0 -0.03419731201742663 0.0070958708463349403 0 -0.033637949738228312 0.0074831014294732085 0 -0.031530864068441883 0.0085510897050502747 0 -0.031726306176133021 0.0081816401816200007 0 -0.032311547833248203 0.008418161255578956 0 -0.03099564123406702 0.0078853672069419678 0 -0.033222452640810286 0.0079083423532264781 0 -0.033637949738228312 0.0074831014294732085 0 -0.032311547833248203 0.008418161255578956 0 -0.033222452640810286 0.0079083423532264781 0 -0.03419731201742663 0.0070958708463349403 0 -0.033637949738228312 0.0074831014294732085 0 -0.032311547833248203 0.008418161255578956 0 -0.031810661882681904 0.010742870145016997 0 -0.032311547833248203 0.008418161255578956 0 -0.029655415529420321 0.0086001655874750164 0 -0.031530864068441883 0.0085510897050502747 0 -0.029719120566294874 0.0081162993502704138 0 -0.032311547833248203 0.008418161255578956 0 -0.03099564123406702 0.0078853672069419678 0 -0.029655415529420321 0.0086001655874750164 0 -0.027346988197159101 0.0065109537199672185 0 -0.028359554592296284 0.0071877262792830474 0 -0.028886083948691986 0.0063358321077492362 0 -0.03099564123406702 0.0078853672069419678 0 -0.029327742183517743 0.0076110744183789034 0 -0.03099564123406702 0.0078853672069419678 0 -0.029327742183517743 0.0076110744183789034 0 -0.029655415529420321 0.0086001655874750164 0 -0.028677237461793476 0.0062761542970335817 0 -0.03099564123406702 0.0078853672069419678 0 -0.03297875962760867 0.0077472710415376006 0 -0.03099564123406702 0.0078853672069419678 0 -0.03297875962760867 0.0077472710415376006 0 -0.033222452640810286 0.0079083423532264781 0 -0.029515500953638332 0.0062563372970684313 0 -0.029465496958019647 0.0065095360261508053 0 -0.029336777666885441 0.006476726430149779 0 -0.029465496958019647 0.0065095360261508053 0 -0.029336777666885441 0.006476726430149779 0 -0.029367691484463981 0.0061764270540862996 0 -0.029158728023400776 0.0061769328613284951 0 -0.029336777666885441 0.006476726430149779 0 -0.029367691484463981 0.0061764270540862996 0 -0.03297875962760867 0.0077472710415376006 0 -0.032523556420582689 0.0075669198706589868 0 -0.033222452640810286 0.0079083423532264781 0 -0.033467292647474133 0.0070599152165107945 0 -0.032523556420582689 0.0075669198706589868 0 -0.033222452640810286 0.0079083423532264781 0 -0.031845603017369863 0.0059648614398878381 0 -0.033039065443783218 0.004692600870046317 0 -0.033467292647474133 0.0070599152165107945 0 -0.033637949738228312 0.0074831014294732085 0 -0.033222452640810286 0.0079083423532264781 0 -0.024505807360638444 0.0092825698170919436 0 -0.025461262979421428 0.0098614060553975195 0 -0.024795944145087994 0.010776387508577729 0 -0.024505807360638444 0.0092825698170919436 0 -0.025486912597055444 0.008305789586686034 0 -0.025461262979421428 0.0098614060553975195 0 -0.024505807360638444 0.0092825698170919436 0 -0.023815868603318635 0.010040190682471193 0 -0.024795944145087994 0.010776387508577729 0 -0.023240248491674075 0.0089208431059641258 0 -0.022815890667155444 0.010458173047399247 0 -0.022144600586551919 0.0095428916985315602 0 -0.023815868603318635 0.010040190682471193 0 -0.023240248491674075 0.0089208431059641258 0 -0.022815890667155444 0.010458173047399247 0 -0.024505807360638444 0.0092825698170919436 0 -0.023815868603318635 0.010040190682471193 0 -0.023240248491674075 0.0089208431059641258 0 -0.023784679439651159 0.0072904639004924545 0 -0.023240248491674075 0.0089208431059641258 0 -0.022064447312311986 0.007624761996693691 0 -0.023240248491674075 0.0089208431059641258 0 -0.022064447312311986 0.007624761996693691 0 -0.022144600586551919 0.0095428916985315602 0 -0.023784679439651159 0.0072904639004924545 0 -0.023240248491674075 0.0089208431059641258 0 -0.024439533398243538 0.0082756140410118317 0 -0.023784679439651159 0.0072904639004924545 0 -0.02498762666481278 0.0071675023695060396 0 -0.024439533398243538 0.0082756140410118317 0 -0.024505807360638444 0.0092825698170919436 0 -0.023240248491674075 0.0089208431059641258 0 -0.024439533398243538 0.0082756140410118317 0 -0.024505807360638444 0.0092825698170919436 0 -0.024439533398243538 0.0082756140410118317 0 -0.025486912597055444 0.008305789586686034 0 -0.02498762666481278 0.0071675023695060396 0 -0.025857472625734387 0.0074515188023366536 0 -0.025486912597055444 0.008305789586686034 0 -0.02498762666481278 0.0071675023695060396 0 -0.024439533398243538 0.0082756140410118317 0 -0.025486912597055444 0.008305789586686034 0 -0.025857472625734387 0.0074515188023366536 0 -0.025486912597055444 0.008305789586686034 0 -0.0269570267746801 0.0076726925482890739 0 -0.025486912597055444 0.008305789586686034 0 -0.0269570267746801 0.0076726925482890739 0 -0.026495221041888867 0.0093715817746876078 0 -0.028150367063705082 0.0071422800735668245 0 -0.029719120566294874 0.0081162993502704138 0 -0.0269570267746801 0.0076726925482890739 0 -0.028291180287684726 0.0093408690095366648 0 -0.026495221041888867 0.0093715817746876078 0 -0.029327742183517743 0.0076110744183789034 0 -0.027737680636064688 0.0075091228990585585 0 -0.029655415529420321 0.0086001655874750164 0 -0.028886083948691986 0.0063358321077492362 0 -0.029327742183517743 0.0076110744183789034 0 -0.027737680636064688 0.0075091228990585585 0 -0.028291180287684726 0.0093408690095366648 0 -0.026495221041888867 0.0093715817746876078 0 -0.02738625555036622 0.010348746920818488 0 -0.028373648482139371 0.010717019996751292 0 -0.028291180287684726 0.0093408690095366648 0 -0.02738625555036622 0.010348746920818488 0 -0.025461262979421428 0.0098614060553975195 0 -0.026495221041888867 0.0093715817746876078 0 -0.02632955628690534 0.011001616230740233 0 -0.025486912597055444 0.008305789586686034 0 -0.025461262979421428 0.0098614060553975195 0 -0.026495221041888867 0.0093715817746876078 0 -0.026495221041888867 0.0093715817746876078 0 -0.02632955628690534 0.011001616230740233 0 -0.02738625555036622 0.010348746920818488 0 -0.025461262979421428 0.0098614060553975195 0 -0.02632955628690534 0.011001616230740233 0 -0.024795944145087994 0.010776387508577729 0 -0.02632955628690534 0.011001616230740233 0 -0.025349972774575579 0.011925324626598493 0 -0.024795944145087994 0.010776387508577729 0 -0.02632955628690534 0.011001616230740233 0 -0.02738625555036622 0.010348746920818488 0 -0.027864266159892397 0.011700604784946953 0 -0.028373648482139371 0.010717019996751292 0 -0.02738625555036622 0.010348746920818488 0 -0.027864266159892397 0.011700604784946953 0 -0.02632955628690534 0.011001616230740233 0 -0.027864266159892397 0.011700604784946953 0 -0.026553892647565514 0.012559907785055235 0 -0.027864266159892397 0.011700604784946953 0 -0.026553892647565514 0.012559907785055235 0 -0.02784989590034994 0.013130746397172653 0 -0.026553892647565514 0.012559907785055235 0 -0.025349972774575579 0.011925324626598493 0 -0.024865353103693994 0.01324684427847775 0 -0.02632955628690534 0.011001616230740233 0 -0.026553892647565514 0.012559907785055235 0 -0.025349972774575579 0.011925324626598493 0 -0.025349972774575579 0.011925324626598493 0 -0.023985163763025574 0.012088683051533435 0 -0.024865353103693994 0.01324684427847775 0 -0.024795944145087994 0.010776387508577729 0 -0.02372513866506901 0.010990170703955261 0 -0.023985163763025574 0.012088683051533435 0 -0.025349972774575579 0.011925324626598493 0 -0.024795944145087994 0.010776387508577729 0 -0.023985163763025574 0.012088683051533435 0 -0.023815868603318635 0.010040190682471193 0 -0.024795944145087994 0.010776387508577729 0 -0.02372513866506901 0.010990170703955261 0 -0.022815890667155444 0.010458173047399247 0 -0.022790884205608375 0.011354143985657605 0 -0.021793918395422909 0.010865435445797081 0 -0.022815890667155444 0.010458173047399247 0 -0.02372513866506901 0.010990170703955261 0 -0.022790884205608375 0.011354143985657605 0 -0.023815868603318635 0.010040190682471193 0 -0.022815890667155444 0.010458173047399247 0 -0.02372513866506901 0.010990170703955261 0 -0.02372513866506901 0.010990170703955261 0 -0.022790884205608375 0.011354143985657605 0 -0.023985163763025574 0.012088683051533435 0 -0.023985163763025574 0.012088683051533435 0 -0.023139112721145876 0.012499861330032849 0 -0.024865353103693994 0.01324684427847775 0 -0.024745599961499904 0.01219185624535118 0 -0.025604179006264566 0.012293888115102366 0 -0.019372604851542855 0.013744949654179366 0 -0.015265952227319506 0.014137711017665354 0 -0.023985163763025574 0.012088683051533435 0 -0.023139112721145876 0.012499861330032849 0 -0.022281823642262239 0.012025521362670346 0 -0.022790884205608375 0.011354143985657605 0 -0.023985163763025574 0.012088683051533435 0 -0.021733899927631428 0.012255146110511771 0 -0.023139112721145876 0.012499861330032849 0 -0.023229501241786452 0.013227000325984277 0 -0.02502852195759973 0.013160140790758966 0 -0.023139112721145876 0.012499861330032849 0 -0.023229501241786452 0.013227000325984277 0 -0.022351510760933058 0.012942555377119852 0 -0.023229501241786452 0.013227000325984277 0 -0.023590606074484408 0.013875378849910743 0 -0.02502852195759973 0.013160140790758966 0 -0.023229501241786452 0.013227000325984277 0 -0.023590606074484408 0.013875378849910743 0 -0.022054434060994332 0.013706315327133598 0 -0.023590606074484408 0.013875378849910743 0 -0.024559362971301148 0.013993332548095937 0 -0.023947315865497126 0.014493135739853795 0 -0.02502852195759973 0.013160140790758966 0 -0.024559362971301148 0.013993332548095937 0 -0.025367654893992089 0.014599131773328338 0 -0.023590606074484408 0.013875378849910743 0 -0.02502852195759973 0.013160140790758966 0 -0.024559362971301148 0.013993332548095937 0 -0.024559362971301148 0.013993332548095937 0 -0.025367654893992089 0.014599131773328338 0 -0.023947315865497126 0.014493135739853795 0 -0.025367654893992089 0.014599131773328338 0 -0.025074374639187148 0.014604379710690779 0 -0.025300313625563214 0.014738351599561179 0 -0.024189505089861688 0.014814942346608169 0 -0.023179240062639019 0.015065938927513962 0 -0.025367654893992089 0.014599131773328338 0 -0.025709079224758562 0.014961605079842202 0 -0.025300313625563214 0.014738351599561179 0 -0.025367654893992089 0.014599131773328338 0 -0.023285368690932225 0.015421116105487314 0 -0.023947315865497126 0.014493135739853795 0 -0.023590606074484408 0.013875378849910743 0 -0.023947315865497126 0.014493135739853795 0 -0.022899056883532689 0.014571296299955362 0 -0.023285368690932225 0.015421116105487314 0 -0.023947315865497126 0.014493135739853795 0 -0.022899056883532689 0.014571296299955362 0 -0.030076368925857622 0.011575265344886331 0 -0.027390768375547037 0.012209549910137191 0 -0.028794413957783451 0.014635089675430125 0 -0.02784989590034994 0.013130746397172653 0 -0.026837829742974575 0.013953829095308687 0 -0.027280660999410376 0.014157510830660911 0 -0.026282689788610869 0.01376794982813467 0 -0.02675299631552638 0.01428314952081226 0 -0.026553892647565514 0.012559907785055235 0 -0.02784989590034994 0.013130746397172653 0 -0.026837829742974575 0.013953829095308687 0 -0.026553892647565514 0.012559907785055235 0 -0.024865353103693994 0.01324684427847775 0 -0.026837829742974575 0.013953829095308687 0 -0.025604179006264566 0.012293888115102366 0 -0.027390768375547037 0.012209549910137191 0 -0.02502852195759973 0.013160140790758966 0 -0.025367654893992089 0.014599131773328338 0 -0.026282689788610869 0.01376794982813467 0 -0.025367654893992089 0.014599131773328338 0 -0.026285385944660549 0.014496343225728632 0 -0.025709079224758562 0.014961605079842202 0 -0.025367654893992089 0.014599131773328338 0 -0.026282689788610869 0.01376794982813467 0 -0.026285385944660549 0.014496343225728632 0 -0.027167194003347148 0.014729347406250308 0 -0.026285385944660549 0.014496343225728632 0 -0.025709079224758562 0.014961605079842202 0 -0.027167194003347148 0.014729347406250308 0 -0.026285385944660549 0.014496343225728632 0 -0.02675299631552638 0.01428314952081226 0 -0.026282689788610869 0.01376794982813467 0 -0.026285385944660549 0.014496343225728632 0 -0.02675299631552638 0.01428314952081226 0 -0.028811315046706535 0.014024854769287519 0 -0.028075759701468406 0.014780223229014089 0 -0.028419499500979988 0.015767367144455292 0 -0.028811315046706535 0.014024854769287519 0 -0.028075759701468406 0.014780223229014089 0 -0.027081242829199312 0.014429485714850971 0 -0.030431682271496358 0.012354440970186769 0 -0.026885966221981746 0.01390128737643345 0 -0.028075759701468406 0.014780223229014089 0 -0.027081242829199312 0.014429485714850971 0 -0.027442527488357266 0.015429431882934439 0 -0.027081242829199312 0.014429485714850971 0 -0.027442527488357266 0.015429431882934439 0 -0.0264284021174284 0.015603970892259737 0 -0.027442527488357266 0.015429431882934439 0 -0.0264284021174284 0.015603970892259737 0 -0.027190976904062625 0.016531493826935029 0 -0.027442527488357266 0.015429431882934439 0 -0.028419499500979988 0.015767367144455292 0 -0.027190976904062625 0.016531493826935029 0 -0.028075759701468406 0.014780223229014089 0 -0.027442527488357266 0.015429431882934439 0 -0.028419499500979988 0.015767367144455292 0 -0.025230962122078877 0.014922194887130815 0 -0.024701823305230367 0.01494211603162532 0 -0.024855082809434211 0.01549172883967345 0 -0.025074374639187148 0.014604379710690779 0 -0.025230962122078877 0.014922194887130815 0 -0.024701823305230367 0.01494211603162532 0 -0.025074374639187148 0.014604379710690779 0 -0.025230962122078877 0.014922194887130815 0 -0.025300313625563214 0.014738351599561179 0 -0.025709079224758562 0.014961605079842202 0 -0.025230962122078877 0.014922194887130815 0 -0.025300313625563214 0.014738351599561179 0 -0.026885966221981746 0.01390128737643345 0 -0.025945390448962349 0.014304303020373475 0 -0.027081242829199312 0.014429485714850971 0 -0.025230962122078877 0.014922194887130815 0 -0.0264284021174284 0.015603970892259737 0 -0.025230962122078877 0.014922194887130815 0 -0.0264284021174284 0.015603970892259737 0 -0.025539723122048649 0.015720600424259438 0 -0.0264284021174284 0.015603970892259737 0 -0.025539723122048649 0.015720600424259438 0 -0.026014723911317796 0.016650185523742349 0 -0.025230962122078877 0.014922194887130815 0 -0.025539723122048649 0.015720600424259438 0 -0.024855082809434211 0.01549172883967345 0 -0.025539723122048649 0.015720600424259438 0 -0.025112531380322618 0.016225578361477585 0 -0.024855082809434211 0.01549172883967345 0 -0.025112531380322618 0.016225578361477585 0 -0.026014723911317796 0.016650185523742349 0 -0.025064552134489666 0.017181524814499569 0 -0.025539723122048649 0.015720600424259438 0 -0.025112531380322618 0.016225578361477585 0 -0.026014723911317796 0.016650185523742349 0 -0.026014723911317796 0.016650185523742349 0 -0.02651812870006591 0.017392640218633317 0 -0.027190976904062625 0.016531493826935029 0 -0.0264284021174284 0.015603970892259737 0 -0.026014723911317796 0.016650185523742349 0 -0.027190976904062625 0.016531493826935029 0 -0.026014723911317796 0.016650185523742349 0 -0.02651812870006591 0.017392640218633317 0 -0.025905121685255876 0.01769565462903043 0 -0.02651812870006591 0.017392640218633317 0 -0.025905121685255876 0.01769565462903043 0 -0.026795229135229758 0.018026964196136336 0 -0.025905121685255876 0.01769565462903043 0 -0.025064552134489666 0.017181524814499569 0 -0.025103833750315569 0.018477550524828728 0 -0.026014723911317796 0.016650185523742349 0 -0.025905121685255876 0.01769565462903043 0 -0.025064552134489666 0.017181524814499569 0 -0.025905121685255876 0.01769565462903043 0 -0.025103833750315569 0.018477550524828728 0 -0.026193623754993952 0.018542465207890897 0 -0.025905121685255876 0.01769565462903043 0 -0.026193623754993952 0.018542465207890897 0 -0.026795229135229758 0.018026964196136336 0 -0.026193623754993952 0.018542465207890897 0 -0.026882131470398297 0.018913778126322261 0 -0.026795229135229758 0.018026964196136336 0 -0.026193623754993952 0.018542465207890897 0 -0.02627925859376529 0.019593647287435127 0 -0.026882131470398297 0.018913778126322261 0 -0.02627925859376529 0.019593647287435127 0 -0.027086680297538857 0.019570081467079677 0 -0.026882131470398297 0.018913778126322261 0 -0.068008080804927054 -0.0026859902396945187 0 -0.066807734097349261 -0.0038613279927081135 0 -0.068461724865159154 -0.0039356495622820814 0 -0.025103833750315569 0.018477550524828728 0 -0.026193623754993952 0.018542465207890897 0 -0.02627925859376529 0.019593647287435127 0 -0.046565947589043533 0.0081531856036084847 0 -0.047043616346956856 0.0089301695091119297 0 -0.031285682847159213 0.023957478999034124 0 -0.030128673462466136 0.023753565239039133 0 -0.031050161946836592 0.022792858420489979 0 -0.033115055239631243 0.023177528368061851 0 -0.032211334396075174 0.024665003662609004 0 -0.033845081706220928 0.024823611662386464 0 -0.031285682847159213 0.023957478999034124 0 -0.033115055239631243 0.023177528368061851 0 -0.032211334396075174 0.024665003662609004 0 -0.031285682847159213 0.023957478999034124 0 -0.031050161946836592 0.022792858420489979 0 -0.033115055239631243 0.023177528368061851 0 -0.032211334396075174 0.024665003662609004 0 -0.033845081706220928 0.024823611662386464 0 -0.032197790358224058 0.02619570763568729 0 -0.031285682847159213 0.023957478999034124 0 -0.030128673462466136 0.023753565239039133 0 -0.030779407207509994 0.02538972899366089 0 -0.032211334396075174 0.024665003662609004 0 -0.030779407207509994 0.02538972899366089 0 -0.032197790358224058 0.02619570763568729 0 -0.031285682847159213 0.023957478999034124 0 -0.032211334396075174 0.024665003662609004 0 -0.030779407207509994 0.02538972899366089 0 -0.027731102479822019 0.019080186387928119 0 -0.027086680297538857 0.019570081467079677 0 -0.026882131470398297 0.018913778126322261 0 -0.027731102479822019 0.019080186387928119 0 -0.026882131470398297 0.018913778126322261 0 -0.027247208074611028 0.018475110514726084 0 -0.026882131470398297 0.018913778126322261 0 -0.027247208074611028 0.018475110514726084 0 -0.026795229135229758 0.018026964196136336 0 -0.027731102479822019 0.019080186387928119 0 -0.027247208074611028 0.018475110514726084 0 -0.027458428893103879 0.018035474765153273 0 -0.027247208074611028 0.018475110514726084 0 -0.026795229135229758 0.018026964196136336 0 -0.027458428893103879 0.018035474765153273 0 -0.027731102479822019 0.019080186387928119 0 -0.027458428893103879 0.018035474765153273 0 -0.028047184314901601 0.017451957693929685 0 -0.037355972380726847 0.020843415776513035 0 -0.03284355536891103 0.018113505407560758 0 -0.031050161946836592 0.022792858420489979 0 -0.030772667210510439 0.018085353612116752 0 -0.033698126969409929 0.018388848374095976 0 -0.032700277024916631 0.020341217180088411 0 -0.034390689447562066 0.01807074463908627 0 -0.030128673462466136 0.023753565239039133 0 -0.031050161946836592 0.022792858420489979 0 -0.030772667210510439 0.018085353612116752 0 -0.031050161946836592 0.022792858420489979 0 -0.033115055239631243 0.023177528368061851 0 -0.034744355320444197 0.018309515829236241 0 -0.02651812870006591 0.017392640218633317 0 -0.027226788554962567 0.01745697776082988 0 -0.027190976904062625 0.016531493826935029 0 -0.028047184314901601 0.017451957693929685 0 -0.027226788554962567 0.01745697776082988 0 -0.027190976904062625 0.016531493826935029 0 -0.026795229135229758 0.018026964196136336 0 -0.027458428893103879 0.018035474765153273 0 -0.027226788554962567 0.01745697776082988 0 -0.02651812870006591 0.017392640218633317 0 -0.026795229135229758 0.018026964196136336 0 -0.027226788554962567 0.01745697776082988 0 -0.027458428893103879 0.018035474765153273 0 -0.028047184314901601 0.017451957693929685 0 -0.027226788554962567 0.01745697776082988 0 -0.031558521070943646 0.012446112408180587 0 -0.030772667210510439 0.018085353612116752 0 -0.033718286397451634 0.015111727500187907 0 -0.031261329660764073 0.014526395761995508 0 -0.03284355536891103 0.018113505407560758 0 -0.028419499500979988 0.015767367144455292 0 -0.028047184314901601 0.017451957693929685 0 -0.027190976904062625 0.016531493826935029 0 -0.033718286397451634 0.015111727500187907 0 -0.03681382422794377 0.0141289221561062 0 -0.033698126969409929 0.018388848374095976 0 -0.037188303968874445 0.014305865804533704 0 -0.034390689447562066 0.01807074463908627 0 -0.037936227711072218 0.013936413131757733 0 -0.037890813891977841 0.018002060062066491 0 -0.040912998790153615 0.017097382728140788 0 -0.037890813891977841 0.018002060062066491 0 -0.040912998790153615 0.017097382728140788 0 -0.03909606198904559 0.020327852948244109 0 -0.037936227711072218 0.013936413131757733 0 -0.037890813891977841 0.018002060062066491 0 -0.034744355320444197 0.018309515829236241 0 -0.030772667210510439 0.018085353612116752 0 -0.033718286397451634 0.015111727500187907 0 -0.033698126969409929 0.018388848374095976 0 -0.037890813891977841 0.018002060062066491 0 -0.034744355320444197 0.018309515829236241 0 -0.036779138724448518 0.020411467818691808 0 -0.04788107291791914 0.011606476481618402 0 -0.042441492907670644 0.013267980270827442 0 -0.045663101079202878 0.016207569287809129 0 -0.042441492907670644 0.013267980270827442 0 -0.045663101079202878 0.016207569287809129 0 -0.040912998790153615 0.017097382728140788 0 -0.042441492907670644 0.013267980270827442 0 -0.037936227711072218 0.013936413131757733 0 -0.040912998790153615 0.017097382728140788 0 -0.040912998790153615 0.017097382728140788 0 -0.04328026893119425 0.021058062504436308 0 -0.03909606198904559 0.020327852948244109 0 -0.045663101079202878 0.016207569287809129 0 -0.04328026893119425 0.021058062504436308 0 -0.047770790547498651 0.020392598516342234 0 -0.045663101079202878 0.016207569287809129 0 -0.040912998790153615 0.017097382728140788 0 -0.04328026893119425 0.021058062504436308 0 -0.04328026893119425 0.021058062504436308 0 -0.047770790547498651 0.020392598516342234 0 -0.046952423405055579 0.025476883617967197 0 -0.04328026893119425 0.021058062504436308 0 -0.040017346702961067 0.022954337355553123 0 -0.03909606198904559 0.020327852948244109 0 -0.041957435933628856 0.025020509551771035 0 -0.040017346702961067 0.022954337355553123 0 -0.038629480867138764 0.025051030412192921 0 -0.041957435933628856 0.025020509551771035 0 -0.038629480867138764 0.025051030412192921 0 -0.039926989504487462 0.027254175032895369 0 -0.04328026893119425 0.021058062504436308 0 -0.041957435933628856 0.025020509551771035 0 -0.040017346702961067 0.022954337355553123 0 -0.04328026893119425 0.021058062504436308 0 -0.041957435933628856 0.025020509551771035 0 -0.046952423405055579 0.025476883617967197 0 -0.033115055239631243 0.023177528368061851 0 -0.034744355320444197 0.018309515829236241 0 -0.035219413946708647 0.022444362208821352 0 -0.034744355320444197 0.018309515829236241 0 -0.035219413946708647 0.022444362208821352 0 -0.036779138724448518 0.020411467818691808 0 -0.035219413946708647 0.022444362208821352 0 -0.036779138724448518 0.020411467818691808 0 -0.03742065955142472 0.023039593949072262 0 -0.037890813891977841 0.018002060062066491 0 -0.036779138724448518 0.020411467818691808 0 -0.03909606198904559 0.020327852948244109 0 -0.040017346702961067 0.022954337355553123 0 -0.03909606198904559 0.020327852948244109 0 -0.03742065955142472 0.023039593949072262 0 -0.036779138724448518 0.020411467818691808 0 -0.03909606198904559 0.020327852948244109 0 -0.03742065955142472 0.023039593949072262 0 -0.03742065955142472 0.023039593949072262 0 -0.038629480867138764 0.025051030412192921 0 -0.035887963624061027 0.024708804195986284 0 -0.040017346702961067 0.022954337355553123 0 -0.03742065955142472 0.023039593949072262 0 -0.038629480867138764 0.025051030412192921 0 -0.038629480867138764 0.025051030412192921 0 -0.035887963624061027 0.024708804195986284 0 -0.036370966275751065 0.026719395316289883 0 -0.035887963624061027 0.024708804195986284 0 -0.034812263342609721 0.026237606262128375 0 -0.036370966275751065 0.026719395316289883 0 -0.035219413946708647 0.022444362208821352 0 -0.03742065955142472 0.023039593949072262 0 -0.035887963624061027 0.024708804195986284 0 -0.035219413946708647 0.022444362208821352 0 -0.035887963624061027 0.024708804195986284 0 -0.033845081706220928 0.024823611662386464 0 -0.033115055239631243 0.023177528368061851 0 -0.035219413946708647 0.022444362208821352 0 -0.033845081706220928 0.024823611662386464 0 -0.035887963624061027 0.024708804195986284 0 -0.033845081706220928 0.024823611662386464 0 -0.034812263342609721 0.026237606262128375 0 -0.033845081706220928 0.024823611662386464 0 -0.033477330394195745 0.026674783834342391 0 -0.034812263342609721 0.026237606262128375 0 -0.033477330394195745 0.026674783834342391 0 -0.034812263342609721 0.026237606262128375 0 -0.034491045466383673 0.028245391661614345 0 -0.033477330394195745 0.026674783834342391 0 -0.034491045466383673 0.028245391661614345 0 -0.032494599979574608 0.028409830807135023 0 -0.034491045466383673 0.028245391661614345 0 -0.036019460746486626 0.028681652387040662 0 -0.036370966275751065 0.026719395316289883 0 -0.034812263342609721 0.026237606262128375 0 -0.034491045466383673 0.028245391661614345 0 -0.036370966275751065 0.026719395316289883 0 -0.046416244794514089 0.026988063484141709 0 -0.04749467455248204 0.02700324679579023 0 -0.038629480867138764 0.025051030412192921 0 -0.039926989504487462 0.027254175032895369 0 -0.038533674829373823 0.028534144099991783 0 -0.038629480867138764 0.025051030412192921 0 -0.036370966275751065 0.026719395316289883 0 -0.037956522068371586 0.028730345715756313 0 -0.046739809432855432 0.027435834415866864 0 -0.04749467455248204 0.02700324679579023 0 -0.036019460746486626 0.028681652387040662 0 -0.036370966275751065 0.026719395316289883 0 -0.037956522068371586 0.028730345715756313 0 -0.039926989504487462 0.027254175032895369 0 -0.039191333668029446 0.028164469015845222 0 -0.039917954595527161 0.030407971855480463 0 -0.039191333668029446 0.028164469015845222 0 -0.039917954595527161 0.030407971855480463 0 -0.038906179292689219 0.031765076538273138 0 -0.052775156056972188 0.024035125349617301 0 -0.054529702309013134 0.02248712965085382 0 -0.053222053701163612 0.021157525902518241 0 -0.04749467455248204 0.02700324679579023 0 -0.052633229399107841 0.025107110227275766 0 -0.035261008442757591 0.031018138991438286 0 -0.032627020187724558 0.033311419361351791 0 -0.03264084591083366 0.030779027878948761 0 -0.049176663129895479 0.023749071693926191 0 -0.05537777800222525 0.016700393530118228 0 -0.034491045466383673 0.028245391661614345 0 -0.035261008442757591 0.031018138991438286 0 -0.03264084591083366 0.030779027878948761 0 -0.036019460746486626 0.028681652387040662 0 -0.037956522068371586 0.028730345715756313 0 -0.035261008442757591 0.031018138991438286 0 -0.04749467455248204 0.02700324679579023 0 -0.049176663129895479 0.023749071693926191 0 -0.034491045466383673 0.028245391661614345 0 -0.036019460746486626 0.028681652387040662 0 -0.035261008442757591 0.031018138991438286 0 -0.044787834412482394 0.027183231040369023 0 -0.048852824670865082 0.024418788089912411 0 -0.041957435933628856 0.025020509551771035 0 -0.042678190425216388 0.028117230992226509 0 -0.046952423405055579 0.025476883617967197 0 -0.045532277120927465 0.026512514205499646 0 -0.047950843604099735 0.029124007728445731 0 -0.05065414416826311 0.02331063856623895 0 -0.041957435933628856 0.025020509551771035 0 -0.039926989504487462 0.027254175032895369 0 -0.042678190425216388 0.028117230992226509 0 -0.039917954595527161 0.030407971855480463 0 -0.045532277120927465 0.026512514205499646 0 -0.044588827208406415 0.030866405343747728 0 -0.039926989504487462 0.027254175032895369 0 -0.039917954595527161 0.030407971855480463 0 -0.042678190425216388 0.028117230992226509 0 -0.042595230180997021 0.028725672631921217 0 -0.044787834412482394 0.027183231040369023 0 -0.045532277120927465 0.026512514205499646 0 -0.044588827208406415 0.030866405343747728 0 -0.047950843604099735 0.029124007728445731 0 -0.047950843604099735 0.029124007728445731 0 -0.048662699512311253 0.033435816306060233 0 -0.05149576234153394 0.029355631753670744 0 -0.044588827208406415 0.030866405343747728 0 -0.048662699512311253 0.033435816306060233 0 -0.044557545045881129 0.034688209296893362 0 -0.044588827208406415 0.030866405343747728 0 -0.047950843604099735 0.029124007728445731 0 -0.048662699512311253 0.033435816306060233 0 -0.044588827208406415 0.030866405343747728 0 -0.044557545045881129 0.034688209296893362 0 -0.041773096030652358 0.032705084725573354 0 -0.039917954595527161 0.030407971855480463 0 -0.044588827208406415 0.030866405343747728 0 -0.041773096030652358 0.032705084725573354 0 -0.044557545045881129 0.034688209296893362 0 -0.041773096030652358 0.032705084725573354 0 -0.041377450417126947 0.035120271510379539 0 -0.044557545045881129 0.034688209296893362 0 -0.043830909499456977 0.038017383773554791 0 -0.047777666419668172 0.037654172402887841 0 -0.044557545045881129 0.034688209296893362 0 -0.043830909499456977 0.038017383773554791 0 -0.041377450417126947 0.035120271510379539 0 -0.048662699512311253 0.033435816306060233 0 -0.047777666419668172 0.037654172402887841 0 -0.05079948014260853 0.037211698084312309 0 -0.048662699512311253 0.033435816306060233 0 -0.044557545045881129 0.034688209296893362 0 -0.047777666419668172 0.037654172402887841 0 -0.05441915320583058 0.020723207784385248 0 -0.053222053701163612 0.021157525902518241 0 -0.053665112934397796 0.018309757549260897 0 -0.06094967167580171 0.018880633876259562 0 -0.05537777800222525 0.016700393530118228 0 -0.05441915320583058 0.020723207784385248 0 -0.053665112934397796 0.018309757549260897 0 -0.056260553971767845 0.020947479725263445 0 -0.054529702309013134 0.02248712965085382 0 -0.05441915320583058 0.020723207784385248 0 -0.056260553971767845 0.020947479725263445 0 -0.054529702309013134 0.02248712965085382 0 -0.05441915320583058 0.020723207784385248 0 -0.053222053701163612 0.021157525902518241 0 -0.052633229399107841 0.025107110227275766 0 -0.06094967167580171 0.018880633876259562 0 -0.038906179292689219 0.031765076538273138 0 -0.041377450417126947 0.035120271510379539 0 -0.038231311583981679 0.036873378416209558 0 -0.039917954595527161 0.030407971855480463 0 -0.038906179292689219 0.031765076538273138 0 -0.041773096030652358 0.032705084725573354 0 -0.038906179292689219 0.031765076538273138 0 -0.041773096030652358 0.032705084725573354 0 -0.041377450417126947 0.035120271510379539 0 -0.043830909499456977 0.038017383773554791 0 -0.041377450417126947 0.035120271510379539 0 -0.038231311583981679 0.036873378416209558 0 -0.073057054006618813 0.0084953012901019531 0 -0.07392888121951853 0.0084798125303233926 0 -0.073856247497513405 0.0092926507387012629 0 -0.073057054006618813 0.0084953012901019531 0 -0.07392888121951853 0.0084798125303233926 0 -0.073523591210924263 0.0080373449663129724 0 -0.07392888121951853 0.0084798125303233926 0 -0.073856247497513405 0.0092926507387012629 0 -0.074407957983953887 0.0087822480722629659 0 -0.07392888121951853 0.0084798125303233926 0 -0.074416845040777141 0.0082637651561556884 0 -0.074195600687834193 0.0079475685829117886 0 -0.07392888121951853 0.0084798125303233926 0 -0.074407957983953887 0.0087822480722629659 0 -0.074416845040777141 0.0082637651561556884 0 -0.05537777800222525 0.016700393530118228 0 -0.062357352661733367 0.010672467387057346 0 -0.056347471390126455 0.012649841991134081 0 -0.058005050107841939 0.013166075996971718 0 -0.058153127445251439 0.011049380252343493 0 -0.072536184579922641 0.0063544219614564083 0 -0.073175023812253395 0.0062349019566643625 0 -0.072285399751406257 0.0073279806098507276 0 -0.058005050107841939 0.013166075996971718 0 -0.059386372993417223 0.012087538164365629 0 -0.058795239177488676 0.014706337613368871 0 -0.058005050107841939 0.013166075996971718 0 -0.059386372993417223 0.012087538164365629 0 -0.058153127445251439 0.011049380252343493 0 -0.062357352661733367 0.010672467387057346 0 -0.065901010769282883 0.0069699976895278657 0 -0.0604243357083937 0.0089839348858425754 0 -0.065901010769282883 0.0069699976895278657 0 -0.059386372993417223 0.012087538164365629 0 -0.058153127445251439 0.011049380252343493 0 -0.059983008753378843 0.0094383812818940645 0 -0.074407957983953887 0.0087822480722629659 0 -0.074416845040777141 0.0082637651561556884 0 -0.074866001674727831 0.0082936045381936021 0 -0.072764468083693412 0.0054401823812512779 0 -0.073129731042768306 0.0053726143028405698 0 -0.073316727477501578 0.0056678533417154576 0 -0.072764468083693412 0.0054401823812512779 0 -0.073316727477501578 0.0056678533417154576 0 -0.073175023812253395 0.0062349019566643625 0 -0.073316727477501578 0.0056678533417154576 0 -0.073802998905075329 0.0061203343013639675 0 -0.073437863062996503 0.0049430095803712319 0 -0.072536184579922641 0.0063544219614564083 0 -0.072764468083693412 0.0054401823812512779 0 -0.073175023812253395 0.0062349019566643625 0 -0.073129731042768306 0.0053726143028405698 0 -0.073316727477501578 0.0056678533417154576 0 -0.073437863062996503 0.0049430095803712319 0 -0.073316727477501578 0.0056678533417154576 0 -0.073802998905075329 0.0061203343013639675 0 -0.073175023812253395 0.0062349019566643625 0 -0.073118234623545816 0.0058996822397651694 0 -0.072862590482818942 0.0056634735403288559 0 -0.074008285769946516 0.0057524896597986944 0 -0.073802998905075329 0.0061203343013639675 0 -0.073963525568040547 0.0055177081951529386 0 -0.07412291885888099 0.0057081071604473035 0 -0.074008285769946516 0.0057524896597986944 0 -0.074147059231149601 0.0059779372350921367 0 -0.074008285769946516 0.0057524896597986944 0 -0.074147059231149601 0.0059779372350921367 0 -0.073802998905075329 0.0061203343013639675 0 -0.074147059231149601 0.0059779372350921367 0 -0.073670352671944758 0.0065949576285702707 0 -0.07455023773003143 0.0060165684435145236 0 -0.074147059231149601 0.0059779372350921367 0 -0.073802998905075329 0.0061203343013639675 0 -0.073670352671944758 0.0065949576285702707 0 -0.068952442045298462 0.0028978590321766715 0 -0.073904519143495218 0.00088540939582051057 0 -0.073670352671944758 0.0065949576285702707 0 -0.073175023812253395 0.0062349019566643625 0 -0.072285399751406257 0.0073279806098507276 0 -0.073802998905075329 0.0061203343013639675 0 -0.073670352671944758 0.0065949576285702707 0 -0.073175023812253395 0.0062349019566643625 0 -0.067296359947266737 -0.0060489163979033991 0 -0.066631592752775415 -0.0050045161149628219 0 -0.065620278021311276 -0.0051840131007247821 0 -0.068952442045298462 0.0028978590321766715 0 -0.052873286158326281 0.012060221199753611 0 -0.067296359947266737 -0.0060489163979033991 0 -0.067845189638219491 -0.0049074249969784916 0 -0.068526155948612041 -0.005653969631444173 0 -0.067296359947266737 -0.0060489163979033991 0 -0.066631592752775415 -0.0050045161149628219 0 -0.067845189638219491 -0.0049074249969784916 0 -0.066807734097349261 -0.0038613279927081135 0 -0.067845189638219491 -0.0049074249969784916 0 -0.068461724865159154 -0.0039356495622820814 0 -0.047043616346956856 0.0089301695091119297 0 -0.050653599547625092 0.013255446585855115 0 -0.066807734097349261 -0.0038613279927081135 0 -0.066631592752775415 -0.0050045161149628219 0 -0.067845189638219491 -0.0049074249969784916 0 -0.066807734097349261 -0.0038613279927081135 0 -0.066631592752775415 -0.0050045161149628219 0 -0.065586048258414076 -0.0050251901651474154 0 -0.027731102479822019 0.019080186387928119 0 -0.027086680297538857 0.019570081467079677 0 -0.027450590709461785 0.020691802163526795 0 -0.030128673462466136 0.023753565239039133 0 -0.030779407207509994 0.02538972899366089 0 -0.029001587789332279 0.029686906851377766 0 -0.037355972380726847 0.020843415776513035 0 -0.050653599547625092 0.013255446585855115 0 -0.02627925859376529 0.019593647287435127 0 -0.027086680297538857 0.019570081467079677 0 -0.027450590709461785 0.020691802163526795 0 -0.030779407207509994 0.02538972899366089 0 -0.030855925121426576 0.026927571548833375 0 -0.029001587789332279 0.029686906851377766 0 -0.030779407207509994 0.02538972899366089 0 -0.030855925121426576 0.026927571548833375 0 -0.032197790358224058 0.02619570763568729 0 -0.030855925121426576 0.026927571548833375 0 -0.032197790358224058 0.02619570763568729 0 -0.031789587438460019 0.027282659646719033 0 -0.033477330394195745 0.026674783834342391 0 -0.031789587438460019 0.027282659646719033 0 -0.032494599979574608 0.028409830807135023 0 -0.033845081706220928 0.024823611662386464 0 -0.033477330394195745 0.026674783834342391 0 -0.032197790358224058 0.02619570763568729 0 -0.033477330394195745 0.026674783834342391 0 -0.032197790358224058 0.02619570763568729 0 -0.031789587438460019 0.027282659646719033 0 -0.030855925121426576 0.026927571548833375 0 -0.030977643523921024 0.028325564636652627 0 -0.029001587789332279 0.029686906851377766 0 -0.031789587438460019 0.027282659646719033 0 -0.032494599979574608 0.028409830807135023 0 -0.030977643523921024 0.028325564636652627 0 -0.030855925121426576 0.026927571548833375 0 -0.031789587438460019 0.027282659646719033 0 -0.030977643523921024 0.028325564636652627 0 -0.032494599979574608 0.028409830807135023 0 -0.0315130880920136 0.028990889110366836 0 -0.030977643523921024 0.028325564636652627 0 -0.0315130880920136 0.028990889110366836 0 -0.030977643523921024 0.028325564636652627 0 -0.030477349328597136 0.029394125217164904 0 -0.056347471390126455 0.012649841991134081 0 -0.058005050107841939 0.013166075996971718 0 -0.05851970669884804 0.014846891494446303 0 -0.030477349328597136 0.029394125217164904 0 -0.03264084591083366 0.030779027878948761 0 -0.029317167143479692 0.029986240329622924 0 -0.05537777800222525 0.016700393530118228 0 -0.051135841323618453 0.013343718468889151 0 -0.0315130880920136 0.028990889110366836 0 -0.030477349328597136 0.029394125217164904 0 -0.03264084591083366 0.030779027878948761 0 -0.032627020187724558 0.033311419361351791 0 -0.03264084591083366 0.030779027878948761 0 -0.029317167143479692 0.029986240329622924 0 -0.034491045466383673 0.028245391661614345 0 -0.032494599979574608 0.028409830807135023 0 -0.03264084591083366 0.030779027878948761 0 -0.032494599979574608 0.028409830807135023 0 -0.0315130880920136 0.028990889110366836 0 -0.03264084591083366 0.030779027878948761 0 -0.058005050107841939 0.013166075996971718 0 -0.058795239177488676 0.014706337613368871 0 -0.05851970669884804 0.014846891494446303 0 -0.066631592752775415 -0.0050045161149628219 0 -0.065586048258414076 -0.0050251901651474154 0 -0.065620278021311276 -0.0051840131007247821 0 -0.0604243357083937 0.0089839348858425754 0 -0.052873286158326281 0.012060221199753611 0 -0.030977643523921024 0.028325564636652627 0 -0.030477349328597136 0.029394125217164904 0 -0.029001587789332279 0.029686906851377766 0 -0.050653599547625092 0.013255446585855115 0 -0.051135841323618453 0.013343718468889151 0 -0.049674715828644585 0.014181058488427944 0 -0.051135841323618453 0.013343718468889151 0 -0.030477349328597136 0.029394125217164904 0 -0.029001587789332279 0.029686906851377766 0 -0.029307128743510033 0.029989809507459279 0 -0.050653599547625092 0.013255446585855115 0 -0.052873286158326281 0.012060221199753611 0 -0.048445340761119629 0.010479418295362006 0 -0.045884118703467452 0.022308855042047365 0 -0.055362858525673443 0.017471374530736005 0 -0.052873286158326281 0.012060221199753611 0 -0.051135841323618453 0.013343718468889151 0 -0.072756487574725456 0.020775798807901587 0 -0.073041832641572213 0.023292785267868186 0 -0.071930154970663504 0.02314631988685505 0 -0.071930154970663504 0.02314631988685505 0 -0.069892992136849311 0.022187018320414642 0 -0.071398030225691633 0.02475454718766101 0 -0.072756487574725456 0.020775798807901587 0 -0.071930154970663504 0.02314631988685505 0 -0.069892992136849311 0.022187018320414642 0 -0.073041832641572213 0.023292785267868186 0 -0.071930154970663504 0.02314631988685505 0 -0.072516490769696698 0.024466267522740219 0 -0.068573775754541239 0.019086235485114005 0 -0.068005983051882338 0.016943640778221095 0 -0.069892992136849311 0.022187018320414642 0 -0.071057528550707433 0.017898187041664401 0 -0.06781094803101069 0.018256194813211165 0 -0.069892992136849311 0.022187018320414642 0 -0.06924920412041459 0.017626042222541459 0 -0.066897467088832693 0.021128307863460375 0 -0.072756487574725456 0.020775798807901587 0 -0.069892992136849311 0.022187018320414642 0 -0.071057528550707433 0.017898187041664401 0 -0.071057528550707433 0.017898187041664401 0 -0.071997500838338141 0.014337635329872341 0 -0.066148637508363542 0.013805892384808161 0 -0.068005983051882338 0.016943640778221095 0 -0.066841225162647483 0.012763386739913838 0 -0.071057528550707433 0.017898187041664401 0 -0.06781094803101069 0.018256194813211165 0 -0.066148637508363542 0.013805892384808161 0 -0.06924920412041459 0.017626042222541459 0 -0.068288979636740313 0.012381023975430984 0 -0.064233697374681445 0.017924787123569673 0 -0.068288979636740313 0.012381023975430984 0 -0.061706774304807047 0.013135271926993345 0 -0.064233697374681445 0.017924787123569673 0 -0.064233697374681445 0.017924787123569673 0 -0.066897467088832693 0.021128307863460375 0 -0.063266382268358637 0.022305431878256073 0 -0.066897467088832693 0.021128307863460375 0 -0.063266382268358637 0.022305431878256073 0 -0.069371813298728435 0.026142587981860109 0 -0.069892992136849311 0.022187018320414642 0 -0.066897467088832693 0.021128307863460375 0 -0.069371813298728435 0.026142587981860109 0 -0.06924920412041459 0.017626042222541459 0 -0.064233697374681445 0.017924787123569673 0 -0.066897467088832693 0.021128307863460375 0 -0.063266382268358637 0.022305431878256073 0 -0.058655821905537399 0.023118818924647823 0 -0.062929062611023545 0.025798485425197748 0 -0.058655821905537399 0.023118818924647823 0 -0.05517042225609934 0.020573303952483173 0 -0.055261876814164612 0.025864073347629513 0 -0.05528317612327778 0.020038441563374775 0 -0.052974407939306703 0.021637469390153867 0 -0.058655821905537399 0.023118818924647823 0 -0.058238587669130884 0.018323689357521527 0 -0.05517042225609934 0.020573303952483173 0 -0.064233697374681445 0.017924787123569673 0 -0.063266382268358637 0.022305431878256073 0 -0.058238587669130884 0.018323689357521527 0 -0.063266382268358637 0.022305431878256073 0 -0.058655821905537399 0.023118818924647823 0 -0.058238587669130884 0.018323689357521527 0 -0.061706774304807047 0.013135271926993345 0 -0.064233697374681445 0.017924787123569673 0 -0.058238587669130884 0.018323689357521527 0 -0.061706774304807047 0.013135271926993345 0 -0.056814631206517606 0.013872508523312024 0 -0.058238587669130884 0.018323689357521527 0 -0.052915019185766278 0.011132526187184444 0 -0.056814631206517606 0.013872508523312024 0 -0.051527942160789798 0.016312814016614736 0 -0.058238587669130884 0.018323689357521527 0 -0.051527942160789798 0.016312814016614736 0 -0.051964540709363294 0.022520858688749149 0 -0.056814631206517606 0.013872508523312024 0 -0.058238587669130884 0.018323689357521527 0 -0.051527942160789798 0.016312814016614736 0 -0.052915019185766278 0.011132526187184444 0 -0.04788107291791914 0.011606476481618402 0 -0.051527942160789798 0.016312814016614736 0 -0.04788107291791914 0.011606476481618402 0 -0.045663101079202878 0.016207569287809129 0 -0.051527942160789798 0.016312814016614736 0 -0.045663101079202878 0.016207569287809129 0 -0.051527942160789798 0.016312814016614736 0 -0.047770790547498651 0.020392598516342234 0 -0.047770790547498651 0.020392598516342234 0 -0.051964540709363294 0.022520858688749149 0 -0.046952423405055579 0.025476883617967197 0 -0.051527942160789798 0.016312814016614736 0 -0.047770790547498651 0.020392598516342234 0 -0.051964540709363294 0.022520858688749149 0 -0.05517042225609934 0.020573303952483173 0 -0.05065414416826311 0.02331063856623895 0 -0.055261876814164612 0.025864073347629513 0 -0.052974407939306703 0.021637469390153867 0 -0.048852824670865082 0.024418788089912411 0 -0.047950843604099735 0.029124007728445731 0 -0.05065414416826311 0.02331063856623895 0 -0.05149576234153394 0.029355631753670744 0 -0.05065414416826311 0.02331063856623895 0 -0.055261876814164612 0.025864073347629513 0 -0.05149576234153394 0.029355631753670744 0 -0.055261876814164612 0.025864073347629513 0 -0.05149576234153394 0.029355631753670744 0 -0.055934866261203503 0.030775344733969631 0 -0.063649343959884933 0.029078289719510063 0 -0.066490826743652698 0.029371885514012784 0 -0.048662699512311253 0.033435816306060233 0 -0.05149576234153394 0.029355631753670744 0 -0.052655840828535 0.034651003626077648 0 -0.048662699512311253 0.033435816306060233 0 -0.052655840828535 0.034651003626077648 0 -0.05079948014260853 0.037211698084312309 0 -0.052655840828535 0.034651003626077648 0 -0.05079948014260853 0.037211698084312309 0 -0.054085606906969758 0.039562947845704355 0 -0.066490826743652698 0.029371885514012784 0 -0.074618444815468421 0.02601441139247683 0 -0.052715254580062099 0.034021729918754427 0 -0.056636371708567931 0.035333852029130808 0 -0.054091279721750221 0.038498523678515688 0 -0.068486860756980156 0.031873214151254763 0 -0.074618444815468421 0.02601441139247683 0 -0.056636371708567931 0.035333852029130808 0 -0.057354111541629033 0.038059960519477208 0 -0.054180450070090369 0.038474924912879543 0 -0.05149576234153394 0.029355631753670744 0 -0.052715254580062099 0.034021729918754427 0 -0.055934866261203503 0.030775344733969631 0 -0.052715254580062099 0.034021729918754427 0 -0.055934866261203503 0.030775344733969631 0 -0.056636371708567931 0.035333852029130808 0 -0.055934866261203503 0.030775344733969631 0 -0.058775067005867841 0.032721562866215421 0 -0.056636371708567931 0.035333852029130808 0 -0.056636371708567931 0.035333852029130808 0 -0.06031860870768032 0.037103331351165669 0 -0.057354111541629033 0.038059960519477208 0 -0.058775067005867841 0.032721562866215421 0 -0.056636371708567931 0.035333852029130808 0 -0.06031860870768032 0.037103331351165669 0 -0.06031860870768032 0.037103331351165669 0 -0.062598665408369322 0.032540631644230093 0 -0.064356378723437788 0.036114239399886075 0 -0.058775067005867841 0.032721562866215421 0 -0.06031860870768032 0.037103331351165669 0 -0.062598665408369322 0.032540631644230093 0 -0.058775067005867841 0.032721562866215421 0 -0.062598665408369322 0.032540631644230093 0 -0.059676284724773175 0.028568991903175911 0 -0.062598665408369322 0.032540631644230093 0 -0.059676284724773175 0.028568991903175911 0 -0.064444697675766618 0.029030456032827678 0 -0.059676284724773175 0.028568991903175911 0 -0.062929062611023545 0.025798485425197748 0 -0.064444697675766618 0.029030456032827678 0 -0.055261876814164612 0.025864073347629513 0 -0.055934866261203503 0.030775344733969631 0 -0.059676284724773175 0.028568991903175911 0 -0.055934866261203503 0.030775344733969631 0 -0.058775067005867841 0.032721562866215421 0 -0.059676284724773175 0.028568991903175911 0 -0.058655821905537399 0.023118818924647823 0 -0.055261876814164612 0.025864073347629513 0 -0.059676284724773175 0.028568991903175911 0 -0.058655821905537399 0.023118818924647823 0 -0.059676284724773175 0.028568991903175911 0 -0.062929062611023545 0.025798485425197748 0 -0.063266382268358637 0.022305431878256073 0 -0.062929062611023545 0.025798485425197748 0 -0.069371813298728435 0.026142587981860109 0 -0.071415897132510162 0.026562644548333219 0 -0.071688856768463177 0.027364761720036455 0 -0.069371813298728435 0.026142587981860109 0 -0.064444697675766618 0.029030456032827678 0 -0.06836351573070118 0.032127607576483419 0 -0.069371813298728435 0.026142587981860109 0 -0.073768357763667289 0.025921527543387883 0 -0.07185126242841415 0.025998527699205836 0 -0.062929062611023545 0.025798485425197748 0 -0.069371813298728435 0.026142587981860109 0 -0.064444697675766618 0.029030456032827678 0 -0.062598665408369322 0.032540631644230093 0 -0.064356378723437788 0.036114239399886075 0 -0.06836351573070118 0.032127607576483419 0 -0.062598665408369322 0.032540631644230093 0 -0.064444697675766618 0.029030456032827678 0 -0.06836351573070118 0.032127607576483419 0 -0.064356378723437788 0.036114239399886075 0 -0.067649626547693506 0.037121390415302963 0 -0.06836351573070118 0.032127607576483419 0 -0.072230443504172251 0.027723081413269023 0 -0.071688856768463177 0.027364761720036455 0 -0.078173721893101678 0.023112328826218876 0 -0.073768357763667289 0.025921527543387883 0 -0.074911303234743903 0.024264193545083409 0 -0.078173721893101678 0.023112328826218876 0 -0.074911303234743903 0.024264193545083409 0 -0.075840462393603467 0.021987183444928862 0 -0.073768357763667289 0.025921527543387883 0 -0.073109410977526032 0.025078039370995928 0 -0.07185126242841415 0.025998527699205836 0 -0.073768357763667289 0.025921527543387883 0 -0.073109410977526032 0.025078039370995928 0 -0.074911303234743903 0.024264193545083409 0 -0.073109410977526032 0.025078039370995928 0 -0.074911303234743903 0.024264193545083409 0 -0.073980111050299377 0.023796242016323233 0 -0.074911303234743903 0.024264193545083409 0 -0.073980111050299377 0.023796242016323233 0 -0.075840462393603467 0.021987183444928862 0 -0.073109410977526032 0.025078039370995928 0 -0.073980111050299377 0.023796242016323233 0 -0.072259950645527954 0.023602999986360118 0 -0.072234826383806364 0.024897541284090694 0 -0.073109410977526032 0.025078039370995928 0 -0.072259950645527954 0.023602999986360118 0 -0.073109410977526032 0.025078039370995928 0 -0.072319009976679463 0.025536533414655636 0 -0.07185126242841415 0.025998527699205836 0 -0.072234826383806364 0.024897541284090694 0 -0.073109410977526032 0.025078039370995928 0 -0.072319009976679463 0.025536533414655636 0 -0.072508671095819308 0.02519721243838844 0 -0.072319009976679463 0.025536533414655636 0 -0.072111504487240699 0.025329450436307844 0 -0.072508671095819308 0.02519721243838844 0 -0.072111504487240699 0.025329450436307844 0 -0.072516490769696698 0.024466267522740219 0 -0.072319009976679463 0.025536533414655636 0 -0.072111504487240699 0.025329450436307844 0 -0.07185126242841415 0.025998527699205836 0 -0.069371813298728435 0.026142587981860109 0 -0.07185126242841415 0.025998527699205836 0 -0.071398030225691633 0.02475454718766101 0 -0.072111504487240699 0.025329450436307844 0 -0.07185126242841415 0.025998527699205836 0 -0.071398030225691633 0.02475454718766101 0 -0.069892992136849311 0.022187018320414642 0 -0.069371813298728435 0.026142587981860109 0 -0.071398030225691633 0.02475454718766101 0 -0.071930154970663504 0.02314631988685505 0 -0.071398030225691633 0.02475454718766101 0 -0.072516490769696698 0.024466267522740219 0 -0.072111504487240699 0.025329450436307844 0 -0.071398030225691633 0.02475454718766101 0 -0.072516490769696698 0.024466267522740219 0 -0.083565515961049566 0.0035662280853699748 0 -0.083248576763519253 0.0016939507510437036 0 -0.065009319926617501 0.00072880650142134837 0 -0.070064058889260608 0.0043958552648625361 0 -0.07318601458450022 -0.0011855080163159718 0 -0.070064058889260608 0.0043958552648625361 0 -0.074155066001497683 0.0047341720688421482 0 -0.071741197938591877 0.0081596515285845429 0 -0.065009319926617501 0.00072880650142134837 0 -0.070064058889260608 0.0043958552648625361 0 -0.06758378712355359 0.0054290100843816498 0 -0.070064058889260608 0.0043958552648625361 0 -0.074155066001497683 0.0047341720688421482 0 -0.07318601458450022 -0.0011855080163159718 0 -0.077471806428626486 0.0023293487094027229 0 -0.074155066001497683 0.0047341720688421482 0 -0.07318601458450022 -0.0011855080163159718 0 -0.077471806428626486 0.0023293487094027229 0 -0.084925899922756995 -0.0023351709027942531 0 -0.07318601458450022 -0.0011855080163159718 0 -0.077471806428626486 0.0023293487094027229 0 -0.081394726255791347 0.0019597047643771306 0 -0.084925899922756995 -0.0023351709027942531 0 -0.081394726255791347 0.0019597047643771306 0 -0.077796621186238507 0.0056685614018936164 0 -0.080292616408111375 0.0055818387910531383 0 -0.077471806428626486 0.0023293487094027229 0 -0.081394726255791347 0.0019597047643771306 0 -0.077796621186238507 0.0056685614018936164 0 -0.077471806428626486 0.0023293487094027229 0 -0.077796621186238507 0.0056685614018936164 0 -0.074155066001497683 0.0047341720688421482 0 -0.077796621186238507 0.0056685614018936164 0 -0.074155066001497683 0.0047341720688421482 0 -0.074786512818978149 0.0080559175532417676 0 -0.077796621186238507 0.0056685614018936164 0 -0.074786512818978149 0.0080559175532417676 0 -0.0768744563472301 0.010030389168820219 0 -0.074786512818978149 0.0080559175532417676 0 -0.073781992695262699 0.011627018513288954 0 -0.071741197938591877 0.0081596515285845429 0 -0.077796621186238507 0.0056685614018936164 0 -0.0768744563472301 0.010030389168820219 0 -0.080001575975986353 0.0081672197351754499 0 -0.077796621186238507 0.0056685614018936164 0 -0.080001575975986353 0.0081672197351754499 0 -0.080292616408111375 0.0055818387910531383 0 -0.0768744563472301 0.010030389168820219 0 -0.073781992695262699 0.011627018513288954 0 -0.076728572854700736 0.014582427127300431 0 -0.0768744563472301 0.010030389168820219 0 -0.079664984845136982 0.011485213920671353 0 -0.080001575975986353 0.0081672197351754499 0 -0.0768744563472301 0.010030389168820219 0 -0.076728572854700736 0.014582427127300431 0 -0.079664984845136982 0.011485213920671353 0 -0.074786512818978149 0.0080559175532417676 0 -0.0768744563472301 0.010030389168820219 0 -0.073781992695262699 0.011627018513288954 0 -0.073781992695262699 0.011627018513288954 0 -0.070755626027930923 0.01088686930784002 0 -0.071741197938591877 0.0081596515285845429 0 -0.074155066001497683 0.0047341720688421482 0 -0.074786512818978149 0.0080559175532417676 0 -0.071741197938591877 0.0081596515285845429 0 -0.070755626027930923 0.01088686930784002 0 -0.071741197938591877 0.0081596515285845429 0 -0.068676242285842848 0.0083844177474508372 0 -0.070064058889260608 0.0043958552648625361 0 -0.06758378712355359 0.0054290100843816498 0 -0.068676242285842848 0.0083844177474508372 0 -0.070064058889260608 0.0043958552648625361 0 -0.071741197938591877 0.0081596515285845429 0 -0.068676242285842848 0.0083844177474508372 0 -0.066553193768408805 0.0081695814655859643 0 -0.06758378712355359 0.0054290100843816498 0 -0.068676242285842848 0.0083844177474508372 0 -0.066079901180603903 0.0093149012922065233 0 -0.068676242285842848 0.0083844177474508372 0 -0.068235829415843219 0.011287812897112434 0 -0.070755626027930923 0.01088686930784002 0 -0.068676242285842848 0.0083844177474508372 0 -0.068235829415843219 0.011287812897112434 0 -0.066605766666126526 0.01344806848970367 0 -0.068235829415843219 0.011287812897112434 0 -0.070963490623638617 0.014342540456272979 0 -0.070755626027930923 0.01088686930784002 0 -0.068235829415843219 0.011287812897112434 0 -0.070963490623638617 0.014342540456272979 0 -0.073781992695262699 0.011627018513288954 0 -0.070755626027930923 0.01088686930784002 0 -0.070963490623638617 0.014342540456272979 0 -0.069951676926756093 0.014741517224283554 0 -0.069923856230477699 0.017885982319421782 0 -0.072819403036305186 0.018859192922689064 0 -0.067186319488071855 0.016783909649518126 0 -0.069951676926756093 0.014741517224283554 0 -0.069923856230477699 0.017885982319421782 0 -0.067186319488071855 0.016783909649518126 0 -0.069923856230477699 0.017885982319421782 0 -0.068868409489406521 0.021675865752286277 0 -0.069923856230477699 0.017885982319421782 0 -0.068868409489406521 0.021675865752286277 0 -0.072819403036305186 0.018859192922689064 0 -0.072030563473863218 0.01910610921334667 0 -0.073601311212645473 0.019801078335549099 0 -0.068868409489406521 0.021675865752286277 0 -0.075840462393603467 0.021987183444928862 0 -0.072819403036305186 0.018859192922689064 0 -0.073980111050299377 0.023796242016323233 0 -0.072259950645527954 0.023602999986360118 0 -0.075840462393603467 0.021987183444928862 0 -0.075840462393603467 0.021987183444928862 0 -0.072819403036305186 0.018859192922689064 0 -0.07750027598148819 0.018731965358637151 0 -0.073781992695262699 0.011627018513288954 0 -0.070963490623638617 0.014342540456272979 0 -0.076728572854700736 0.014582427127300431 0 -0.072831124414950418 0.011920140815137559 0 -0.073646162278054816 0.01227536597079195 0 -0.072819403036305186 0.018859192922689064 0 -0.076728572854700736 0.014582427127300431 0 -0.07750027598148819 0.018731965358637151 0 -0.069951676926756093 0.014741517224283554 0 -0.072819403036305186 0.018859192922689064 0 -0.076728572854700736 0.014582427127300431 0 -0.076728572854700736 0.014582427127300431 0 -0.082294715221459744 0.015489206660274812 0 -0.079664984845136982 0.011485213920671353 0 -0.076728572854700736 0.014582427127300431 0 -0.082294715221459744 0.015489206660274812 0 -0.07750027598148819 0.018731965358637151 0 -0.082294715221459744 0.015489206660274812 0 -0.081833206309872827 0.009624321571105451 0 -0.079664984845136982 0.011485213920671353 0 -0.067649626547693506 0.037121390415302963 0 -0.067086467900842967 0.041993968889982497 0 -0.065310628261257525 0.039200948561847228 0 -0.078173721893101678 0.023112328826218876 0 -0.082294715221459744 0.015489206660274812 0 -0.07750027598148819 0.018731965358637151 0 -0.072230443504172251 0.027723081413269023 0 -0.072560666462776216 0.025878872980614108 0 -0.078173721893101678 0.023112328826218876 0 -0.075840462393603467 0.021987183444928862 0 -0.07750027598148819 0.018731965358637151 0 -0.064356378723437788 0.036114239399886075 0 -0.065310628261257525 0.039200948561847228 0 -0.063233644332865394 0.039084423672819411 0 -0.064356378723437788 0.036114239399886075 0 -0.067649626547693506 0.037121390415302963 0 -0.065310628261257525 0.039200948561847228 0 -0.065310628261257525 0.039200948561847228 0 -0.064208233731401915 0.041633346273173992 0 -0.063233644332865394 0.039084423672819411 0 -0.067086467900842967 0.041993968889982497 0 -0.065310628261257525 0.039200948561847228 0 -0.064208233731401915 0.041633346273173992 0 -0.067086467900842967 0.041993968889982497 0 -0.064208233731401915 0.041633346273173992 0 -0.065124482770058403 0.043658832543115589 0 -0.064208233731401915 0.041633346273173992 0 -0.065124482770058403 0.043658832543115589 0 -0.062574504745784867 0.044089837603123405 0 -0.067086467900842967 0.041993968889982497 0 -0.065124482770058403 0.043658832543115589 0 -0.066644885137110782 0.046768346601847907 0 -0.089094027660228392 0.0043032753666033463 0 -0.086698270873683494 0.004181598159712873 0 -0.09040738827101609 0.0062715628852552212 0 -0.072243427919339021 0.019169114044820957 0 -0.075359460006033052 0.023336184028813749 0 -0.065124482770058403 0.043658832543115589 0 -0.066644885137110782 0.046768346601847907 0 -0.062574504745784867 0.044089837603123405 0 -0.082294715221459744 0.015489206660274812 0 -0.081833206309872827 0.009624321571105451 0 -0.084714978301942828 0.0068802130177836856 0 -0.072560666462776216 0.025878872980614108 0 -0.072243427919339021 0.019169114044820957 0 -0.081833206309872827 0.009624321571105451 0 -0.079664984845136982 0.011485213920671353 0 -0.080001575975986353 0.0081672197351754499 0 -0.081833206309872827 0.009624321571105451 0 -0.080001575975986353 0.0081672197351754499 0 -0.081917261059312185 0.0063615054187884578 0 -0.080001575975986353 0.0081672197351754499 0 -0.081917261059312185 0.0063615054187884578 0 -0.080292616408111375 0.0055818387910531383 0 -0.081833206309872827 0.009624321571105451 0 -0.081917261059312185 0.0063615054187884578 0 -0.084714978301942828 0.0068802130177836856 0 -0.086505106005065696 0.0028953121999496559 0 -0.08502472126231185 0.00027644690711068189 0 -0.085688933014483146 -0.0018488279911119212 0 -0.072243427919339021 0.019169114044820957 0 -0.072389515545038863 0.018646853265538492 0 -0.081394726255791347 0.0019597047643771306 0 -0.086409725274021354 0.0041504431355698481 0 -0.086505106005065696 0.0028953121999496559 0 -0.081394726255791347 0.0019597047643771306 0 -0.086505106005065696 0.0028953121999496559 0 -0.08502472126231185 0.00027644690711068189 0 -0.081394726255791347 0.0019597047643771306 0 -0.081917261059312185 0.0063615054187884578 0 -0.080292616408111375 0.0055818387910531383 0 -0.073162055841635668 0.016797902542646185 0 -0.072243427919339021 0.019169114044820957 0 -0.081394726255791347 0.0019597047643771306 0 -0.081917261059312185 0.0063615054187884578 0 -0.084714978301942828 0.0068802130177836856 0 -0.081394726255791347 0.0019597047643771306 0 -0.08502472126231185 0.00027644690711068189 0 -0.084925899922756995 -0.0023351709027942531 0 -0.089703750230588991 0.0019029219142439526 0 -0.089670218316216604 0.00090482352854650866 0 -0.089094027660228392 0.0043032753666033463 0 -0.090341102404305706 0.0035375979972603585 0 -0.089622055008664617 0.0029013694697344419 0 -0.089094027660228392 0.0043032753666033463 0 -0.086505106005065696 0.0028953121999496559 0 -0.085688933014483146 -0.0018488279911119212 0 -0.089094027660228392 0.0043032753666033463 0 -0.089622055008664617 0.0029013694697344419 0 -0.088714439839660431 0.002606546218235303 0 -0.089094027660228392 0.0043032753666033463 0 -0.086698270873683494 0.004181598159712873 0 -0.086505106005065696 0.0028953121999496559 0 -0.091363270585818626 0.0041714606717294014 0 -0.090341102404305706 0.0035375979972603585 0 -0.09055483767756263 0.0048339665255348148 0 -0.089094027660228392 0.0043032753666033463 0 -0.090341102404305706 0.0035375979972603585 0 -0.09055483767756263 0.0048339665255348148 0 -0.090341102404305706 0.0035375979972603585 0 -0.091216885122946498 0.0032622258962415195 0 -0.090487291978098031 0.0024027816729491583 0 -0.091363270585818626 0.0041714606717294014 0 -0.090341102404305706 0.0035375979972603585 0 -0.091216885122946498 0.0032622258962415195 0 -0.091363270585818626 0.0041714606717294014 0 -0.091216885122946498 0.0032622258962415195 0 -0.091986317392134781 0.0036163462523139483 0 -0.091216885122946498 0.0032622258962415195 0 -0.091986317392134781 0.0036163462523139483 0 -0.091917440683291662 0.0027007412295773294 0 -0.091986317392134781 0.0036163462523139483 0 -0.093081046258855063 0.0036068128446207263 0 -0.091917440683291662 0.0027007412295773294 0 -0.091986317392134781 0.0036163462523139483 0 -0.092459737458344238 0.0046419390519498779 0 -0.093081046258855063 0.0036068128446207263 0 -0.091363270585818626 0.0041714606717294014 0 -0.091986317392134781 0.0036163462523139483 0 -0.092459737458344238 0.0046419390519498779 0 -0.091363270585818626 0.0041714606717294014 0 -0.092459737458344238 0.0046419390519498779 0 -0.092010024634177248 0.0057298346467065161 0 -0.092459737458344238 0.0046419390519498779 0 -0.092010024634177248 0.0057298346467065161 0 -0.093718847063286342 0.0061696624675732677 0 -0.092010024634177248 0.0057298346467065161 0 -0.09055483767756263 0.0048339665255348148 0 -0.09040738827101609 0.0062715628852552212 0 -0.091363270585818626 0.0041714606717294014 0 -0.092010024634177248 0.0057298346467065161 0 -0.09055483767756263 0.0048339665255348148 0 -0.089094027660228392 0.0043032753666033463 0 -0.09055483767756263 0.0048339665255348148 0 -0.09040738827101609 0.0062715628852552212 0 -0.064208233731401915 0.041633346273173992 0 -0.062574504745784867 0.044089837603123405 0 -0.061517475331261354 0.04106433062790886 0 -0.062574504745784867 0.044089837603123405 0 -0.061517475331261354 0.04106433062790886 0 -0.058351895054103993 0.041319909958644513 0 -0.075359460006033052 0.023336184028813749 0 -0.075075417304357434 0.024637800492867925 0 -0.06031860870768032 0.037103331351165669 0 -0.064356378723437788 0.036114239399886075 0 -0.063233644332865394 0.039084423672819411 0 -0.06031860870768032 0.037103331351165669 0 -0.061517475331261354 0.04106433062790886 0 -0.063233644332865394 0.039084423672819411 0 -0.06031860870768032 0.037103331351165669 0 -0.061517475331261354 0.04106433062790886 0 -0.058351895054103993 0.041319909958644513 0 -0.064208233731401915 0.041633346273173992 0 -0.061517475331261354 0.04106433062790886 0 -0.063233644332865394 0.039084423672819411 0 -0.06031860870768032 0.037103331351165669 0 -0.057354111541629033 0.038059960519477208 0 -0.058351895054103993 0.041319909958644513 0 -0.057354111541629033 0.038059960519477208 0 -0.058351895054103993 0.041319909958644513 0 -0.054180450070090369 0.038474924912879543 0 -0.092010024634177248 0.0057298346467065161 0 -0.092228738448499284 0.0074527804542580071 0 -0.093718847063286342 0.0061696624675732677 0 -0.092010024634177248 0.0057298346467065161 0 -0.09040738827101609 0.0062715628852552212 0 -0.092228738448499284 0.0074527804542580071 0 -0.092228738448499284 0.0074527804542580071 0 -0.094127412747681785 0.0088367617255361228 0 -0.093718847063286342 0.0061696624675732677 0 -0.09373891287921346 0.011245014097616683 0 -0.095509966062109625 0.0090377546953041375 0 -0.093200177919327595 0.0076377837468967731 0 -0.074618444815468421 0.02601441139247683 0 -0.083515264714479287 0.011167035352615273 0 -0.075075417304357434 0.024637800492867925 0 -0.074618444815468421 0.02601441139247683 0 -0.054085606906969758 0.039562947845704355 0 -0.050466955293656933 0.040115776178707846 0 -0.051063896309045641 0.043280303240878421 0 -0.074618444815468421 0.02601441139247683 0 -0.073860976294995925 0.022136958238394566 0 -0.047777666419668172 0.037654172402887841 0 -0.05079948014260853 0.037211698084312309 0 -0.050466955293656933 0.040115776178707846 0 -0.05079948014260853 0.037211698084312309 0 -0.054085606906969758 0.039562947845704355 0 -0.050466955293656933 0.040115776178707846 0 -0.050466955293656933 0.040115776178707846 0 -0.051063896309045641 0.043280303240878421 0 -0.04769306948050165 0.041900586280394683 0 -0.095509966062109625 0.0090377546953041375 0 -0.095625661772996959 0.0074540540344883331 0 -0.093200177919327595 0.0076377837468967731 0 -0.095509966062109625 0.0090377546953041375 0 -0.095625661772996959 0.0074540540344883331 0 -0.097051939352835764 0.0070669106742641992 0 -0.073860976294995925 0.022136958238394566 0 -0.075852445435995272 0.014229233120762061 0 -0.095625661772996959 0.0074540540344883331 0 -0.096017817401801403 0.0060105407961714447 0 -0.097051939352835764 0.0070669106742641992 0 -0.096017817401801403 0.0060105407961714447 0 -0.094555717270855738 0.0065117766039396573 0 -0.09399535674809234 0.0049298446204914794 0 -0.095625661772996959 0.0074540540344883331 0 -0.094555717270855738 0.0065117766039396573 0 -0.093200177919327595 0.0076377837468967731 0 -0.095625661772996959 0.0074540540344883331 0 -0.096017817401801403 0.0060105407961714447 0 -0.094555717270855738 0.0065117766039396573 0 -0.083515264714479287 0.011167035352615273 0 -0.087303534217775869 0.0062429834062502337 0 -0.092459737458344238 0.0046419390519498779 0 -0.093718847063286342 0.0061696624675732677 0 -0.093081046258855063 0.0036068128446207263 0 -0.094555717270855738 0.0065117766039396573 0 -0.093200177919327595 0.0076377837468967731 0 -0.09399535674809234 0.0049298446204914794 0 -0.093200177919327595 0.0076377837468967731 0 -0.09399535674809234 0.0049298446204914794 0 -0.09272167603751523 0.0043694607769363845 0 -0.09272167603751523 0.0043694607769363845 0 -0.094055076495109302 0.0039733351098235111 0 -0.093162208363356536 0.0029730924176064872 0 -0.09399535674809234 0.0049298446204914794 0 -0.09272167603751523 0.0043694607769363845 0 -0.094055076495109302 0.0039733351098235111 0 -0.082330193150808195 0.012780575703920613 0 -0.085180400799125158 0.012001736485488525 0 -0.095840797961951024 0.0059279120623486579 0 -0.09399535674809234 0.0049298446204914794 0 -0.094055076495109302 0.0039733351098235111 0 -0.082330193150808195 0.012780575703920613 0 -0.085642640595294584 0.012794131048376825 0 -0.095478116764248513 0.00552241003844173 0 -0.094055076495109302 0.0039733351098235111 0 -0.094952904866634089 0.0041385419117084465 0 -0.095478116764248513 0.00552241003844173 0 -0.094952904866634089 0.0041385419117084465 0 -0.09644189309068725 0.0059493855928234975 0 -0.087204261751252385 0.0083964769052975539 0 -0.079832608307620831 0.010851631538234792 0 -0.094151708325449113 0.0023762633688715847 0 -0.094442082674628294 0.002375976663809177 0 -0.094365152732315744 0.0021744189105740112 0 -0.094151708325449113 0.0023762633688715847 0 -0.094203377405101915 0.0019758236183138583 0 -0.093414673069573823 0.0019766719797145349 0 -0.094203377405101915 0.0019758236183138583 0 -0.094334422927102188 0.0017502199342600984 0 -0.094447789356894851 0.0019629710219041066 0 -0.094203377405101915 0.0019758236183138583 0 -0.094447789356894851 0.0019629710219041066 0 -0.094365152732315744 0.0021744189105740112 0 -0.094151708325449113 0.0023762633688715847 0 -0.094203377405101915 0.0019758236183138583 0 -0.094365152732315744 0.0021744189105740112 0 -0.094055076495109302 0.0039733351098235111 0 -0.094952904866634089 0.0041385419117084465 0 -0.093414673069573823 0.0019766719797145349 0 -0.094055076495109302 0.0039733351098235111 0 -0.093162208363356536 0.0029730924176064872 0 -0.093414673069573823 0.0019766719797145349 0 -0.094203377405101915 0.0019758236183138583 0 -0.093414673069573823 0.0019766719797145349 0 -0.094033922251320665 0.0017050703462418713 0 -0.087204261751252385 0.0083964769052975539 0 -0.088616483657979001 0.0069910003173707961 0 -0.093162208363356536 0.0029730924176064872 0 -0.093414673069573823 0.0019766719797145349 0 -0.092517872643411755 0.0016004617156660725 0 -0.093414673069573823 0.0019766719797145349 0 -0.094033922251320665 0.0017050703462418713 0 -0.093524993313302232 0.00092009708081759896 0 -0.093414673069573823 0.0019766719797145349 0 -0.093524993313302232 0.00092009708081759896 0 -0.092517872643411755 0.0016004617156660725 0 -0.094033922251320665 0.0017050703462418713 0 -0.093524993313302232 0.00092009708081759896 0 -0.094347052267519285 0.00062878396802274318 0 -0.094033922251320665 0.0017050703462418713 0 -0.094347052267519285 0.00062878396802274318 0 -0.095099271313295125 0.00015910152531806857 0 -0.094033922251320665 0.0017050703462418713 0 -0.094334422927102188 0.0017502199342600984 0 -0.094415865889542205 0.0014612683132743109 0 -0.094182354298863194 0.0011859761204983893 0 -0.094413261693164718 0.00081616026389338112 0 -0.094203377405101915 0.0019758236183138583 0 -0.094033922251320665 0.0017050703462418713 0 -0.094334422927102188 0.0017502199342600984 0 -0.094347052267519285 0.00062878396802274318 0 -0.094630702125943419 -0.00011380218947301638 0 -0.095099271313295125 0.00015910152531806857 0 -0.094999627600439437 -2.0284665422130542e-07 0 -0.094630702125943419 -0.00011380218947301638 0 -0.09499947911090427 1.0085126967194851e-07 0 -0.094999627600439437 -2.0284665422130542e-07 0 -0.094630702125943419 -0.00011380218947301638 0 -0.095099271313295125 0.00015910152531806857 0 -0.094630702125943419 -0.00011380218947301638 0 -0.09499947911090427 1.0085126967194851e-07 0 -0.09497738368266688 -0.0001180490314833449 0 -0.093524993313302232 0.00092009708081759896 0 -0.094347052267519285 0.00062878396802274318 0 -0.094630702125943419 -0.00011380218947301638 0 -0.093884039711665465 3.6942918448755817e-05 0 -0.093653261009559924 0.00010981009881705338 0 -0.093524993313302232 0.00092009708081759896 0 -0.094630702125943419 -0.00011380218947301638 0 -0.092781396736521832 -7.3859713122106409e-05 0 -0.092781396736521832 -7.3859713122106409e-05 0 -0.091867352249651979 0.00096462990300277319 0 -0.092671258839756784 0.00085834257143491632 0 -0.093524993313302232 0.00092009708081759896 0 -0.092781396736521832 -7.3859713122106409e-05 0 -0.092671258839756784 0.00085834257143491632 0 -0.092781396736521832 -7.3859713122106409e-05 0 -0.091206762379754724 0.00027346995596733153 0 -0.091867352249651979 0.00096462990300277319 0 -0.093653261009559924 0.00010981009881705338 0 -0.093223406544419185 0.00028287297291893908 0 -0.09499947911090427 1.0085126967194851e-07 0 -0.09497738368266688 -0.0001180490314833449 0 -0.095000376712411044 -1.3081372019255667e-07 0 -0.09497738368266688 -0.0001180490314833449 0 -0.095000376712411044 -1.3081372019255667e-07 0 -0.095044318570582903 -0.00013443756983507201 0 -0.094996974702749773 -1.3250926896146342e-07 0 -0.093223406544419185 0.00028287297291893908 0 -0.095000128778765236 3.9500695645863697e-08 0 -0.095022211143908561 7.0004023005023141e-05 0 -0.094995025931801688 4.076581209875646e-05 0 -0.093223406544419185 0.00028287297291893908 0 -0.092152727529516379 0.00033563399618947456 0 -0.090893038868730833 -0.00031820716927782552 0 -0.090679976308431998 0.0010363443202907607 0 -0.089350186565612902 0.00019191127815187869 0 -0.090948170180630283 0.0013622390702674474 0 -0.091867352249651979 0.00096462990300277319 0 -0.091602636888809819 0.0018418308130622883 0 -0.093223406544419185 0.00028287297291893908 0 -0.092606934609712199 0.0010390371392449641 0 -0.091206762379754724 0.00027346995596733153 0 -0.090948170180630283 0.0013622390702674474 0 -0.091867352249651979 0.00096462990300277319 0 -0.091867352249651979 0.00096462990300277319 0 -0.092671258839756784 0.00085834257143491632 0 -0.092517872643411755 0.0016004617156660725 0 -0.093524993313302232 0.00092009708081759896 0 -0.092671258839756784 0.00085834257143491632 0 -0.092517872643411755 0.0016004617156660725 0 -0.091867352249651979 0.00096462990300277319 0 -0.092517872643411755 0.0016004617156660725 0 -0.091602636888809819 0.0018418308130622883 0 -0.092517872643411755 0.0016004617156660725 0 -0.091602636888809819 0.0018418308130622883 0 -0.091917440683291662 0.0027007412295773294 0 -0.093081046258855063 0.0036068128446207263 0 -0.092517872643411755 0.0016004617156660725 0 -0.091917440683291662 0.0027007412295773294 0 -0.087303534217775869 0.0062429834062502337 0 -0.088289815417251644 0.0044751950377035568 0 -0.09272167603751523 0.0043694607769363845 0 -0.093162208363356536 0.0029730924176064872 0 -0.092517872643411755 0.0016004617156660725 0 -0.091216885122946498 0.0032622258962415195 0 -0.091917440683291662 0.0027007412295773294 0 -0.090487291978098031 0.0024027816729491583 0 -0.090341102404305706 0.0035375979972603585 0 -0.090487291978098031 0.0024027816729491583 0 -0.089622055008664617 0.0029013694697344419 0 -0.090679976308431998 0.0010363443202907607 0 -0.090487291978098031 0.0024027816729491583 0 -0.089433098233096295 0.0015401049128963297 0 -0.092606934609712199 0.0010390371392449641 0 -0.092386698975461798 0.0014198401115427203 0 -0.090948170180630283 0.0013622390702674474 0 -0.091602636888809819 0.0018418308130622883 0 -0.090487291978098031 0.0024027816729491583 0 -0.091602636888809819 0.0018418308130622883 0 -0.091917440683291662 0.0027007412295773294 0 -0.090487291978098031 0.0024027816729491583 0 -0.090487291978098031 0.0024027816729491583 0 -0.089622055008664617 0.0029013694697344419 0 -0.089433098233096295 0.0015401049128963297 0 -0.089622055008664617 0.0029013694697344419 0 -0.088714439839660431 0.002606546218235303 0 -0.089433098233096295 0.0015401049128963297 0 -0.088714439839660431 0.002606546218235303 0 -0.087843974830685539 0.00070092940058823086 0 -0.089433098233096295 0.0015401049128963297 0 -0.085688933014483146 -0.0018488279911119212 0 -0.085393198134701323 0.0010527627922841717 0 -0.086764470228382712 -0.00079126397240814083 0 -0.08502472126231185 0.00027644690711068189 0 -0.085688933014483146 -0.0018488279911119212 0 -0.084925899922756995 -0.0023351709027942531 0 -0.085688933014483146 -0.0018488279911119212 0 -0.084925899922756995 -0.0023351709027942531 0 -0.086764470228382712 -0.00079126397240814083 0 -0.089670218316216604 0.00090482352854650866 0 -0.091018021758839121 0.00045801445249748666 0 -0.091018021758839121 0.00045801445249748666 0 -0.092152727529516379 0.00033563399618947456 0 -0.087843974830685539 0.00070092940058823086 0 -0.089433098233096295 0.0015401049128963297 0 -0.089350186565612902 0.00019191127815187869 0 -0.090679976308431998 0.0010363443202907607 0 -0.089433098233096295 0.0015401049128963297 0 -0.089350186565612902 0.00019191127815187869 0 -0.095022211143908561 7.0004023005023141e-05 0 -0.094978097517169763 0.00010526439235827461 0 -0.094995025931801688 4.076581209875646e-05 0 -0.094978097517169763 0.00010526439235827461 0 -0.094995025931801688 4.076581209875646e-05 0 -0.094952492423930362 7.3943246648948031e-05 0 -0.09499985530846683 -2.6433048232377993e-09 0 -0.094995025931801688 4.076581209875646e-05 0 -0.094952492423930362 7.3943246648948031e-05 0 -0.095000128778765236 3.9500695645863697e-08 0 -0.09499985530846683 -2.6433048232377993e-09 0 -0.094995025931801688 4.076581209875646e-05 0 -0.09499985530846683 -2.6433048232377993e-09 0 -0.094870873047713661 8.3001550220664563e-05 0 -0.09479825396969796 -3.6062124824131984e-08 0 -0.09499985530846683 -2.6433048232377993e-09 0 -0.094952492423930362 7.3943246648948031e-05 0 -0.094870873047713661 8.3001550220664563e-05 0 -0.091018021758839121 0.00045801445249748666 0 -0.092035137210858223 0.00037693342667425331 0 -0.09491080604293059 0.00014119940824951826 0 -0.094952492423930362 7.3943246648948031e-05 0 -0.094870873047713661 8.3001550220664563e-05 0 -0.09491080604293059 0.00014119940824951826 0 -0.094978097517169763 0.00010526439235827461 0 -0.094952492423930362 7.3943246648948031e-05 0 -0.092653631832349426 7.9921574968219611e-05 0 -0.092925791841008479 -2.3326714321942498e-05 0 -0.092277992673254455 -7.1893496963468516e-05 0 -0.092925791841008479 -2.3326714321942498e-05 0 -0.093981437928219613 8.6476797750775273e-05 0 -0.093066619067306081 0.00013221585654074551 0 -0.092925791841008479 -2.3326714321942498e-05 0 -0.093066619067306081 0.00013221585654074551 0 -0.092277992673254455 -7.1893496963468516e-05 0 -0.092925791841008479 -2.3326714321942498e-05 0 -0.093981437928219613 8.6476797750775273e-05 0 -0.094794718630368688 8.5771181755494957e-07 0 -0.092035137210858223 0.00037693342667425331 0 -0.092359863266991943 0.00029055030457356785 0 -0.093981437928219613 8.6476797750775273e-05 0 -0.094794718630368688 8.5771181755494957e-07 0 -0.09425355660362629 0.00018567482472656605 0 -0.094999726199522516 3.0863911308912698e-07 0 -0.094794718630368688 8.5771181755494957e-07 0 -0.09425355660362629 0.00018567482472656605 0 -0.093981437928219613 8.6476797750775273e-05 0 -0.09425355660362629 0.00018567482472656605 0 -0.093066619067306081 0.00013221585654074551 0 -0.094707210593385827 0.00015286332817173931 0 -0.09425355660362629 0.00018567482472656605 0 -0.093066619067306081 0.00013221585654074551 0 -0.094389932818647285 -0.00091863135533118 0 -0.093066619067306081 0.00013221585654074551 0 -0.092880615028648333 -0.0015071649359048801 0 -0.093066619067306081 0.00013221585654074551 0 -0.09103577147982643 -9.4517365516809843e-05 0 -0.092880615028648333 -0.0015071649359048801 0 -0.092653631832349426 7.9921574968219611e-05 0 -0.092277992673254455 -7.1893496963468516e-05 0 -0.09103577147982643 -9.4517365516809843e-05 0 -0.091018021758839121 0.00045801445249748666 0 -0.090963454883777162 0.0004021506059505843 0 -0.093066619067306081 0.00013221585654074551 0 -0.092277992673254455 -7.1893496963468516e-05 0 -0.09103577147982643 -9.4517365516809843e-05 0 -0.085393198134701323 0.0010527627922841717 0 -0.086764470228382712 -0.00079126397240814083 0 -0.09103577147982643 -9.4517365516809843e-05 0 -0.086764470228382712 -0.00079126397240814083 0 -0.09103577147982643 -9.4517365516809843e-05 0 -0.091293783423587155 -0.0038224641932406221 0 -0.083704975866550735 0.0010547713764940329 0 -0.083248576763519253 0.0016939507510437036 0 -0.084925899922756995 -0.0023351709027942531 0 -0.086764470228382712 -0.00079126397240814083 0 -0.091293783423587155 -0.0038224641932406221 0 -0.09103577147982643 -9.4517365516809843e-05 0 -0.092880615028648333 -0.0015071649359048801 0 -0.091293783423587155 -0.0038224641932406221 0 -0.094520527602406174 -0.0039890960363622979 0 -0.092880615028648333 -0.0015071649359048801 0 -0.091293783423587155 -0.0038224641932406221 0 -0.074656156646310284 0.0071350992154764533 0 -0.074232348224774744 0.0072201692252160552 0 -0.074510484961879161 0.0068698138741326324 0 -0.074656156646310284 0.0071350992154764533 0 -0.074232348224774744 0.0072201692252160552 0 -0.074430163199901339 0.0074837809383447211 0 -0.074656156646310284 0.0071350992154764533 0 -0.075010998586275454 0.0072732109466074881 0 -0.074758878971726395 0.0074506180430386672 0 -0.074232348224774744 0.0072201692252160552 0 -0.074159119133576423 0.0068885154905935254 0 -0.07397348956999758 0.0071321703462234399 0 -0.074232348224774744 0.0072201692252160552 0 -0.074159119133576423 0.0068885154905935254 0 -0.074510484961879161 0.0068698138741326324 0 -0.074159119133576423 0.0068885154905935254 0 -0.074510484961879161 0.0068698138741326324 0 -0.074505306962209833 0.0064663226146227911 0 -0.074159119133576423 0.0068885154905935254 0 -0.074505306962209833 0.0064663226146227911 0 -0.074241090149783945 0.0063278089216992463 0 -0.074656156646310284 0.0071350992154764533 0 -0.074510484961879161 0.0068698138741326324 0 -0.074868658009931963 0.0067233875656243537 0 -0.074510484961879161 0.0068698138741326324 0 -0.074868658009931963 0.0067233875656243537 0 -0.074505306962209833 0.0064663226146227911 0 -0.077712064247169657 0.0037159479903915004 0 -0.078562663593496687 0.0038241800375609742 0 -0.081411829051201742 0.0022686668646337222 0 -0.081465148595487966 0.001954993655032578 0 -0.081730407650765946 0.0025600329883834877 0 -0.074517976095636249 0.0058253293224856091 0 -0.074281944902838584 0.0055765890683997952 0 -0.074461024075543114 0.0059788076160831524 0 -0.074097188109735257 0.0055062413893476568 0 -0.074281944902838584 0.0055765890683997952 0 -0.074461024075543114 0.0059788076160831524 0 -0.081470755055415636 0.0025165659469695454 0 -0.081411829051201742 0.0022686668646337222 0 -0.081730407650765946 0.0025600329883834877 0 -0.085892095909214303 0.002691155937780338 0 -0.083836656382795638 0.0029894400307607532 0 -0.076557950158218507 0.0077889157593657903 0 -0.076761060527103409 0.0073069137370552631 0 -0.077758310288985361 0.008597216125129134 0 -0.081470755055415636 0.0025165659469695454 0 -0.081411829051201742 0.0022686668646337222 0 -0.081112776702507147 0.0022533579923256185 0 -0.080829622077888033 0.0034724095273280043 0 -0.083836656382795638 0.0029894400307607532 0 -0.081411829051201742 0.0022686668646337222 0 -0.081275925863554727 0.0020581110380080907 0 -0.081112776702507147 0.0022533579923256185 0 -0.081411829051201742 0.0022686668646337222 0 -0.081275925863554727 0.0020581110380080907 0 -0.081465148595487966 0.001954993655032578 0 -0.081275925863554727 0.0020581110380080907 0 -0.081465148595487966 0.001954993655032578 0 -0.081273948985870467 0.0018235565563608873 0 -0.081275925863554727 0.0020581110380080907 0 -0.081273948985870467 0.0018235565563608873 0 -0.081106718997288441 0.001900949026455716 0 -0.073272577825224408 0.0063577272337494821 0 -0.072162200682357583 0.0057680837556354806 0 -0.074656156646310284 0.0071350992154764533 0 -0.074868658009931963 0.0067233875656243537 0 -0.075010998586275454 0.0072732109466074881 0 -0.074517976095636249 0.0058253293224856091 0 -0.074281944902838584 0.0055765890683997952 0 -0.074297598103544263 0.0053921586473096028 0 -0.074097188109735257 0.0055062413893476568 0 -0.074281944902838584 0.0055765890683997952 0 -0.074191090712622143 0.0054746438744630649 0 -0.072248248878635277 0.0057032734481761568 0 -0.072162200682357583 0.0057680837556354806 0 -0.072162200682357583 0.0057680837556354806 0 -0.069681776697604739 0.0060391028430630328 0 -0.073115022449910028 0.0038391465556111355 0 -0.072947863262113055 0.0046290452733746771 0 -0.073437863062996503 0.0049430095803712319 0 -0.075010998586275454 0.0072732109466074881 0 -0.074935075586755467 0.0077304780461566781 0 -0.074758878971726395 0.0074506180430386672 0 -0.074191090712622143 0.0054746438744630649 0 -0.074079574858650785 0.0054814393458842044 0 -0.073963525568040547 0.0055177081951529386 0 -0.072162200682357583 0.0057680837556354806 0 -0.072862590482818942 0.0056634735403288559 0 -0.074097188109735257 0.0055062413893476568 0 -0.074191090712622143 0.0054746438744630649 0 -0.074079574858650785 0.0054814393458842044 0 -0.081465148595487966 0.001954993655032578 0 -0.081273948985870467 0.0018235565563608873 0 -0.08123490268257548 0.0013196260828369751 0 -0.074097188109735257 0.0055062413893476568 0 -0.074079574858650785 0.0054814393458842044 0 -0.074131405697003272 0.0054731593357214958 0 -0.077712064247169657 0.0037159479903915004 0 -0.076662105750528786 0.0033179893475446414 0 -0.081273948985870467 0.0018235565563608873 0 -0.08123490268257548 0.0013196260828369751 0 -0.081161216265489736 0.0016897617704986589 0 -0.074079574858650785 0.0054814393458842044 0 -0.074053367508410128 0.0055179622374207198 0 -0.074131405697003272 0.0054731593357214958 0 -0.074079574858650785 0.0054814393458842044 0 -0.074053367508410128 0.0055179622374207198 0 -0.073963525568040547 0.0055177081951529386 0 -0.074053367508410128 0.0055179622374207198 0 -0.074034128806909003 0.0056004995722877694 0 -0.073963525568040547 0.0055177081951529386 0 -0.074008285769946516 0.0057524896597986944 0 -0.074034128806909003 0.0056004995722877694 0 -0.073963525568040547 0.0055177081951529386 0 -0.07412291885888099 0.0057081071604473035 0 -0.074053367508410128 0.0055179622374207198 0 -0.074131405697003272 0.0054731593357214958 0 -0.07412291885888099 0.0057081071604473035 0 -0.074053367508410128 0.0055179622374207198 0 -0.074034128806909003 0.0056004995722877694 0 -0.07412291885888099 0.0057081071604473035 0 -0.074008285769946516 0.0057524896597986944 0 -0.074034128806909003 0.0056004995722877694 0 -0.072753239620521562 0.0054484827984247414 0 -0.072947863262113055 0.0046290452733746771 0 -0.07316532240034318 0.0050915388187015307 0 -0.065901010769282883 0.0069699976895278657 0 -0.069681776697604739 0.0060391028430630328 0 -0.072947863262113055 0.0046290452733746771 0 -0.073437863062996503 0.0049430095803712319 0 -0.07316532240034318 0.0050915388187015307 0 -0.073129731042768306 0.0053726143028405698 0 -0.073437863062996503 0.0049430095803712319 0 -0.07316532240034318 0.0050915388187015307 0 -0.072764468083693412 0.0054401823812512779 0 -0.073129731042768306 0.0053726143028405698 0 -0.07316532240034318 0.0050915388187015307 0 -0.065901010769282883 0.0069699976895278657 0 -0.066905780109696555 0.0063112272919497864 0 -0.074610489078323294 0.0078853147581426173 0 -0.074430163199901339 0.0074837809383447211 0 -0.074195600687834193 0.0079475685829117886 0 -0.074416845040777141 0.0082637651561556884 0 -0.074866001674727831 0.0082936045381936021 0 -0.074610489078323294 0.0078853147581426173 0 -0.074866001674727831 0.0082936045381936021 0 -0.074935075586755467 0.0077304780461566781 0 -0.074610489078323294 0.0078853147581426173 0 -0.074416845040777141 0.0082637651561556884 0 -0.074610489078323294 0.0078853147581426173 0 -0.074195600687834193 0.0079475685829117886 0 -0.074610489078323294 0.0078853147581426173 0 -0.074430163199901339 0.0074837809383447211 0 -0.074758878971726395 0.0074506180430386672 0 -0.074935075586755467 0.0077304780461566781 0 -0.074610489078323294 0.0078853147581426173 0 -0.074758878971726395 0.0074506180430386672 0 -0.074656156646310284 0.0071350992154764533 0 -0.074430163199901339 0.0074837809383447211 0 -0.074758878971726395 0.0074506180430386672 0 -0.074430163199901339 0.0074837809383447211 0 -0.074078748074581285 0.0075454328026106207 0 -0.074195600687834193 0.0079475685829117886 0 -0.074232348224774744 0.0072201692252160552 0 -0.074078748074581285 0.0075454328026106207 0 -0.073987867278725167 0.0073320734487735779 0 -0.074232348224774744 0.0072201692252160552 0 -0.074430163199901339 0.0074837809383447211 0 -0.074078748074581285 0.0075454328026106207 0 -0.07392888121951853 0.0084798125303233926 0 -0.074195600687834193 0.0079475685829117886 0 -0.073523591210924263 0.0080373449663129724 0 -0.074195600687834193 0.0079475685829117886 0 -0.073523591210924263 0.0080373449663129724 0 -0.073201218408639232 0.0074694703180385137 0 -0.06094967167580171 0.018880633876259562 0 -0.06970740394878315 0.010248047669963661 0 -0.074078748074581285 0.0075454328026106207 0 -0.074195600687834193 0.0079475685829117886 0 -0.07381057174203623 0.0075951293515275145 0 -0.07155313884614263 0.010209927575775655 0 -0.06970740394878315 0.010248047669963661 0 -0.073057054006618813 0.0084953012901019531 0 -0.073523591210924263 0.0080373449663129724 0 -0.073201218408639232 0.0074694703180385137 0 -0.067939218358664011 0.0097808488835941319 0 -0.06741202273275744 0.013466399623548371 0 -0.071243674878650923 0.013057351968290647 0 -0.06094967167580171 0.018880633876259562 0 -0.065166458776298605 0.019648753937933899 0 -0.043830909499456977 0.038017383773554791 0 -0.038231311583981679 0.036873378416209558 0 -0.043308109603754565 0.041823280624517602 0 -0.06741202273275744 0.013466399623548371 0 -0.071243674878650923 0.013057351968290647 0 -0.07124293259839877 0.01385625837076726 0 -0.06970740394878315 0.010248047669963661 0 -0.073264977236447371 0.010408870795402871 0 -0.06741202273275744 0.013466399623548371 0 -0.07124293259839877 0.01385625837076726 0 -0.070601782317788866 0.015042971864090499 0 -0.07371283562183778 0.0073586898281916427 0 -0.073831132245401374 0.0075414343982228189 0 -0.073549230578939737 0.007379796399098559 0 -0.07371283562183778 0.0073586898281916427 0 -0.073843730069762345 0.0074565302799953683 0 -0.073849709538425817 0.0072911433770399469 0 -0.073843730069762345 0.0074565302799953683 0 -0.073987867278725167 0.0073320734487735779 0 -0.073849709538425817 0.0072911433770399469 0 -0.074078748074581285 0.0075454328026106207 0 -0.073843730069762345 0.0074565302799953683 0 -0.073987867278725167 0.0073320734487735779 0 -0.074078748074581285 0.0075454328026106207 0 -0.073843730069762345 0.0074565302799953683 0 -0.07381057174203623 0.0075951293515275145 0 -0.07371283562183778 0.0073586898281916427 0 -0.073843730069762345 0.0074565302799953683 0 -0.073831132245401374 0.0075414343982228189 0 -0.069789754512928709 0.010066043287719845 0 -0.06970740394878315 0.010248047669963661 0 -0.047777666419668172 0.037654172402887841 0 -0.050466955293656933 0.040115776178707846 0 -0.04769306948050165 0.041900586280394683 0 -0.043830909499456977 0.038017383773554791 0 -0.047777666419668172 0.037654172402887841 0 -0.04769306948050165 0.041900586280394683 0 -0.043830909499456977 0.038017383773554791 0 -0.04769306948050165 0.041900586280394683 0 -0.043308109603754565 0.041823280624517602 0 -0.07124293259839877 0.01385625837076726 0 -0.070601782317788866 0.015042971864090499 0 -0.073792215300032896 0.01658951102232922 0 -0.071243674878650923 0.013057351968290647 0 -0.07124293259839877 0.01385625837076726 0 -0.074635278005783401 0.016408389473110137 0 -0.076933113083560212 0.011227766947974496 0 -0.078593350908919668 0.010833413246328293 0 -0.051063896309045641 0.043280303240878421 0 -0.04769306948050165 0.041900586280394683 0 -0.048315718857321957 0.046684640993049788 0 -0.065166458776298605 0.019648753937933899 0 -0.075852445435995272 0.014229233120762061 0 -0.04769306948050165 0.041900586280394683 0 -0.043308109603754565 0.041823280624517602 0 -0.048315718857321957 0.046684640993049788 0 -0.07124293259839877 0.01385625837076726 0 -0.074635278005783401 0.016408389473110137 0 -0.073858392893777478 0.016675077824520768 0 -0.081546251137900955 0.013774094553748001 0 -0.075085642051935006 0.0072463803311541425 0 -0.072670412239383017 0.010238153239940692 0 -0.082330193150808195 0.012780575703920613 0 -0.075852445435995272 0.014229233120762061 0 -0.082330193150808195 0.012780575703920613 0 -0.079832608307620831 0.010851631538234792 0 -0.074635278005783401 0.016408389473110137 0 -0.073858392893777478 0.016675077824520768 0 -0.074160006862524497 0.017003687463817925 0 -0.075852445435995272 0.014229233120762061 0 -0.079832608307620831 0.010851631538234792 0 -0.078593350908919668 0.010833413246328293 0 -0.079832608307620831 0.010851631538234792 0 -0.072949409323494988 0.0071795299337254793 0 -0.072856113824934329 0.0070986870846706327 0 -0.073337577949022195 0.007103854519326565 0 -0.073264977236447371 0.010408870795402871 0 -0.078593350908919668 0.010833413246328293 0 -0.072856113824934329 0.0070986870846706327 0 -0.073337577949022195 0.007103854519326565 0 -0.07337778343195861 0.0062258708976963327 0 -0.073549230578939737 0.007379796399098559 0 -0.072949409323494988 0.0071795299337254793 0 -0.073337577949022195 0.007103854519326565 0 -0.073337577949022195 0.007103854519326565 0 -0.073593357109100421 0.00715146016505525 0 -0.073648067615100427 0.0068282958629156815 0 -0.073549230578939737 0.007379796399098559 0 -0.073337577949022195 0.007103854519326565 0 -0.073593357109100421 0.00715146016505525 0 -0.07337778343195861 0.0062258708976963327 0 -0.074479154857560417 0.0062401360863380195 0 -0.074207300354559733 0.0051433640759165501 0 -0.073337577949022195 0.007103854519326565 0 -0.07337778343195861 0.0062258708976963327 0 -0.074479154857560417 0.0062401360863380195 0 -0.075308397881018826 0.0073769095676013653 0 -0.076341035933774046 0.0068918193284951456 0 -0.094453715674310837 0.0026971801497285091 0 -0.094708797213713836 0.0023802996124489316 0 -0.094442082674628294 0.002375976663809177 0 -0.079832608307620831 0.010851631538234792 0 -0.082962471663909854 0.0060592499005746973 0 -0.094151708325449113 0.0023762633688715847 0 -0.094453715674310837 0.0026971801497285091 0 -0.094442082674628294 0.002375976663809177 0 -0.094708797213713836 0.0023802996124489316 0 -0.094442082674628294 0.002375976663809177 0 -0.094550945289973057 0.0021848478573421553 0 -0.094442082674628294 0.002375976663809177 0 -0.094365152732315744 0.0021744189105740112 0 -0.094550945289973057 0.0021848478573421553 0 -0.07397348956999758 0.0071321703462234399 0 -0.073767718499663099 0.0071160024390303517 0 -0.073891973816458068 0.0068966590983265208 0 -0.074159119133576423 0.0068885154905935254 0 -0.07397348956999758 0.0071321703462234399 0 -0.073891973816458068 0.0068966590983265208 0 -0.074232348224774744 0.0072201692252160552 0 -0.073987867278725167 0.0073320734487735779 0 -0.07397348956999758 0.0071321703462234399 0 -0.073987867278725167 0.0073320734487735779 0 -0.07397348956999758 0.0071321703462234399 0 -0.073849709538425817 0.0072911433770399469 0 -0.07397348956999758 0.0071321703462234399 0 -0.073849709538425817 0.0072911433770399469 0 -0.073767718499663099 0.0071160024390303517 0 -0.073593357109100421 0.00715146016505525 0 -0.073767718499663099 0.0071160024390303517 0 -0.073648067615100427 0.0068282958629156815 0 -0.07371283562183778 0.0073586898281916427 0 -0.073593357109100421 0.00715146016505525 0 -0.073767718499663099 0.0071160024390303517 0 -0.07371283562183778 0.0073586898281916427 0 -0.073849709538425817 0.0072911433770399469 0 -0.073767718499663099 0.0071160024390303517 0 -0.07371283562183778 0.0073586898281916427 0 -0.073549230578939737 0.007379796399098559 0 -0.073593357109100421 0.00715146016505525 0 -0.073767718499663099 0.0071160024390303517 0 -0.073648067615100427 0.0068282958629156815 0 -0.073891973816458068 0.0068966590983265208 0 -0.078867156809277777 0.0047712819905659848 0 -0.080349255117754953 0.0047831647453826362 0 -0.073648067615100427 0.0068282958629156815 0 -0.073891973816458068 0.0068966590983265208 0 -0.073959732775187581 0.0065342858297648548 0 -0.074159119133576423 0.0068885154905935254 0 -0.073891973816458068 0.0068966590983265208 0 -0.073959732775187581 0.0065342858297648548 0 -0.080349255117754953 0.0047831647453826362 0 -0.082000643649121158 0.0041447335638829285 0 -0.075696204259783476 0.0051601909798230303 0 -0.074207300354559733 0.0051433640759165501 0 -0.075108046164783629 0.0040354806974622027 0 -0.076341035933774046 0.0068918193284951456 0 -0.080349255117754953 0.0047831647453826362 0 -0.074479154857560417 0.0062401360863380195 0 -0.075696204259783476 0.0051601909798230303 0 -0.074207300354559733 0.0051433640759165501 0 -0.094934406215596095 0.0020436848870275439 0 -0.094928185439492829 0.0016666537765408877 0 -0.095142370429183498 0.0017482999056090728 0 -0.083982109771342545 0.0040207149949307072 0 -0.084223376986794968 0.0028405365656381447 0 -0.094928185439492829 0.0016666537765408877 0 -0.095142370429183498 0.0017482999056090728 0 -0.094998387661417411 0.0014756345795491062 0 -0.083375672474302984 0.0031745144456165721 0 -0.083053310561731861 0.0025628281300715352 0 -0.083913624363874173 0.0026749408264823754 0 -0.083053310561731861 0.0025628281300715352 0 -0.083455520789416079 0.0020662073997729409 0 -0.083913624363874173 0.0026749408264823754 0 -0.084223376986794968 0.0028405365656381447 0 -0.08642415775910528 0.0018534402004247055 0 -0.080349255117754953 0.0047831647453826362 0 -0.084223376986794968 0.0028405365656381447 0 -0.094447789356894851 0.0019629710219041066 0 -0.094365152732315744 0.0021744189105740112 0 -0.094550945289973057 0.0021848478573421553 0 -0.094447789356894851 0.0019629710219041066 0 -0.094550945289973057 0.0021848478573421553 0 -0.094703700223770046 0.0019874298688745866 0 -0.082962471663909854 0.0060592499005746973 0 -0.083982109771342545 0.0040207149949307072 0 -0.094708797213713836 0.0023802996124489316 0 -0.094934406215596095 0.0020436848870275439 0 -0.094703700223770046 0.0019874298688745866 0 -0.094708797213713836 0.0023802996124489316 0 -0.094550945289973057 0.0021848478573421553 0 -0.094703700223770046 0.0019874298688745866 0 -0.094934406215596095 0.0020436848870275439 0 -0.094703700223770046 0.0019874298688745866 0 -0.094749204109496082 0.0017495863254187651 0 -0.094934406215596095 0.0020436848870275439 0 -0.094928185439492829 0.0016666537765408877 0 -0.094749204109496082 0.0017495863254187651 0 -0.094928185439492829 0.0016666537765408877 0 -0.094749204109496082 0.0017495863254187651 0 -0.094805564538209694 0.0015797716154730011 0 -0.094749204109496082 0.0017495863254187651 0 -0.094545420232156202 0.0017221455437009265 0 -0.094671086223462375 0.0015193908551532252 0 -0.094703700223770046 0.0019874298688745866 0 -0.094749204109496082 0.0017495863254187651 0 -0.094545420232156202 0.0017221455437009265 0 -0.094334422927102188 0.0017502199342600984 0 -0.094545420232156202 0.0017221455437009265 0 -0.094415865889542205 0.0014612683132743109 0 -0.094447789356894851 0.0019629710219041066 0 -0.094703700223770046 0.0019874298688745866 0 -0.094545420232156202 0.0017221455437009265 0 -0.094334422927102188 0.0017502199342600984 0 -0.094447789356894851 0.0019629710219041066 0 -0.094545420232156202 0.0017221455437009265 0 -0.094415865889542205 0.0014612683132743109 0 -0.094671086223462375 0.0015193908551532252 0 -0.09475950478227689 0.0013098503555901541 0 -0.094545420232156202 0.0017221455437009265 0 -0.094415865889542205 0.0014612683132743109 0 -0.094671086223462375 0.0015193908551532252 0 -0.094671086223462375 0.0015193908551532252 0 -0.094781578136528627 0.0014670726746875817 0 -0.09475950478227689 0.0013098503555901541 0 -0.094749204109496082 0.0017495863254187651 0 -0.094671086223462375 0.0015193908551532252 0 -0.094805564538209694 0.0015797716154730011 0 -0.094928185439492829 0.0016666537765408877 0 -0.094805564538209694 0.0015797716154730011 0 -0.094890334998711107 0.0014625539272158986 0 -0.094671086223462375 0.0015193908551532252 0 -0.094805564538209694 0.0015797716154730011 0 -0.094781578136528627 0.0014670726746875817 0 -0.094805564538209694 0.0015797716154730011 0 -0.094781578136528627 0.0014670726746875817 0 -0.094890334998711107 0.0014625539272158986 0 -0.094781578136528627 0.0014670726746875817 0 -0.09475950478227689 0.0013098503555901541 0 -0.094890334998711107 0.0014625539272158986 0 -0.09475950478227689 0.0013098503555901541 0 -0.094890334998711107 0.0014625539272158986 0 -0.094989676535083611 0.0014741981257089018 0 -0.094415865889542205 0.0014612683132743109 0 -0.09475950478227689 0.0013098503555901541 0 -0.094741687811859585 0.0011102600908782351 0 -0.09475950478227689 0.0013098503555901541 0 -0.094799061822978911 0.00111329653939157 0 -0.094989676535083611 0.0014741981257089018 0 -0.09475950478227689 0.0013098503555901541 0 -0.094799061822978911 0.00111329653939157 0 -0.094741687811859585 0.0011102600908782351 0 -0.094999894007608943 -1.981072987081164e-07 0 -0.09506656613852478 0.00012430126419358189 0 -0.094737517710337851 1.98182491583059e-07 0 -0.094549968537242138 0.00027697075152404316 0 -0.094539884266470003 0.00030751658690905849 0 -0.094987574247529752 7.1565440090591228e-06 0 -0.094549968537242138 0.00027697075152404316 0 -0.094999627600439437 -2.0284665422130542e-07 0 -0.095099271313295125 0.00015910152531806857 0 -0.094737956069778737 1.8362734708000292e-07 0 -0.094413261693164718 0.00081616026389338112 0 -0.094539884266470003 0.00030751658690905849 0 -0.090213173516026937 0.0005960299479312298 0 -0.091056305503720666 0.00069130984202556329 0 -0.090550095440864536 0.0010412862150341339 0 -0.08642415775910528 0.0018534402004247055 0 -0.089081899958677394 0.0022726270856551784 0 -0.090040137731693129 0.00080986066934290188 0 -0.090550095440864536 0.0010412862150341339 0 -0.09001580939437083 0.0011821551331263353 0 -0.090040137731693129 0.00080986066934290188 0 -0.090213173516026937 0.0005960299479312298 0 -0.090550095440864536 0.0010412862150341339 0 -0.086564080238159757 0.0017311201124816863 0 -0.08642415775910528 0.0018534402004247055 0 -0.084223376986794968 0.0028405365656381447 0 -0.089081899958677394 0.0022726270856551784 0 -0.085884163817890269 0.0015542879749565479 0 -0.085941280195143382 0.0014832962311244827 0 -0.085845967554676911 0.0014742617903481725 0 -0.094928185439492829 0.0016666537765408877 0 -0.094890334998711107 0.0014625539272158986 0 -0.094998387661417411 0.0014756345795491062 0 -0.08940948492880027 0.0022881729644515848 0 -0.089081899958677394 0.0022726270856551784 0 -0.091582837400109682 0.0016550756278790476 0 -0.090544099292840269 0.0015972667628549057 0 -0.090550095440864536 0.0010412862150341339 0 -0.094999999018545597 1.028428863079879e-09 0 -0.094999894499796914 1.8507952015285725e-07 0 -0.094999997640112702 1.5316354086630246e-09 0 -0.094549968537242138 0.00027697075152404316 0 -0.093404221984570823 0.0001906384846982134 0 -0.094999894499796914 1.8507952015285725e-07 0 -0.094999997640112702 1.5316354086630246e-09 0 -0.094999700862246225 1.4936471375971164e-07 0 -0.091582837400109682 0.0016550756278790476 0 -0.091056305503720666 0.00069130984202556329 0 -0.090550095440864536 0.0010412862150341339 0 -0.094549968537242138 0.00027697075152404316 0 -0.089081899958677394 0.0022726270856551784 0 -0.094999997640112702 1.5316354086630246e-09 0 -0.094999700862246225 1.4936471375971164e-07 0 -0.094999997534885736 -3.5170016178602698e-09 0 -0.093404221984570823 0.0001906384846982134 0 -0.09366788163283106 -0.00010703579902842138 0 -0.090544099292840269 0.0015972667628549057 0 -0.09001580939437083 0.0011821551331263353 0 -0.089509018254067083 0.0015373761090478159 0 -0.090544099292840269 0.0015972667628549057 0 -0.090550095440864536 0.0010412862150341339 0 -0.09001580939437083 0.0011821551331263353 0 -0.094999700862246225 1.4936471375971164e-07 0 -0.094999997534885736 -3.5170016178602698e-09 0 -0.094999483627831102 -5.5017766214786772e-07 0 -0.089509018254067083 0.0015373761090478159 0 -0.088760583556348915 0.00070571719216938741 0 -0.089436125514224057 0.00092428704904681227 0 -0.094991097837423266 2.2393805326581283e-06 0 -0.09366788163283106 -0.00010703579902842138 0 -0.095000330427840909 5.2720808504968682e-08 0 -0.094999647722418243 -5.4439581950638654e-08 0 -0.094960751826414364 -0.0001952559941980361 0 -0.09001580939437083 0.0011821551331263353 0 -0.089509018254067083 0.0015373761090478159 0 -0.089436125514224057 0.00092428704904681227 0 -0.094999647722418243 -5.4439581950638654e-08 0 -0.094960751826414364 -0.0001952559941980361 0 -0.093646481701317882 -0.00068597151560689448 0 -0.094960751826414364 -0.0001952559941980361 0 -0.09411128378439991 -0.0011209353924687049 0 -0.093646481701317882 -0.00068597151560689448 0 -0.094997918586381361 6.8406642331537779e-07 0 -0.092089117196128445 -0.00034080439587464757 0 -0.094999996911688811 4.5470495082053911e-09 0 -0.094997367164572188 -7.4767997138511151e-07 0 -0.094999995909034393 -3.991225536356597e-09 0 -0.09366788163283106 -0.00010703579902842138 0 -0.089546311343909474 0.00045915476778465419 0 -0.089546311343909474 0.00045915476778465419 0 -0.092089117196128445 -0.00034080439587464757 0 -0.088760583556348915 0.00070571719216938741 0 -0.089030223500518119 0.00045566090727651584 0 -0.089436125514224057 0.00092428704904681227 0 -0.089546311343909474 0.00045915476778465419 0 -0.086456040868311379 0.0016840629354824912 0 -0.089372029027315752 0.00214488059462581 0 -0.090831004487065034 0.00079152430854421128 0 -0.087858166073828528 0.00045020005795444663 0 -0.074611485611901604 0.0056163686745181341 0 -0.07481535376757209 0.0058727612060742954 0 -0.075237595114116054 0.0055647676487692831 0 -0.086456040868311379 0.0016840629354824912 0 -0.088351633704666463 0.00061803681528604969 0 -0.089546311343909474 0.00045915476778465419 0 -0.088351633704666463 0.00061803681528604969 0 -0.090984215486814055 -0.00015900694679834359 0 -0.091228900216315398 0.00011413699914486288 0 -0.091290582473249254 -0.00015908795982111075 0 -0.090040137731693129 0.00080986066934290188 0 -0.090212029427038182 0.00059568652029821716 0 -0.089030223500518119 0.00045566090727651584 0 -0.090040137731693129 0.00080986066934290188 0 -0.089030223500518119 0.00045566090727651584 0 -0.089436125514224057 0.00092428704904681227 0 -0.08642415775910528 0.0018534402004247055 0 -0.086456040868311379 0.0016840629354824912 0 -0.090040137731693129 0.00080986066934290188 0 -0.09001580939437083 0.0011821551331263353 0 -0.089436125514224057 0.00092428704904681227 0 -0.083455520789416079 0.0020662073997729409 0 -0.084451873292351515 0.0021746904268126633 0 -0.083913624363874173 0.0026749408264823754 0 -0.074242694365221795 0.005985799263039421 0 -0.074526300382096608 0.006030050002221901 0 -0.074241090149783945 0.0063278089216992463 0 -0.074611485611901604 0.0056163686745181341 0 -0.074242694365221795 0.005985799263039421 0 -0.074526300382096608 0.006030050002221901 0 -0.086456040868311379 0.0016840629354824912 0 -0.082000643649121158 0.0041447335638829285 0 -0.078445444195104949 0.0040919498578921238 0 -0.078910550395227388 0.0037431519879773598 0 -0.07481535376757209 0.0058727612060742954 0 -0.074703018905322813 0.0061179354968840961 0 -0.074607072142550079 0.0061095559751143252 0 -0.07481535376757209 0.0058727612060742954 0 -0.075362275801744621 0.006992475042256161 0 -0.075304994484657356 0.0061068748037522869 0 -0.074611485611901604 0.0056163686745181341 0 -0.07481535376757209 0.0058727612060742954 0 -0.074526300382096608 0.006030050002221901 0 -0.07481535376757209 0.0058727612060742954 0 -0.075304994484657356 0.0061068748037522869 0 -0.075237595114116054 0.0055647676487692831 0 -0.07481535376757209 0.0058727612060742954 0 -0.074526300382096608 0.006030050002221901 0 -0.074703018905322813 0.0061179354968840961 0 -0.073272577825224408 0.0063577272337494821 0 -0.073564050957174998 0.0064056736559148933 0 -0.074526300382096608 0.006030050002221901 0 -0.074703018905322813 0.0061179354968840961 0 -0.074505306962209833 0.0064663226146227911 0 -0.074868658009931963 0.0067233875656243537 0 -0.074703018905322813 0.0061179354968840961 0 -0.074505306962209833 0.0064663226146227911 0 -0.074526300382096608 0.006030050002221901 0 -0.074505306962209833 0.0064663226146227911 0 -0.074241090149783945 0.0063278089216992463 0 -0.074159119133576423 0.0068885154905935254 0 -0.073877604650160231 0.0063144931000319671 0 -0.074241090149783945 0.0063278089216992463 0 -0.073877604650160231 0.0063144931000319671 0 -0.074242694365221795 0.005985799263039421 0 -0.074241090149783945 0.0063278089216992463 0 -0.093914750218577439 -5.3440025132109664e-06 0 -0.094116986673050781 -0.00023184650497303126 0 -0.094268158069439764 -7.2165310260278946e-05 0 -0.093914750218577439 -5.3440025132109664e-06 0 -0.093711886374380188 -0.00025269460338725111 0 -0.093910259013305297 -0.00024260213605525579 0 -0.093914750218577439 -5.3440025132109664e-06 0 -0.093910259013305297 -0.00024260213605525579 0 -0.094116986673050781 -0.00023184650497303126 0 -0.076557950158218507 0.0077889157593657903 0 -0.076761060527103409 0.0073069137370552631 0 -0.075362275801744621 0.006992475042256161 0 -0.074517976095636249 0.0058253293224856091 0 -0.074703018905322813 0.0061179354968840961 0 -0.074461024075543114 0.0059788076160831524 0 -0.076761060527103409 0.0073069137370552631 0 -0.075362275801744621 0.006992475042256161 0 -0.075776355082306179 0.0060507100795120514 0 -0.080829622077888033 0.0034724095273280043 0 -0.078910550395227388 0.0037431519879773598 0 -0.081470755055415636 0.0025165659469695454 0 -0.081730407650765946 0.0025600329883834877 0 -0.081827700877036627 0.0027791545804322008 0 -0.078562663593496687 0.0038241800375609742 0 -0.078910550395227388 0.0037431519879773598 0 -0.074703018905322813 0.0061179354968840961 0 -0.074461024075543114 0.0059788076160831524 0 -0.074607072142550079 0.0061095559751143252 0 -0.085892095909214303 0.002691155937780338 0 -0.087708997009921241 0.0012962404267810334 0 -0.093591377274739929 -0.00037133342505213688 0 -0.0938955321269139 -0.00049448512387074669 0 -0.093421263912107477 -0.00055341722786435971 0 -0.093914750218577439 -5.3440025132109664e-06 0 -0.093711886374380188 -0.00025269460338725111 0 -0.093590004736732096 -0.00035823444008970646 0 -0.087959310109954489 0.0013925326127067011 0 -0.087708997009921241 0.0012962404267810334 0 -0.075362275801744621 0.006992475042256161 0 -0.075304994484657356 0.0061068748037522869 0 -0.075776355082306179 0.0060507100795120514 0 -0.087708997009921241 0.0012962404267810334 0 -0.088351633704666463 0.00061803681528604969 0 -0.075304994484657356 0.0061068748037522869 0 -0.075776355082306179 0.0060507100795120514 0 -0.075237595114116054 0.0055647676487692831 0 -0.093711886374380188 -0.00025269460338725111 0 -0.093591377274739929 -0.00037133342505213688 0 -0.0938955321269139 -0.00049448512387074669 0 -0.093711886374380188 -0.00025269460338725111 0 -0.0938955321269139 -0.00049448512387074669 0 -0.093910259013305297 -0.00024260213605525579 0 -0.0938955321269139 -0.00049448512387074669 0 -0.093910259013305297 -0.00024260213605525579 0 -0.094116986673050781 -0.00023184650497303126 0 -0.092038381283685092 0.00020502505887287504 0 -0.092097756694338881 -0.00010319519488455889 0 -0.092855506078729777 0.00029562463256647416 0 -0.092038381283685092 0.00020502505887287504 0 -0.092097756694338881 -0.00010319519488455889 0 -0.091601471516988608 -9.4481564959019487e-05 0 -0.09499792755148212 -7.8241440104615944e-06 0 -0.094998491746268024 -2.1261094717723848e-06 0 -0.09499309643719879 -5.2774233086507203e-06 0 -0.092097756694338881 -0.00010319519488455889 0 -0.091601471516988608 -9.4481564959019487e-05 0 -0.091348617155647113 -0.00049693874977865414 0 -0.093085190876732171 8.2180399759417357e-05 0 -0.092089117196128445 -0.00034080439587464757 0 -0.092038381283685092 0.00020502505887287504 0 -0.091228900216315398 0.00011413699914486288 0 -0.091601471516988608 -9.4481564959019487e-05 0 -0.09499792755148212 -7.8241440104615944e-06 0 -0.094997689380479755 -2.0458864052021337e-06 0 -0.094998208197097825 -1.1864613140549132e-06 0 -0.091816585687911997 0.00044373982465993644 0 -0.088351633704666463 0.00061803681528604969 0 -0.091228900216315398 0.00011413699914486288 0 -0.091601471516988608 -9.4481564959019487e-05 0 -0.091290582473249254 -0.00015908795982111075 0 -0.091601471516988608 -9.4481564959019487e-05 0 -0.091290582473249254 -0.00015908795982111075 0 -0.091348617155647113 -0.00049693874977865414 0 -0.090984215486814055 -0.00015900694679834359 0 -0.091290582473249254 -0.00015908795982111075 0 -0.091348617155647113 -0.00049693874977865414 0 -0.094997367164572188 -7.4767997138511151e-07 0 -0.094998208197097825 -1.1864613140549132e-06 0 -0.094999995909034393 -3.991225536356597e-09 0 -0.092089117196128445 -0.00034080439587464757 0 -0.092156795252327256 -0.00037413390493928178 0 -0.094998208197097825 -1.1864613140549132e-06 0 -0.094999995909034393 -3.991225536356597e-09 0 -0.094998491746268024 -2.1261094717723848e-06 0 -0.094998491746268024 -2.1261094717723848e-06 0 -0.094999993051919668 4.7047504493735857e-11 0 -0.09499309643719879 -5.2774233086507203e-06 0 -0.094999995909034393 -3.991225536356597e-09 0 -0.094998491746268024 -2.1261094717723848e-06 0 -0.094999993051919668 4.7047504493735857e-11 0 -0.09499792755148212 -7.8241440104615944e-06 0 -0.094998208197097825 -1.1864613140549132e-06 0 -0.094998491746268024 -2.1261094717723848e-06 0 -0.094999993051919668 4.7047504493735857e-11 0 -0.09498663093383039 -1.6524101013387879e-06 0 -0.09499309643719879 -5.2774233086507203e-06 0 -0.09498663093383039 -1.6524101013387879e-06 0 -0.094960566169715127 -7.3910614342722787e-06 0 -0.094999942601201592 6.950057670482602e-09 0 -0.094999993051919668 4.7047504493735857e-11 0 -0.09498663093383039 -1.6524101013387879e-06 0 -0.094999942601201592 6.950057670482602e-09 0 -0.09498663093383039 -1.6524101013387879e-06 0 -0.094960566169715127 -7.3910614342722787e-06 0 -0.094980130229164753 -1.1582514118829347e-05 0 -0.094960566169715127 -7.3910614342722787e-06 0 -0.094969441792007905 -1.7110875519280583e-05 0 -0.094980130229164753 -1.1582514118829347e-05 0 -0.09499792755148212 -7.8241440104615944e-06 0 -0.09499309643719879 -5.2774233086507203e-06 0 -0.09498433273586937 -2.2659591520346645e-05 0 -0.094980130229164753 -1.1582514118829347e-05 0 -0.09499309643719879 -5.2774233086507203e-06 0 -0.09498433273586937 -2.2659591520346645e-05 0 -0.094969441792007905 -1.7110875519280583e-05 0 -0.094980130229164753 -1.1582514118829347e-05 0 -0.09498433273586937 -2.2659591520346645e-05 0 -0.093085190876732171 8.2180399759417357e-05 0 -0.093443533599620071 0.00031296396534611319 0 -0.09498663093383039 -1.6524101013387879e-06 0 -0.094980130229164753 -1.1582514118829347e-05 0 -0.09499309643719879 -5.2774233086507203e-06 0 -0.094999953096229689 -2.045819443412074e-08 0 -0.094950020204372432 -1.1433945628091396e-05 0 -0.094975567105833811 -1.2223524932863717e-05 0 -0.094960566169715127 -7.3910614342722787e-06 0 -0.094999942601201592 6.950057670482602e-09 0 -0.094950020204372432 -1.1433945628091396e-05 0 -0.094999953096229689 -2.045819443412074e-08 0 -0.094999942601201592 6.950057670482602e-09 0 -0.094950020204372432 -1.1433945628091396e-05 0 -0.094960566169715127 -7.3910614342722787e-06 0 -0.094950020204372432 -1.1433945628091396e-05 0 -0.094908811235542068 -1.9743388197674602e-05 0 -0.094950020204372432 -1.1433945628091396e-05 0 -0.094904323407560304 -2.1866117283515358e-05 0 -0.094975567105833811 -1.2223524932863717e-05 0 -0.094904323407560304 -2.1866117283515358e-05 0 -0.09496249652758304 -8.4171012229488182e-06 0 -0.094975567105833811 -1.2223524932863717e-05 0 -0.094904323407560304 -2.1866117283515358e-05 0 -0.094827342523066807 4.2704787869504321e-05 0 -0.09496249652758304 -8.4171012229488182e-06 0 -0.094950020204372432 -1.1433945628091396e-05 0 -0.094904323407560304 -2.1866117283515358e-05 0 -0.094908811235542068 -1.9743388197674602e-05 0 -0.094904323407560304 -2.1866117283515358e-05 0 -0.094908811235542068 -1.9743388197674602e-05 0 -0.09482941837141913 -3.8251999103170581e-05 0 -0.094908811235542068 -1.9743388197674602e-05 0 -0.09482941837141913 -3.8251999103170581e-05 0 -0.094944910894211962 -3.7667318690750964e-05 0 -0.094199867413719718 0.00036435643373626921 0 -0.094029413843948736 0.00035502552281486364 0 -0.094904323407560304 -2.1866117283515358e-05 0 -0.09482941837141913 -3.8251999103170581e-05 0 -0.094827342523066807 4.2704787869504321e-05 0 -0.09482941837141913 -3.8251999103170581e-05 0 -0.094736611872857854 6.0959898169875107e-05 0 -0.094557788016279648 -2.7924171169082213e-05 0 -0.09482941837141913 -3.8251999103170581e-05 0 -0.094736611872857854 6.0959898169875107e-05 0 -0.094827342523066807 4.2704787869504321e-05 0 -0.094736611872857854 6.0959898169875107e-05 0 -0.094827342523066807 4.2704787869504321e-05 0 -0.094780158627914779 0.0001231455349987515 0 -0.094827342523066807 4.2704787869504321e-05 0 -0.09485517145571197 7.1023797614671238e-05 0 -0.094866710610465713 3.2630962684439155e-05 0 -0.094827342523066807 4.2704787869504321e-05 0 -0.09485517145571197 7.1023797614671238e-05 0 -0.094828800410254779 0.00011962411194035547 0 -0.094890290828899354 3.0665236306196397e-05 0 -0.09491645712086158 1.4919777990003792e-05 0 -0.0938955321269139 -0.00049448512387074669 0 -0.094116986673050781 -0.00023184650497303126 0 -0.094311853490358769 -0.00042561133524390686 0 -0.091816585687911997 0.00044373982465993644 0 -0.093443533599620071 0.00031296396534611319 0 -0.094385140559082648 -0.00022572762827918145 0 -0.094116986673050781 -0.00023184650497303126 0 -0.094311853490358769 -0.00042561133524390686 0 -0.094969441792007905 -1.7110875519280583e-05 0 -0.09498433273586937 -2.2659591520346645e-05 0 -0.094944910894211962 -3.7667318690750964e-05 0 -0.093443533599620071 0.00031296396534611319 0 -0.094029413843948736 0.00035502552281486364 0 -0.094960566169715127 -7.3910614342722787e-06 0 -0.094969441792007905 -1.7110875519280583e-05 0 -0.094944910894211962 -3.7667318690750964e-05 0 -0.094960566169715127 -7.3910614342722787e-06 0 -0.094908811235542068 -1.9743388197674602e-05 0 -0.094944910894211962 -3.7667318690750964e-05 0 -0.094385140559082648 -0.00022572762827918145 0 -0.094311853490358769 -0.00042561133524390686 0 -0.094576775032666566 -0.00025274243976970332 0 -0.094385140559082648 -0.00022572762827918145 0 -0.094576775032666566 -0.00025274243976970332 0 -0.094557788016279648 -2.7924171169082213e-05 0 -0.09482941837141913 -3.8251999103170581e-05 0 -0.094576775032666566 -0.00025274243976970332 0 -0.094557788016279648 -2.7924171169082213e-05 0 -0.094736611872857854 6.0959898169875107e-05 0 -0.094557788016279648 -2.7924171169082213e-05 0 -0.094593198299859862 0.00011246822472382574 0 -0.094557788016279648 -2.7924171169082213e-05 0 -0.094323370855033867 0.0001155712425460059 0 -0.094593198299859862 0.00011246822472382574 0 -0.093914750218577439 -5.3440025132109664e-06 0 -0.094268158069439764 -7.2165310260278946e-05 0 -0.094323370855033867 0.0001155712425460059 0 -0.094557788016279648 -2.7924171169082213e-05 0 -0.094268158069439764 -7.2165310260278946e-05 0 -0.094323370855033867 0.0001155712425460059 0 -0.094385140559082648 -0.00022572762827918145 0 -0.094557788016279648 -2.7924171169082213e-05 0 -0.094268158069439764 -7.2165310260278946e-05 0 -0.094385140559082648 -0.00022572762827918145 0 -0.094116986673050781 -0.00023184650497303126 0 -0.094268158069439764 -7.2165310260278946e-05 0 -0.093914750218577439 -5.3440025132109664e-06 0 -0.094323370855033867 0.0001155712425460059 0 -0.09418991642341891 0.00029147865317784657 0 -0.09418991642341891 0.00029147865317784657 0 -0.094431011589306654 0.00043353372812262095 0 -0.094494821303673288 0.00021272594576854931 0 -0.094323370855033867 0.0001155712425460059 0 -0.09418991642341891 0.00029147865317784657 0 -0.094494821303673288 0.00021272594576854931 0 -0.081275925863554727 0.0020581110380080907 0 -0.081112776702507147 0.0022533579923256185 0 -0.081106718997288441 0.001900949026455716 0 -0.081550808729075164 0.0027230248438677852 0 -0.081017574862594297 0.0020006078963834993 0 -0.080987435823888745 0.0023189113221546084 0 -0.081112776702507147 0.0022533579923256185 0 -0.080805995134611092 0.0018356695429087506 0 -0.081106718997288441 0.001900949026455716 0 -0.083836656382795638 0.0029894400307607532 0 -0.08224952887569581 0.0018352538770048203 0 -0.083836656382795638 0.0029894400307607532 0 -0.086475390072550604 0.002213267457182973 0 -0.080805995134611092 0.0018356695429087506 0 -0.081106718997288441 0.001900949026455716 0 -0.080973078704915408 0.0016917698585975794 0 -0.081273948985870467 0.0018235565563608873 0 -0.081106718997288441 0.001900949026455716 0 -0.081161216265489736 0.0016897617704986589 0 -0.094633914368491778 0.00059724697709264438 0 -0.094431011589306654 0.00043353372812262095 0 -0.094494821303673288 0.00021272594576854931 0 -0.088522175954908133 0.00138943591940189 0 -0.090003675297063254 0.0016816985097504111 0 -0.094656403064794184 0.00028248923036650129 0 -0.094640841089306205 0.00022769829483942211 0 -0.094494821303673288 0.00021272594576854931 0 -0.081017574862594297 0.0020006078963834993 0 -0.080477812265949161 0.0019230762052654326 0 -0.080987435823888745 0.0023189113221546084 0 -0.088522175954908133 0.00138943591940189 0 -0.086475390072550604 0.002213267457182973 0 -0.094640841089306205 0.00022769829483942211 0 -0.094631192733187569 0.00017769100050964802 0 -0.094494821303673288 0.00021272594576854931 0 -0.094323370855033867 0.0001155712425460059 0 -0.094494821303673288 0.00021272594576854931 0 -0.094593198299859862 0.00011246822472382574 0 -0.094631192733187569 0.00017769100050964802 0 -0.094494821303673288 0.00021272594576854931 0 -0.094593198299859862 0.00011246822472382574 0 -0.094631192733187569 0.00017769100050964802 0 -0.094593198299859862 0.00011246822472382574 0 -0.094692236943442865 0.00013302032417126006 0 -0.094736611872857854 6.0959898169875107e-05 0 -0.094692236943442865 0.00013302032417126006 0 -0.094780158627914779 0.0001231455349987515 0 -0.094692236943442865 0.00013302032417126006 0 -0.094780158627914779 0.0001231455349987515 0 -0.094705962254636095 0.00018270579695728662 0 -0.094736611872857854 6.0959898169875107e-05 0 -0.094593198299859862 0.00011246822472382574 0 -0.094692236943442865 0.00013302032417126006 0 -0.094780158627914779 0.0001231455349987515 0 -0.094705962254636095 0.00018270579695728662 0 -0.094756128303269002 0.00019561896669301223 0 -0.094631192733187569 0.00017769100050964802 0 -0.094692236943442865 0.00013302032417126006 0 -0.094705962254636095 0.00018270579695728662 0 -0.094640841089306205 0.00022769829483942211 0 -0.094631192733187569 0.00017769100050964802 0 -0.094705962254636095 0.00018270579695728662 0 -0.094780158627914779 0.0001231455349987515 0 -0.094828800410254779 0.00011962411194035547 0 -0.09479480068239042 0.00015616681973142644 0 -0.094827342523066807 4.2704787869504321e-05 0 -0.094780158627914779 0.0001231455349987515 0 -0.094828800410254779 0.00011962411194035547 0 -0.094780158627914779 0.0001231455349987515 0 -0.09479480068239042 0.00015616681973142644 0 -0.094756128303269002 0.00019561896669301223 0 -0.094828800410254779 0.00011962411194035547 0 -0.094812615609981443 0.00018781674659951186 0 -0.094871918338243447 0.00012270533909834437 0 -0.094828800410254779 0.00011962411194035547 0 -0.09479480068239042 0.00015616681973142644 0 -0.094812615609981443 0.00018781674659951186 0 -0.094812615609981443 0.00018781674659951186 0 -0.094747955263344119 0.00024846906850392521 0 -0.09479645012114038 0.00027261747134525998 0 -0.09479480068239042 0.00015616681973142644 0 -0.094812615609981443 0.00018781674659951186 0 -0.094756128303269002 0.00019561896669301223 0 -0.094812615609981443 0.00018781674659951186 0 -0.094747955263344119 0.00024846906850392521 0 -0.094756128303269002 0.00019561896669301223 0 -0.094640841089306205 0.00022769829483942211 0 -0.094705962254636095 0.00018270579695728662 0 -0.094694473514367328 0.00025034273445775972 0 -0.094705962254636095 0.00018270579695728662 0 -0.094756128303269002 0.00019561896669301223 0 -0.094694473514367328 0.00025034273445775972 0 -0.094747955263344119 0.00024846906850392521 0 -0.094694473514367328 0.00025034273445775972 0 -0.094709559391664741 0.00026601844851334964 0 -0.094747955263344119 0.00024846906850392521 0 -0.094756128303269002 0.00019561896669301223 0 -0.094694473514367328 0.00025034273445775972 0 -0.094694473514367328 0.00025034273445775972 0 -0.094676665947007521 0.00028090053571163531 0 -0.094709559391664741 0.00026601844851334964 0 -0.094656403064794184 0.00028248923036650129 0 -0.094694473514367328 0.00025034273445775972 0 -0.094676665947007521 0.00028090053571163531 0 -0.094656403064794184 0.00028248923036650129 0 -0.094640841089306205 0.00022769829483942211 0 -0.094694473514367328 0.00025034273445775972 0 -0.088522175954908133 0.00138943591940189 0 -0.088802944944588527 0.0014961084426420618 0 -0.088522175954908133 0.00138943591940189 0 -0.086681859744161857 0.00074942203886965795 0 -0.080477812265949161 0.0019230762052654326 0 -0.080232054172588677 0.0013007901961540876 0 -0.080520749369306296 0.0013825706342997562 0 -0.094653859584658426 0.00026916923305869993 0 -0.094676665947007521 0.00028090053571163531 0 -0.094686738121892239 0.00032581816501928498 0 -0.094676665947007521 0.00028090053571163531 0 -0.094709559391664741 0.00026601844851334964 0 -0.094721282012886154 0.00029222466018421074 0 -0.094747955263344119 0.00024846906850392521 0 -0.094709559391664741 0.00026601844851334964 0 -0.094721282012886154 0.00029222466018421074 0 -0.094676665947007521 0.00028090053571163531 0 -0.094721282012886154 0.00029222466018421074 0 -0.094686738121892239 0.00032581816501928498 0 -0.094747955263344119 0.00024846906850392521 0 -0.094721282012886154 0.00029222466018421074 0 -0.09479645012114038 0.00027261747134525998 0 -0.094721282012886154 0.00029222466018421074 0 -0.09479645012114038 0.00027261747134525998 0 -0.094746095302826669 0.00033687270572594404 0 -0.09479645012114038 0.00027261747134525998 0 -0.094746095302826669 0.00033687270572594404 0 -0.094806713770345316 0.00033059101781673754 0 -0.094746095302826669 0.00033687270572594404 0 -0.094708269073569676 0.00039245002381592463 0 -0.094758442888368669 0.00039467985082472837 0 -0.094746095302826669 0.00033687270572594404 0 -0.094806713770345316 0.00033059101781673754 0 -0.094758442888368669 0.00039467985082472837 0 -0.080232054172588677 0.0013007901961540876 0 -0.080268148613088355 0.0010523560863454527 0 -0.080052384614240538 0.00084355037523526342 0 -0.086681859744161857 0.00074942203886965795 0 -0.084342499257462872 -0.00041067427445739863 0 -0.094746095302826669 0.00033687270572594404 0 -0.094686738121892239 0.00032581816501928498 0 -0.094708269073569676 0.00039245002381592463 0 -0.080232054172588677 0.0013007901961540876 0 -0.080353783760792011 0.0011616684499280729 0 -0.080520749369306296 0.0013825706342997562 0 -0.080232054172588677 0.0013007901961540876 0 -0.080353783760792011 0.0011616684499280729 0 -0.080268148613088355 0.0010523560863454527 0 -0.094721282012886154 0.00029222466018421074 0 -0.094746095302826669 0.00033687270572594404 0 -0.094686738121892239 0.00032581816501928498 0 -0.080268148613088355 0.0010523560863454527 0 -0.080409017393965165 0.0010000304896796092 0 -0.080052384614240538 0.00084355037523526342 0 -0.080353783760792011 0.0011616684499280729 0 -0.080409017393965165 0.0010000304896796092 0 -0.080495545180869196 0.0011210095578722934 0 -0.080353783760792011 0.0011616684499280729 0 -0.080268148613088355 0.0010523560863454527 0 -0.080409017393965165 0.0010000304896796092 0 -0.080409017393965165 0.0010000304896796092 0 -0.080495545180869196 0.0011210095578722934 0 -0.080636152603405273 0.0010667837524926244 0 -0.080636152603405273 0.0010667837524926244 0 -0.080976344061644875 0.0010213669512348963 0 -0.080536498116537125 0.00087961680837461784 0 -0.080409017393965165 0.0010000304896796092 0 -0.080636152603405273 0.0010667837524926244 0 -0.080536498116537125 0.00087961680837461784 0 -0.080495545180869196 0.0011210095578722934 0 -0.08062869242889667 0.0012194629291945233 0 -0.080636152603405273 0.0010667837524926244 0 -0.080495545180869196 0.0011210095578722934 0 -0.08062869242889667 0.0012194629291945233 0 -0.080520749369306296 0.0013825706342997562 0 -0.080353783760792011 0.0011616684499280729 0 -0.080495545180869196 0.0011210095578722934 0 -0.080520749369306296 0.0013825706342997562 0 -0.080736699474191459 0.0013624205008652978 0 -0.08062869242889667 0.0012194629291945233 0 -0.080520749369306296 0.0013825706342997562 0 -0.08062869242889667 0.0012194629291945233 0 -0.080752875206948113 0.0011666282639745059 0 -0.080636152603405273 0.0010667837524926244 0 -0.080736699474191459 0.0013624205008652978 0 -0.08062869242889667 0.0012194629291945233 0 -0.080752875206948113 0.0011666282639745059 0 -0.080752875206948113 0.0011666282639745059 0 -0.080636152603405273 0.0010667837524926244 0 -0.080976344061644875 0.0010213669512348963 0 -0.080976344061644875 0.0010213669512348963 0 -0.08123490268257548 0.0013196260828369751 0 -0.080620731720378147 0.00012820292313927108 0 -0.080976344061644875 0.0010213669512348963 0 -0.08123490268257548 0.0013196260828369751 0 -0.081029212159777486 0.0013464060000070441 0 -0.08123490268257548 0.0013196260828369751 0 -0.081029212159777486 0.0013464060000070441 0 -0.081059876229029854 0.0015075751254035542 0 -0.080976344061644875 0.0010213669512348963 0 -0.081029212159777486 0.0013464060000070441 0 -0.080872330988495472 0.0012779264429904284 0 -0.080752875206948113 0.0011666282639745059 0 -0.080976344061644875 0.0010213669512348963 0 -0.080872330988495472 0.0012779264429904284 0 -0.081029212159777486 0.0013464060000070441 0 -0.080872330988495472 0.0012779264429904284 0 -0.080906267284694688 0.0014736596833298929 0 -0.080736699474191459 0.0013624205008652978 0 -0.080752875206948113 0.0011666282639745059 0 -0.080872330988495472 0.0012779264429904284 0 -0.080736699474191459 0.0013624205008652978 0 -0.080906267284694688 0.0014736596833298929 0 -0.080784912601177955 0.0015494590427355549 0 -0.080736699474191459 0.0013624205008652978 0 -0.080872330988495472 0.0012779264429904284 0 -0.080906267284694688 0.0014736596833298929 0 -0.080906267284694688 0.0014736596833298929 0 -0.081059876229029854 0.0015075751254035542 0 -0.080973078704915408 0.0016917698585975794 0 -0.080906267284694688 0.0014736596833298929 0 -0.080973078704915408 0.0016917698585975794 0 -0.080784912601177955 0.0015494590427355549 0 -0.08123490268257548 0.0013196260828369751 0 -0.081059876229029854 0.0015075751254035542 0 -0.081161216265489736 0.0016897617704986589 0 -0.081029212159777486 0.0013464060000070441 0 -0.080906267284694688 0.0014736596833298929 0 -0.081059876229029854 0.0015075751254035542 0 -0.081106718997288441 0.001900949026455716 0 -0.081161216265489736 0.0016897617704986589 0 -0.080973078704915408 0.0016917698585975794 0 -0.081059876229029854 0.0015075751254035542 0 -0.081161216265489736 0.0016897617704986589 0 -0.080973078704915408 0.0016917698585975794 0 -0.080805995134611092 0.0018356695429087506 0 -0.080973078704915408 0.0016917698585975794 0 -0.080784912601177955 0.0015494590427355549 0 -0.08224952887569581 0.0018352538770048203 0 -0.081779961503439622 0.0014943790578693943 0 -0.081017574862594297 0.0020006078963834993 0 -0.080477812265949161 0.0019230762052654326 0 -0.080520749369306296 0.0013825706342997562 0 -0.080805995134611092 0.0018356695429087506 0 -0.080520749369306296 0.0013825706342997562 0 -0.080784912601177955 0.0015494590427355549 0 -0.080736699474191459 0.0013624205008652978 0 -0.080520749369306296 0.0013825706342997562 0 -0.080784912601177955 0.0015494590427355549 0 -0.093045889676830668 -0.0048402709277514788 0 -0.093109234694800022 -0.0048302574930677101 0 -0.093056769717018026 -0.0047826869489941649 0 -0.093045889676830668 -0.0048402709277514788 0 -0.093074101977751414 -0.0048766078233341056 0 -0.093109234694800022 -0.0048302574930677101 0 -0.088720408931785164 -0.0052977810594114147 0 -0.0917934358407827 -0.0057131237089671754 0 -0.093229454157683841 -0.0055806883548078483 0 -0.092974590401639579 -0.0054871190679791669 0 -0.093045877478460048 -0.0056987584807315032 0 -0.093255335816931823 -0.0052025389008838697 0 -0.093520993615365797 -0.0055857375751886176 0 -0.092974590401639579 -0.0054871190679791669 0 -0.091059163170543064 -0.005836550047107765 0 -0.088720408931785164 -0.0052977810594114147 0 -0.093074101977751414 -0.0048766078233341056 0 -0.093109234694800022 -0.0048302574930677101 0 -0.093096256862179913 -0.0048779404743888961 0 -0.094857803559887349 0.00028385878296023956 0 -0.094935560282438727 0.00025139573442453813 0 -0.09487174313579895 0.00037090260924562936 0 -0.088720408931785164 -0.0052977810594114147 0 -0.086579611246648799 -0.003547443325891385 0 -0.09099660884608797 -0.0031588405179159436 0 -0.086579611246648799 -0.003547443325891385 0 -0.094806713770345316 0.00033059101781673754 0 -0.094758442888368669 0.00039467985082472837 0 -0.09487174313579895 0.00037090260924562936 0 -0.094806713770345316 0.00033059101781673754 0 -0.094857803559887349 0.00028385878296023956 0 -0.09487174313579895 0.00037090260924562936 0 -0.09479645012114038 0.00027261747134525998 0 -0.094857803559887349 0.00028385878296023956 0 -0.094868980090841881 0.00020349631281479027 0 -0.09479645012114038 0.00027261747134525998 0 -0.094806713770345316 0.00033059101781673754 0 -0.094857803559887349 0.00028385878296023956 0 -0.094857803559887349 0.00028385878296023956 0 -0.094935560282438727 0.00025139573442453813 0 -0.094868980090841881 0.00020349631281479027 0 -0.094935560282438727 0.00025139573442453813 0 -0.094868980090841881 0.00020349631281479027 0 -0.094920214739628944 0.00012875146226679451 0 -0.094812615609981443 0.00018781674659951186 0 -0.094868980090841881 0.00020349631281479027 0 -0.094871918338243447 0.00012270533909834437 0 -0.094812615609981443 0.00018781674659951186 0 -0.09479645012114038 0.00027261747134525998 0 -0.094868980090841881 0.00020349631281479027 0 -0.094871918338243447 0.00012270533909834437 0 -0.094920214739628944 0.00012875146226679451 0 -0.094887680712887806 6.6439165900078904e-05 0 -0.094868980090841881 0.00020349631281479027 0 -0.094871918338243447 0.00012270533909834437 0 -0.094920214739628944 0.00012875146226679451 0 -0.09485517145571197 7.1023797614671238e-05 0 -0.094828800410254779 0.00011962411194035547 0 -0.094871918338243447 0.00012270533909834437 0 -0.094920214739628944 0.00012875146226679451 0 -0.094982143506173289 0.00013380629205177153 0 -0.09496201990819074 7.8022460896073998e-05 0 -0.093109234694800022 -0.0048302574930677101 0 -0.093126514275004943 -0.0047055294717981231 0 -0.093056769717018026 -0.0047826869489941649 0 -0.09099660884608797 -0.0031588405179159436 0 -0.092966910700698471 -0.0025796965507665997 0 -0.094935560282438727 0.00025139573442453813 0 -0.094920214739628944 0.00012875146226679451 0 -0.094982143506173289 0.00013380629205177153 0 -0.093045889676830668 -0.0048402709277514788 0 -0.093056769717018026 -0.0047826869489941649 0 -0.092968079161119238 -0.0048039673334662669 0 -0.091059163170543064 -0.005836550047107765 0 -0.091548553297669588 -0.0057534462716855826 0 -0.093056769717018026 -0.0047826869489941649 0 -0.093025822062318284 -0.0047108156657741165 0 -0.092968079161119238 -0.0048039673334662669 0 -0.093126514275004943 -0.0047055294717981231 0 -0.093056769717018026 -0.0047826869489941649 0 -0.093025822062318284 -0.0047108156657741165 0 -0.093126514275004943 -0.0047055294717981231 0 -0.093025822062318284 -0.0047108156657741165 0 -0.093028582649839334 -0.0046071038501322593 0 -0.093025822062318284 -0.0047108156657741165 0 -0.093028582649839334 -0.0046071038501322593 0 -0.092938968075862424 -0.0046350768835190246 0 -0.093028582649839334 -0.0046071038501322593 0 -0.093085944414953409 -0.0044812210576292673 0 -0.092957809834198477 -0.0045145544913420066 0 -0.093126514275004943 -0.0047055294717981231 0 -0.093028582649839334 -0.0046071038501322593 0 -0.093085944414953409 -0.0044812210576292673 0 -0.09407126807707604 -0.0019301779538123029 0 -0.094067671730279578 -0.0019379848066087768 0 -0.094982143506173289 0.00013380629205177153 0 -0.094994109903893731 4.4763859969080367e-05 0 -0.09496201990819074 7.8022460896073998e-05 0 -0.094982143506173289 0.00013380629205177153 0 -0.094994109903893731 4.4763859969080367e-05 0 -0.095002649319757104 3.9505203902921005e-05 0 -0.092966910700698471 -0.0025796965507665997 0 -0.094067671730279578 -0.0019379848066087768 0 -0.09496201990819074 7.8022460896073998e-05 0 -0.094957804118625089 5.5584938931724866e-05 0 -0.094975811729803544 4.6568516187525421e-05 0 -0.09496201990819074 7.8022460896073998e-05 0 -0.094957804118625089 5.5584938931724866e-05 0 -0.094934386264150725 6.6803923276915401e-05 0 -0.094994109903893731 4.4763859969080367e-05 0 -0.09496201990819074 7.8022460896073998e-05 0 -0.094975811729803544 4.6568516187525421e-05 0 -0.094994109903893731 4.4763859969080367e-05 0 -0.094975811729803544 4.6568516187525421e-05 0 -0.094990563065430494 3.3665779037934074e-05 0 -0.094975811729803544 4.6568516187525421e-05 0 -0.09498079761664513 2.8475130515470011e-05 0 -0.094990563065430494 3.3665779037934074e-05 0 -0.094975811729803544 4.6568516187525421e-05 0 -0.09498079761664513 2.8475130515470011e-05 0 -0.094967590857160944 3.679502660726037e-05 0 -0.09498079761664513 2.8475130515470011e-05 0 -0.094992471151507607 2.1731074050384079e-05 0 -0.094990563065430494 3.3665779037934074e-05 0 -0.094967590857160944 3.679502660726037e-05 0 -0.094968149483608155 1.8943401605699069e-05 0 -0.094947268690166856 4.3707143147989861e-05 0 -0.094957804118625089 5.5584938931724866e-05 0 -0.094967590857160944 3.679502660726037e-05 0 -0.094947268690166856 4.3707143147989861e-05 0 -0.094957804118625089 5.5584938931724866e-05 0 -0.094975811729803544 4.6568516187525421e-05 0 -0.094967590857160944 3.679502660726037e-05 0 -0.09498079761664513 2.8475130515470011e-05 0 -0.094967590857160944 3.679502660726037e-05 0 -0.094968149483608155 1.8943401605699069e-05 0 -0.09498079761664513 2.8475130515470011e-05 0 -0.094968149483608155 1.8943401605699069e-05 0 -0.094985040635107917 1.8626857306183307e-05 0 -0.09498079761664513 2.8475130515470011e-05 0 -0.094985040635107917 1.8626857306183307e-05 0 -0.094992471151507607 2.1731074050384079e-05 0 -0.094067671730279578 -0.0019379848066087768 0 -0.094062713551688867 -0.0019213165387778797 0 -0.094992471151507607 2.1731074050384079e-05 0 -0.094995426282249343 2.8993960149756626e-05 0 -0.094997336780390088 1.2575872844045145e-05 0 -0.094985040635107917 1.8626857306183307e-05 0 -0.094992471151507607 2.1731074050384079e-05 0 -0.094992835321558292 1.3256039897843525e-05 0 -0.094992471151507607 2.1731074050384079e-05 0 -0.094997336780390088 1.2575872844045145e-05 0 -0.094992835321558292 1.3256039897843525e-05 0 -0.094995426282249343 2.8993960149756626e-05 0 -0.094995060736054834 3.1460272721646278e-05 0 -0.095002131620580701 1.0324022211946693e-05 0 -0.094995426282249343 2.8993960149756626e-05 0 -0.094997336780390088 1.2575872844045145e-05 0 -0.095002131620580701 1.0324022211946693e-05 0 -0.094994109903893731 4.4763859969080367e-05 0 -0.094990563065430494 3.3665779037934074e-05 0 -0.094996481774467623 3.862267423588711e-05 0 -0.094995426282249343 2.8993960149756626e-05 0 -0.094990563065430494 3.3665779037934074e-05 0 -0.094996481774467623 3.862267423588711e-05 0 -0.094064886419715416 -0.0019120274654297819 0 -0.094067671730279578 -0.0019379848066087768 0 -0.094992471151507607 2.1731074050384079e-05 0 -0.094995426282249343 2.8993960149756626e-05 0 -0.094990563065430494 3.3665779037934074e-05 0 -0.09485517145571197 7.1023797614671238e-05 0 -0.094887680712887806 6.6439165900078904e-05 0 -0.094866710610465713 3.2630962684439155e-05 0 -0.09485517145571197 7.1023797614671238e-05 0 -0.094871918338243447 0.00012270533909834437 0 -0.094887680712887806 6.6439165900078904e-05 0 -0.094920214739628944 0.00012875146226679451 0 -0.09496201990819074 7.8022460896073998e-05 0 -0.094934386264150725 6.6803923276915401e-05 0 -0.094920214739628944 0.00012875146226679451 0 -0.094887680712887806 6.6439165900078904e-05 0 -0.094934386264150725 6.6803923276915401e-05 0 -0.094887680712887806 6.6439165900078904e-05 0 -0.094934386264150725 6.6803923276915401e-05 0 -0.094923624725969755 3.4015182250686309e-05 0 -0.094957804118625089 5.5584938931724866e-05 0 -0.094934386264150725 6.6803923276915401e-05 0 -0.094947268690166856 4.3707143147989861e-05 0 -0.094934386264150725 6.6803923276915401e-05 0 -0.094947268690166856 4.3707143147989861e-05 0 -0.094923624725969755 3.4015182250686309e-05 0 -0.094968149483608155 1.8943401605699069e-05 0 -0.094947268690166856 4.3707143147989861e-05 0 -0.094923624725969755 3.4015182250686309e-05 0 -0.094923624725969755 3.4015182250686309e-05 0 -0.094866710610465713 3.2630962684439155e-05 0 -0.094937570045180025 -5.9404781543689814e-06 0 -0.094887680712887806 6.6439165900078904e-05 0 -0.094923624725969755 3.4015182250686309e-05 0 -0.094866710610465713 3.2630962684439155e-05 0 -0.09496249652758304 -8.4171012229488182e-06 0 -0.094975567105833811 -1.2223524932863717e-05 0 -0.094989564988750358 -5.8293537549045696e-06 0 -0.09491645712086158 1.4919777990003792e-05 0 -0.094948198929286687 -9.3275717014141824e-07 0 -0.094968149483608155 1.8943401605699069e-05 0 -0.094923624725969755 3.4015182250686309e-05 0 -0.094937570045180025 -5.9404781543689814e-06 0 -0.094975567105833811 -1.2223524932863717e-05 0 -0.094989564988750358 -5.8293537549045696e-06 0 -0.094999987911920838 -9.9386414002677505e-09 0 -0.094948198929286687 -9.3275717014141824e-07 0 -0.094961677661645122 -5.9624954193089829e-06 0 -0.094989564988750358 -5.8293537549045696e-06 0 -0.094999987911920838 -9.9386414002677505e-09 0 -0.09499759589579497 -2.4720348951785679e-06 0 -0.094999953096229689 -2.045819443412074e-08 0 -0.094975567105833811 -1.2223524932863717e-05 0 -0.094999987911920838 -9.9386414002677505e-09 0 -0.094995363303593275 6.4542488649583688e-06 0 -0.094995101476040442 2.1749028222266438e-07 0 -0.095000339880599985 2.9751567234576262e-06 0 -0.094995363303593275 6.4542488649583688e-06 0 -0.094987205849062742 8.6019948253757753e-06 0 -0.094995101476040442 2.1749028222266438e-07 0 -0.094995363303593275 6.4542488649583688e-06 0 -0.094997336780390088 1.2575872844045145e-05 0 -0.095000339880599985 2.9751567234576262e-06 0 -0.094995363303593275 6.4542488649583688e-06 0 -0.094992835321558292 1.3256039897843525e-05 0 -0.094987205849062742 8.6019948253757753e-06 0 -0.094985040635107917 1.8626857306183307e-05 0 -0.094992835321558292 1.3256039897843525e-05 0 -0.094987205849062742 8.6019948253757753e-06 0 -0.094995363303593275 6.4542488649583688e-06 0 -0.094997336780390088 1.2575872844045145e-05 0 -0.094992835321558292 1.3256039897843525e-05 0 -0.094968149483608155 1.8943401605699069e-05 0 -0.094987205849062742 8.6019948253757753e-06 0 -0.094979279291604685 1.3268291260640462e-06 0 -0.094968149483608155 1.8943401605699069e-05 0 -0.094937570045180025 -5.9404781543689814e-06 0 -0.094979279291604685 1.3268291260640462e-06 0 -0.094968149483608155 1.8943401605699069e-05 0 -0.094985040635107917 1.8626857306183307e-05 0 -0.094987205849062742 8.6019948253757753e-06 0 -0.094987205849062742 8.6019948253757753e-06 0 -0.094979279291604685 1.3268291260640462e-06 0 -0.094995101476040442 2.1749028222266438e-07 0 -0.094979279291604685 1.3268291260640462e-06 0 -0.09499759589579497 -2.4720348951785679e-06 0 -0.094995101476040442 2.1749028222266438e-07 0 -0.094937570045180025 -5.9404781543689814e-06 0 -0.094979279291604685 1.3268291260640462e-06 0 -0.09499759589579497 -2.4720348951785679e-06 0 -0.094999987911920838 -9.9386414002677505e-09 0 -0.09499759589579497 -2.4720348951785679e-06 0 -0.094999983138645605 -5.9815669524395991e-09 0 -0.09499759589579497 -2.4720348951785679e-06 0 -0.094999983138645605 -5.9815669524395991e-09 0 -0.094995101476040442 2.1749028222266438e-07 0 -0.094999983138645605 -5.9815669524395991e-09 0 -0.094995101476040442 2.1749028222266438e-07 0 -0.095000339880599985 2.9751567234576262e-06 0 -0.094999983138645605 -5.9815669524395991e-09 0 -0.095000339880599985 2.9751567234576262e-06 0 -0.095000007409912685 4.7312813535561155e-09 0 -0.094997336780390088 1.2575872844045145e-05 0 -0.095000339880599985 2.9751567234576262e-06 0 -0.095002131620580701 1.0324022211946693e-05 0 -0.095000339880599985 2.9751567234576262e-06 0 -0.095002609475403926 2.3753089610115219e-06 0 -0.095002131620580701 1.0324022211946693e-05 0 -0.09409600084635894 -0.0017513444032150509 0 -0.094062713551688867 -0.0019213165387778797 0 -0.095000339880599985 2.9751567234576262e-06 0 -0.095000007409912685 4.7312813535561155e-09 0 -0.095002609475403926 2.3753089610115219e-06 0 -0.095000007409912685 4.7312813535561155e-09 0 -0.095000001099657033 -2.2126917198420209e-09 0 -0.095002609475403926 2.3753089610115219e-06 0 -0.094998110011260711 -1.7135826381984428e-06 0 -0.09409600084635894 -0.0017513444032150509 0 -0.095000002003981787 -2.782985903028652e-09 0 -0.094998922545939765 -8.797121801619313e-06 0 -0.095015135961624822 -3.4254304982048216e-05 0 -0.09386639095519278 -0.0012944418699936079 0 -0.094624186878918062 -0.00060212012956730701 0 -0.094998882983005378 -4.2055594062227099e-06 0 -0.095000002003981787 -2.782985903028652e-09 0 -0.094999994512844146 -5.6333666191864453e-09 0 -0.094998882983005378 -4.2055594062227099e-06 0 -0.094998055905845299 -8.9304273012232549e-06 0 -0.094999031553738289 -2.1491961752315914e-06 0 -0.094998882983005378 -4.2055594062227099e-06 0 -0.095000002003981787 -2.782985903028652e-09 0 -0.094998922545939765 -8.797121801619313e-06 0 -0.093929328524934561 -0.001131507102800127 0 -0.09386639095519278 -0.0012944418699936079 0 -0.094998882983005378 -4.2055594062227099e-06 0 -0.094998922545939765 -8.797121801619313e-06 0 -0.094998055905845299 -8.9304273012232549e-06 0 -0.095791856059778427 -0.000126077923681375 0 -0.095724371689039689 -0.0013634773783238886 0 -0.095114002677362489 -0.00054424812204583329 0 -0.09386639095519278 -0.0012944418699936079 0 -0.093530169455460457 -0.0027213195326006266 0 -0.094998922545939765 -8.797121801619313e-06 0 -0.094994743124524786 -2.1247537272890079e-05 0 -0.095015135961624822 -3.4254304982048216e-05 0 -0.09386639095519278 -0.0012944418699936079 0 -0.09409600084635894 -0.0017513444032150509 0 -0.092319183881459585 -0.0038708100462583393 0 -0.092586848589779891 -0.0040003905510604754 0 -0.092497279332982116 -0.00426020132433422 0 -0.092319183881459585 -0.0038708100462583393 0 -0.092497279332982116 -0.00426020132433422 0 -0.092225915279543172 -0.0042777299233033002 0 -0.092225915279543172 -0.0042777299233033002 0 -0.092349105793300801 -0.0045113330845038633 0 -0.092137554242319175 -0.0046749820190896286 0 -0.093530169455460457 -0.0027213195326006266 0 -0.092974408464468888 -0.0036799320188417896 0 -0.092497279332982116 -0.00426020132433422 0 -0.092225915279543172 -0.0042777299233033002 0 -0.092349105793300801 -0.0045113330845038633 0 -0.092497279332982116 -0.00426020132433422 0 -0.092349105793300801 -0.0045113330845038633 0 -0.092560109869756074 -0.0045288971874374376 0 -0.092560109869756074 -0.0045288971874374376 0 -0.092757408166141475 -0.0045486650809963098 0 -0.092770303090087464 -0.0043131040244336971 0 -0.092497279332982116 -0.00426020132433422 0 -0.092560109869756074 -0.0045288971874374376 0 -0.092770303090087464 -0.0043131040244336971 0 -0.093845559511575166 -0.0033560163036671972 0 -0.093747311396287489 -0.0037691906450738389 0 -0.093028582649839334 -0.0046071038501322593 0 -0.092957809834198477 -0.0045145544913420066 0 -0.092938968075862424 -0.0046350768835190246 0 -0.092757408166141475 -0.0045486650809963098 0 -0.092770303090087464 -0.0043131040244336971 0 -0.092938968075862424 -0.0046350768835190246 0 -0.092957809834198477 -0.0045145544913420066 0 -0.092836610921290502 -0.0044720850396685764 0 -0.092938968075862424 -0.0046350768835190246 0 -0.093085944414953409 -0.0044812210576292673 0 -0.092957809834198477 -0.0045145544913420066 0 -0.092913312423826264 -0.0043871751826490548 0 -0.092957809834198477 -0.0045145544913420066 0 -0.092913312423826264 -0.0043871751826490548 0 -0.092836610921290502 -0.0044720850396685764 0 -0.092586848589779891 -0.0040003905510604754 0 -0.092497279332982116 -0.00426020132433422 0 -0.092770303090087464 -0.0043131040244336971 0 -0.092733206052812933 -0.0042897708918147185 0 -0.092913312423826264 -0.0043871751826490548 0 -0.092836610921290502 -0.0044720850396685764 0 -0.09409600084635894 -0.0017513444032150509 0 -0.093845559511575166 -0.0033560163036671972 0 -0.093871602098045834 -0.00037924525588802166 0 -0.093468131926202125 -0.00048777920537662004 0 -0.093110466778316497 -0.00020876029697450396 0 -0.093658333468842697 -0.00062776066465879197 0 -0.093468131926202125 -0.00048777920537662004 0 -0.093327997871451837 -0.00065112979095098805 0 -0.093658333468842697 -0.00062776066465879197 0 -0.093871602098045834 -0.00037924525588802166 0 -0.093468131926202125 -0.00048777920537662004 0 -0.094402039052531445 -9.0101243638028179e-05 0 -0.094291054366824487 -0.00011869874337408469 0 -0.094999339407831992 -2.4892005387814226e-07 0 -0.094607656841319096 1.2248586949751447e-05 0 -0.095044030129219623 2.7930663495753956e-05 0 -0.093871602098045834 -0.00037924525588802166 0 -0.094607656841319096 1.2248586949751447e-05 0 -0.093110466778316497 -0.00020876029697450396 0 -0.094999339407831992 -2.4892005387814226e-07 0 -0.094607656841319096 1.2248586949751447e-05 0 -0.094998433611164376 3.3958245587197207e-07 0 -0.094607656841319096 1.2248586949751447e-05 0 -0.09418274131117399 -0.00036647136195352894 0 -0.094675519229745125 -0.0001140935398712467 0 -0.093871602098045834 -0.00037924525588802166 0 -0.094607656841319096 1.2248586949751447e-05 0 -0.09418274131117399 -0.00036647136195352894 0 -0.093658333468842697 -0.00062776066465879197 0 -0.093871602098045834 -0.00037924525588802166 0 -0.09418274131117399 -0.00036647136195352894 0 -0.093658333468842697 -0.00062776066465879197 0 -0.09418274131117399 -0.00036647136195352894 0 -0.093646922598426496 -0.00074034409584887093 0 -0.09418274131117399 -0.00036647136195352894 0 -0.094449761367718016 -0.00046692843884116721 0 -0.093646922598426496 -0.00074034409584887093 0 -0.094449761367718016 -0.00046692843884116721 0 -0.094675519229745125 -0.0001140935398712467 0 -0.095072683373569639 7.3507964546002164e-05 0 -0.09418274131117399 -0.00036647136195352894 0 -0.094449761367718016 -0.00046692843884116721 0 -0.094675519229745125 -0.0001140935398712467 0 -0.094607656841319096 1.2248586949751447e-05 0 -0.094998433611164376 3.3958245587197207e-07 0 -0.094675519229745125 -0.0001140935398712467 0 -0.094998433611164376 3.3958245587197207e-07 0 -0.094675519229745125 -0.0001140935398712467 0 -0.095072683373569639 7.3507964546002164e-05 0 -0.094999232438149547 -1.5087042608439447e-06 0 -0.094624186878918062 -0.00060212012956730701 0 -0.095000000661517314 2.2059293151312045e-09 0 -0.094999994512844146 -5.6333666191864453e-09 0 -0.094999031553738289 -2.1491961752315914e-06 0 -0.094998882983005378 -4.2055594062227099e-06 0 -0.094999994512844146 -5.6333666191864453e-09 0 -0.094999031553738289 -2.1491961752315914e-06 0 -0.095791856059778427 -0.000126077923681375 0 -0.095072683373569639 7.3507964546002164e-05 0 -0.095114002677362489 -0.00054424812204583329 0 -0.094449761367718016 -0.00046692843884116721 0 -0.095072683373569639 7.3507964546002164e-05 0 -0.095114002677362489 -0.00054424812204583329 0 -0.094449761367718016 -0.00046692843884116721 0 -0.095114002677362489 -0.00054424812204583329 0 -0.094502447618452529 -0.0011733023603652209 0 -0.095724371689039689 -0.0013634773783238886 0 -0.095114002677362489 -0.00054424812204583329 0 -0.094502447618452529 -0.0011733023603652209 0 -0.095724371689039689 -0.0013634773783238886 0 -0.094289386213834148 -0.0028787520909918044 0 -0.095389974429127916 -0.0032899316519347886 0 -0.095724371689039689 -0.0013634773783238886 0 -0.094502447618452529 -0.0011733023603652209 0 -0.094289386213834148 -0.0028787520909918044 0 -0.092465734918023124 -0.0031752701367972523 0 -0.092740672538436111 -0.00335908225546504 0 -0.093536174783717826 -0.0016225600650768585 0 -0.092234456739217999 -0.0025130571027669989 0 -0.094289386213834148 -0.0028787520909918044 0 -0.093536174783717826 -0.0016225600650768585 0 -0.094502447618452529 -0.0011733023603652209 0 -0.094289386213834148 -0.0028787520909918044 0 -0.093536174783717826 -0.0016225600650768585 0 -0.093804831487172377 -0.00095516168032671808 0 -0.093006435649992239 -0.0010082860249017744 0 -0.093536174783717826 -0.0016225600650768585 0 -0.094502447618452529 -0.0011733023603652209 0 -0.093804831487172377 -0.00095516168032671808 0 -0.094449761367718016 -0.00046692843884116721 0 -0.094502447618452529 -0.0011733023603652209 0 -0.093804831487172377 -0.00095516168032671808 0 -0.094449761367718016 -0.00046692843884116721 0 -0.093804831487172377 -0.00095516168032671808 0 -0.093646922598426496 -0.00074034409584887093 0 -0.093658333468842697 -0.00062776066465879197 0 -0.093646922598426496 -0.00074034409584887093 0 -0.093359838685005678 -0.00089492944931160196 0 -0.093646922598426496 -0.00074034409584887093 0 -0.093006435649992239 -0.0010082860249017744 0 -0.093359838685005678 -0.00089492944931160196 0 -0.093804831487172377 -0.00095516168032671808 0 -0.093646922598426496 -0.00074034409584887093 0 -0.093006435649992239 -0.0010082860249017744 0 -0.093536174783717826 -0.0016225600650768585 0 -0.093006435649992239 -0.0010082860249017744 0 -0.092234456739217999 -0.0025130571027669989 0 -0.092234456739217999 -0.0025130571027669989 0 -0.09008633347175872 -0.0024986174059630742 0 -0.090974179715456974 -0.0031916379798802527 0 -0.092115008781886804 -0.0017175408951784403 0 -0.091779602503061428 -0.0020419705195307818 0 -0.093006435649992239 -0.0010082860249017744 0 -0.092234456739217999 -0.0025130571027669989 0 -0.09008633347175872 -0.0024986174059630742 0 -0.093341799596001529 -0.00084336282918483555 0 -0.09331801260783279 -0.00085068300771370812 0 -0.093238587083164071 -0.00087977292954680435 0 -0.093341799596001529 -0.00084336282918483555 0 -0.09331801260783279 -0.00085068300771370812 0 -0.093359838685005678 -0.00089492944931160196 0 -0.093006435649992239 -0.0010082860249017744 0 -0.093341799596001529 -0.00084336282918483555 0 -0.093359838685005678 -0.00089492944931160196 0 -0.09331801260783279 -0.00085068300771370812 0 -0.093359838685005678 -0.00089492944931160196 0 -0.093277375951047431 -0.0007849350193497223 0 -0.093359838685005678 -0.00089492944931160196 0 -0.093327997871451837 -0.00065112979095098805 0 -0.093277375951047431 -0.0007849350193497223 0 -0.093658333468842697 -0.00062776066465879197 0 -0.093359838685005678 -0.00089492944931160196 0 -0.093327997871451837 -0.00065112979095098805 0 -0.090043235405719055 -0.0039048078339752271 0 -0.089582382074145886 -0.004843140175374243 0 -0.088855566457816518 -0.0047376711705050204 0 -0.090043235405719055 -0.0039048078339752271 0 -0.090507105985527733 -0.0045188712216014002 0 -0.089582382074145886 -0.004843140175374243 0 -0.09008633347175872 -0.0024986174059630742 0 -0.090043235405719055 -0.0039048078339752271 0 -0.088799034620051398 -0.0036205181356247628 0 -0.09008633347175872 -0.0024986174059630742 0 -0.090043235405719055 -0.0039048078339752271 0 -0.090974179715456974 -0.0031916379798802527 0 -0.090043235405719055 -0.0039048078339752271 0 -0.090974179715456974 -0.0031916379798802527 0 -0.091354187120504249 -0.0035445978191131801 0 -0.092234456739217999 -0.0025130571027669989 0 -0.090974179715456974 -0.0031916379798802527 0 -0.091354187120504249 -0.0035445978191131801 0 -0.090043235405719055 -0.0039048078339752271 0 -0.091354187120504249 -0.0035445978191131801 0 -0.090507105985527733 -0.0045188712216014002 0 -0.091354187120504249 -0.0035445978191131801 0 -0.091401605930997179 -0.0043426322634664569 0 -0.090507105985527733 -0.0045188712216014002 0 -0.091354187120504249 -0.0035445978191131801 0 -0.091401605930997179 -0.0043426322634664569 0 -0.091905161639422181 -0.0036693681355777427 0 -0.092234456739217999 -0.0025130571027669989 0 -0.091354187120504249 -0.0035445978191131801 0 -0.09193057819803771 -0.0030828982877632006 0 -0.091354187120504249 -0.0035445978191131801 0 -0.09193057819803771 -0.0030828982877632006 0 -0.091905161639422181 -0.0036693681355777427 0 -0.09193057819803771 -0.0030828982877632006 0 -0.092448513142088865 -0.0033751796076002868 0 -0.091905161639422181 -0.0036693681355777427 0 -0.092740672538436111 -0.00335908225546504 0 -0.092974408464468888 -0.0036799320188417896 0 -0.092974408464468888 -0.0036799320188417896 0 -0.092546327915947871 -0.0043767624118552532 0 -0.092448513142088865 -0.0033751796076002868 0 -0.091905161639422181 -0.0036693681355777427 0 -0.092193427248205215 -0.0042241622246193345 0 -0.091401605930997179 -0.0043426322634664569 0 -0.091905161639422181 -0.0036693681355777427 0 -0.092193427248205215 -0.0042241622246193345 0 -0.091401605930997179 -0.0043426322634664569 0 -0.092193427248205215 -0.0042241622246193345 0 -0.091647554418022192 -0.0052621918407944482 0 -0.092546327915947871 -0.0043767624118552532 0 -0.092388448721397703 -0.0046728659352275968 0 -0.09177543446081457 -0.004919333533459443 0 -0.091647554418022192 -0.0052621918407944482 0 -0.092090919612773853 -0.0051972057720410724 0 -0.090866493618526681 -0.005108120637138407 0 -0.089773640198665711 -0.0054313264039966905 0 -0.091057126152125967 -0.0064211399855248364 0 -0.091647554418022192 -0.0052621918407944482 0 -0.090866493618526681 -0.005108120637138407 0 -0.091057126152125967 -0.0064211399855248364 0 -0.091401605930997179 -0.0043426322634664569 0 -0.090866493618526681 -0.005108120637138407 0 -0.090507105985527733 -0.0045188712216014002 0 -0.091401605930997179 -0.0043426322634664569 0 -0.091647554418022192 -0.0052621918407944482 0 -0.090866493618526681 -0.005108120637138407 0 -0.090507105985527733 -0.0045188712216014002 0 -0.089773640198665711 -0.0054313264039966905 0 -0.089582382074145886 -0.004843140175374243 0 -0.090866493618526681 -0.005108120637138407 0 -0.090507105985527733 -0.0045188712216014002 0 -0.089773640198665711 -0.0054313264039966905 0 -0.088869176759164906 -0.0058617379436009436 0 -0.088852059934531449 -0.0054811101001286267 0 -0.088323023905654968 -0.0061102706881309655 0 -0.089773640198665711 -0.0054313264039966905 0 -0.088869176759164906 -0.0058617379436009436 0 -0.088852059934531449 -0.0054811101001286267 0 -0.089773640198665711 -0.0054313264039966905 0 -0.088852059934531449 -0.0054811101001286267 0 -0.089582382074145886 -0.004843140175374243 0 -0.088852059934531449 -0.0054811101001286267 0 -0.089582382074145886 -0.004843140175374243 0 -0.088855566457816518 -0.0047376711705050204 0 -0.09281616479653701 -0.0049643396618378128 0 -0.092757776047309073 -0.0047100809506470508 0 -0.092480889862456589 -0.0048136350347637536 0 -0.092794420520337401 -0.0043806905476513362 0 -0.092715514128478851 -0.0041798811968331165 0 -0.09281616479653701 -0.0049643396618378128 0 -0.092359220327257088 -0.0047510055442729036 0 -0.092497615333088104 -0.0051369317646978961 0 -0.09281616479653701 -0.0049643396618378128 0 -0.092968079161119238 -0.0048039673334662669 0 -0.092950241037258047 -0.0051516014350754188 0 -0.09281616479653701 -0.0049643396618378128 0 -0.092968079161119238 -0.0048039673334662669 0 -0.092757776047309073 -0.0047100809506470508 0 -0.092968079161119238 -0.0048039673334662669 0 -0.092938968075862424 -0.0046350768835190246 0 -0.092757776047309073 -0.0047100809506470508 0 -0.093025822062318284 -0.0047108156657741165 0 -0.092968079161119238 -0.0048039673334662669 0 -0.092938968075862424 -0.0046350768835190246 0 -0.092757408166141475 -0.0045486650809963098 0 -0.092938968075862424 -0.0046350768835190246 0 -0.092757776047309073 -0.0047100809506470508 0 -0.092560109869756074 -0.0045288971874374376 0 -0.092757408166141475 -0.0045486650809963098 0 -0.092757776047309073 -0.0047100809506470508 0 -0.092560109869756074 -0.0045288971874374376 0 -0.092757776047309073 -0.0047100809506470508 0 -0.092480889862456589 -0.0048136350347637536 0 -0.092349105793300801 -0.0045113330845038633 0 -0.092560109869756074 -0.0045288971874374376 0 -0.092480889862456589 -0.0048136350347637536 0 -0.092974408464468888 -0.0036799320188417896 0 -0.092715514128478851 -0.0041798811968331165 0 -0.092349105793300801 -0.0045113330845038633 0 -0.092137554242319175 -0.0046749820190896286 0 -0.092480889862456589 -0.0048136350347637536 0 -0.09177543446081457 -0.004919333533459443 0 -0.092359220327257088 -0.0047510055442729036 0 -0.092090919612773853 -0.0051972057720410724 0 -0.091868590321556073 -0.0045409033128344994 0 -0.09177543446081457 -0.004919333533459443 0 -0.092359220327257088 -0.0047510055442729036 0 -0.092497615333088104 -0.0051369317646978961 0 -0.092090919612773853 -0.0051972057720410724 0 -0.092450517903391982 -0.0054784260733558932 0 -0.092359220327257088 -0.0047510055442729036 0 -0.092497615333088104 -0.0051369317646978961 0 -0.092090919612773853 -0.0051972057720410724 0 -0.092090919612773853 -0.0051972057720410724 0 -0.092450517903391982 -0.0054784260733558932 0 -0.092113883358400386 -0.0060418996921498382 0 -0.091647554418022192 -0.0052621918407944482 0 -0.092090919612773853 -0.0051972057720410724 0 -0.092113883358400386 -0.0060418996921498382 0 -0.092742379445816814 -0.0053060803564940326 0 -0.092974590401639579 -0.0054871190679791669 0 -0.092647177113216767 -0.0058264578423855651 0 -0.092450517903391982 -0.0054784260733558932 0 -0.092742379445816814 -0.0053060803564940326 0 -0.092647177113216767 -0.0058264578423855651 0 -0.092497615333088104 -0.0051369317646978961 0 -0.092450517903391982 -0.0054784260733558932 0 -0.092742379445816814 -0.0053060803564940326 0 -0.09281616479653701 -0.0049643396618378128 0 -0.092497615333088104 -0.0051369317646978961 0 -0.092742379445816814 -0.0053060803564940326 0 -0.092742379445816814 -0.0053060803564940326 0 -0.092950241037258047 -0.0051516014350754188 0 -0.092974590401639579 -0.0054871190679791669 0 -0.093255335816931823 -0.0052025389008838697 0 -0.092968079161119238 -0.0048039673334662669 0 -0.092950241037258047 -0.0051516014350754188 0 -0.093255335816931823 -0.0052025389008838697 0 -0.092950241037258047 -0.0051516014350754188 0 -0.092974590401639579 -0.0054871190679791669 0 -0.09281616479653701 -0.0049643396618378128 0 -0.092742379445816814 -0.0053060803564940326 0 -0.092950241037258047 -0.0051516014350754188 0 -0.092974590401639579 -0.0054871190679791669 0 -0.092647177113216767 -0.0058264578423855651 0 -0.093045877478460048 -0.0056987584807315032 0 -0.086270105480935555 -0.0063551984446504764 0 -0.085148854985235278 -0.0056825297972668762 0 -0.077300535255368022 -0.006962037261741879 0 -0.080039788393576256 -0.0080704606157038956 0 -0.076939554065712443 -0.0081023787312469436 0 -0.078431012775931536 -0.0062267719740685123 0 -0.07926052678015999 -0.005477065309952951 0 -0.077300535255368022 -0.006962037261741879 0 -0.079170356810042114 -0.0064878193000864779 0 -0.079388266150368259 -0.0046194565319268533 0 -0.077300535255368022 -0.006962037261741879 0 -0.078097607157851939 -0.0058406390874343262 0 -0.077052365646342907 -0.0061627533157340934 0 -0.077300535255368022 -0.006962037261741879 0 -0.079170356810042114 -0.0064878193000864779 0 -0.080039788393576256 -0.0080704606157038956 0 -0.079170356810042114 -0.0064878193000864779 0 -0.080039788393576256 -0.0080704606157038956 0 -0.081762727471572164 -0.0055125263875989254 0 -0.092450517903391982 -0.0054784260733558932 0 -0.092647177113216767 -0.0058264578423855651 0 -0.092113883358400386 -0.0060418996921498382 0 -0.086270105480935555 -0.0063551984446504764 0 -0.087369145396088879 -0.0066130733071356968 0 -0.083200041424115606 -0.0077729242707129335 0 -0.081762727471572164 -0.0055125263875989254 0 -0.084858483349474684 -0.0058078912708855301 0 -0.080039788393576256 -0.0080704606157038956 0 -0.083200041424115606 -0.0077729242707129335 0 -0.081762727471572164 -0.0055125263875989254 0 -0.081762727471572164 -0.0055125263875989254 0 -0.081379696052546899 -0.0024919457267061889 0 -0.079388266150368259 -0.0046194565319268533 0 -0.081762727471572164 -0.0055125263875989254 0 -0.084858483349474684 -0.0058078912708855301 0 -0.084077973394735592 -0.0035467028721623672 0 -0.080803977887563078 -0.0044326811137039681 0 -0.082922690399763105 -0.0047757678384436307 0 -0.081762727471572164 -0.0055125263875989254 0 -0.081379696052546899 -0.0024919457267061889 0 -0.084077973394735592 -0.0035467028721623672 0 -0.0811424468349254 -0.0045290643163556025 0 -0.07986567776700268 -0.0046988091185520943 0 -0.082148495816065245 -0.005521413373836344 0 -0.0811424468349254 -0.0045290643163556025 0 -0.082148495816065245 -0.005521413373836344 0 -0.08166182564677836 -0.0043386866299348478 0 -0.080803977887563078 -0.0044326811137039681 0 -0.080762033985273485 -0.0044239815222424468 0 -0.077414416310270684 -0.0046089153014218743 0 -0.078097607157851939 -0.0058406390874343262 0 -0.078162893155176022 -0.0045656514796587073 0 -0.078942107248652749 -0.0046939399330113516 0 -0.078097607157851939 -0.0058406390874343262 0 -0.078162893155176022 -0.0045656514796587073 0 -0.079162336258189428 -0.0047743869932754994 0 -0.078942107248652749 -0.0046939399330113516 0 -0.078097607157851939 -0.0058406390874343262 0 -0.080803977887563078 -0.0044326811137039681 0 -0.07926052678015999 -0.005477065309952951 0 -0.077414416310270684 -0.0046089153014218743 0 -0.077031242724644455 -0.005462476886585679 0 -0.078097607157851939 -0.0058406390874343262 0 -0.077414416310270684 -0.0046089153014218743 0 -0.077031242724644455 -0.005462476886585679 0 -0.076430526790491587 -0.0049513312850873884 0 -0.077031242724644455 -0.005462476886585679 0 -0.078097607157851939 -0.0058406390874343262 0 -0.077052365646342907 -0.0061627533157340934 0 -0.079170356810042114 -0.0064878193000864779 0 -0.081762727471572164 -0.0055125263875989254 0 -0.079388266150368259 -0.0046194565319268533 0 -0.088490022761492385 -0.0064473407622455976 0 -0.087579103045583223 -0.0058435290299963033 0 -0.088323023905654968 -0.0061102706881309655 0 -0.087579103045583223 -0.0058435290299963033 0 -0.088323023905654968 -0.0061102706881309655 0 -0.087950380681993415 -0.0055378725919983524 0 -0.088869176759164906 -0.0058617379436009436 0 -0.088490022761492385 -0.0064473407622455976 0 -0.088323023905654968 -0.0061102706881309655 0 -0.089773640198665711 -0.0054313264039966905 0 -0.088869176759164906 -0.0058617379436009436 0 -0.088490022761492385 -0.0064473407622455976 0 -0.089773640198665711 -0.0054313264039966905 0 -0.088490022761492385 -0.0064473407622455976 0 -0.091057126152125967 -0.0064211399855248364 0 -0.088268615921369503 -0.0066448346591153323 0 -0.088089870033517009 -0.0066695633997323842 0 -0.088490022761492385 -0.0064473407622455976 0 -0.087128016398508923 -0.0059972048430998624 0 -0.087579103045583223 -0.0058435290299963033 0 -0.088490022761492385 -0.0064473407622455976 0 -0.087128016398508923 -0.0059972048430998624 0 -0.085975340845770978 -0.0073072840364579433 0 -0.087128016398508923 -0.0059972048430998624 0 -0.085975340845770978 -0.0073072840364579433 0 -0.084858483349474684 -0.0058078912708855301 0 -0.087369145396088879 -0.0066130733071356968 0 -0.088089870033517009 -0.0066695633997323842 0 -0.091647554418022192 -0.0052621918407944482 0 -0.092113883358400386 -0.0060418996921498382 0 -0.091057126152125967 -0.0064211399855248364 0 -0.083200041424115606 -0.0077729242707129335 0 -0.085975340845770978 -0.0073072840364579433 0 -0.084858483349474684 -0.0058078912708855301 0 -0.082922690399763105 -0.0047757678384436307 0 -0.084949956102774962 -0.0052968148951781585 0 -0.084858483349474684 -0.0058078912708855301 0 -0.084077973394735592 -0.0035467028721623672 0 -0.086528826183564 -0.0047240513770158005 0 -0.082148495816065245 -0.005521413373836344 0 -0.084807704365802386 -0.0060032258758175323 0 -0.083556628098038654 -0.0043004076905588324 0 -0.082148495816065245 -0.005521413373836344 0 -0.083556628098038654 -0.0043004076905588324 0 -0.08166182564677836 -0.0043386866299348478 0 -0.084807704365802386 -0.0060032258758175323 0 -0.086017185859834963 -0.0047098318164901006 0 -0.083556628098038654 -0.0043004076905588324 0 -0.087128016398508923 -0.0059972048430998624 0 -0.084858483349474684 -0.0058078912708855301 0 -0.086528826183564 -0.0047240513770158005 0 -0.087128016398508923 -0.0059972048430998624 0 -0.086528826183564 -0.0047240513770158005 0 -0.087579103045583223 -0.0058435290299963033 0 -0.084949956102774962 -0.0052968148951781585 0 -0.085944902276828605 -0.0055775902216868125 0 -0.084807704365802386 -0.0060032258758175323 0 -0.086017185859834963 -0.0047098318164901006 0 -0.087579103045583223 -0.0058435290299963033 0 -0.086017185859834963 -0.0047098318164901006 0 -0.087318707555520569 -0.0048040041817167412 0 -0.087579103045583223 -0.0058435290299963033 0 -0.086017185859834963 -0.0047098318164901006 0 -0.087318707555520569 -0.0048040041817167412 0 -0.086595573912667173 -0.0039416896642223576 0 -0.087318707555520569 -0.0048040041817167412 0 -0.087579103045583223 -0.0058435290299963033 0 -0.087950380681993415 -0.0055378725919983524 0 -0.086707722856595754 -0.0031864334193020464 0 -0.086595573912667173 -0.0039416896642223576 0 -0.087267824543468986 -0.0039160438715573551 0 -0.087318707555520569 -0.0048040041817167412 0 -0.086595573912667173 -0.0039416896642223576 0 -0.087267824543468986 -0.0039160438715573551 0 -0.086707722856595754 -0.0031864334193020464 0 -0.086595573912667173 -0.0039416896642223576 0 -0.084809616041949726 -0.002923416070388059 0 -0.086017185859834963 -0.0047098318164901006 0 -0.086595573912667173 -0.0039416896642223576 0 -0.084809616041949726 -0.002923416070388059 0 -0.085374683534130441 -0.0031992999565246811 0 -0.083945562251674197 -0.0033196302659167566 0 -0.084746299346193932 -0.0033842312540732322 0 -0.082991395710922941 -0.0035247738506358926 0 -0.083571041364183973 -0.0021691109233451388 0 -0.082991395710922941 -0.0035247738506358926 0 -0.082144697796851851 -0.0030838657135731852 0 -0.08225026057462452 -0.002261873711661957 0 -0.086017185859834963 -0.0047098318164901006 0 -0.084809616041949726 -0.002923416070388059 0 -0.083556628098038654 -0.0043004076905588324 0 -0.083945562251674197 -0.0033196302659167566 0 -0.082980397251301963 -0.0034163540555791089 0 -0.084809616041949726 -0.002923416070388059 0 -0.083556628098038654 -0.0043004076905588324 0 -0.081662726394374191 -0.0034396485642419167 0 -0.083556628098038654 -0.0043004076905588324 0 -0.08166182564677836 -0.0043386866299348478 0 -0.081662726394374191 -0.0034396485642419167 0 -0.082144697796851851 -0.0030838657135731852 0 -0.081662726394374191 -0.0034396485642419167 0 -0.081348784015629796 -0.0030881310188884395 0 -0.082991395710922941 -0.0035247738506358926 0 -0.082144697796851851 -0.0030838657135731852 0 -0.081662726394374191 -0.0034396485642419167 0 -0.082144697796851851 -0.0030838657135731852 0 -0.081438144815799002 -0.0024954277036783623 0 -0.081348784015629796 -0.0030881310188884395 0 -0.081438144815799002 -0.0024954277036783623 0 -0.08225026057462452 -0.002261873711661957 0 -0.08076261380979996 -0.00149784501201308 0 -0.082144697796851851 -0.0030838657135731852 0 -0.081438144815799002 -0.0024954277036783623 0 -0.08225026057462452 -0.002261873711661957 0 -0.08225026057462452 -0.002261873711661957 0 -0.082535507173737893 -0.00082786101445224706 0 -0.08076261380979996 -0.00149784501201308 0 -0.082535507173737893 -0.00082786101445224706 0 -0.08076261380979996 -0.00149784501201308 0 -0.080581046172976442 0.0008096529544561439 0 -0.08225026057462452 -0.002261873711661957 0 -0.082535507173737893 -0.00082786101445224706 0 -0.083571041364183973 -0.0021691109233451388 0 -0.082991395710922941 -0.0035247738506358926 0 -0.08225026057462452 -0.002261873711661957 0 -0.083571041364183973 -0.0021691109233451388 0 -0.084746299346193932 -0.0033842312540732322 0 -0.083571041364183973 -0.0021691109233451388 0 -0.084618991439083843 -0.0019655131312991325 0 -0.083571041364183973 -0.0021691109233451388 0 -0.084171967825071581 -0.0010304849819993628 0 -0.084618991439083843 -0.0019655131312991325 0 -0.082535507173737893 -0.00082786101445224706 0 -0.083571041364183973 -0.0021691109233451388 0 -0.084171967825071581 -0.0010304849819993628 0 -0.084171967825071581 -0.0010304849819993628 0 -0.085036455608721515 -0.001335729345435902 0 -0.084618991439083843 -0.0019655131312991325 0 -0.085036455608721515 -0.001335729345435902 0 -0.084618991439083843 -0.0019655131312991325 0 -0.085558938842869386 -0.0020325815147512684 0 -0.084746299346193932 -0.0033842312540732322 0 -0.084618991439083843 -0.0019655131312991325 0 -0.085558938842869386 -0.0020325815147512684 0 -0.078886822456724695 -0.0034240072177625647 0 -0.079419631771185703 -0.0027734101623539918 0 -0.077975170497374971 -0.0025074892614021342 0 -0.078210223540199256 -0.0039109067658134574 0 -0.078886822456724695 -0.0034240072177625647 0 -0.077975170497374971 -0.0025074892614021342 0 -0.077099111703179957 -0.0035383238925319727 0 -0.078210223540199256 -0.0039109067658134574 0 -0.077975170497374971 -0.0025074892614021342 0 -0.077099111703179957 -0.0035383238925319727 0 -0.077975170497374971 -0.0025074892614021342 0 -0.076244212615702342 -0.0026122034660812977 0 -0.077414416310270684 -0.0046089153014218743 0 -0.077099111703179957 -0.0035383238925319727 0 -0.078210223540199256 -0.0039109067658134574 0 -0.077414416310270684 -0.0046089153014218743 0 -0.078162893155176022 -0.0045656514796587073 0 -0.078210223540199256 -0.0039109067658134574 0 -0.078942107248652749 -0.0046939399330113516 0 -0.078162893155176022 -0.0045656514796587073 0 -0.078210223540199256 -0.0039109067658134574 0 -0.07920597306874036 -0.0048127298030040382 0 -0.078942107248652749 -0.0046939399330113516 0 -0.079341555979786413 -0.0041958000233464675 0 -0.078210223540199256 -0.0039109067658134574 0 -0.079341555979786413 -0.0041958000233464675 0 -0.078886822456724695 -0.0034240072177625647 0 -0.078942107248652749 -0.0046939399330113516 0 -0.078210223540199256 -0.0039109067658134574 0 -0.079341555979786413 -0.0041958000233464675 0 -0.080803977887563078 -0.0044326811137039681 0 -0.080878448638849562 -0.0041256555026031646 0 -0.0811424468349254 -0.0045290643163556025 0 -0.07986567776700268 -0.0046988091185520943 0 -0.080912166231235219 -0.003634646281236015 0 -0.07920597306874036 -0.0048127298030040382 0 -0.079341555979786413 -0.0041958000233464675 0 -0.080103281542676791 -0.0041118617834119981 0 -0.079341555979786413 -0.0041958000233464675 0 -0.080103281542676791 -0.0041118617834119981 0 -0.079580824933713615 -0.0036086265253626238 0 -0.079341555979786413 -0.0041958000233464675 0 -0.078886822456724695 -0.0034240072177625647 0 -0.079580824933713615 -0.0036086265253626238 0 -0.0811424468349254 -0.0045290643163556025 0 -0.08166182564677836 -0.0043386866299348478 0 -0.080912166231235219 -0.003634646281236015 0 -0.080912166231235219 -0.003634646281236015 0 -0.081662726394374191 -0.0034396485642419167 0 -0.081348784015629796 -0.0030881310188884395 0 -0.08166182564677836 -0.0043386866299348478 0 -0.080912166231235219 -0.003634646281236015 0 -0.081662726394374191 -0.0034396485642419167 0 -0.080878448638849562 -0.0041256555026031646 0 -0.081038962658281477 -0.003884606949980972 0 -0.080103281542676791 -0.0041118617834119981 0 -0.081348784015629796 -0.0030881310188884395 0 -0.080179595531049933 -0.003184732069083152 0 -0.081348784015629796 -0.0030881310188884395 0 -0.080179595531049933 -0.003184732069083152 0 -0.080479424593035101 -0.0024201382711737289 0 -0.080179595531049933 -0.003184732069083152 0 -0.079419631771185703 -0.0027734101623539918 0 -0.080479424593035101 -0.0024201382711737289 0 -0.081438144815799002 -0.0024954277036783623 0 -0.081348784015629796 -0.0030881310188884395 0 -0.080479424593035101 -0.0024201382711737289 0 -0.078886822456724695 -0.0034240072177625647 0 -0.079580824933713615 -0.0036086265253626238 0 -0.079419631771185703 -0.0027734101623539918 0 -0.080103281542676791 -0.0041118617834119981 0 -0.080179595531049933 -0.003184732069083152 0 -0.079580824933713615 -0.0036086265253626238 0 -0.080179595531049933 -0.003184732069083152 0 -0.079580824933713615 -0.0036086265253626238 0 -0.079419631771185703 -0.0027734101623539918 0 -0.079419631771185703 -0.0027734101623539918 0 -0.07910612987059211 -0.0017140574529330684 0 -0.080479424593035101 -0.0024201382711737289 0 -0.079419631771185703 -0.0027734101623539918 0 -0.07910612987059211 -0.0017140574529330684 0 -0.077975170497374971 -0.0025074892614021342 0 -0.07910612987059211 -0.0017140574529330684 0 -0.080479424593035101 -0.0024201382711737289 0 -0.08076261380979996 -0.00149784501201308 0 -0.081438144815799002 -0.0024954277036783623 0 -0.080479424593035101 -0.0024201382711737289 0 -0.08076261380979996 -0.00149784501201308 0 -0.07910612987059211 -0.0017140574529330684 0 -0.08076261380979996 -0.00149784501201308 0 -0.078535353816499176 -0.00017226109163274146 0 -0.07910612987059211 -0.0017140574529330684 0 -0.077879315801707108 -0.0010212129415657399 0 -0.078535353816499176 -0.00017226109163274146 0 -0.07910612987059211 -0.0017140574529330684 0 -0.077879315801707108 -0.0010212129415657399 0 -0.077975170497374971 -0.0025074892614021342 0 -0.077879315801707108 -0.0010212129415657399 0 -0.077975170497374971 -0.0025074892614021342 0 -0.07663919672994518 -0.0011288454517547877 0 -0.077975170497374971 -0.0025074892614021342 0 -0.07663919672994518 -0.0011288454517547877 0 -0.076244212615702342 -0.0026122034660812977 0 -0.077879315801707108 -0.0010212129415657399 0 -0.07663919672994518 -0.0011288454517547877 0 -0.077344023615669638 0.00014826158857167562 0 -0.07663919672994518 -0.0011288454517547877 0 -0.075706456685138798 -0.00073557571989977773 0 -0.0751856097578808 -0.0016120163899693539 0 -0.075706456685138798 -0.00073557571989977773 0 -0.0751856097578808 -0.0016120163899693539 0 -0.074917821856748654 -0.0003362530497564455 0 -0.0751856097578808 -0.0016120163899693539 0 -0.075041056137500367 -0.0028841298641868831 0 -0.07394310343121642 -0.0021055180318572007 0 -0.0751856097578808 -0.0016120163899693539 0 -0.076244212615702342 -0.0026122034660812977 0 -0.075041056137500367 -0.0028841298641868831 0 -0.07663919672994518 -0.0011288454517547877 0 -0.0751856097578808 -0.0016120163899693539 0 -0.076244212615702342 -0.0026122034660812977 0 -0.077099111703179957 -0.0035383238925319727 0 -0.076244212615702342 -0.0026122034660812977 0 -0.075594190789028667 -0.0040638966126618527 0 -0.076244212615702342 -0.0026122034660812977 0 -0.075041056137500367 -0.0028841298641868831 0 -0.075594190789028667 -0.0040638966126618527 0 -0.075041056137500367 -0.0028841298641868831 0 -0.075594190789028667 -0.0040638966126618527 0 -0.073946961502984715 -0.0035131716594736457 0 -0.075541824670442806 -0.0038910602936352138 0 -0.073964634269217261 -0.0033574297410020014 0 -0.077414416310270684 -0.0046089153014218743 0 -0.077099111703179957 -0.0035383238925319727 0 -0.075594190789028667 -0.0040638966126618527 0 -0.076401272374351167 -0.0041815466263528823 0 -0.075541824670442806 -0.0038910602936352138 0 -0.07302085681698757 -0.0033112782200236655 0 -0.073527695286668082 -0.004052348924741796 0 -0.072665548332085897 -0.0045856357244515537 0 -0.07302085681698757 -0.0033112782200236655 0 -0.073527695286668082 -0.004052348924741796 0 -0.07413552505621715 -0.0032179248344064407 0 -0.075926080893312778 -0.0039147735866077327 0 -0.07413552505621715 -0.0032179248344064407 0 -0.074276358732673894 -0.0043418556636685328 0 -0.073527695286668082 -0.004052348924741796 0 -0.07413552505621715 -0.0032179248344064407 0 -0.074276358732673894 -0.0043418556636685328 0 -0.075041056137500367 -0.0028841298641868831 0 -0.073946961502984715 -0.0035131716594736457 0 -0.07394310343121642 -0.0021055180318572007 0 -0.073946961502984715 -0.0035131716594736457 0 -0.072462066128417726 -0.0027439296738029813 0 -0.072066149005667435 -0.0028734718794490117 0 -0.073964634269217261 -0.0033574297410020014 0 -0.072283755477103653 -0.0027996158628520854 0 -0.07302085681698757 -0.0033112782200236655 0 -0.07413552505621715 -0.0032179248344064407 0 -0.072154336950794665 -0.0025269489806710446 0 -0.073946961502984715 -0.0035131716594736457 0 -0.07394310343121642 -0.0021055180318572007 0 -0.072462066128417726 -0.0027439296738029813 0 -0.07394310343121642 -0.0021055180318572007 0 -0.073048895613659334 -0.0013300259204599397 0 -0.072462066128417726 -0.0027439296738029813 0 -0.065445854708619605 0.00059920435868592416 0 -0.066905752369796276 -0.00055860112440780354 0 -0.0751856097578808 -0.0016120163899693539 0 -0.073977197358078839 -0.00080148608851956192 0 -0.074917821856748654 -0.0003362530497564455 0 -0.0751856097578808 -0.0016120163899693539 0 -0.07394310343121642 -0.0021055180318572007 0 -0.073977197358078839 -0.00080148608851956192 0 -0.065445854708619605 0.00059920435868592416 0 -0.059926643748585341 0.0032940188541549739 0 -0.073977197358078839 -0.00080148608851956192 0 -0.073048895613659334 -0.0013300259204599397 0 -0.073533665967269207 -2.4002405518497828e-05 0 -0.07394310343121642 -0.0021055180318572007 0 -0.073977197358078839 -0.00080148608851956192 0 -0.073048895613659334 -0.0013300259204599397 0 -0.070595644737037472 -2.6311390605503935e-05 0 -0.071706642973394935 -0.0015117846494450691 0 -0.072084716763433004 0.00019261378059047838 0 -0.07265790639614772 -0.00075314214361773938 0 -0.071706642973394935 -0.0015117846494450691 0 -0.072084716763433004 0.00019261378059047838 0 -0.070595644737037472 -2.6311390605503935e-05 0 -0.070523372520760338 -0.0011768851682979373 0 -0.071706642973394935 -0.0015117846494450691 0 -0.070523372520760338 -0.0011768851682979373 0 -0.071706642973394935 -0.0015117846494450691 0 -0.070031245603133577 -0.002036321080431544 0 -0.071706642973394935 -0.0015117846494450691 0 -0.070031245603133577 -0.002036321080431544 0 -0.072066149005667435 -0.0028734718794490117 0 -0.07265790639614772 -0.00075314214361773938 0 -0.071706642973394935 -0.0015117846494450691 0 -0.072462066128417726 -0.0027439296738029813 0 -0.025112531380322618 0.016225578361477585 0 -0.025064552134489666 0.017181524814499569 0 -0.024217452304029548 0.016160475099428449 0 -0.025064552134489666 0.017181524814499569 0 -0.024217452304029548 0.016160475099428449 0 -0.023938700094715333 0.01736659691604191 0 -0.022678380932842232 0.016240658550915565 0 -0.024217452304029548 0.016160475099428449 0 -0.023938700094715333 0.01736659691604191 0 -0.070595644737037472 -2.6311390605503935e-05 0 -0.070523372520760338 -0.0011768851682979373 0 -0.069247243847102055 -0.00141085196057544 0 -0.046647515441956437 0.0080272512626587845 0 -0.046572482003189711 0.0080321620167507456 0 -0.069247243847102055 -0.00141085196057544 0 -0.069231669814734331 -0.0024778344698907361 0 -0.070031245603133577 -0.002036321080431544 0 -0.070523372520760338 -0.0011768851682979373 0 -0.069247243847102055 -0.00141085196057544 0 -0.070031245603133577 -0.002036321080431544 0 -0.025064552134489666 0.017181524814499569 0 -0.025103833750315569 0.018477550524828728 0 -0.023938700094715333 0.01736659691604191 0 -0.068008080804927054 -0.0026859902396945187 0 -0.069247243847102055 -0.00141085196057544 0 -0.069231669814734331 -0.0024778344698907361 0 -0.068008080804927054 -0.0026859902396945187 0 -0.069231669814734331 -0.0024778344698907361 0 -0.069055610285408422 -0.0032273651213392453 0 -0.046565947589043533 0.0081531856036084847 0 -0.046572482003189711 0.0080321620167507456 0 -0.069231669814734331 -0.0024778344698907361 0 -0.069850811022719783 -0.0030292775784264213 0 -0.069055610285408422 -0.0032273651213392453 0 -0.069231669814734331 -0.0024778344698907361 0 -0.070031245603133577 -0.002036321080431544 0 -0.069850811022719783 -0.0030292775784264213 0 -0.070031245603133577 -0.002036321080431544 0 -0.069850811022719783 -0.0030292775784264213 0 -0.070497503164240485 -0.0028402537447271038 0 -0.069850811022719783 -0.0030292775784264213 0 -0.069565573811802686 -0.003911410883542338 0 -0.070738656834060332 -0.0036420743273706145 0 -0.069565573811802686 -0.003911410883542338 0 -0.070738656834060332 -0.0036420743273706145 0 -0.070231291132223692 -0.004638105511208932 0 -0.069850811022719783 -0.0030292775784264213 0 -0.069565573811802686 -0.003911410883542338 0 -0.069055610285408422 -0.0032273651213392453 0 -0.069565573811802686 -0.003911410883542338 0 -0.068461724865159154 -0.0039356495622820814 0 -0.069055610285408422 -0.0032273651213392453 0 -0.068008080804927054 -0.0026859902396945187 0 -0.068461724865159154 -0.0039356495622820814 0 -0.069055610285408422 -0.0032273651213392453 0 -0.071706642973394935 -0.0015117846494450691 0 -0.072462066128417726 -0.0027439296738029813 0 -0.072066149005667435 -0.0028734718794490117 0 -0.072154336950794665 -0.0025269489806710446 0 -0.071380935330802558 -0.0026376922125348288 0 -0.071792168187548647 -0.0031585002143044712 0 -0.072154336950794665 -0.0025269489806710446 0 -0.071792168187548647 -0.0031585002143044712 0 -0.072259117886567775 -0.0031869811452617624 0 -0.07302085681698757 -0.0033112782200236655 0 -0.072154336950794665 -0.0025269489806710446 0 -0.072259117886567775 -0.0031869811452617624 0 -0.070031245603133577 -0.002036321080431544 0 -0.072154336950794665 -0.0025269489806710446 0 -0.071380935330802558 -0.0026376922125348288 0 -0.071287204903530993 -0.0024776655137917171 0 -0.072283755477103653 -0.0027996158628520854 0 -0.070031245603133577 -0.002036321080431544 0 -0.070497503164240485 -0.0028402537447271038 0 -0.071380935330802558 -0.0026376922125348288 0 -0.070497503164240485 -0.0028402537447271038 0 -0.071380935330802558 -0.0026376922125348288 0 -0.070738656834060332 -0.0036420743273706145 0 -0.071380935330802558 -0.0026376922125348288 0 -0.070977807023761302 -0.0037449239651500283 0 -0.071792168187548647 -0.0031585002143044712 0 -0.073134625477286525 -0.0035871026574465811 0 -0.073381483817150955 -0.0035974985632365583 0 -0.069850811022719783 -0.0030292775784264213 0 -0.070497503164240485 -0.0028402537447271038 0 -0.070738656834060332 -0.0036420743273706145 0 -0.070977807023761302 -0.0037449239651500283 0 -0.072065696408155841 -0.0037320693755079856 0 -0.07149885479973897 -0.0046337798043199346 0 -0.07302085681698757 -0.0033112782200236655 0 -0.072065696408155841 -0.0037320693755079856 0 -0.072665548332085897 -0.0045856357244515537 0 -0.070977807023761302 -0.0037449239651500283 0 -0.072065696408155841 -0.0037320693755079856 0 -0.071792168187548647 -0.0031585002143044712 0 -0.072065696408155841 -0.0037320693755079856 0 -0.071792168187548647 -0.0031585002143044712 0 -0.072259117886567775 -0.0031869811452617624 0 -0.07302085681698757 -0.0033112782200236655 0 -0.072065696408155841 -0.0037320693755079856 0 -0.072259117886567775 -0.0031869811452617624 0 -0.072021475541689847 -0.0051869440887142414 0 -0.07149885479973897 -0.0046337798043199346 0 -0.071450940702474708 -0.0058092380317576464 0 -0.072665548332085897 -0.0045856357244515537 0 -0.072021475541689847 -0.0051869440887142414 0 -0.07149885479973897 -0.0046337798043199346 0 -0.072065696408155841 -0.0037320693755079856 0 -0.072665548332085897 -0.0045856357244515537 0 -0.07149885479973897 -0.0046337798043199346 0 -0.072665548332085897 -0.0045856357244515537 0 -0.072581315191883294 -0.0053671897365564344 0 -0.072021475541689847 -0.0051869440887142414 0 -0.07149885479973897 -0.0046337798043199346 0 -0.070500953458203827 -0.0048166818814242198 0 -0.071450940702474708 -0.0058092380317576464 0 -0.070977807023761302 -0.0037449239651500283 0 -0.07149885479973897 -0.0046337798043199346 0 -0.070500953458203827 -0.0048166818814242198 0 -0.073381483817150955 -0.0035974985632365583 0 -0.074573330177313463 -0.0028028170706100651 0 -0.074573330177313463 -0.0028028170706100651 0 -0.076697396357028214 -0.0027463613716982474 0 -0.078870343265603424 -0.001415694499952824 0 -0.080126404198558501 -0.001058115411098794 0 -0.079290789961661265 -0.0005700292211230437 0 -0.079583638448838104 -0.0021928397563212307 0 -0.078870343265603424 -0.001415694499952824 0 -0.080126404198558501 -0.001058115411098794 0 -0.078870343265603424 -0.001415694499952824 0 -0.078748513004371759 -0.00068975339400830925 0 -0.079290789961661265 -0.0005700292211230437 0 -0.078870343265603424 -0.001415694499952824 0 -0.078150666343770159 -0.00064036125121733946 0 -0.078748513004371759 -0.00068975339400830925 0 -0.076697396357028214 -0.0027463613716982474 0 -0.079600463673608859 -0.002772016437645687 0 -0.071450940702474708 -0.0058092380317576464 0 -0.072233684987013408 -0.005847972435859718 0 -0.072415923885685698 -0.0068042853895661894 0 -0.07266761030212969 -0.0062691171346066325 0 -0.072233684987013408 -0.005847972435859718 0 -0.072825697008276416 -0.0058113891506623725 0 -0.07266761030212969 -0.0062691171346066325 0 -0.072233684987013408 -0.005847972435859718 0 -0.072415923885685698 -0.0068042853895661894 0 -0.072581315191883294 -0.0053671897365564344 0 -0.072233684987013408 -0.005847972435859718 0 -0.072825697008276416 -0.0058113891506623725 0 -0.072581315191883294 -0.0053671897365564344 0 -0.072021475541689847 -0.0051869440887142414 0 -0.072233684987013408 -0.005847972435859718 0 -0.072021475541689847 -0.0051869440887142414 0 -0.071450940702474708 -0.0058092380317576464 0 -0.072233684987013408 -0.005847972435859718 0 -0.069565573811802686 -0.003911410883542338 0 -0.068461724865159154 -0.0039356495622820814 0 -0.069022482870896268 -0.0048037093347475281 0 -0.067845189638219491 -0.0049074249969784916 0 -0.068461724865159154 -0.0039356495622820814 0 -0.069022482870896268 -0.0048037093347475281 0 -0.069565573811802686 -0.003911410883542338 0 -0.070087510084375318 -0.0044729730338303316 0 -0.069022482870896268 -0.0048037093347475281 0 -0.073953585047104295 -0.0025973398484731014 0 -0.074573330177313463 -0.0028028170706100651 0 -0.074573330177313463 -0.0028028170706100651 0 -0.074058024960635266 -0.0019752832218074678 0 -0.070087510084375318 -0.0044729730338303316 0 -0.069022482870896268 -0.0048037093347475281 0 -0.069510790026917804 -0.0056516953030062468 0 -0.069022482870896268 -0.0048037093347475281 0 -0.069510790026917804 -0.0056516953030062468 0 -0.068526155948612041 -0.005653969631444173 0 -0.067845189638219491 -0.0049074249969784916 0 -0.069022482870896268 -0.0048037093347475281 0 -0.068526155948612041 -0.005653969631444173 0 -0.069510790026917804 -0.0056516953030062468 0 -0.068526155948612041 -0.005653969631444173 0 -0.068937927500329399 -0.0068638565059975084 0 -0.067296359947266737 -0.0060489163979033991 0 -0.068526155948612041 -0.005653969631444173 0 -0.068937927500329399 -0.0068638565059975084 0 -0.074058024960635266 -0.0019752832218074678 0 -0.073904519143495218 0.00088540939582051057 0 -0.080126404198558501 -0.001058115411098794 0 -0.079851710920855301 -0.0001301505254531074 0 -0.079290789961661265 -0.0005700292211230437 0 -0.080126404198558501 -0.001058115411098794 0 -0.079851710920855301 -0.0001301505254531074 0 -0.080654688215631126 7.6534373023413532e-05 0 -0.079851710920855301 -0.0001301505254531074 0 -0.079712125670772668 0.00012863968965898934 0 -0.079397993046971829 1.5314897042762985e-06 0 -0.080976344061644875 0.0010213669512348963 0 -0.080485541237521135 0.00081080661243418167 0 -0.080536498116537125 0.00087961680837461784 0 -0.080976344061644875 0.0010213669512348963 0 -0.079713067088936884 0.00044923417438119955 0 -0.08023272699211581 0.00029561860439687433 0 -0.08094628116842402 -0.00012884234914390712 0 -0.080699986689411807 -0.00063915917467969555 0 -0.079885641233310614 0.0001916087363011439 0 -0.079713067088936884 0.00044923417438119955 0 -0.08023272699211581 0.00029561860439687433 0 -0.079851710920855301 -0.0001301505254531074 0 -0.079712125670772668 0.00012863968965898934 0 -0.079885641233310614 0.0001916087363011439 0 -0.079851710920855301 -0.0001301505254531074 0 -0.079885641233310614 0.0001916087363011439 0 -0.08023272699211581 0.00029561860439687433 0 -0.079712125670772668 0.00012863968965898934 0 -0.079885641233310614 0.0001916087363011439 0 -0.079713067088936884 0.00044923417438119955 0 -0.079851710920855301 -0.0001301505254531074 0 -0.08023272699211581 0.00029561860439687433 0 -0.080654688215631126 7.6534373023413532e-05 0 -0.074521627901549176 0.00064672993492386746 0 -0.073904519143495218 0.00088540939582051057 0 -0.080976344061644875 0.0010213669512348963 0 -0.08023272699211581 0.00029561860439687433 0 -0.080620731720378147 0.00012820292313927108 0 -0.076662105750528786 0.0033179893475446414 0 -0.073904519143495218 0.00088540939582051057 0 -0.07412291885888099 0.0057081071604473035 0 -0.074131405697003272 0.0054731593357214958 0 -0.07455023773003143 0.0060165684435145236 0 -0.07412291885888099 0.0057081071604473035 0 -0.074147059231149601 0.0059779372350921367 0 -0.07455023773003143 0.0060165684435145236 0 -0.078328675533498662 -0.00025920452358514764 0 -0.078748513004371759 -0.00068975339400830925 0 -0.078976043392283896 -0.00019463773045944735 0 -0.081956233479497778 -0.0017691845762458297 0 -0.08220513851221023 -0.0016397975550987989 0 -0.082191206996078459 -0.0020609015328596032 0 -0.080717821832861594 -0.0020493658771156631 0 -0.080181166731151957 -0.0026916780020096011 0 -0.079269846987411033 -0.0029526966323114921 0 -0.079521413959153575 -0.0024202975301873771 0 -0.079773540520247904 -0.0026911352364457014 0 -0.080717821832861594 -0.0020493658771156631 0 -0.079600463673608859 -0.002772016437645687 0 -0.072430358813617216 -0.0067921179668545828 0 -0.072658368711046736 -0.0070385985943014753 0 -0.072901332463547575 -0.0065519372178523905 0 -0.079600463673608859 -0.002772016437645687 0 -0.080181166731151957 -0.0026916780020096011 0 -0.079223647543816597 -0.003279996707744925 0 -0.079600463673608859 -0.002772016437645687 0 -0.07266761030212969 -0.0062691171346066325 0 -0.072430358813617216 -0.0067921179668545828 0 -0.072901332463547575 -0.0065519372178523905 0 -0.078328675533498662 -0.00025920452358514764 0 -0.078150666343770159 -0.00064036125121733946 0 -0.078748513004371759 -0.00068975339400830925 0 -0.078748513004371759 -0.00068975339400830925 0 -0.079290789961661265 -0.0005700292211230437 0 -0.078976043392283896 -0.00019463773045944735 0 -0.079713067088936884 0.00044923417438119955 0 -0.078328675533498662 -0.00025920452358514764 0 -0.078976043392283896 -0.00019463773045944735 0 -0.079851710920855301 -0.0001301505254531074 0 -0.079290789961661265 -0.0005700292211230437 0 -0.079397993046971829 1.5314897042762985e-06 0 -0.079290789961661265 -0.0005700292211230437 0 -0.078976043392283896 -0.00019463773045944735 0 -0.079397993046971829 1.5314897042762985e-06 0 -0.080485541237521135 0.00081080661243418167 0 -0.080181553508170605 0.00062616081436529336 0 -0.0803414114147325 0.00079351903280233899 0 -0.082646510364355164 -0.00027766988823858081 0 -0.084342499257462872 -0.00041067427445739863 0 -0.080699986689411807 -0.00063915917467969555 0 -0.080717821832861594 -0.0020493658771156631 0 -0.080536498116537125 0.00087961680837461784 0 -0.0803414114147325 0.00079351903280233899 0 -0.080270291778760924 0.00083895997578674732 0 -0.080409017393965165 0.0010000304896796092 0 -0.080536498116537125 0.00087961680837461784 0 -0.080052384614240538 0.00084355037523526342 0 -0.079712125670772668 0.00012863968965898934 0 -0.079713067088936884 0.00044923417438119955 0 -0.079397993046971829 1.5314897042762985e-06 0 -0.079713067088936884 0.00044923417438119955 0 -0.078976043392283896 -0.00019463773045944735 0 -0.079397993046971829 1.5314897042762985e-06 0 -0.080485541237521135 0.00081080661243418167 0 -0.080536498116537125 0.00087961680837461784 0 -0.0803414114147325 0.00079351903280233899 0 -0.0803414114147325 0.00079351903280233899 0 -0.080270291778760924 0.00083895997578674732 0 -0.080256706030061284 0.00080725919180445942 0 -0.08355922989574896 -0.00071998224639141268 0 -0.083803882664721482 -0.0007826530723718724 0 -0.084342499257462872 -0.00041067427445739863 0 -0.08517643938516338 -0.0014660489688522078 0 -0.083803882664721482 -0.0007826530723718724 0 -0.08517643938516338 -0.0014660489688522078 0 -0.083396055752049655 -0.001434913463637015 0 -0.083554039337277577 -0.0011019556795409374 0 -0.084978332446606186 -0.0013757698304802011 0 -0.084342499257462872 -0.00041067427445739863 0 -0.083803882664721482 -0.0007826530723718724 0 -0.080717821832861594 -0.0020493658771156631 0 -0.083803882664721482 -0.0007826530723718724 0 -0.081956233479497778 -0.0017691845762458297 0 -0.081714031561083741 -0.0022848498090528692 0 -0.082191206996078459 -0.0020609015328596032 0 -0.080181553508170605 0.00062616081436529336 0 -0.0803414114147325 0.00079351903280233899 0 -0.0802601539894576 0.00080562229776232064 0 -0.081714031561083741 -0.0022848498090528692 0 -0.082191206996078459 -0.0020609015328596032 0 -0.082121765093702698 -0.0023653212140065274 0 -0.080181166731151957 -0.0026916780020096011 0 -0.08374454432259823 -0.0028139145726297334 0 -0.082191206996078459 -0.0020609015328596032 0 -0.082121765093702698 -0.0023653212140065274 0 -0.082857557037675708 -0.0023409519944589652 0 -0.085399108895365214 -0.0018665420829774332 0 -0.084774793888644617 -0.0019008221630933699 0 -0.084727679217350527 -0.0018510169375048941 0 -0.082347393981540798 -0.00282631474348092 0 -0.08227256057261309 -0.0025054621653965549 0 -0.082399147112591595 -0.0028243780204969763 0 -0.085399108895365214 -0.0018665420829774332 0 -0.084727679217350527 -0.0018510169375048941 0 -0.084579523970741935 -0.001723345438202449 0 -0.08220513851221023 -0.0016397975550987989 0 -0.082191206996078459 -0.0020609015328596032 0 -0.082857557037675708 -0.0023409519944589652 0 -0.08517643938516338 -0.0014660489688522078 0 -0.086579611246648799 -0.003547443325891385 0 -0.08517643938516338 -0.0014660489688522078 0 -0.08374454432259823 -0.0028139145726297334 0 -0.08374454432259823 -0.0028139145726297334 0 -0.083746217124719538 -0.0028122081259200774 0 -0.07351376800645873 -0.0065189995513124958 0 -0.074011562809418313 -0.0066621250409310342 0 -0.074179098246108396 -0.0081647240998350846 0 -0.080560478318230586 -0.003949314022753626 0 -0.08437061744754043 -0.0030000225912984371 0 -0.082117026771453633 -0.0025854673472153131 0 -0.082347393981540798 -0.00282631474348092 0 -0.08227256057261309 -0.0025054621653965549 0 -0.073699067080172542 -0.006434709549834698 0 -0.074011562809418313 -0.0066621250409310342 0 -0.074081671710705316 -0.0062807296616149413 0 -0.073699067080172542 -0.006434709549834698 0 -0.07351376800645873 -0.0065189995513124958 0 -0.074011562809418313 -0.0066621250409310342 0 -0.080459545225594509 -0.0039976828391693562 0 -0.080560478318230586 -0.003949314022753626 0 -0.072658368711046736 -0.0070385985943014753 0 -0.07349220548749677 -0.0066101210063531993 0 -0.072901332463547575 -0.0065519372178523905 0 -0.080181166731151957 -0.0026916780020096011 0 -0.080560478318230586 -0.003949314022753626 0 -0.081317891236210527 -0.0036726516811733411 0 -0.084475357745234764 -0.0041246684205284304 0 -0.074011562809418313 -0.0066621250409310342 0 -0.075008144914111494 -0.0080179871064942707 0 -0.074993821494669655 -0.0069322587216054362 0 -0.074503249240837871 -0.0064547934284620708 0 -0.074011562809418313 -0.0066621250409310342 0 -0.074993821494669655 -0.0069322587216054362 0 -0.074503249240837871 -0.0064547934284620708 0 -0.074993821494669655 -0.0069322587216054362 0 -0.074976792452378399 -0.0064262723117519474 0 -0.074503249240837871 -0.0064547934284620708 0 -0.074011562809418313 -0.0066621250409310342 0 -0.074081671710705316 -0.0062807296616149413 0 -0.0854186189387489 -0.0037147705366946081 0 -0.086489338703414478 -0.0039134770600621829 0 -0.085825776198904871 -0.0042683788354845476 0 -0.074011562809418313 -0.0066621250409310342 0 -0.074179098246108396 -0.0081647240998350846 0 -0.075160126674435071 -0.0081239316001512438 0 -0.084775559318573557 -0.0019034032266790363 0 -0.084727679217350527 -0.0018510169375048941 0 -0.084648197809814543 -0.0019079841364079005 0 -0.08374454432259823 -0.0028139145726297334 0 -0.08437061744754043 -0.0030000225912984371 0 -0.08437061744754043 -0.0030000225912984371 0 -0.086579611246648799 -0.003547443325891385 0 -0.084727679217350527 -0.0018510169375048941 0 -0.084648197809814543 -0.0019079841364079005 0 -0.084579523970741935 -0.001723345438202449 0 -0.086609487746074479 -0.0042342378591696721 0 -0.086489338703414478 -0.0039134770600621829 0 -0.085825776198904871 -0.0042683788354845476 0 -0.08437061744754043 -0.0030000225912984371 0 -0.084475357745234764 -0.0041246684205284304 0 -0.084475357745234764 -0.0041246684205284304 0 -0.085148854985235278 -0.0056825297972668762 0 -0.088720408931785164 -0.0052977810594114147 0 -0.084475357745234764 -0.0041246684205284304 0 -0.075008144914111494 -0.0080179871064942707 0 -0.075941096785041948 -0.0074653819388657951 0 -0.074993821494669655 -0.0069322587216054362 0 -0.075008144914111494 -0.0080179871064942707 0 -0.075941096785041948 -0.0074653819388657951 0 -0.076939554065712443 -0.0081023787312469436 0 -0.093229454157683841 -0.0055806883548078483 0 -0.093280024744217968 -0.0056591097268564707 0 -0.093045877478460048 -0.0056987584807315032 0 -0.075941096785041948 -0.0074653819388657951 0 -0.076939554065712443 -0.0081023787312469436 0 -0.076638802442145687 -0.0073130438130221765 0 -0.077300535255368022 -0.006962037261741879 0 -0.076939554065712443 -0.0081023787312469436 0 -0.076638802442145687 -0.0073130438130221765 0 -0.077300535255368022 -0.006962037261741879 0 -0.076638802442145687 -0.0073130438130221765 0 -0.076438092140498251 -0.0067632774158504763 0 -0.075941096785041948 -0.0074653819388657951 0 -0.076638802442145687 -0.0073130438130221765 0 -0.076438092140498251 -0.0067632774158504763 0 -0.076438092140498251 -0.0067632774158504763 0 -0.075656731512238451 -0.0064780347316782576 0 -0.076197156932649543 -0.0058429854448639931 0 -0.077300535255368022 -0.006962037261741879 0 -0.076438092140498251 -0.0067632774158504763 0 -0.077052365646342907 -0.0061627533157340934 0 -0.075941096785041948 -0.0074653819388657951 0 -0.074993821494669655 -0.0069322587216054362 0 -0.075656731512238451 -0.0064780347316782576 0 -0.075941096785041948 -0.0074653819388657951 0 -0.076438092140498251 -0.0067632774158504763 0 -0.075656731512238451 -0.0064780347316782576 0 -0.074993821494669655 -0.0069322587216054362 0 -0.075656731512238451 -0.0064780347316782576 0 -0.074976792452378399 -0.0064262723117519474 0 -0.075656731512238451 -0.0064780347316782576 0 -0.074976792452378399 -0.0064262723117519474 0 -0.075215451297850386 -0.0058415866043689058 0 -0.075656731512238451 -0.0064780347316782576 0 -0.075215451297850386 -0.0058415866043689058 0 -0.076197156932649543 -0.0058429854448639931 0 -0.075215451297850386 -0.0058415866043689058 0 -0.076197156932649543 -0.0058429854448639931 0 -0.075708440932767837 -0.0051379350552652634 0 -0.076438092140498251 -0.0067632774158504763 0 -0.077052365646342907 -0.0061627533157340934 0 -0.076197156932649543 -0.0058429854448639931 0 -0.077031242724644455 -0.005462476886585679 0 -0.076197156932649543 -0.0058429854448639931 0 -0.076430526790491587 -0.0049513312850873884 0 -0.077031242724644455 -0.005462476886585679 0 -0.077052365646342907 -0.0061627533157340934 0 -0.076197156932649543 -0.0058429854448639931 0 -0.077414416310270684 -0.0046089153014218743 0 -0.075926080893312778 -0.0039147735866077327 0 -0.076430526790491587 -0.0049513312850873884 0 -0.075926080893312778 -0.0039147735866077327 0 -0.076430526790491587 -0.0049513312850873884 0 -0.075708440932767837 -0.0051379350552652634 0 -0.076197156932649543 -0.0058429854448639931 0 -0.076430526790491587 -0.0049513312850873884 0 -0.075708440932767837 -0.0051379350552652634 0 -0.075926080893312778 -0.0039147735866077327 0 -0.075708440932767837 -0.0051379350552652634 0 -0.074744214698099776 -0.0051215252192454951 0 -0.075926080893312778 -0.0039147735866077327 0 -0.074744214698099776 -0.0051215252192454951 0 -0.074276358732673894 -0.0043418556636685328 0 -0.075215451297850386 -0.0058415866043689058 0 -0.075708440932767837 -0.0051379350552652634 0 -0.074744214698099776 -0.0051215252192454951 0 -0.074744214698099776 -0.0051215252192454951 0 -0.07404687364614114 -0.0053298788359611628 0 -0.074276358732673894 -0.0043418556636685328 0 -0.07404687364614114 -0.0053298788359611628 0 -0.074276358732673894 -0.0043418556636685328 0 -0.073530752573467195 -0.0047893615024278257 0 -0.073527695286668082 -0.004052348924741796 0 -0.074276358732673894 -0.0043418556636685328 0 -0.073530752573467195 -0.0047893615024278257 0 -0.073527695286668082 -0.004052348924741796 0 -0.072665548332085897 -0.0045856357244515537 0 -0.073530752573467195 -0.0047893615024278257 0 -0.072665548332085897 -0.0045856357244515537 0 -0.073530752573467195 -0.0047893615024278257 0 -0.073260959409503543 -0.0054213787096214616 0 -0.072665548332085897 -0.0045856357244515537 0 -0.072581315191883294 -0.0053671897365564344 0 -0.073260959409503543 -0.0054213787096214616 0 -0.07404687364614114 -0.0053298788359611628 0 -0.073530752573467195 -0.0047893615024278257 0 -0.073260959409503543 -0.0054213787096214616 0 -0.073260959409503543 -0.0054213787096214616 0 -0.073274263618405083 -0.0060341838930354089 0 -0.073814723747607294 -0.0059291702626130434 0 -0.07404687364614114 -0.0053298788359611628 0 -0.073260959409503543 -0.0054213787096214616 0 -0.073814723747607294 -0.0059291702626130434 0 -0.072825697008276416 -0.0058113891506623725 0 -0.073260959409503543 -0.0054213787096214616 0 -0.073274263618405083 -0.0060341838930354089 0 -0.072581315191883294 -0.0053671897365564344 0 -0.072825697008276416 -0.0058113891506623725 0 -0.073260959409503543 -0.0054213787096214616 0 -0.07266761030212969 -0.0062691171346066325 0 -0.072825697008276416 -0.0058113891506623725 0 -0.073274263618405083 -0.0060341838930354089 0 -0.07266761030212969 -0.0062691171346066325 0 -0.072901332463547575 -0.0065519372178523905 0 -0.073274263618405083 -0.0060341838930354089 0 -0.07349220548749677 -0.0066101210063531993 0 -0.072901332463547575 -0.0065519372178523905 0 -0.073274263618405083 -0.0060341838930354089 0 -0.073699067080172542 -0.006434709549834698 0 -0.073274263618405083 -0.0060341838930354089 0 -0.073814723747607294 -0.0059291702626130434 0 -0.073699067080172542 -0.006434709549834698 0 -0.073510788712652181 -0.0065338776991786954 0 -0.073274263618405083 -0.0060341838930354089 0 -0.080560478318230586 -0.003949314022753626 0 -0.080350893126937398 -0.0039780661538482056 0 -0.073699067080172542 -0.006434709549834698 0 -0.073814723747607294 -0.0059291702626130434 0 -0.074081671710705316 -0.0062807296616149413 0 -0.073814723747607294 -0.0059291702626130434 0 -0.074081671710705316 -0.0062807296616149413 0 -0.074451936657504575 -0.0059648555883981581 0 -0.074503249240837871 -0.0064547934284620708 0 -0.074081671710705316 -0.0062807296616149413 0 -0.074451936657504575 -0.0059648555883981581 0 -0.074503249240837871 -0.0064547934284620708 0 -0.074976792452378399 -0.0064262723117519474 0 -0.074451936657504575 -0.0059648555883981581 0 -0.074976792452378399 -0.0064262723117519474 0 -0.075215451297850386 -0.0058415866043689058 0 -0.074451936657504575 -0.0059648555883981581 0 -0.075215451297850386 -0.0058415866043689058 0 -0.074744214698099776 -0.0051215252192454951 0 -0.074451936657504575 -0.0059648555883981581 0 -0.074744214698099776 -0.0051215252192454951 0 -0.07404687364614114 -0.0053298788359611628 0 -0.074451936657504575 -0.0059648555883981581 0 -0.07404687364614114 -0.0053298788359611628 0 -0.073814723747607294 -0.0059291702626130434 0 -0.074451936657504575 -0.0059648555883981581 0 -0.075046154332888165 0.00024225654579756436 0 -0.0801315995718513 -6.8049206325809136e-07 0 -0.069165883883983995 4.2558493606669718e-06 0 -0.075046154332888165 0.00024225654579756436 0 -0.072451933920281805 0.00034264595223298255 0 -0.071967523371172487 0.0002731267631349882 0 -0.077936611020944208 0.0011709737362367522 0 -0.076869344608511789 0.0011874613590261542 0 -0.075046154332888165 0.00024225654579756436 0 -0.077189983061827783 0.00026455076364131539 0 -0.072451933920281805 0.00034264595223298255 0 -0.072388647595314035 0.00041799513613302271 0 -0.072231194327760789 0.00064881324725527293 0 -0.072451933920281805 0.00034264595223298255 0 -0.072388647595314035 0.00041799513613302271 0 -0.072231194327760789 0.00064881324725527293 0 -0.072683092890518844 0.00085764492887197702 0 -0.075046154332888165 0.00024225654579756436 0 -0.077189983061827783 0.00026455076364131539 0 -0.079995950384649461 0.00024621895900535026 0 -0.077189983061827783 0.00026455076364131539 0 -0.081442593660068507 0.00047071563665582552 0 -0.079995950384649461 0.00024621895900535026 0 -0.072249574715909023 0.0013349135102046379 0 -0.072716347572907458 0.0014096815803048331 0 -0.072683092890518844 0.00085764492887197702 0 -0.077936611020944208 0.0011709737362367522 0 -0.080853624858161832 0.00076256964297225416 0 -0.072231194327760789 0.00064881324725527293 0 -0.072249574715909023 0.0013349135102046379 0 -0.072683092890518844 0.00085764492887197702 0 -0.081442593660068507 0.00047071563665582552 0 -0.083409499242062549 0.00011855879186364779 0 -0.083456336981271528 -0.0007234146126452334 0 -0.080853624858161832 0.00076256964297225416 0 -0.086124901526470843 -0.00096376839398415145 0 -0.072249574715909023 0.0013349135102046379 0 -0.072531487634253572 0.0017833607839109079 0 -0.072283729383833803 0.0022426359974023337 0 -0.072249574715909023 0.0013349135102046379 0 -0.072531487634253572 0.0017833607839109079 0 -0.072716347572907458 0.0014096815803048331 0 -0.081442593660068507 0.00047071563665582552 0 -0.083409499242062549 0.00011855879186364779 0 -0.079995950384649461 0.00024621895900535026 0 -0.079995950384649461 0.00024621895900535026 0 -0.0801315995718513 -6.8049206325809136e-07 0 -0.084156901229456599 -0.00016691533333169559 0 -0.083409499242062549 0.00011855879186364779 0 -0.079995950384649461 0.00024621895900535026 0 -0.084156901229456599 -0.00016691533333169559 0 -0.075046154332888165 0.00024225654579756436 0 -0.079995950384649461 0.00024621895900535026 0 -0.0801315995718513 -6.8049206325809136e-07 0 -0.0801315995718513 -6.8049206325809136e-07 0 -0.084156901229456599 -0.00016691533333169559 0 -0.09119693471731706 9.8811232236686966e-05 0 -0.0801315995718513 -6.8049206325809136e-07 0 -0.094993938442251458 3.6386595641271975e-07 0 -0.09119693471731706 9.8811232236686966e-05 0 -0.084156901229456599 -0.00016691533333169559 0 -0.09119693471731706 9.8811232236686966e-05 0 -0.086135280176474441 -0.00068581324687054599 0 -0.094993938442251458 3.6386595641271975e-07 0 -0.09119693471731706 9.8811232236686966e-05 0 -0.094990534194573636 7.7438313582502255e-07 0 -0.09119693471731706 9.8811232236686966e-05 0 -0.091609742496730817 0.00025864626856656467 0 -0.089583007315082772 -5.5729098473491034e-05 0 -0.09119693471731706 9.8811232236686966e-05 0 -0.094990534194573636 7.7438313582502255e-07 0 -0.091609742496730817 0.00025864626856656467 0 -0.09499994475023088 6.5792851420899725e-09 0 -0.094955524951361878 -1.5170931703022832e-05 0 -0.094984391322633865 -7.4676830440572556e-06 0 -0.094993293103215345 1.5669732393279898e-06 0 -0.091289666392598751 0.00032369757745849147 0 -0.091609742496730817 0.00025864626856656467 0 -0.089583007315082772 -5.5729098473491034e-05 0 -0.089602527487763955 -0.0012045879357450487 0 -0.091289666392598751 0.00032369757745849147 0 -0.086124901526470843 -0.00096376839398415145 0 -0.094955524951361878 -1.5170931703022832e-05 0 -0.094919900073876545 -5.9424741116076059e-05 0 -0.094957452367428766 -3.3123219530187128e-05 0 -0.094919900073876545 -5.9424741116076059e-05 0 -0.094946635940952137 -5.9562266141479518e-05 0 -0.094957452367428766 -3.3123219530187128e-05 0 -0.09119693471731706 9.8811232236686966e-05 0 -0.089583007315082772 -5.5729098473491034e-05 0 -0.086135280176474441 -0.00068581324687054599 0 -0.089583007315082772 -5.5729098473491034e-05 0 -0.086135280176474441 -0.00068581324687054599 0 -0.089602527487763955 -0.0012045879357450487 0 -0.086222692180063787 -0.0009486469846183178 0 -0.086124901526470843 -0.00096376839398415145 0 -0.083409499242062549 0.00011855879186364779 0 -0.086135280176474441 -0.00068581324687054599 0 -0.083456336981271528 -0.0007234146126452334 0 -0.083409499242062549 0.00011855879186364779 0 -0.084156901229456599 -0.00016691533333169559 0 -0.086135280176474441 -0.00068581324687054599 0 -0.072283729383833803 0.0022426359974023337 0 -0.07256564951855804 0.002139298995533358 0 -0.072667036428585088 0.0022585112271602359 0 -0.086124901526470843 -0.00096376839398415145 0 -0.087238867016555879 -0.00037372614438168158 0 -0.072531487634253572 0.0017833607839109079 0 -0.072283729383833803 0.0022426359974023337 0 -0.07256564951855804 0.002139298995533358 0 -0.073297164203294726 0.0021506151324159526 0 -0.072602694374329493 0.0023289862885807538 0 -0.074222849083276018 0.0024931856379607144 0 -0.087238867016555879 -0.00037372614438168158 0 -0.085591717268166514 0.00031059547064345475 0 -0.072882949511961059 0.0018321807255053044 0 -0.073297164203294726 0.0021506151324159526 0 -0.072602694374329493 0.0023289862885807538 0 -0.072531487634253572 0.0017833607839109079 0 -0.07256564951855804 0.002139298995533358 0 -0.072882949511961059 0.0018321807255053044 0 -0.07256564951855804 0.002139298995533358 0 -0.072882949511961059 0.0018321807255053044 0 -0.072602694374329493 0.0023289862885807538 0 -0.086998694387003667 -0.00049127447098717817 0 -0.087238867016555879 -0.00037372614438168158 0 -0.073297164203294726 0.0021506151324159526 0 -0.074222849083276018 0.0024931856379607144 0 -0.073999785289440803 0.00011213267490814329 0 -0.094835121038869874 -0.00011281332754249748 0 -0.094807777619213524 -3.5300627069768944e-05 0 -0.094905075233689185 -4.1164256248620394e-05 0 -0.087238867016555879 -0.00037372614438168158 0 -0.091798427126288829 0.00072719536483982646 0 -0.094708851843577413 -0.00012621820066093217 0 -0.094835121038869874 -0.00011281332754249748 0 -0.094807777619213524 -3.5300627069768944e-05 0 -0.094946635940952137 -5.9562266141479518e-05 0 -0.094982287989486047 -2.6707898588063344e-05 0 -0.094957452367428766 -3.3123219530187128e-05 0 -0.094955524951361878 -1.5170931703022832e-05 0 -0.094957452367428766 -3.3123219530187128e-05 0 -0.094984391322633865 -7.4676830440572556e-06 0 -0.094982287989486047 -2.6707898588063344e-05 0 -0.094957452367428766 -3.3123219530187128e-05 0 -0.094984391322633865 -7.4676830440572556e-06 0 -0.094807777619213524 -3.5300627069768944e-05 0 -0.09490634511277371 9.4561342402913231e-06 0 -0.094905075233689185 -4.1164256248620394e-05 0 -0.091798427126288829 0.00072719536483982646 0 -0.093793038904776013 0.0004720584149367439 0 -0.094982287989486047 -2.6707898588063344e-05 0 -0.094984391322633865 -7.4676830440572556e-06 0 -0.09499908350320882 -5.6981797563965001e-06 0 -0.09499908350320882 -5.6981797563965001e-06 0 -0.094999998340012673 -2.4505462102551404e-09 0 -0.095000003271772035 -6.9259039972420682e-10 0 -0.094984391322633865 -7.4676830440572556e-06 0 -0.09499908350320882 -5.6981797563965001e-06 0 -0.094999998340012673 -2.4505462102551404e-09 0 -0.09499994475023088 6.5792851420899725e-09 0 -0.094984391322633865 -7.4676830440572556e-06 0 -0.094999998340012673 -2.4505462102551404e-09 0 -0.094984157030217939 1.0602883461425887e-05 0 -0.094999763139483537 1.2516283374186136e-07 0 -0.094963068274073331 7.9230428190084854e-07 0 -0.094984157030217939 1.0602883461425887e-05 0 -0.094999763139483537 1.2516283374186136e-07 0 -0.095000181988260504 -9.8717127476010501e-08 0 -0.09490634511277371 9.4561342402913231e-06 0 -0.094999763139483537 1.2516283374186136e-07 0 -0.094963068274073331 7.9230428190084854e-07 0 -0.093793038904776013 0.0004720584149367439 0 -0.094997687319564025 1.3772199751835667e-06 0 -0.09490634511277371 9.4561342402913231e-06 0 -0.094963068274073331 7.9230428190084854e-07 0 -0.094905075233689185 -4.1164256248620394e-05 0 -0.094984157030217939 1.0602883461425887e-05 0 -0.094963068274073331 7.9230428190084854e-07 0 -0.094975091329767961 3.330985033128284e-05 0 -0.094963068274073331 7.9230428190084854e-07 0 -0.09494905805066077 -4.2535914271364046e-05 0 -0.094905075233689185 -4.1164256248620394e-05 0 -0.094963068274073331 7.9230428190084854e-07 0 -0.09494905805066077 -4.2535914271364046e-05 0 -0.094975852408477557 -2.0864707096001779e-05 0 -0.094835121038869874 -0.00011281332754249748 0 -0.094905075233689185 -4.1164256248620394e-05 0 -0.09491693533605576 -8.4279278287557316e-05 0 -0.09494905805066077 -4.2535914271364046e-05 0 -0.094905075233689185 -4.1164256248620394e-05 0 -0.09491693533605576 -8.4279278287557316e-05 0 -0.074222849083276018 0.0024931856379607144 0 -0.076437875129666696 0.0025528341923663719 0 -0.075374439609390914 0.0013577310981684697 0 -0.085591717268166514 0.00031059547064345475 0 -0.085858419988246906 0.00065721142842427305 0 -0.076437875129666696 0.0025528341923663719 0 -0.076567018837329887 0.0016470424666771022 0 -0.075374439609390914 0.0013577310981684697 0 -0.076437875129666696 0.0025528341923663719 0 -0.076567018837329887 0.0016470424666771022 0 -0.078053942620201572 0.002459373018817412 0 -0.085858419988246906 0.00065721142842427305 0 -0.086500009272604206 0.00078253878301610318 0 -0.076437875129666696 0.0025528341923663719 0 -0.078053942620201572 0.002459373018817412 0 -0.078547139033389932 0.0025321221412635607 0 -0.076567018837329887 0.0016470424666771022 0 -0.078053942620201572 0.002459373018817412 0 -0.076383668803565105 0.00021943303575758919 0 -0.09494905805066077 -4.2535914271364046e-05 0 -0.09491693533605576 -8.4279278287557316e-05 0 -0.094963831285134803 -6.6921089203016466e-05 0 -0.078053942620201572 0.002459373018817412 0 -0.078103416464186171 0.00066282817646930495 0 -0.076906519276530513 0.00068148791759142476 0 -0.076212061708543749 0.0021741970642938559 0 -0.075174924809371629 0.0015329109943103289 0 -0.078103416464186171 0.00066282817646930495 0 -0.077434798214977424 -0.00016522968470201338 0 -0.07774630662659901 -0.0010443815961625491 0 -0.082824285803838563 -8.0749805307474347e-05 0 -0.08169448928109023 -0.00070310825458921606 0 -0.078103416464186171 0.00066282817646930495 0 -0.077434798214977424 -0.00016522968470201338 0 -0.076906519276530513 0.00068148791759142476 0 -0.078174773904253286 0.00060947673278721 0 -0.07774630662659901 -0.0010443815961625491 0 -0.078239308234888422 -0.0010735008314393757 0 -0.077434798214977424 -0.00016522968470201338 0 -0.076876097123347892 -0.0005568722300278282 0 -0.077283445126738334 -0.00073014715762868875 0 -0.077434798214977424 -0.00016522968470201338 0 -0.07774630662659901 -0.0010443815961625491 0 -0.077283445126738334 -0.00073014715762868875 0 -0.076876097123347892 -0.0005568722300278282 0 -0.076906519276530513 0.00068148791759142476 0 -0.075785744524526036 -0.00094462049439095132 0 -0.075174924809371629 0.0015329109943103289 0 -0.073050718713359872 0.0015656136295625325 0 -0.077434798214977424 -0.00016522968470201338 0 -0.076876097123347892 -0.0005568722300278282 0 -0.076906519276530513 0.00068148791759142476 0 -0.076383668803565105 0.00021943303575758919 0 -0.075374439609390914 0.0013577310981684697 0 -0.073999785289440803 0.00011213267490814329 0 -0.076567018837329887 0.0016470424666771022 0 -0.076383668803565105 0.00021943303575758919 0 -0.075374439609390914 0.0013577310981684697 0 -0.074222849083276018 0.0024931856379607144 0 -0.075374439609390914 0.0013577310981684697 0 -0.073999785289440803 0.00011213267490814329 0 -0.073271698290032217 0.0014226368182904178 0 -0.073340875126044647 0.0011044696784871385 0 -0.072882949511961059 0.0018321807255053044 0 -0.073297164203294726 0.0021506151324159526 0 -0.073206733786486053 0.0013549913210597377 0 -0.072882949511961059 0.0018321807255053044 0 -0.073206733786486053 0.0013549913210597377 0 -0.072716347572907458 0.0014096815803048331 0 -0.072531487634253572 0.0017833607839109079 0 -0.072882949511961059 0.0018321807255053044 0 -0.072716347572907458 0.0014096815803048331 0 -0.073206733786486053 0.0013549913210597377 0 -0.072716347572907458 0.0014096815803048331 0 -0.072683092890518844 0.00085764492887197702 0 -0.076383668803565105 0.00021943303575758919 0 -0.073999785289440803 0.00011213267490814329 0 -0.074780764590106324 -0.0019709520058575998 0 -0.073206733786486053 0.0013549913210597377 0 -0.073269516470581886 0.00082481706572008816 0 -0.072683092890518844 0.00085764492887197702 0 -0.073340875126044647 0.0011044696784871385 0 -0.073050718713359872 0.0015656136295625325 0 -0.073050718713359872 0.0015656136295625325 0 -0.071190121528142539 0.0029726444400815489 0 -0.073269516470581886 0.00082481706572008816 0 -0.072683092890518844 0.00085764492887197702 0 -0.072706251647715672 0.00035125636298023602 0 -0.072388647595314035 0.00041799513613302271 0 -0.072683092890518844 0.00085764492887197702 0 -0.072706251647715672 0.00035125636298023602 0 -0.069659137554084344 0.0096025637607145397 0 -0.067999730971392849 0.0073556640732429556 0 -0.070556112200979987 0.0072382520707204943 0 -0.076462769224404689 -0.0026799019389603614 0 -0.076940860438477157 -0.0018512849392413404 0 -0.077654804720046808 -0.0027414374001729328 0 -0.075785744524526036 -0.00094462049439095132 0 -0.076462769224404689 -0.0026799019389603614 0 -0.076940860438477157 -0.0018512849392413404 0 -0.073050718713359872 0.0015656136295625325 0 -0.074025851158689426 0.0015336330148961509 0 -0.077654804720046808 -0.0027414374001729328 0 -0.077532687776430464 -0.0015745312697954435 0 -0.078239308234888422 -0.0010735008314393757 0 -0.076940860438477157 -0.0018512849392413404 0 -0.077654804720046808 -0.0027414374001729328 0 -0.077532687776430464 -0.0015745312697954435 0 -0.079100992869929984 -0.0050001796139284684 0 -0.081600475629712385 -0.0045608953702612337 0 -0.084945482340528192 -0.011966836545413322 0 -0.085942774840058772 -0.0093012280944808155 0 -0.086237011434664085 -0.010579956365612859 0 -0.077532687776430464 -0.0015745312697954435 0 -0.07774630662659901 -0.0010443815961625491 0 -0.077078969859207994 -0.0011534448286405288 0 -0.076940860438477157 -0.0018512849392413404 0 -0.077532687776430464 -0.0015745312697954435 0 -0.077078969859207994 -0.0011534448286405288 0 -0.077532687776430464 -0.0015745312697954435 0 -0.07774630662659901 -0.0010443815961625491 0 -0.078239308234888422 -0.0010735008314393757 0 -0.07774630662659901 -0.0010443815961625491 0 -0.077283445126738334 -0.00073014715762868875 0 -0.077078969859207994 -0.0011534448286405288 0 -0.076876097123347892 -0.0005568722300278282 0 -0.077283445126738334 -0.00073014715762868875 0 -0.077078969859207994 -0.0011534448286405288 0 -0.075785744524526036 -0.00094462049439095132 0 -0.076940860438477157 -0.0018512849392413404 0 -0.077078969859207994 -0.0011534448286405288 0 -0.076876097123347892 -0.0005568722300278282 0 -0.075785744524526036 -0.00094462049439095132 0 -0.077078969859207994 -0.0011534448286405288 0 -0.088925634824840172 -0.010486319955073082 0 -0.090454299360424414 -0.0091703718127888936 0 -0.091717686078866642 -0.0084211983072165555 0 -0.08505585659280171 -0.011985458782277081 0 -0.084901950470464879 -0.01195658249491505 0 -0.084842042365920675 -0.012111081439080174 0 -0.087352618783792829 -0.0090462085040102034 0 -0.089695268691163621 -0.0062339513346516655 0 -0.088925634824840172 -0.010486319955073082 0 -0.088662400303597858 -0.0093786055740648112 0 -0.087362759533603285 -0.010246803563402376 0 -0.088925634824840172 -0.010486319955073082 0 -0.090454299360424414 -0.0091703718127888936 0 -0.088662400303597858 -0.0093786055740648112 0 -0.08505585659280171 -0.011985458782277081 0 -0.084901950470464879 -0.01195658249491505 0 -0.084951569601640409 -0.011835037289176379 0 -0.090454299360424414 -0.0091703718127888936 0 -0.089286576174553975 -0.0085617729311164362 0 -0.090080639108952656 -0.0080300995735886945 0 -0.090454299360424414 -0.0091703718127888936 0 -0.090893335716802845 -0.0081391841282385299 0 -0.090080639108952656 -0.0080300995735886945 0 -0.090454299360424414 -0.0091703718127888936 0 -0.089286576174553975 -0.0085617729311164362 0 -0.088662400303597858 -0.0093786055740648112 0 -0.089286576174553975 -0.0085617729311164362 0 -0.088662400303597858 -0.0093786055740648112 0 -0.088348758203416339 -0.0085421739803943613 0 -0.088348758203416339 -0.0085421739803943613 0 -0.08743433849031336 -0.0085926785979184381 0 -0.087558194051827451 -0.0093043533996966417 0 -0.08743433849031336 -0.0085926785979184381 0 -0.087558194051827451 -0.0093043533996966417 0 -0.086819862570987241 -0.0096637177627896167 0 -0.088662400303597858 -0.0093786055740648112 0 -0.088348758203416339 -0.0085421739803943613 0 -0.087558194051827451 -0.0093043533996966417 0 -0.08743433849031336 -0.0085926785979184381 0 -0.085942774840058772 -0.0093012280944808155 0 -0.086819862570987241 -0.0096637177627896167 0 -0.085942774840058772 -0.0093012280944808155 0 -0.086819862570987241 -0.0096637177627896167 0 -0.086237011434664085 -0.010579956365612859 0 -0.086819862570987241 -0.0096637177627896167 0 -0.087362759533603285 -0.010246803563402376 0 -0.086237011434664085 -0.010579956365612859 0 -0.088662400303597858 -0.0093786055740648112 0 -0.087558194051827451 -0.0093043533996966417 0 -0.087362759533603285 -0.010246803563402376 0 -0.087558194051827451 -0.0093043533996966417 0 -0.086819862570987241 -0.0096637177627896167 0 -0.087362759533603285 -0.010246803563402376 0 -0.088925634824840172 -0.010486319955073082 0 -0.087362759533603285 -0.010246803563402376 0 -0.085598770222156326 -0.011760755824130191 0 -0.085598770222156326 -0.011760755824130191 0 -0.085020434537054351 -0.011720018767620506 0 -0.085060849386667012 -0.011648917419180846 0 -0.08505585659280171 -0.011985458782277081 0 -0.085598770222156326 -0.011760755824130191 0 -0.085020434537054351 -0.011720018767620506 0 -0.087352618783792829 -0.0090462085040102034 0 -0.086651027686934237 -0.0098510126076259523 0 -0.087362759533603285 -0.010246803563402376 0 -0.086237011434664085 -0.010579956365612859 0 -0.085598770222156326 -0.011760755824130191 0 -0.084945482340528192 -0.011966836545413322 0 -0.086237011434664085 -0.010579956365612859 0 -0.085598770222156326 -0.011760755824130191 0 -0.085020434537054351 -0.011720018767620506 0 -0.084951569601640409 -0.011835037289176379 0 -0.084858232134319464 -0.011726918270735623 0 -0.08505585659280171 -0.011985458782277081 0 -0.085020434537054351 -0.011720018767620506 0 -0.084951569601640409 -0.011835037289176379 0 -0.089175523923639505 -0.0052244749251858878 0 -0.089391737738765464 -0.0052088835691841209 0 -0.089456929731231455 -0.0048739702255899591 0 -0.084901950470464879 -0.01195658249491505 0 -0.084951569601640409 -0.011835037289176379 0 -0.084858232134319464 -0.011726918270735623 0 -0.090248912991023972 -0.0046132751227573061 0 -0.090184261712631664 -0.0047180836480699819 0 -0.089391737738765464 -0.0052088835691841209 0 -0.089456929731231455 -0.0048739702255899591 0 -0.08969401775301046 -0.0053009799236827543 0 -0.08991072589426094 -0.0046685248709925171 0 -0.089276424831899279 -0.0043535565914083361 0 -0.08969401775301046 -0.0053009799236827543 0 -0.08991072589426094 -0.0046685248709925171 0 -0.08969401775301046 -0.0053009799236827543 0 -0.089991720225938959 -0.0053569237596893023 0 -0.089276424831899279 -0.0043535565914083361 0 -0.089710019457725013 -0.0035796127524701069 0 -0.088802605296869688 -0.0032427209991300202 0 -0.08991072589426094 -0.0046685248709925171 0 -0.090209237122472724 -0.0039309631138622859 0 -0.089276424831899279 -0.0043535565914083361 0 -0.090209237122472724 -0.0039309631138622859 0 -0.089276424831899279 -0.0043535565914083361 0 -0.089710019457725013 -0.0035796127524701069 0 -0.090209237122472724 -0.0039309631138622859 0 -0.089710019457725013 -0.0035796127524701069 0 -0.090230767294526101 -0.0033012747405890275 0 -0.087926808930859454 -0.0080551323157595396 0 -0.090263087087837104 -0.0054908735194515116 0 -0.090248912991023972 -0.0046132751227573061 0 -0.09074309813782816 -0.0048833739196979132 0 -0.089456929731231455 -0.0048739702255899591 0 -0.089220280185403539 -0.0044569521548515701 0 -0.089267488851346707 -0.0044187311706152168 0 -0.089175523923639505 -0.0052244749251858878 0 -0.089456929731231455 -0.0048739702255899591 0 -0.089220280185403539 -0.0044569521548515701 0 -0.084901950470464879 -0.01195658249491505 0 -0.084858232134319464 -0.011726918270735623 0 -0.084809901119458408 -0.012137400183652213 0 -0.084901950470464879 -0.01195658249491505 0 -0.084842042365920675 -0.012111081439080174 0 -0.084809901119458408 -0.012137400183652213 0 -0.089686509848465032 -0.0063434094510160816 0 -0.089695268691163621 -0.0062339513346516655 0 -0.090454299360424414 -0.0091703718127888936 0 -0.091505500513116678 -0.0084405348792895643 0 -0.090893335716802845 -0.0081391841282385299 0 -0.090893335716802845 -0.0081391841282385299 0 -0.09122272855870861 -0.0076887983239925656 0 -0.091458842527410419 -0.008000977578701083 0 -0.091505500513116678 -0.0084405348792895643 0 -0.090893335716802845 -0.0081391841282385299 0 -0.091458842527410419 -0.008000977578701083 0 -0.090893335716802845 -0.0081391841282385299 0 -0.09122272855870861 -0.0076887983239925656 0 -0.090642871951640433 -0.0073713613549758802 0 -0.09122272855870861 -0.0076887983239925656 0 -0.091816994483593289 -0.0074646545736212185 0 -0.091204196097629045 -0.007282384712310787 0 -0.09122272855870861 -0.0076887983239925656 0 -0.091204196097629045 -0.007282384712310787 0 -0.090642871951640433 -0.0073713613549758802 0 -0.09122272855870861 -0.0076887983239925656 0 -0.091816994483593289 -0.0074646545736212185 0 -0.091458842527410419 -0.008000977578701083 0 -0.090834364522844976 -0.0049066661906533885 0 -0.090263087087837104 -0.0054908735194515116 0 -0.091816994483593289 -0.0074646545736212185 0 -0.091458842527410419 -0.008000977578701083 0 -0.091813405735729839 -0.0081643980289738596 0 -0.091016618556483714 -0.0060054091556081693 0 -0.091235130669811759 -0.0028864620262502661 0 -0.090092739673053104 -0.0038212732812533002 0 -0.090263087087837104 -0.0054908735194515116 0 -0.09074309813782816 -0.0048833739196979132 0 -0.091505500513116678 -0.0084405348792895643 0 -0.091458842527410419 -0.008000977578701083 0 -0.091813405735729839 -0.0081643980289738596 0 -0.089695268691163621 -0.0062339513346516655 0 -0.090263087087837104 -0.0054908735194515116 0 -0.090834364522844976 -0.0049066661906533885 0 -0.09074309813782816 -0.0048833739196979132 0 -0.09074309813782816 -0.0048833739196979132 0 -0.092423136912267237 -0.0026247624723495316 0 -0.095085435745175625 0.0013578055584913382 0 -0.095028126749981623 0.0011695165766190078 0 -0.094861233399674214 0.0011835810704447908 0 -0.095110045821374778 0.0013016803441469956 0 -0.095085435745175625 0.0013578055584913382 0 -0.095028126749981623 0.0011695165766190078 0 -0.091816994483593289 -0.0074646545736212185 0 -0.09102937103241894 -0.0065860161682857197 0 -0.091204196097629045 -0.007282384712310787 0 -0.09102937103241894 -0.0065860161682857197 0 -0.091204196097629045 -0.007282384712310787 0 -0.090642871951640433 -0.0073713613549758802 0 -0.088802605296869688 -0.0032427209991300202 0 -0.089926140574371372 -0.0026134365586543574 0 -0.090045349157898663 -0.0024529991231820908 0 -0.088802605296869688 -0.0032427209991300202 0 -0.089795678203084886 -0.0031093455303310242 0 -0.089926140574371372 -0.0026134365586543574 0 -0.09074309813782816 -0.0048833739196979132 0 -0.091829276653983868 -0.0027557842024313814 0 -0.090750786668114369 -0.0040130357796745409 0 -0.091830067019836106 -0.003116483099691461 0 -0.092317879070291681 -0.0030186461159834297 0 -0.089795678203084886 -0.0031093455303310242 0 -0.090230767294526101 -0.0033012747405890275 0 -0.09031534785428974 -0.0027740284023254217 0 -0.089710019457725013 -0.0035796127524701069 0 -0.089795678203084886 -0.0031093455303310242 0 -0.090230767294526101 -0.0033012747405890275 0 -0.089710019457725013 -0.0035796127524701069 0 -0.088802605296869688 -0.0032427209991300202 0 -0.089795678203084886 -0.0031093455303310242 0 -0.089795678203084886 -0.0031093455303310242 0 -0.089926140574371372 -0.0026134365586543574 0 -0.09031534785428974 -0.0027740284023254217 0 -0.091815529783017311 -0.0027637664700021335 0 -0.091829276653983868 -0.0027557842024313814 0 -0.089926140574371372 -0.0026134365586543574 0 -0.090048951596731777 -0.002444470308966681 0 -0.09031534785428974 -0.0027740284023254217 0 -0.094861233399674214 0.0011835810704447908 0 -0.094843437286669927 0.00087726497193236011 0 -0.094606367841402597 0.0010046881468913401 0 -0.094861233399674214 0.0011835810704447908 0 -0.094962741501409514 0.0010235191653411094 0 -0.094843437286669927 0.00087726497193236011 0 -0.091830067019836106 -0.003116483099691461 0 -0.092317879070291681 -0.0030186461159834297 0 -0.092909095616637932 -0.0022210859971893791 0 -0.092423136912267237 -0.0026247624723495316 0 -0.092653210118091023 -0.0017794428499828601 0 -0.095028126749981623 0.0011695165766190078 0 -0.094861233399674214 0.0011835810704447908 0 -0.094962741501409514 0.0010235191653411094 0 -0.094962741501409514 0.0010235191653411094 0 -0.095117169239313779 0.00089093317284045387 0 -0.094843437286669927 0.00087726497193236011 0 -0.094843437286669927 0.00087726497193236011 0 -0.094686310993396014 0.00084302777797210654 0 -0.094606367841402597 0.0010046881468913401 0 -0.090834364522844976 -0.0049066661906533885 0 -0.092775173746212941 -0.0025832634401004831 0 -0.095028126749981623 0.0011695165766190078 0 -0.094962741501409514 0.0010235191653411094 0 -0.095117169239313779 0.00089093317284045387 0 -0.091816994483593289 -0.0074646545736212185 0 -0.09102937103241894 -0.0065860161682857197 0 -0.09078550691556421 -0.0049274884197718144 0 -0.095110045821374778 0.0013016803441469956 0 -0.095028126749981623 0.0011695165766190078 0 -0.095117169239313779 0.00089093317284045387 0 -0.090834364522844976 -0.0049066661906533885 0 -0.091249865241065028 -0.0050261371450487568 0 -0.094106360349626939 -0.0089603386923614442 0 -0.094371966887129385 -0.0055299677328672593 0 -0.092846274633424555 -0.0059742050749962052 0 -0.09078550691556421 -0.0049274884197718144 0 -0.090031136572863754 -0.0053102974796620985 0 -0.090341532939977043 -0.0058510702516606583 0 -0.09078550691556421 -0.0049274884197718144 0 -0.089745677221767642 -0.0047877031400029059 0 -0.090013768012409373 -0.0042213585166899119 0 -0.089745677221767642 -0.0047877031400029059 0 -0.090031136572863754 -0.0053102974796620985 0 -0.089262462741011225 -0.0056046586721615315 0 -0.09078550691556421 -0.0049274884197718144 0 -0.089745677221767642 -0.0047877031400029059 0 -0.090031136572863754 -0.0053102974796620985 0 -0.090031136572863754 -0.0053102974796620985 0 -0.089640184554208899 -0.0059413826751493004 0 -0.090341532939977043 -0.0058510702516606583 0 -0.090031136572863754 -0.0053102974796620985 0 -0.089262462741011225 -0.0056046586721615315 0 -0.089640184554208899 -0.0059413826751493004 0 -0.089262462741011225 -0.0056046586721615315 0 -0.089640184554208899 -0.0059413826751493004 0 -0.088816264617561924 -0.0062793923605583687 0 -0.09102937103241894 -0.0065860161682857197 0 -0.09078550691556421 -0.0049274884197718144 0 -0.090341532939977043 -0.0058510702516606583 0 -0.089640184554208899 -0.0059413826751493004 0 -0.090341532939977043 -0.0058510702516606583 0 -0.090213326244037023 -0.0065776787739852856 0 -0.09102937103241894 -0.0065860161682857197 0 -0.090341532939977043 -0.0058510702516606583 0 -0.090213326244037023 -0.0065776787739852856 0 -0.09102937103241894 -0.0065860161682857197 0 -0.090213326244037023 -0.0065776787739852856 0 -0.090642871951640433 -0.0073713613549758802 0 -0.090213326244037023 -0.0065776787739852856 0 -0.090642871951640433 -0.0073713613549758802 0 -0.089964750690018261 -0.0073301864312232063 0 -0.089640184554208899 -0.0059413826751493004 0 -0.090213326244037023 -0.0065776787739852856 0 -0.089194674744226585 -0.0068661741138102425 0 -0.089640184554208899 -0.0059413826751493004 0 -0.089194674744226585 -0.0068661741138102425 0 -0.088816264617561924 -0.0062793923605583687 0 -0.090213326244037023 -0.0065776787739852856 0 -0.089194674744226585 -0.0068661741138102425 0 -0.089964750690018261 -0.0073301864312232063 0 -0.089194674744226585 -0.0068661741138102425 0 -0.089244162915270112 -0.0077202817228054403 0 -0.089964750690018261 -0.0073301864312232063 0 -0.089244162915270112 -0.0077202817228054403 0 -0.090080639108952656 -0.0080300995735886945 0 -0.089964750690018261 -0.0073301864312232063 0 -0.089194674744226585 -0.0068661741138102425 0 -0.089244162915270112 -0.0077202817228054403 0 -0.088302269988713405 -0.0077223650673692648 0 -0.088348758203416339 -0.0085421739803943613 0 -0.089244162915270112 -0.0077202817228054403 0 -0.088302269988713405 -0.0077223650673692648 0 -0.089286576174553975 -0.0085617729311164362 0 -0.088348758203416339 -0.0085421739803943613 0 -0.089244162915270112 -0.0077202817228054403 0 -0.089286576174553975 -0.0085617729311164362 0 -0.089244162915270112 -0.0077202817228054403 0 -0.090080639108952656 -0.0080300995735886945 0 -0.090893335716802845 -0.0081391841282385299 0 -0.090080639108952656 -0.0080300995735886945 0 -0.090642871951640433 -0.0073713613549758802 0 -0.090080639108952656 -0.0080300995735886945 0 -0.090642871951640433 -0.0073713613549758802 0 -0.089964750690018261 -0.0073301864312232063 0 -0.078174773904253286 0.00060947673278721 0 -0.078239308234888422 -0.0010735008314393757 0 -0.078860574930751312 0.00059542372505094103 0 -0.081600475629712385 -0.0045608953702612337 0 -0.084158359029174734 -0.0026451330502362254 0 -0.085942774840058772 -0.0093012280944808155 0 -0.087964471639481734 -0.0074067298763244391 0 -0.087988486685126696 -0.0058402524400248531 0 -0.08743433849031336 -0.0085926785979184381 0 -0.085942774840058772 -0.0093012280944808155 0 -0.087964471639481734 -0.0074067298763244391 0 -0.08743433849031336 -0.0085926785979184381 0 -0.088302269988713405 -0.0077223650673692648 0 -0.087964471639481734 -0.0074067298763244391 0 -0.088348758203416339 -0.0085421739803943613 0 -0.08743433849031336 -0.0085926785979184381 0 -0.088302269988713405 -0.0077223650673692648 0 -0.089194674744226585 -0.0068661741138102425 0 -0.087964471639481734 -0.0074067298763244391 0 -0.088816264617561924 -0.0062793923605583687 0 -0.087964471639481734 -0.0074067298763244391 0 -0.087988486685126696 -0.0058402524400248531 0 -0.088816264617561924 -0.0062793923605583687 0 -0.089194674744226585 -0.0068661741138102425 0 -0.088302269988713405 -0.0077223650673692648 0 -0.087964471639481734 -0.0074067298763244391 0 -0.082824285803838563 -8.0749805307474347e-05 0 -0.086500009272604206 0.00078253878301610318 0 -0.078174773904253286 0.00060947673278721 0 -0.078860574930751312 0.00059542372505094103 0 -0.078566811168628528 0.0022816757709448196 0 -0.084158359029174734 -0.0026451330502362254 0 -0.087600593740484553 0.00077175752635358938 0 -0.089745677221767642 -0.0047877031400029059 0 -0.087988486685126696 -0.0058402524400248531 0 -0.090013768012409373 -0.0042213585166899119 0 -0.089745677221767642 -0.0047877031400029059 0 -0.089262462741011225 -0.0056046586721615315 0 -0.087988486685126696 -0.0058402524400248531 0 -0.089262462741011225 -0.0056046586721615315 0 -0.087988486685126696 -0.0058402524400248531 0 -0.088816264617561924 -0.0062793923605583687 0 -0.078860574930751312 0.00059542372505094103 0 -0.078566811168628528 0.0022816757709448196 0 -0.07944902827223739 0.0022820192474130277 0 -0.078053942620201572 0.002459373018817412 0 -0.078103416464186171 0.00066282817646930495 0 -0.078547139033389932 0.0025321221412635607 0 -0.087988486685126696 -0.0058402524400248531 0 -0.090013768012409373 -0.0042213585166899119 0 -0.09023018423106928 -0.0034282295652186957 0 -0.086500009272604206 0.00078253878301610318 0 -0.087600593740484553 0.00077175752635358938 0 -0.094943155917492097 0.00013352692782310334 0 -0.094922770305884405 0.00013312994464784717 0 -0.094940819845634503 0.00011803178365509274 0 -0.092846274633424555 -0.0059742050749962052 0 -0.09132092271790701 -0.0028391150559240871 0 -0.093303835702068044 -0.0037683328739509464 0 -0.091249865241065028 -0.0050261371450487568 0 -0.091053555859370347 -0.0042158529982172857 0 -0.09078550691556421 -0.0049274884197718144 0 -0.090575900782226645 -0.0034590418991316571 0 -0.09132092271790701 -0.0028391150559240871 0 -0.09078550691556421 -0.0049274884197718144 0 -0.090013768012409373 -0.0042213585166899119 0 -0.090575900782226645 -0.0034590418991316571 0 -0.090013768012409373 -0.0042213585166899119 0 -0.090575900782226645 -0.0034590418991316571 0 -0.09023018423106928 -0.0034282295652186957 0 -0.087618979302247463 0.0007644979161108115 0 -0.087600593740484553 0.00077175752635358938 0 -0.090575900782226645 -0.0034590418991316571 0 -0.090302925009203866 -0.003489989246950724 0 -0.09132092271790701 -0.0028391150559240871 0 -0.090302925009203866 -0.003489989246950724 0 -0.09132092271790701 -0.0028391150559240871 0 -0.092826074875014972 -0.00093399424343514937 0 -0.087600593740484553 0.00077175752635358938 0 -0.090245919171381889 0.00020356173757090729 0 -0.094922770305884405 0.00013312994464784717 0 -0.094940819845634503 0.00011803178365509274 0 -0.094924677534937871 8.4835521261027774e-05 0 -0.093013982390731012 -0.0023314597768712992 0 -0.09132092271790701 -0.0028391150559240871 0 -0.092826074875014972 -0.00093399424343514937 0 -0.093013982390731012 -0.0023314597768712992 0 -0.09132092271790701 -0.0028391150559240871 0 -0.093303835702068044 -0.0037683328739509464 0 -0.094956213708569367 9.7672778817757406e-05 0 -0.094940819845634503 0.00011803178365509274 0 -0.094924677534937871 8.4835521261027774e-05 0 -0.09494905805066077 -4.2535914271364046e-05 0 -0.094963831285134803 -6.6921089203016466e-05 0 -0.094975852408477557 -2.0864707096001779e-05 0 -0.086500009272604206 0.00078253878301610318 0 -0.08880587557803353 0.00092247908186138543 0 -0.094943155917492097 0.00013352692782310334 0 -0.094956213708569367 9.7672778817757406e-05 0 -0.094940819845634503 0.00011803178365509274 0 -0.094963068274073331 7.9230428190084854e-07 0 -0.094975852408477557 -2.0864707096001779e-05 0 -0.094975091329767961 3.330985033128284e-05 0 -0.094956213708569367 9.7672778817757406e-05 0 -0.094975091329767961 3.330985033128284e-05 0 -0.094924677534937871 8.4835521261027774e-05 0 -0.08880587557803353 0.00092247908186138543 0 -0.0895074372330395 0.00092409929091615288 0 -0.090245919171381889 0.00020356173757090729 0 -0.091154076607581694 0.00027145166928946193 0 -0.094924677534937871 8.4835521261027774e-05 0 -0.094930617658013111 4.8812766218533547e-05 0 -0.094831841003799905 4.8319166418271737e-05 0 -0.094975091329767961 3.330985033128284e-05 0 -0.094924677534937871 8.4835521261027774e-05 0 -0.094930617658013111 4.8812766218533547e-05 0 -0.094975091329767961 3.330985033128284e-05 0 -0.094955309830795892 1.6092246063617037e-05 0 -0.094930617658013111 4.8812766218533547e-05 0 -0.094955309830795892 1.6092246063617037e-05 0 -0.095000181988260504 -9.8717127476010501e-08 0 -0.094999142062195424 3.3321722298042904e-07 0 -0.094955309830795892 1.6092246063617037e-05 0 -0.094930617658013111 4.8812766218533547e-05 0 -0.094831841003799905 4.8319166418271737e-05 0 -0.094955309830795892 1.6092246063617037e-05 0 -0.094831841003799905 4.8319166418271737e-05 0 -0.094999142062195424 3.3321722298042904e-07 0 -0.094984157030217939 1.0602883461425887e-05 0 -0.094975091329767961 3.330985033128284e-05 0 -0.095000181988260504 -9.8717127476010501e-08 0 -0.094975091329767961 3.330985033128284e-05 0 -0.094955309830795892 1.6092246063617037e-05 0 -0.095000181988260504 -9.8717127476010501e-08 0 -0.094923363106545103 -6.3176191294557553e-05 0 -0.094999968850977792 -2.5050161108111277e-07 0 -0.094958688464683888 -9.4727324370685561e-05 0 -0.094923363106545103 -6.3176191294557553e-05 0 -0.094999968850977792 -2.5050161108111277e-07 0 -0.094848898585802324 -0.00011691473713687267 0 -0.094999968850977792 -2.5050161108111277e-07 0 -0.094999142062195424 3.3321722298042904e-07 0 -0.094958688464683888 -9.4727324370685561e-05 0 -0.094831841003799905 4.8319166418271737e-05 0 -0.094999142062195424 3.3321722298042904e-07 0 -0.094958688464683888 -9.4727324370685561e-05 0 -0.093952814114224931 -0.00061249964843135426 0 -0.093677133658116848 -0.0011848799944154653 0 -0.092826074875014972 -0.00093399424343514937 0 -0.094831841003799905 4.8319166418271737e-05 0 -0.094958688464683888 -9.4727324370685561e-05 0 -0.092826074875014972 -0.00093399424343514937 0 -0.094958688464683888 -9.4727324370685561e-05 0 -0.094503319407696629 -0.0021121428472141287 0 -0.094958688464683888 -9.4727324370685561e-05 0 -0.09487467087208834 0.0001374454501557161 0 -0.095114618057785941 0.00038193419456061377 0 -0.094923363106545103 -6.3176191294557553e-05 0 -0.094958688464683888 -9.4727324370685561e-05 0 -0.09487467087208834 0.0001374454501557161 0 -0.094923363106545103 -6.3176191294557553e-05 0 -0.09487467087208834 0.0001374454501557161 0 -0.094848898585802324 -0.00011691473713687267 0 -0.09487467087208834 0.0001374454501557161 0 -0.094729004936808012 0.0003709414668213747 0 -0.095114618057785941 0.00038193419456061377 0 -0.094729004936808012 0.0003709414668213747 0 -0.095114618057785941 0.00038193419456061377 0 -0.094753915525763122 0.00061613623205679694 0 -0.093013982390731012 -0.0023314597768712992 0 -0.092826074875014972 -0.00093399424343514937 0 -0.094503319407696629 -0.0021121428472141287 0 -0.093013982390731012 -0.0023314597768712992 0 -0.094503319407696629 -0.0021121428472141287 0 -0.093303835702068044 -0.0037683328739509464 0 -0.092775173746212941 -0.0025832634401004831 0 -0.093677133658116848 -0.0011848799944154653 0 -0.094371966887129385 -0.0055299677328672593 0 -0.094503319407696629 -0.0021121428472141287 0 -0.093303835702068044 -0.0037683328739509464 0 -0.095117169239313779 0.00089093317284045387 0 -0.095114618057785941 0.00038193419456061377 0 -0.094843437286669927 0.00087726497193236011 0 -0.094371966887129385 -0.0055299677328672593 0 -0.092846274633424555 -0.0059742050749962052 0 -0.093303835702068044 -0.0037683328739509464 0 -0.095114618057785941 0.00038193419456061377 0 -0.094753915525763122 0.00061613623205679694 0 -0.094843437286669927 0.00087726497193236011 0 -0.094753915525763122 0.00061613623205679694 0 -0.094843437286669927 0.00087726497193236011 0 -0.094686310993396014 0.00084302777797210654 0 -0.092591206944711818 -0.0016948300571687025 0 -0.092653210118091023 -0.0017794428499828601 0 -0.093194178673887101 -0.00072153099051749361 0 -0.092653210118091023 -0.0017794428499828601 0 -0.094555024920554398 0.00078912085418392816 0 -0.094315164663840281 0.00073710962465558746 0 -0.094606367841402597 0.0010046881468913401 0 -0.094686310993396014 0.00084302777797210654 0 -0.094555024920554398 0.00078912085418392816 0 -0.094606367841402597 0.0010046881468913401 0 -0.092388192608343647 -0.0011268577855349786 0 -0.092276093651074267 -0.0010167840049611504 0 -0.091899355040538477 -0.0015373498261778882 0 -0.094753915525763122 0.00061613623205679694 0 -0.094686310993396014 0.00084302777797210654 0 -0.094555024920554398 0.00078912085418392816 0 -0.094555024920554398 0.00078912085418392816 0 -0.094444800243934465 0.00067945333596528944 0 -0.094526798382171123 0.00055968257752186804 0 -0.094555024920554398 0.00078912085418392816 0 -0.094444800243934465 0.00067945333596528944 0 -0.094315164663840281 0.00073710962465558746 0 -0.0943871730878586 0.00062443332243251166 0 -0.094444800243934465 0.00067945333596528944 0 -0.094315164663840281 0.00073710962465558746 0 -0.0943871730878586 0.00062443332243251166 0 -0.094444800243934465 0.00067945333596528944 0 -0.094526798382171123 0.00055968257752186804 0 -0.094753915525763122 0.00061613623205679694 0 -0.094555024920554398 0.00078912085418392816 0 -0.094526798382171123 0.00055968257752186804 0 -0.092371412097783309 -0.0018039733574113832 0 -0.092091672978657516 -0.0021116999527781397 0 -0.092388192608343647 -0.0011268577855349786 0 -0.092778606409211845 -0.0010648960910868196 0 -0.092285499737854396 -0.0013899137981432988 0 -0.092778606409211845 -0.0010648960910868196 0 -0.092177233443639803 -0.001753447301023941 0 -0.091411688874406122 -0.0016206096751758472 0 -0.092276093651074267 -0.0010167840049611504 0 -0.092474813826902064 -0.00098596852015917489 0 -0.092582631795951803 -0.00084759537732085602 0 -0.092388192608343647 -0.0011268577855349786 0 -0.092276093651074267 -0.0010167840049611504 0 -0.092474813826902064 -0.00098596852015917489 0 -0.092388192608343647 -0.0011268577855349786 0 -0.092474813826902064 -0.00098596852015917489 0 -0.092778606409211845 -0.0010648960910868196 0 -0.092474813826902064 -0.00098596852015917489 0 -0.092582631795951803 -0.00084759537732085602 0 -0.092778606409211845 -0.0010648960910868196 0 -0.092276093651074267 -0.0010167840049611504 0 -0.092582631795951803 -0.00084759537732085602 0 -0.092729138147863502 -0.00052847843982144161 0 -0.094315164663840281 0.00073710962465558746 0 -0.09424570478816241 0.00049027806467229337 0 -0.093821037160424017 0.00039088367418618552 0 -0.093194178673887101 -0.00072153099051749361 0 -0.093295276120825318 -0.00042072127145588461 0 -0.0943871730878586 0.00062443332243251166 0 -0.094315164663840281 0.00073710962465558746 0 -0.09424570478816241 0.00049027806467229337 0 -0.09424570478816241 0.00049027806467229337 0 -0.094217410925433842 0.00027523360752860132 0 -0.093821037160424017 0.00039088367418618552 0 -0.094729004936808012 0.0003709414668213747 0 -0.094753915525763122 0.00061613623205679694 0 -0.094526798382171123 0.00055968257752186804 0 -0.0943871730878586 0.00062443332243251166 0 -0.09424570478816241 0.00049027806467229337 0 -0.094526798382171123 0.00055968257752186804 0 -0.09424570478816241 0.00049027806467229337 0 -0.094526798382171123 0.00055968257752186804 0 -0.094526872026844511 0.00030671110442415757 0 -0.09424570478816241 0.00049027806467229337 0 -0.094217410925433842 0.00027523360752860132 0 -0.094526872026844511 0.00030671110442415757 0 -0.09487467087208834 0.0001374454501557161 0 -0.094729004936808012 0.0003709414668213747 0 -0.094526872026844511 0.00030671110442415757 0 -0.094729004936808012 0.0003709414668213747 0 -0.094526798382171123 0.00055968257752186804 0 -0.094526872026844511 0.00030671110442415757 0 -0.094563464961750193 9.876041820191072e-05 0 -0.094122374060281039 1.2650434458790612e-05 0 -0.094848898585802324 -0.00011691473713687267 0 -0.09487467087208834 0.0001374454501557161 0 -0.094526872026844511 0.00030671110442415757 0 -0.094563464961750193 9.876041820191072e-05 0 -0.09487467087208834 0.0001374454501557161 0 -0.094563464961750193 9.876041820191072e-05 0 -0.094848898585802324 -0.00011691473713687267 0 -0.094217410925433842 0.00027523360752860132 0 -0.094526872026844511 0.00030671110442415757 0 -0.094563464961750193 9.876041820191072e-05 0 -0.094217410925433842 0.00027523360752860132 0 -0.093821037160424017 0.00039088367418618552 0 -0.094122374060281039 1.2650434458790612e-05 0 -0.094122374060281039 1.2650434458790612e-05 0 -0.09359485291588189 -0.00046078336227810181 0 -0.094848898585802324 -0.00011691473713687267 0 -0.094217410925433842 0.00027523360752860132 0 -0.094563464961750193 9.876041820191072e-05 0 -0.094122374060281039 1.2650434458790612e-05 0 -0.093821037160424017 0.00039088367418618552 0 -0.093690741759776305 -8.0376840979687694e-05 0 -0.094122374060281039 1.2650434458790612e-05 0 -0.093690741759776305 -8.0376840979687694e-05 0 -0.094122374060281039 1.2650434458790612e-05 0 -0.09359485291588189 -0.00046078336227810181 0 -0.094999838523345259 1.4019902862155104e-08 0 -0.095013148946000103 -3.349381889942406e-05 0 -0.094848898585802324 -0.00011691473713687267 0 -0.094362014832171409 -0.00015165365164183041 0 -0.094510876746016381 -0.00014896693117354712 0 -0.094999968850977792 -2.5050161108111277e-07 0 -0.094999838523345259 1.4019902862155104e-08 0 -0.094848898585802324 -0.00011691473713687267 0 -0.094999339407831992 -2.4892005387814226e-07 0 -0.095000345702227651 8.714918329298966e-08 0 -0.095044030129219623 2.7930663495753956e-05 0 -0.09359485291588189 -0.00046078336227810181 0 -0.093110466778316497 -0.00020876029697450396 0 -0.093251859082630284 -0.00027693629730786993 0 -0.095013148946000103 -3.349381889942406e-05 0 -0.095000345702227651 8.714918329298966e-08 0 -0.095044030129219623 2.7930663495753956e-05 0 -0.094362014832171409 -0.00015165365164183041 0 -0.094291054366824487 -0.00011869874337408469 0 -0.094999838523345259 1.4019902862155104e-08 0 -0.095013148946000103 -3.349381889942406e-05 0 -0.095000345702227651 8.714918329298966e-08 0 -0.093295276120825318 -0.00042072127145588461 0 -0.093292016601429564 -0.00038449385327506629 0 -0.093821037160424017 0.00039088367418618552 0 -0.093690741759776305 -8.0376840979687694e-05 0 -0.09325796924296155 -0.00027760013936352411 0 -0.092703041774109873 -0.00055155870662203276 0 -0.09254113025664075 -0.00083178622885488474 0 -0.09359485291588189 -0.00046078336227810181 0 -0.093251859082630284 -0.00027693629730786993 0 -0.09325796924296155 -0.00027760013936352411 0 -0.093251859082630284 -0.00027693629730786993 0 -0.09325796924296155 -0.00027760013936352411 0 -0.093095712550324936 -0.0004231519330437322 0 -0.092729138147863502 -0.00052847843982144161 0 -0.09325796924296155 -0.00027760013936352411 0 -0.093095712550324936 -0.0004231519330437322 0 -0.093251859082630284 -0.00027693629730786993 0 -0.093238050559865102 -0.00057958716024964017 0 -0.093097213076046778 -0.00075855286372377903 0 -0.093251859082630284 -0.00027693629730786993 0 -0.093095712550324936 -0.0004231519330437322 0 -0.093072914645008928 -0.00063669681503797761 0 -0.093690741759776305 -8.0376840979687694e-05 0 -0.09359485291588189 -0.00046078336227810181 0 -0.09325796924296155 -0.00027760013936352411 0 -0.093110466778316497 -0.00020876029697450396 0 -0.093251859082630284 -0.00027693629730786993 0 -0.093244697807611507 -0.00043818471913464055 0 -0.093251859082630284 -0.00027693629730786993 0 -0.093238050559865102 -0.00057958716024964017 0 -0.093244697807611507 -0.00043818471913464055 0 -0.093468131926202125 -0.00048777920537662004 0 -0.093110466778316497 -0.00020876029697450396 0 -0.093244697807611507 -0.00043818471913464055 0 -0.093468131926202125 -0.00048777920537662004 0 -0.093244697807611507 -0.00043818471913464055 0 -0.093327997871451837 -0.00065112979095098805 0 -0.093238050559865102 -0.00057958716024964017 0 -0.093244697807611507 -0.00043818471913464055 0 -0.093327997871451837 -0.00065112979095098805 0 -0.093238050559865102 -0.00057958716024964017 0 -0.093327997871451837 -0.00065112979095098805 0 -0.093277375951047431 -0.0007849350193497223 0 -0.093238050559865102 -0.00057958716024964017 0 -0.093277375951047431 -0.0007849350193497223 0 -0.093097213076046778 -0.00075855286372377903 0 -0.093277375951047431 -0.0007849350193497223 0 -0.093097213076046778 -0.00075855286372377903 0 -0.093238587083164071 -0.00087977292954680435 0 -0.092582631795951803 -0.00084759537732085602 0 -0.092729138147863502 -0.00052847843982144161 0 -0.093072914645008928 -0.00063669681503797761 0 -0.092582631795951803 -0.00084759537732085602 0 -0.093072914645008928 -0.00063669681503797761 0 -0.092778606409211845 -0.0010648960910868196 0 -0.092729138147863502 -0.00052847843982144161 0 -0.093095712550324936 -0.0004231519330437322 0 -0.093072914645008928 -0.00063669681503797761 0 -0.09254113025664075 -0.00083178622885488474 0 -0.092025143703361414 -0.0016155142906203307 0 -0.093097213076046778 -0.00075855286372377903 0 -0.093238587083164071 -0.00087977292954680435 0 -0.093101610822105205 -0.00096743978156238215 0 -0.093072914645008928 -0.00063669681503797761 0 -0.092778606409211845 -0.0010648960910868196 0 -0.092901464567075862 -0.0016400432791395276 0 -0.092778606409211845 -0.0010648960910868196 0 -0.092901464567075862 -0.0016400432791395276 0 -0.092177233443639803 -0.001753447301023941 0 -0.09331801260783279 -0.00085068300771370812 0 -0.093277375951047431 -0.0007849350193497223 0 -0.093238587083164071 -0.00087977292954680435 0 -0.093341799596001529 -0.00084336282918483555 0 -0.093238587083164071 -0.00087977292954680435 0 -0.093225590085163457 -0.0010414357885965555 0 -0.091779602503061428 -0.0020419705195307818 0 -0.091306733303080936 -0.0026480328841561847 0 -0.093238587083164071 -0.00087977292954680435 0 -0.093225590085163457 -0.0010414357885965555 0 -0.093101610822105205 -0.00096743978156238215 0 -0.088799034620051398 -0.0036205181356247628 0 -0.088024145276896198 -0.0046480933302351706 0 -0.088855566457816518 -0.0047376711705050204 0 -0.090043235405719055 -0.0039048078339752271 0 -0.088799034620051398 -0.0036205181356247628 0 -0.088855566457816518 -0.0047376711705050204 0 -0.090875379085758712 -0.0034714421809041987 0 -0.092025143703361414 -0.0016155142906203307 0 -0.091306733303080936 -0.0026480328841561847 0 -0.090875379085758712 -0.0034714421809041987 0 -0.093225590085163457 -0.0010414357885965555 0 -0.093066681381955174 -0.0011964045967101146 0 -0.093101610822105205 -0.00096743978156238215 0 -0.092698219685110009 -0.0032274925471332777 0 -0.092901464567075862 -0.0016400432791395276 0 -0.092171857908236787 -0.0023555502067094231 0 -0.092901464567075862 -0.0016400432791395276 0 -0.092177233443639803 -0.001753447301023941 0 -0.092171857908236787 -0.0023555502067094231 0 -0.092177233443639803 -0.001753447301023941 0 -0.091411688874406122 -0.0016206096751758472 0 -0.091606304573205691 -0.0022136545446384201 0 -0.092177233443639803 -0.001753447301023941 0 -0.091606304573205691 -0.0022136545446384201 0 -0.092171857908236787 -0.0023555502067094231 0 -0.091829276653983868 -0.0027557842024313814 0 -0.092091672978657516 -0.0021116999527781397 0 -0.090048951596731777 -0.002444470308966681 0 -0.091411688874406122 -0.0016206096751758472 0 -0.090959960854608835 -0.0023916077018688001 0 -0.092388192608343647 -0.0011268577855349786 0 -0.092285499737854396 -0.0013899137981432988 0 -0.091977221105593907 -0.0014703418909556578 0 -0.091790331717809592 -0.0017262984439490997 0 -0.092285499737854396 -0.0013899137981432988 0 -0.091977221105593907 -0.0014703418909556578 0 -0.091411688874406122 -0.0016206096751758472 0 -0.091606304573205691 -0.0022136545446384201 0 -0.090959960854608835 -0.0023916077018688001 0 -0.091829276653983868 -0.0027557842024313814 0 -0.092653210118091023 -0.0017794428499828601 0 -0.090959960854608835 -0.0023916077018688001 0 -0.09031534785428974 -0.0027740284023254217 0 -0.090855908400956323 -0.0033107833511253661 0 -0.090048951596731777 -0.002444470308966681 0 -0.090959960854608835 -0.0023916077018688001 0 -0.09031534785428974 -0.0027740284023254217 0 -0.090959960854608835 -0.0023916077018688001 0 -0.090855908400956323 -0.0033107833511253661 0 -0.091669572342487751 -0.0030252564012740856 0 -0.090230767294526101 -0.0033012747405890275 0 -0.09031534785428974 -0.0027740284023254217 0 -0.090855908400956323 -0.0033107833511253661 0 -0.092698219685110009 -0.0032274925471332777 0 -0.092171857908236787 -0.0023555502067094231 0 -0.091669572342487751 -0.0030252564012740856 0 -0.091606304573205691 -0.0022136545446384201 0 -0.092171857908236787 -0.0023555502067094231 0 -0.091669572342487751 -0.0030252564012740856 0 -0.091606304573205691 -0.0022136545446384201 0 -0.090959960854608835 -0.0023916077018688001 0 -0.091669572342487751 -0.0030252564012740856 0 -0.088157548274433256 -0.0055601207906815619 0 -0.088314994355282436 -0.0056433994404869294 0 -0.088169110292435016 -0.0054839610940305462 0 -0.090875379085758712 -0.0034714421809041987 0 -0.089952677376942874 -0.0046305532806260484 0 -0.090855908400956323 -0.0033107833511253661 0 -0.091669572342487751 -0.0030252564012740856 0 -0.091375558681887376 -0.0043621975574033647 0 -0.092698219685110009 -0.0032274925471332777 0 -0.091669572342487751 -0.0030252564012740856 0 -0.091375558681887376 -0.0043621975574033647 0 -0.08991072589426094 -0.0046685248709925171 0 -0.090209237122472724 -0.0039309631138622859 0 -0.091375558681887376 -0.0043621975574033647 0 -0.090209237122472724 -0.0039309631138622859 0 -0.090855908400956323 -0.0033107833511253661 0 -0.091375558681887376 -0.0043621975574033647 0 -0.090209237122472724 -0.0039309631138622859 0 -0.090230767294526101 -0.0033012747405890275 0 -0.090855908400956323 -0.0033107833511253661 0 -0.088314994355282436 -0.0056433994404869294 0 -0.088443368502410732 -0.0057132623786266615 0 -0.08867043553221586 -0.0057970715825172306 0 -0.08991072589426094 -0.0046685248709925171 0 -0.091375558681887376 -0.0043621975574033647 0 -0.089991720225938959 -0.0053569237596893023 0 -0.089952677376942874 -0.0046305532806260484 0 -0.089501957754330938 -0.0051880473082987558 0 -0.088314994355282436 -0.0056433994404869294 0 -0.088443368502410732 -0.0057132623786266615 0 -0.088277055147673367 -0.0056992771911773855 0 -0.088314994355282436 -0.0056433994404869294 0 -0.088277055147673367 -0.0056992771911773855 0 -0.088169110292435016 -0.0054839610940305462 0 -0.088277055147673367 -0.0056992771911773855 0 -0.088332117769876664 -0.0057793859330368593 0 -0.088169110292435016 -0.0054839610940305462 0 -0.088332117769876664 -0.0057793859330368593 0 -0.088511178699778467 -0.0053575371005889398 0 -0.088169110292435016 -0.0054839610940305462 0 -0.088852059934531449 -0.0054811101001286267 0 -0.088332117769876664 -0.0057793859330368593 0 -0.088511178699778467 -0.0053575371005889398 0 -0.088852059934531449 -0.0054811101001286267 0 -0.088332117769876664 -0.0057793859330368593 0 -0.088323023905654968 -0.0061102706881309655 0 -0.088024145276896198 -0.0046480933302351706 0 -0.088855566457816518 -0.0047376711705050204 0 -0.088511178699778467 -0.0053575371005889398 0 -0.088852059934531449 -0.0054811101001286267 0 -0.088855566457816518 -0.0047376711705050204 0 -0.088511178699778467 -0.0053575371005889398 0 -0.088024145276896198 -0.0046480933302351706 0 -0.088511178699778467 -0.0053575371005889398 0 -0.088169110292435016 -0.0054839610940305462 0 -0.090875379085758712 -0.0034714421809041987 0 -0.090557400998793239 -0.0041176686665109694 0 -0.088279200598802565 -0.0057582047620665777 0 -0.088323023905654968 -0.0061102706881309655 0 -0.087950380681993415 -0.0055378725919983524 0 -0.088332117769876664 -0.0057793859330368593 0 -0.088279200598802565 -0.0057582047620665777 0 -0.088323023905654968 -0.0061102706881309655 0 -0.088277055147673367 -0.0056992771911773855 0 -0.088332117769876664 -0.0057793859330368593 0 -0.088279200598802565 -0.0057582047620665777 0 -0.088443368502410732 -0.0057132623786266615 0 -0.088277055147673367 -0.0056992771911773855 0 -0.088412041804498659 -0.005697037306845054 0 -0.088277055147673367 -0.0056992771911773855 0 -0.088279200598802565 -0.0057582047620665777 0 -0.088412041804498659 -0.005697037306845054 0 -0.088443368502410732 -0.0057132623786266615 0 -0.088556998695765429 -0.0057070923323070928 0 -0.08867043553221586 -0.0057970715825172306 0 -0.088556998695765429 -0.0057070923323070928 0 -0.08874842475752362 -0.0056523265856935467 0 -0.08867043553221586 -0.0057970715825172306 0 -0.088443368502410732 -0.0057132623786266615 0 -0.088412041804498659 -0.005697037306845054 0 -0.088556998695765429 -0.0057070923323070928 0 -0.088412041804498659 -0.005697037306845054 0 -0.088556998695765429 -0.0057070923323070928 0 -0.08861144040400086 -0.00562240645804941 0 -0.088412041804498659 -0.005697037306845054 0 -0.08861144040400086 -0.00562240645804941 0 -0.088495243547382682 -0.0055839150532521163 0 -0.088556998695765429 -0.0057070923323070928 0 -0.08861144040400086 -0.00562240645804941 0 -0.08874842475752362 -0.0056523265856935467 0 -0.08861144040400086 -0.00562240645804941 0 -0.088495243547382682 -0.0055839150532521163 0 -0.08874276369200379 -0.0054246937713229937 0 -0.08861144040400086 -0.00562240645804941 0 -0.08874276369200379 -0.0054246937713229937 0 -0.08883371887092141 -0.0055505935463864269 0 -0.08861144040400086 -0.00562240645804941 0 -0.08883371887092141 -0.0055505935463864269 0 -0.08874842475752362 -0.0056523265856935467 0 -0.088279200598802565 -0.0057582047620665777 0 -0.088412041804498659 -0.005697037306845054 0 -0.088495243547382682 -0.0055839150532521163 0 -0.088279200598802565 -0.0057582047620665777 0 -0.088495243547382682 -0.0055839150532521163 0 -0.088456915269112646 -0.0052978930297669672 0 -0.088495243547382682 -0.0055839150532521163 0 -0.088456915269112646 -0.0052978930297669672 0 -0.08874276369200379 -0.0054246937713229937 0 -0.088456915269112646 -0.0052978930297669672 0 -0.088329175366442303 -0.0048516023344552621 0 -0.088166717139903622 -0.0052679784977727089 0 -0.08828199451191944 -0.0050955705135668997 0 -0.088135248115786477 -0.004846903456683733 0 -0.08874276369200379 -0.0054246937713229937 0 -0.088731252390629789 -0.0051282817015017249 0 -0.088911055557438501 -0.0053429357537592643 0 -0.088456915269112646 -0.0052978930297669672 0 -0.08874276369200379 -0.0054246937713229937 0 -0.088871387379810193 -0.004795121724366083 0 -0.088456915269112646 -0.0052978930297669672 0 -0.088871387379810193 -0.004795121724366083 0 -0.088329175366442303 -0.0048516023344552621 0 -0.088871387379810193 -0.004795121724366083 0 -0.088329175366442303 -0.0048516023344552621 0 -0.088424292344773739 -0.0044869301069513897 0 -0.088329175366442303 -0.0048516023344552621 0 -0.087812624218120638 -0.0046520226983011118 0 -0.088166717139903622 -0.0052679784977727089 0 -0.088329175366442303 -0.0048516023344552621 0 -0.087812624218120638 -0.0046520226983011118 0 -0.088424292344773739 -0.0044869301069513897 0 -0.088279200598802565 -0.0057582047620665777 0 -0.088456915269112646 -0.0052978930297669672 0 -0.088166717139903622 -0.0052679784977727089 0 -0.088279200598802565 -0.0057582047620665777 0 -0.088166717139903622 -0.0052679784977727089 0 -0.087950380681993415 -0.0055378725919983524 0 -0.087812624218120638 -0.0046520226983011118 0 -0.088166717139903622 -0.0052679784977727089 0 -0.087950380681993415 -0.0055378725919983524 0 -0.087318707555520569 -0.0048040041817167412 0 -0.087812624218120638 -0.0046520226983011118 0 -0.087950380681993415 -0.0055378725919983524 0 -0.087318707555520569 -0.0048040041817167412 0 -0.087812624218120638 -0.0046520226983011118 0 -0.087267824543468986 -0.0039160438715573551 0 -0.087812624218120638 -0.0046520226983011118 0 -0.087267824543468986 -0.0039160438715573551 0 -0.087669624339133431 -0.0036819666986809053 0 -0.087812624218120638 -0.0046520226983011118 0 -0.087669624339133431 -0.0036819666986809053 0 -0.087994384308920939 -0.0037220689328730447 0 -0.087767970811757051 -0.0043596612807600948 0 -0.087907238294382323 -0.0041984727708385813 0 -0.087669624339133431 -0.0036819666986809053 0 -0.087764959523511238 -0.0033605187523299712 0 -0.087994384308920939 -0.0037220689328730447 0 -0.087669624339133431 -0.0036819666986809053 0 -0.087764959523511238 -0.0033605187523299712 0 -0.087436956550959358 -0.0029553213029026798 0 -0.087267824543468986 -0.0039160438715573551 0 -0.087669624339133431 -0.0036819666986809053 0 -0.087436956550959358 -0.0029553213029026798 0 -0.087267824543468986 -0.0039160438715573551 0 -0.086667750597303903 -0.0028591454326698145 0 -0.08679200616746735 -0.0031242836485977422 0 -0.086667750597303903 -0.0028591454326698145 0 -0.08679200616746735 -0.0031242836485977422 0 -0.086118427010553389 -0.0026206298598776129 0 -0.087764959523511238 -0.0033605187523299712 0 -0.087436956550959358 -0.0029553213029026798 0 -0.087724989274574616 -0.0030161632608984119 0 -0.086914858655512087 -0.0033372061971753612 0 -0.087061700103597456 -0.0028124916390400703 0 -0.086707722856595754 -0.0031864334193020464 0 -0.087267824543468986 -0.0039160438715573551 0 -0.08679200616746735 -0.0031242836485977422 0 -0.084746299346193932 -0.0033842312540732322 0 -0.08679200616746735 -0.0031242836485977422 0 -0.086118427010553389 -0.0026206298598776129 0 -0.085374683534130441 -0.0031992999565246811 0 -0.086088877694592433 -0.0031285723067768926 0 -0.084746299346193932 -0.0033842312540732322 0 -0.085558938842869386 -0.0020325815147512684 0 -0.086118427010553389 -0.0026206298598776129 0 -0.085558938842869386 -0.0020325815147512684 0 -0.086118427010553389 -0.0026206298598776129 0 -0.086308918287523226 -0.0019374252966287352 0 -0.087061700103597456 -0.0028124916390400703 0 -0.087400204739982071 -0.0018316164534411532 0 -0.086667750597303903 -0.0028591454326698145 0 -0.086308918287523226 -0.0019374252966287352 0 -0.086945090603657321 -0.0015757381874139098 0 -0.086667750597303903 -0.0028591454326698145 0 -0.086118427010553389 -0.0026206298598776129 0 -0.086308918287523226 -0.0019374252966287352 0 -0.087436956550959358 -0.0029553213029026798 0 -0.087741525481006222 -0.0026465732320937636 0 -0.087724989274574616 -0.0030161632608984119 0 -0.086308918287523226 -0.0019374252966287352 0 -0.085778779813107289 -0.0012739604432690859 0 -0.086945090603657321 -0.0015757381874139098 0 -0.085558938842869386 -0.0020325815147512684 0 -0.086308918287523226 -0.0019374252966287352 0 -0.085778779813107289 -0.0012739604432690859 0 -0.085036455608721515 -0.001335729345435902 0 -0.085558938842869386 -0.0020325815147512684 0 -0.085778779813107289 -0.0012739604432690859 0 -0.088068896322120421 -0.0017888405692721202 0 -0.087921299619292889 -0.0022897557729027853 0 -0.08831410934211345 -0.002249131796894243 0 -0.088068896322120421 -0.0017888405692721202 0 -0.08831410934211345 -0.002249131796894243 0 -0.088455363007179183 -0.0019124132686052868 0 -0.08831410934211345 -0.002249131796894243 0 -0.088455363007179183 -0.0019124132686052868 0 -0.088501347713816542 -0.0021363917330469513 0 -0.088068896322120421 -0.0017888405692721202 0 -0.088455363007179183 -0.0019124132686052868 0 -0.088534253495569051 -0.0015162649401166538 0 -0.088068896322120421 -0.0017888405692721202 0 -0.087512802335556916 -0.0019213755459211589 0 -0.087921299619292889 -0.0022897557729027853 0 -0.087921299619292889 -0.0022897557729027853 0 -0.087965276825164293 -0.0026656907243733613 0 -0.08811995769747287 -0.0025522592770166074 0 -0.087436956550959358 -0.0029553213029026798 0 -0.087512802335556916 -0.0019213755459211589 0 -0.087741525481006222 -0.0026465732320937636 0 -0.087921299619292889 -0.0022897557729027853 0 -0.087741525481006222 -0.0026465732320937636 0 -0.087965276825164293 -0.0026656907243733613 0 -0.087512802335556916 -0.0019213755459211589 0 -0.087921299619292889 -0.0022897557729027853 0 -0.087741525481006222 -0.0026465732320937636 0 -0.087741525481006222 -0.0026465732320937636 0 -0.087724989274574616 -0.0030161632608984119 0 -0.087930473607119974 -0.0029632401504301946 0 -0.087741525481006222 -0.0026465732320937636 0 -0.087965276825164293 -0.0026656907243733613 0 -0.087930473607119974 -0.0029632401504301946 0 -0.087965276825164293 -0.0026656907243733613 0 -0.088120152331967655 -0.0028633157244530847 0 -0.087930473607119974 -0.0029632401504301946 0 -0.088120152331967655 -0.0028633157244530847 0 -0.088261731968542395 -0.0027273330744292876 0 -0.088274092848153421 -0.0029260230999471129 0 -0.088261731968542395 -0.0027273330744292876 0 -0.088419140768867949 -0.0026386830949808541 0 -0.088274092848153421 -0.0029260230999471129 0 -0.088261731968542395 -0.0027273330744292876 0 -0.08811995769747287 -0.0025522592770166074 0 -0.088347875107184198 -0.0025528509732032963 0 -0.088120152331967655 -0.0028633157244530847 0 -0.088261731968542395 -0.0027273330744292876 0 -0.08811995769747287 -0.0025522592770166074 0 -0.087965276825164293 -0.0026656907243733613 0 -0.088120152331967655 -0.0028633157244530847 0 -0.08811995769747287 -0.0025522592770166074 0 -0.087921299619292889 -0.0022897557729027853 0 -0.08811995769747287 -0.0025522592770166074 0 -0.08831410934211345 -0.002249131796894243 0 -0.08831410934211345 -0.002249131796894243 0 -0.088290732316810977 -0.0024665808024947489 0 -0.08853580569447779 -0.0023315103249978916 0 -0.08831410934211345 -0.002249131796894243 0 -0.088347875107184198 -0.0025528509732032963 0 -0.088425172980908087 -0.0026328000369247526 0 -0.087229925885965356 -0.0039617251992370437 0 -0.08720118046378772 -0.0041193021274637037 0 -0.08811995769747287 -0.0025522592770166074 0 -0.08831410934211345 -0.002249131796894243 0 -0.088347875107184198 -0.0025528509732032963 0 -0.08720118046378772 -0.0041193021274637037 0 -0.086894905646776363 -0.0046347722814763688 0 -0.088261731968542395 -0.0027273330744292876 0 -0.088347875107184198 -0.0025528509732032963 0 -0.088419140768867949 -0.0026386830949808541 0 -0.087201498668485117 -0.0041143256918067935 0 -0.08720118046378772 -0.0041193021274637037 0 -0.08720118046378772 -0.0041193021274637037 0 -0.087585334441401444 -0.0042764705577349321 0 -0.08734112673175437 -0.0042321274648153924 0 -0.087337061286949694 -0.0049217644601853633 0 -0.087683807887726145 -0.0046816869012351993 0 -0.088153181237893327 -0.0031850734401609347 0 -0.088442106291631142 -0.0031930041987093313 0 -0.087994384308920939 -0.0037220689328730447 0 -0.088419140768867949 -0.0026386830949808541 0 -0.088274092848153421 -0.0029260230999471129 0 -0.088442106291631142 -0.0031930041987093313 0 -0.087585334441401444 -0.0042764705577349321 0 -0.086894905646776363 -0.0046347722814763688 0 -0.088274092848153421 -0.0029260230999471129 0 -0.088153181237893327 -0.0031850734401609347 0 -0.088442106291631142 -0.0031930041987093313 0 -0.088120152331967655 -0.0028633157244530847 0 -0.088274092848153421 -0.0029260230999471129 0 -0.088153181237893327 -0.0031850734401609347 0 -0.087724989274574616 -0.0030161632608984119 0 -0.087930473607119974 -0.0029632401504301946 0 -0.087915015808463615 -0.003258287727884297 0 -0.088120152331967655 -0.0028633157244530847 0 -0.088153181237893327 -0.0031850734401609347 0 -0.087930473607119974 -0.0029632401504301946 0 -0.088153181237893327 -0.0031850734401609347 0 -0.087930473607119974 -0.0029632401504301946 0 -0.087915015808463615 -0.003258287727884297 0 -0.088153181237893327 -0.0031850734401609347 0 -0.087915015808463615 -0.003258287727884297 0 -0.087994384308920939 -0.0037220689328730447 0 -0.087764959523511238 -0.0033605187523299712 0 -0.087915015808463615 -0.003258287727884297 0 -0.087994384308920939 -0.0037220689328730447 0 -0.087764959523511238 -0.0033605187523299712 0 -0.087724989274574616 -0.0030161632608984119 0 -0.087915015808463615 -0.003258287727884297 0 -0.088731252390629789 -0.0051282817015017249 0 -0.08872245532708678 -0.0047908217613729012 0 -0.088854557276984047 -0.0049832825728884289 0 -0.088135248115786477 -0.004846903456683733 0 -0.087585334441401444 -0.0042764705577349321 0 -0.087585334441401444 -0.0042764705577349321 0 -0.087907238294382323 -0.0041984727708385813 0 -0.088871387379810193 -0.004795121724366083 0 -0.088882279376933923 -0.0041782823061389512 0 -0.088424292344773739 -0.0044869301069513897 0 -0.085376815333702089 -0.0053333473314761942 0 -0.086485025780562524 -0.0047261193553317284 0 -0.088854557276984047 -0.0049832825728884289 0 -0.089018533863157709 -0.0049794822402083735 0 -0.088945112967164244 -0.0051405021425625303 0 -0.088854557276984047 -0.0049832825728884289 0 -0.089018533863157709 -0.0049794822402083735 0 -0.08883321493617187 -0.0048321355982262016 0 -0.082600316894787848 -0.00340839915091776 0 -0.081344237875846548 -0.0037323410271302851 0 -0.081486037267072819 -0.0019592902460125509 0 -0.082600316894787848 -0.00340839915091776 0 -0.082071612626115314 -0.0047505578431920785 0 -0.081344237875846548 -0.0037323410271302851 0 -0.082600316894787848 -0.00340839915091776 0 -0.082071612626115314 -0.0047505578431920785 0 -0.082848026754103507 -0.0049787985286458055 0 -0.082071612626115314 -0.0047505578431920785 0 -0.081118275773608237 -0.0055884951930191794 0 -0.081344237875846548 -0.0037323410271302851 0 -0.082848026754103507 -0.0049787985286458055 0 -0.0822933818083246 -0.0056436032283726035 0 -0.083189640678173804 -0.0058484945077595159 0 -0.082071612626115314 -0.0047505578431920785 0 -0.082848026754103507 -0.0049787985286458055 0 -0.0822933818083246 -0.0056436032283726035 0 -0.082071612626115314 -0.0047505578431920785 0 -0.0822933818083246 -0.0056436032283726035 0 -0.081118275773608237 -0.0055884951930191794 0 -0.082600316894787848 -0.00340839915091776 0 -0.082848026754103507 -0.0049787985286458055 0 -0.083732877212086804 -0.0048998710497244798 0 -0.089018533863157709 -0.0049794822402083735 0 -0.088862178894649105 -0.0047768044903816684 0 -0.08883321493617187 -0.0048321355982262016 0 -0.088862346444911089 -0.004776038748041337 0 -0.08883321493617187 -0.0048321355982262016 0 -0.088820494223370183 -0.0047214413699750487 0 -0.08872245532708678 -0.0047908217613729012 0 -0.088854557276984047 -0.0049832825728884289 0 -0.08883321493617187 -0.0048321355982262016 0 -0.08872245532708678 -0.0047908217613729012 0 -0.08883321493617187 -0.0048321355982262016 0 -0.088820494223370183 -0.0047214413699750487 0 -0.086485025780562524 -0.0047261193553317284 0 -0.086522320474205633 -0.0047006860340146036 0 -0.082848026754103507 -0.0049787985286458055 0 -0.083732877212086804 -0.0048998710497244798 0 -0.083189640678173804 -0.0058484945077595159 0 -0.086485025780562524 -0.0047261193553317284 0 -0.085905655532349773 -0.0049438551151518842 0 -0.086894905646776363 -0.0046347722814763688 0 -0.085905655532349773 -0.0049438551151518842 0 -0.08604300729336653 -0.0048007433804427915 0 -0.085872521094979351 -0.0045771546780141829 0 -0.086339449380792688 -0.0042538008347055185 0 -0.086485025780562524 -0.0047261193553317284 0 -0.086894905646776363 -0.0046347722814763688 0 -0.088290732316810977 -0.0024665808024947489 0 -0.088524679239193826 -0.0028133077395531897 0 -0.088557886049016016 -0.0025330107565616025 0 -0.088524679239193826 -0.0028133077395531897 0 -0.088557886049016016 -0.0025330107565616025 0 -0.088842067900939875 -0.0026186498132294541 0 -0.088290732316810977 -0.0024665808024947489 0 -0.088557886049016016 -0.0025330107565616025 0 -0.08853580569447779 -0.0023315103249978916 0 -0.088766987016235158 -0.0022642731633666664 0 -0.088842067900939875 -0.0026186498132294541 0 -0.089196059789574442 -0.0017655333771370363 0 -0.08831410934211345 -0.002249131796894243 0 -0.08853580569447779 -0.0023315103249978916 0 -0.088501347713816542 -0.0021363917330469513 0 -0.088557886049016016 -0.0025330107565616025 0 -0.08853580569447779 -0.0023315103249978916 0 -0.088766987016235158 -0.0022642731633666664 0 -0.08853580569447779 -0.0023315103249978916 0 -0.088501347713816542 -0.0021363917330469513 0 -0.088719999283394718 -0.0020411961236602417 0 -0.08853580569447779 -0.0023315103249978916 0 -0.088766987016235158 -0.0022642731633666664 0 -0.088719999283394718 -0.0020411961236602417 0 -0.088557886049016016 -0.0025330107565616025 0 -0.088766987016235158 -0.0022642731633666664 0 -0.088842067900939875 -0.0026186498132294541 0 -0.085905655532349773 -0.0049438551151518842 0 -0.084562190963706665 -0.0054024870041696716 0 -0.085905655532349773 -0.0049438551151518842 0 -0.084635592257593442 -0.0057047218017615186 0 -0.0822933818083246 -0.0056436032283726035 0 -0.083189640678173804 -0.0058484945077595159 0 -0.081966274603223921 -0.006791452686543238 0 -0.084505179115052939 -0.0050323082858505916 0 -0.081966274603223921 -0.006791452686543238 0 -0.082883590249101635 -0.0082137300514262771 0 -0.0822933818083246 -0.0056436032283726035 0 -0.081966274603223921 -0.006791452686543238 0 -0.081118275773608237 -0.0055884951930191794 0 -0.082883590249101635 -0.0082137300514262771 0 -0.080568984145192701 -0.0091175282129894123 0 -0.081283285497864871 -0.012015138234703498 0 -0.082883590249101635 -0.0082137300514262771 0 -0.080568984145192701 -0.0091175282129894123 0 -0.081229038809485093 -0.0074861067433578017 0 -0.081966274603223921 -0.006791452686543238 0 -0.082883590249101635 -0.0082137300514262771 0 -0.081229038809485093 -0.0074861067433578017 0 -0.089196059789574442 -0.0017655333771370363 0 -0.088871833155101609 -0.0017037892394751039 0 -0.089170740520038705 -0.0016551364825284976 0 -0.088871833155101609 -0.0017037892394751039 0 -0.088455363007179183 -0.0019124132686052868 0 -0.088534253495569051 -0.0015162649401166538 0 -0.088871833155101609 -0.0017037892394751039 0 -0.088455363007179183 -0.0019124132686052868 0 -0.088719999283394718 -0.0020411961236602417 0 -0.088455363007179183 -0.0019124132686052868 0 -0.088501347713816542 -0.0021363917330469513 0 -0.088719999283394718 -0.0020411961236602417 0 -0.088766987016235158 -0.0022642731633666664 0 -0.089196059789574442 -0.0017655333771370363 0 -0.088719999283394718 -0.0020411961236602417 0 -0.089196059789574442 -0.0017655333771370363 0 -0.088871833155101609 -0.0017037892394751039 0 -0.088719999283394718 -0.0020411961236602417 0 -0.076272633541006454 -0.0070200209152645162 0 -0.078296029258419858 -0.0088814702167070558 0 -0.07950697536841092 -0.0066364636274946721 0 -0.076272633541006454 -0.0070200209152645162 0 -0.07569989733226587 -0.0095708195301163115 0 -0.078296029258419858 -0.0088814702167070558 0 -0.07569989733226587 -0.0095708195301163115 0 -0.078296029258419858 -0.0088814702167070558 0 -0.078192993051279691 -0.011290225175885906 0 -0.078296029258419858 -0.0088814702167070558 0 -0.080568984145192701 -0.0091175282129894123 0 -0.078192993051279691 -0.011290225175885906 0 -0.080568984145192701 -0.0091175282129894123 0 -0.081229038809485093 -0.0074861067433578017 0 -0.07950697536841092 -0.0066364636274946721 0 -0.078296029258419858 -0.0088814702167070558 0 -0.080568984145192701 -0.0091175282129894123 0 -0.07950697536841092 -0.0066364636274946721 0 -0.07950697536841092 -0.0066364636274946721 0 -0.080654972754762286 -0.0059243961349655077 0 -0.081476952512218287 -0.0055558504582227655 0 -0.081229038809485093 -0.0074861067433578017 0 -0.07950697536841092 -0.0066364636274946721 0 -0.080654972754762286 -0.0059243961349655077 0 -0.081966274603223921 -0.006791452686543238 0 -0.081229038809485093 -0.0074861067433578017 0 -0.080654972754762286 -0.0059243961349655077 0 -0.081966274603223921 -0.006791452686543238 0 -0.080654972754762286 -0.0059243961349655077 0 -0.081118275773608237 -0.0055884951930191794 0 -0.079588862261768034 -0.0055195477225664117 0 -0.079279763074449019 -0.0045766508819329223 0 -0.07950697536841092 -0.0066364636274946721 0 -0.077207684252649705 -0.0019655284698534862 0 -0.075361864243387922 -0.0042729431582230618 0 -0.076272633541006454 -0.0070200209152645162 0 -0.07950697536841092 -0.0066364636274946721 0 -0.075361864243387922 -0.0042729431582230618 0 -0.077207684252649705 -0.0019655284698534862 0 -0.075326107991930111 -0.0023087689230382965 0 -0.075361864243387922 -0.0042729431582230618 0 -0.081476952512218287 -0.0055558504582227655 0 -0.081125125294735659 -0.0057214168039380351 0 -0.081749770487750575 -0.0063955189053443405 0 -0.077207684252649705 -0.0019655284698534862 0 -0.07538678791048907 -0.00016520929397534313 0 -0.075326107991930111 -0.0023087689230382965 0 -0.083192643233471739 -0.0058072976066065232 0 -0.083528892548448308 -0.0059312270719608286 0 -0.081118275773608237 -0.0055884951930191794 0 -0.081125125294735659 -0.0057214168039380351 0 -0.080734131408476045 -0.0062655336164962631 0 -0.080654972754762286 -0.0059243961349655077 0 -0.081118275773608237 -0.0055884951930191794 0 -0.081125125294735659 -0.0057214168039380351 0 -0.080654972754762286 -0.0059243961349655077 0 -0.081476952512218287 -0.0055558504582227655 0 -0.081125125294735659 -0.0057214168039380351 0 -0.080734131408476045 -0.0062655336164962631 0 -0.081435889578975573 -0.0071125995146950321 0 -0.081749770487750575 -0.0063955189053443405 0 -0.081125125294735659 -0.0057214168039380351 0 -0.080734131408476045 -0.0062655336164962631 0 -0.081749770487750575 -0.0063955189053443405 0 -0.083528892548448308 -0.0059312270719608286 0 -0.084624003813967327 -0.006987411333035513 0 -0.080734131408476045 -0.0062655336164962631 0 -0.081435889578975573 -0.0071125995146950321 0 -0.080472653747123243 -0.0079992538690211116 0 -0.081435889578975573 -0.0071125995146950321 0 -0.081749770487750575 -0.0063955189053443405 0 -0.08236797750066531 -0.0072700060296430431 0 -0.081476952512218287 -0.0055558504582227655 0 -0.081749770487750575 -0.0063955189053443405 0 -0.083338701081895658 -0.0068889909611781278 0 -0.079279763074449019 -0.0045766508819329223 0 -0.078741459857782095 -0.0033825037096441345 0 -0.077207684252649705 -0.0019655284698534862 0 -0.075457787217868846 0.0016765708522089987 0 -0.07538678791048907 -0.00016520929397534313 0 -0.081749770487750575 -0.0063955189053443405 0 -0.083338701081895658 -0.0068889909611781278 0 -0.08236797750066531 -0.0072700060296430431 0 -0.083338701081895658 -0.0068889909611781278 0 -0.08236797750066531 -0.0072700060296430431 0 -0.083183111120088207 -0.008098469572109579 0 -0.08236797750066531 -0.0072700060296430431 0 -0.082154645302060181 -0.0081415178588272671 0 -0.083183111120088207 -0.008098469572109579 0 -0.082154645302060181 -0.0081415178588272671 0 -0.083183111120088207 -0.008098469572109579 0 -0.083310324552463205 -0.0090832759422181438 0 -0.083183111120088207 -0.008098469572109579 0 -0.083310324552463205 -0.0090832759422181438 0 -0.084820818287001928 -0.0091489970560702984 0 -0.082154645302060181 -0.0081415178588272671 0 -0.083310324552463205 -0.0090832759422181438 0 -0.082148622578067057 -0.010005885949685338 0 -0.083310324552463205 -0.0090832759422181438 0 -0.084058572362240777 -0.010299810169397435 0 -0.084820818287001928 -0.0091489970560702984 0 -0.083310324552463205 -0.0090832759422181438 0 -0.084058572362240777 -0.010299810169397435 0 -0.082148622578067057 -0.010005885949685338 0 -0.084717305439642981 -0.0091537837318773872 0 -0.084624003813967327 -0.006987411333035513 0 -0.084865103447480814 -0.01174650156771481 0 -0.084943525302346556 -0.011830383227547455 0 -0.084947043782996709 -0.011643164353620509 0 -0.082154645302060181 -0.0081415178588272671 0 -0.082148622578067057 -0.010005885949685338 0 -0.080472653747123243 -0.0079992538690211116 0 -0.081435889578975573 -0.0071125995146950321 0 -0.082154645302060181 -0.0081415178588272671 0 -0.080472653747123243 -0.0079992538690211116 0 -0.081435889578975573 -0.0071125995146950321 0 -0.08236797750066531 -0.0072700060296430431 0 -0.082154645302060181 -0.0081415178588272671 0 -0.085376815333702089 -0.0053333473314761942 0 -0.084624003813967327 -0.006987411333035513 0 -0.089018533863157709 -0.0049794822402083735 0 -0.0891777856715463 -0.0051838989283004159 0 -0.088945112967164244 -0.0051405021425625303 0 -0.0891777856715463 -0.0051838989283004159 0 -0.088945112967164244 -0.0051405021425625303 0 -0.088911055557438501 -0.0053429357537592643 0 -0.088731252390629789 -0.0051282817015017249 0 -0.088854557276984047 -0.0049832825728884289 0 -0.088945112967164244 -0.0051405021425625303 0 -0.088731252390629789 -0.0051282817015017249 0 -0.088945112967164244 -0.0051405021425625303 0 -0.088911055557438501 -0.0053429357537592643 0 -0.0891777856715463 -0.0051838989283004159 0 -0.089043154736956495 -0.0054716282733954591 0 -0.089124531099834245 -0.0055989467374944219 0 -0.0891777856715463 -0.0051838989283004159 0 -0.088911055557438501 -0.0053429357537592643 0 -0.089043154736956495 -0.0054716282733954591 0 -0.084624003813967327 -0.006987411333035513 0 -0.08645078905819574 -0.0082456175077061933 0 -0.089124531099834245 -0.0055989467374944219 0 -0.089155321074887259 -0.0055815643752025728 0 -0.089268681256352594 -0.0054039670645026705 0 -0.089043154736956495 -0.0054716282733954591 0 -0.089124531099834245 -0.0055989467374944219 0 -0.089155321074887259 -0.0055815643752025728 0 -0.088911055557438501 -0.0053429357537592643 0 -0.089043154736956495 -0.0054716282733954591 0 -0.08883371887092141 -0.0055505935463864269 0 -0.08874276369200379 -0.0054246937713229937 0 -0.088911055557438501 -0.0053429357537592643 0 -0.08883371887092141 -0.0055505935463864269 0 -0.089155321074887259 -0.0055815643752025728 0 -0.08883371887092141 -0.0055505935463864269 0 -0.08874842475752362 -0.0056523265856935467 0 -0.089043154736956495 -0.0054716282733954591 0 -0.089155321074887259 -0.0055815643752025728 0 -0.08883371887092141 -0.0055505935463864269 0 -0.089155321074887259 -0.0055815643752025728 0 -0.08874842475752362 -0.0056523265856935467 0 -0.08867043553221586 -0.0057970715825172306 0 -0.089359723527540222 -0.0053483851034358569 0 -0.089501957754330938 -0.0051880473082987558 0 -0.089155321074887259 -0.0055815643752025728 0 -0.08969401775301046 -0.0053009799236827543 0 -0.089991720225938959 -0.0053569237596893023 0 -0.089391737738765464 -0.0052088835691841209 0 -0.08969401775301046 -0.0053009799236827543 0 -0.089268681256352594 -0.0054039670645026705 0 -0.089175523923639505 -0.0052244749251858878 0 -0.089124531099834245 -0.0055989467374944219 0 -0.089268681256352594 -0.0054039670645026705 0 -0.089155321074887259 -0.0055815643752025728 0 -0.08969401775301046 -0.0053009799236827543 0 -0.089268681256352594 -0.0054039670645026705 0 -0.087926808930859454 -0.0080551323157595396 0 -0.08645078905819574 -0.0082456175077061933 0 -0.089175523923639505 -0.0052244749251858878 0 -0.089391737738765464 -0.0052088835691841209 0 -0.089268681256352594 -0.0054039670645026705 0 -0.084858232134319464 -0.011726918270735623 0 -0.084947043782996709 -0.011643164353620509 0 -0.084963130496695988 -0.011619233874758746 0 -0.085020434537054351 -0.011720018767620506 0 -0.084858232134319464 -0.011726918270735623 0 -0.084963130496695988 -0.011619233874758746 0 -0.085020434537054351 -0.011720018767620506 0 -0.084963130496695988 -0.011619233874758746 0 -0.085060849386667012 -0.011648917419180846 0 -0.084963130496695988 -0.011619233874758746 0 -0.085060849386667012 -0.011648917419180846 0 -0.08459075414079345 -0.0115847736651948 0 -0.085598770222156326 -0.011760755824130191 0 -0.085060849386667012 -0.011648917419180846 0 -0.084959508886776794 -0.011793776928162867 0 -0.085060849386667012 -0.011648917419180846 0 -0.08459075414079345 -0.0115847736651948 0 -0.084959508886776794 -0.011793776928162867 0 -0.084963130496695988 -0.011619233874758746 0 -0.08459075414079345 -0.0115847736651948 0 -0.084879284207529118 -0.011653311339720038 0 -0.084058572362240777 -0.010299810169397435 0 -0.082148622578067057 -0.010005885949685338 0 -0.08459075414079345 -0.0115847736651948 0 -0.084865103447480814 -0.01174650156771481 0 -0.08459075414079345 -0.0115847736651948 0 -0.084879284207529118 -0.011653311339720038 0 -0.084717305439642981 -0.0091537837318773872 0 -0.084842815805198035 -0.0098573499630839438 0 -0.084865103447480814 -0.01174650156771481 0 -0.084947043782996709 -0.011643164353620509 0 -0.084879284207529118 -0.011653311339720038 0 -0.084947043782996709 -0.011643164353620509 0 -0.084963130496695988 -0.011619233874758746 0 -0.084879284207529118 -0.011653311339720038 0 -0.071490057727696968 0.0048263773165509441 0 -0.06966757233510959 0.0055596072333765926 0 -0.069807626841820056 0.0038362592194831967 0 -0.084058572362240777 -0.010299810169397435 0 -0.08459075414079345 -0.0115847736651948 0 -0.085565358037027528 -0.011206866281285786 0 -0.079100992869929984 -0.0050001796139284684 0 -0.076241057658114911 -0.0014141864083454983 0 -0.084945482340528192 -0.011966836545413322 0 -0.085565358037027528 -0.011206866281285786 0 -0.084959508886776794 -0.011793776928162867 0 -0.08459075414079345 -0.0115847736651948 0 -0.085565358037027528 -0.011206866281285786 0 -0.084959508886776794 -0.011793776928162867 0 -0.084945482340528192 -0.011966836545413322 0 -0.085598770222156326 -0.011760755824130191 0 -0.084959508886776794 -0.011793776928162867 0 -0.074025851158689426 0.0015336330148961509 0 -0.076241057658114911 -0.0014141864083454983 0 -0.076462769224404689 -0.0026799019389603614 0 -0.077654804720046808 -0.0027414374001729328 0 -0.07711291312991049 -0.0043744795030519644 0 -0.070556112200979987 0.0072382520707204943 0 -0.071490057727696968 0.0048263773165509441 0 -0.06966757233510959 0.0055596072333765926 0 -0.067999730971392849 0.0073556640732429556 0 -0.070556112200979987 0.0072382520707204943 0 -0.06966757233510959 0.0055596072333765926 0 -0.067999730971392849 0.0073556640732429556 0 -0.06966757233510959 0.0055596072333765926 0 -0.068042385805194117 0.0055911065581575299 0 -0.067999730971392849 0.0073556640732429556 0 -0.068042385805194117 0.0055911065581575299 0 -0.066250102758565604 0.0050795624374354838 0 -0.071190121528142539 0.0029726444400815489 0 -0.069231560399925007 0.0026091715265256468 0 -0.068421612589576561 0.0042584106526186239 0 -0.066886606571537277 0.0027897502074848051 0 -0.066250102758565604 0.0050795624374354838 0 -0.068042385805194117 0.0055911065581575299 0 -0.068421612589576561 0.0042584106526186239 0 -0.066250102758565604 0.0050795624374354838 0 -0.06966757233510959 0.0055596072333765926 0 -0.068421612589576561 0.0042584106526186239 0 -0.069807626841820056 0.0038362592194831967 0 -0.06966757233510959 0.0055596072333765926 0 -0.068042385805194117 0.0055911065581575299 0 -0.068421612589576561 0.0042584106526186239 0 -0.069807626841820056 0.0038362592194831967 0 -0.068820676116396348 0.0024268174218937 0 -0.070626502247211745 0.0020965622646992965 0 -0.068421612589576561 0.0042584106526186239 0 -0.069807626841820056 0.0038362592194831967 0 -0.068820676116396348 0.0024268174218937 0 -0.068421612589576561 0.0042584106526186239 0 -0.068820676116396348 0.0024268174218937 0 -0.066886606571537277 0.0027897502074848051 0 -0.068820676116396348 0.0024268174218937 0 -0.066886606571537277 0.0027897502074848051 0 -0.067343260919277143 0.00071124405629647018 0 -0.068820676116396348 0.0024268174218937 0 -0.069222769037788817 0.0010356830350456122 0 -0.070626502247211745 0.0020965622646992965 0 -0.068820676116396348 0.0024268174218937 0 -0.069222769037788817 0.0010356830350456122 0 -0.067343260919277143 0.00071124405629647018 0 -0.071376093184523107 0.004033162659370238 0 -0.072620180186832403 0.0019356161817494662 0 -0.071722103092047296 0.00090702808369461693 0 -0.071376093184523107 0.004033162659370238 0 -0.073682588774834898 0.0028707380295857972 0 -0.072620180186832403 0.0019356161817494662 0 -0.072851176619160157 0.0083108871414757212 0 -0.071376093184523107 0.004033162659370238 0 -0.074104542064676551 0.0049943987532041368 0 -0.071490057727696968 0.0048263773165509441 0 -0.069807626841820056 0.0038362592194831967 0 -0.070626502247211745 0.0020965622646992965 0 -0.076241057658114911 -0.0014141864083454983 0 -0.073747595721112891 0.0014158653671692105 0 -0.076241057658114911 -0.0014141864083454983 0 -0.077907849129614917 -0.0025014409500809941 0 -0.084058572362240777 -0.010299810169397435 0 -0.085565358037027528 -0.011206866281285786 0 -0.084820818287001928 -0.0091489970560702984 0 -0.083338701081895658 -0.0068889909611781278 0 -0.083183111120088207 -0.008098469572109579 0 -0.084820818287001928 -0.0091489970560702984 0 -0.078741459857782095 -0.0033825037096441345 0 -0.077907849129614917 -0.0025014409500809941 0 -0.071376093184523107 0.004033162659370238 0 -0.074104542064676551 0.0049943987532041368 0 -0.073682588774834898 0.0028707380295857972 0 -0.075457787217868846 0.0016765708522089987 0 -0.074104542064676551 0.0049943987532041368 0 -0.073682588774834898 0.0028707380295857972 0 -0.075457787217868846 0.0016765708522089987 0 -0.073682588774834898 0.0028707380295857972 0 -0.073490266821348932 0.00092841005550933309 0 -0.075457787217868846 0.0016765708522089987 0 -0.073490266821348932 0.00092841005550933309 0 -0.07538678791048907 -0.00016520929397534313 0 -0.073490266821348932 0.00092841005550933309 0 -0.07538678791048907 -0.00016520929397534313 0 -0.070690293066346596 -0.0014747304682119304 0 -0.073682588774834898 0.0028707380295857972 0 -0.073490266821348932 0.00092841005550933309 0 -0.072620180186832403 0.0019356161817494662 0 -0.071376093184523107 0.004033162659370238 0 -0.071722103092047296 0.00090702808369461693 0 -0.069879373839714543 -0.00067949115767353433 0 -0.073747595721112891 0.0014158653671692105 0 -0.072508809195434218 0.00037626494258351088 0 -0.073490266821348932 0.00092841005550933309 0 -0.071722103092047296 0.00090702808369461693 0 -0.070690293066346596 -0.0014747304682119304 0 -0.073490266821348932 0.00092841005550933309 0 -0.072620180186832403 0.0019356161817494662 0 -0.071722103092047296 0.00090702808369461693 0 -0.071722103092047296 0.00090702808369461693 0 -0.070690293066346596 -0.0014747304682119304 0 -0.069879373839714543 -0.00067949115767353433 0 -0.069589016053699757 -0.0013557604642346109 0 -0.072248782396126268 -0.0020915371917949771 0 -0.070608895614386588 -0.0040032516818379795 0 -0.073364457540851732 -0.0029457872618959156 0 -0.072248782396126268 -0.0020915371917949771 0 -0.070608895614386588 -0.0040032516818379795 0 -0.069589016053699757 -0.0013557604642346109 0 -0.070608895614386588 -0.0040032516818379795 0 -0.067605261593414442 -0.0038669751245174774 0 -0.07224258496753902 -0.00029047002874886503 0 -0.06953158696479389 -0.00076407225026679684 0 -0.07538678791048907 -0.00016520929397534313 0 -0.069589016053699757 -0.0013557604642346109 0 -0.072248782396126268 -0.0020915371917949771 0 -0.07538678791048907 -0.00016520929397534313 0 -0.073364457540851732 -0.0029457872618959156 0 -0.075326107991930111 -0.0023087689230382965 0 -0.07538678791048907 -0.00016520929397534313 0 -0.073364457540851732 -0.0029457872618959156 0 -0.072248782396126268 -0.0020915371917949771 0 -0.073364457540851732 -0.0029457872618959156 0 -0.075326107991930111 -0.0023087689230382965 0 -0.075361864243387922 -0.0042729431582230618 0 -0.073364457540851732 -0.0029457872618959156 0 -0.075361864243387922 -0.0042729431582230618 0 -0.073386905329876129 -0.0063155827887031047 0 -0.073364457540851732 -0.0029457872618959156 0 -0.073386905329876129 -0.0063155827887031047 0 -0.070608895614386588 -0.0040032516818379795 0 -0.076272633541006454 -0.0070200209152645162 0 -0.075361864243387922 -0.0042729431582230618 0 -0.073386905329876129 -0.0063155827887031047 0 -0.070608895614386588 -0.0040032516818379795 0 -0.070670099804066563 -0.0072803720194848315 0 -0.06824734670856715 -0.0062799358259753709 0 -0.073386905329876129 -0.0063155827887031047 0 -0.070608895614386588 -0.0040032516818379795 0 -0.070670099804066563 -0.0072803720194848315 0 -0.070670099804066563 -0.0072803720194848315 0 -0.072408888798284901 -0.0096559719302640803 0 -0.068715974807495514 -0.010118447692184616 0 -0.070670099804066563 -0.0072803720194848315 0 -0.06824734670856715 -0.0062799358259753709 0 -0.068715974807495514 -0.010118447692184616 0 -0.07569989733226587 -0.0095708195301163115 0 -0.073386905329876129 -0.0063155827887031047 0 -0.072408888798284901 -0.0096559719302640803 0 -0.073386905329876129 -0.0063155827887031047 0 -0.070670099804066563 -0.0072803720194848315 0 -0.072408888798284901 -0.0096559719302640803 0 -0.076272633541006454 -0.0070200209152645162 0 -0.07569989733226587 -0.0095708195301163115 0 -0.073386905329876129 -0.0063155827887031047 0 -0.065615559152876188 -0.0084179121460001421 0 -0.061862201486861827 -0.0071616539874929464 0 -0.063250491844693515 -0.011716553452239922 0 -0.065615559152876188 -0.0084179121460001421 0 -0.065527795193912372 -0.0054664042471995857 0 -0.061862201486861827 -0.0071616539874929464 0 -0.065615559152876188 -0.0084179121460001421 0 -0.06824734670856715 -0.0062799358259753709 0 -0.068715974807495514 -0.010118447692184616 0 -0.065615559152876188 -0.0084179121460001421 0 -0.06824734670856715 -0.0062799358259753709 0 -0.065527795193912372 -0.0054664042471995857 0 -0.067605261593414442 -0.0038669751245174774 0 -0.065527795193912372 -0.0054664042471995857 0 -0.063771779941854623 -0.00286800513726089 0 -0.06824734670856715 -0.0062799358259753709 0 -0.067605261593414442 -0.0038669751245174774 0 -0.065527795193912372 -0.0054664042471995857 0 -0.070608895614386588 -0.0040032516818379795 0 -0.06824734670856715 -0.0062799358259753709 0 -0.067605261593414442 -0.0038669751245174774 0 -0.065527795193912372 -0.0054664042471995857 0 -0.063771779941854623 -0.00286800513726089 0 -0.061862201486861827 -0.0071616539874929464 0 -0.067385475092199096 -0.0023020026849130868 0 -0.067964068963129801 -0.00055008014335263065 0 -0.065881144812779541 -0.0016679750793997068 0 -0.06953158696479389 -0.00076407225026679684 0 -0.064461793529237643 -0.0012535241544945114 0 -0.069589016053699757 -0.0013557604642346109 0 -0.067605261593414442 -0.0038669751245174774 0 -0.063771779941854623 -0.00286800513726089 0 -0.067385475092199096 -0.0023020026849130868 0 -0.069879373839714543 -0.00067949115767353433 0 -0.067964068963129801 -0.00055008014335263065 0 -0.070690293066346596 -0.0014747304682119304 0 -0.067385475092199096 -0.0023020026849130868 0 -0.069879373839714543 -0.00067949115767353433 0 -0.069222769037788817 0.0010356830350456122 0 -0.070626502247211745 0.0020965622646992965 0 -0.069879373839714543 -0.00067949115767353433 0 -0.069222769037788817 0.0010356830350456122 0 -0.069879373839714543 -0.00067949115767353433 0 -0.067964068963129801 -0.00055008014335263065 0 -0.069222769037788817 0.0010356830350456122 0 -0.067964068963129801 -0.00055008014335263065 0 -0.067343260919277143 0.00071124405629647018 0 -0.067964068963129801 -0.00055008014335263065 0 -0.067343260919277143 0.00071124405629647018 0 -0.065881144812779541 -0.0016679750793997068 0 -0.067343260919277143 0.00071124405629647018 0 -0.065198084253750566 -0.00056795124858363721 0 -0.06540284084354317 0.0012012147208556607 0 -0.064884090964773447 0.00098723005295778938 0 -0.063560030197756245 0.00067006508244306102 0 -0.067343260919277143 0.00071124405629647018 0 -0.064878787580042285 -0.000350850706130054 0 -0.065881144812779541 -0.0016679750793997068 0 -0.065198084253750566 -0.00056795124858363721 0 -0.062731346569416063 -0.0018654521895934994 0 -0.062465013595589133 5.019386213267299e-05 0 -0.065198084253750566 -0.00056795124858363721 0 -0.062465013595589133 5.019386213267299e-05 0 -0.06540284084354317 0.0012012147208556607 0 -0.064277215070787236 -0.0022110096848594009 0 -0.063241901850911303 -0.0026380605308712617 0 -0.062351648239720038 -0.001525017337544969 0 -0.063560030197756245 0.00067006508244306102 0 -0.060376029536785523 0.00027275370119003272 0 -0.064878787580042285 -0.000350850706130054 0 -0.064277215070787236 -0.0022110096848594009 0 -0.062351648239720038 -0.001525017337544969 0 -0.064277215070787236 -0.0022110096848594009 0 -0.063241901850911303 -0.0026380605308712617 0 -0.064175912526717158 -0.0032516077586477983 0 -0.067385475092199096 -0.0023020026849130868 0 -0.065881144812779541 -0.0016679750793997068 0 -0.064186851590823754 -0.0031844159462709439 0 -0.064878787580042285 -0.000350850706130054 0 -0.064277215070787236 -0.0022110096848594009 0 -0.065881144812779541 -0.0016679750793997068 0 -0.064277215070787236 -0.0022110096848594009 0 -0.065881144812779541 -0.0016679750793997068 0 -0.064186851590823754 -0.0031844159462709439 0 -0.064461793529237643 -0.0012535241544945114 0 -0.05570805255883534 -0.001517592582444432 0 -0.063771779941854623 -0.00286800513726089 0 -0.058104099542618623 -0.004371210028611368 0 -0.061862201486861827 -0.0071616539874929464 0 -0.055944823383961076 -0.0015619599065154692 0 -0.05570805255883534 -0.001517592582444432 0 -0.063241901850911303 -0.0026380605308712617 0 -0.064175912526717158 -0.0032516077586477983 0 -0.062248812109576765 -0.0030750639629515317 0 -0.05570805255883534 -0.001517592582444432 0 -0.051921547025225362 -0.0043615544540800775 0 -0.043753713451039816 -0.0017290677855312637 0 -0.04389331181151894 -8.7138388838434844e-05 0 -0.044633308396226791 -0.00094601100463334088 0 -0.04389331181151894 -8.7138388838434844e-05 0 -0.044937467945641199 4.7898089627070044e-06 0 -0.044633308396226791 -0.00094601100463334088 0 -0.057650033824946691 -0.0091567354418294038 0 -0.061862201486861827 -0.0071616539874929464 0 -0.059868817798948717 -0.011624717452386605 0 -0.058104099542618623 -0.004371210028611368 0 -0.057650033824946691 -0.0091567354418294038 0 -0.061862201486861827 -0.0071616539874929464 0 -0.04821639135036556 -0.000100570081951032 0 -0.048254928637054731 1.8544184840341927e-06 0 -0.049867038726989707 -0.0001821317211947045 0 -0.04821639135036556 -0.000100570081951032 0 -0.046783065627417492 4.2735269312690506e-05 0 -0.047628839998808903 -0.00042110178623886476 0 -0.04821639135036556 -0.000100570081951032 0 -0.048254928637054731 1.8544184840341927e-06 0 -0.046783065627417492 4.2735269312690506e-05 0 -0.052014085093052873 0.00059324680354913496 0 -0.053632493105432187 -0.00061235687868062554 0 -0.044937467945641199 4.7898089627070044e-06 0 -0.045635643915635328 -0.0010195694910141307 0 -0.044633308396226791 -0.00094601100463334088 0 -0.046783065627417492 4.2735269312690506e-05 0 -0.044937467945641199 4.7898089627070044e-06 0 -0.047628839998808903 -0.00042110178623886476 0 -0.043753713451039816 -0.0017290677855312637 0 -0.044633308396226791 -0.00094601100463334088 0 -0.045760506549004223 -0.0012071149586485761 0 -0.05570805255883534 -0.001517592582444432 0 -0.054302346410277931 -0.0011233296471593465 0 -0.064175912526717158 -0.0032516077586477983 0 -0.062248812109576765 -0.0030750639629515317 0 -0.060707640073936628 -0.004179573057961212 0 -0.045635643915635328 -0.0010195694910141307 0 -0.044633308396226791 -0.00094601100463334088 0 -0.045760506549004223 -0.0012071149586485761 0 -0.063241901850911303 -0.0026380605308712617 0 -0.062248812109576765 -0.0030750639629515317 0 -0.062166034897554075 -0.00250344394712215 0 -0.062248812109576765 -0.0030750639629515317 0 -0.061106265707062672 -0.0028851256094782974 0 -0.062166034897554075 -0.00250344394712215 0 -0.062248812109576765 -0.0030750639629515317 0 -0.061106265707062672 -0.0028851256094782974 0 -0.060707640073936628 -0.004179573057961212 0 -0.054302346410277931 -0.0011233296471593465 0 -0.054593306627194353 -9.4631943391018688e-05 0 -0.048238875121326304 -0.00042232096342632126 0 -0.049867038726989707 -0.0001821317211947045 0 -0.050583797972129176 -0.0014288931967886467 0 -0.061106265707062672 -0.0028851256094782974 0 -0.060707640073936628 -0.004179573057961212 0 -0.059765379640651421 -0.0027873201337047298 0 -0.048254928637054731 1.8544184840341927e-06 0 -0.049867038726989707 -0.0001821317211947045 0 -0.052704670628002187 -4.8280171163042898e-06 0 -0.047628839998808903 -0.00042110178623886476 0 -0.048238875121326304 -0.00042232096342632126 0 -0.049867038726989707 -0.0001821317211947045 0 -0.04821639135036556 -0.000100570081951032 0 -0.047628839998808903 -0.00042110178623886476 0 -0.049867038726989707 -0.0001821317211947045 0 -0.053632493105432187 -0.00061235687868062554 0 -0.054302346410277931 -0.0011233296471593465 0 -0.049867038726989707 -0.0001821317211947045 0 -0.050583797972129176 -0.0014288931967886467 0 -0.052704670628002187 -4.8280171163042898e-06 0 -0.054593306627194353 -9.4631943391018688e-05 0 -0.052718342412797596 -3.2701840132872619e-06 0 -0.05332354536230699 7.2561134260972348e-07 0 -0.052714304093231586 4.1551165799421578e-09 0 -0.055131848347767139 -1.2105560863802189e-09 0 -0.056954243164683366 -0.0031313099166724884 0 -0.055152770916477654 -8.4011611208120451e-06 0 -0.062731346569416063 -0.0018654521895934994 0 -0.054593306627194353 -9.4631943391018688e-05 0 -0.055133360795520933 -7.5829675287437917e-07 0 -0.055152770916477654 -8.4011611208120451e-06 0 -0.062731346569416063 -0.0018654521895934994 0 -0.062465013595589133 5.019386213267299e-05 0 -0.054593306627194353 -9.4631943391018688e-05 0 -0.060376029536785523 0.00027275370119003272 0 -0.061106265707062672 -0.0028851256094782974 0 -0.059765379640651421 -0.0027873201337047298 0 -0.062351648239720038 -0.001525017337544969 0 -0.063241901850911303 -0.0026380605308712617 0 -0.062166034897554075 -0.00250344394712215 0 -0.062351648239720038 -0.001525017337544969 0 -0.061106265707062672 -0.0028851256094782974 0 -0.062166034897554075 -0.00250344394712215 0 -0.062351648239720038 -0.001525017337544969 0 -0.055152770916477654 -8.4011611208120451e-06 0 -0.062465013595589133 5.019386213267299e-05 0 -0.069165883883983995 4.2558493606669718e-06 0 -0.062465013595589133 5.019386213267299e-05 0 -0.068177504737001973 -6.222486620979239e-05 0 -0.069165883883983995 4.2558493606669718e-06 0 -0.065884381918921861 0.00085542231427932511 0 -0.067185550521737747 0.0016619110147019557 0 -0.062465013595589133 5.019386213267299e-05 0 -0.06540284084354317 0.0012012147208556607 0 -0.064395244384019182 0.0026960268330475903 0 -0.066886606571537277 0.0027897502074848051 0 -0.067343260919277143 0.00071124405629647018 0 -0.06540284084354317 0.0012012147208556607 0 -0.066886606571537277 0.0027897502074848051 0 -0.06540284084354317 0.0012012147208556607 0 -0.064395244384019182 0.0026960268330475903 0 -0.067185550521737747 0.0016619110147019557 0 -0.069231560399925007 0.0026091715265256468 0 -0.066886606571537277 0.0027897502074848051 0 -0.064395244384019182 0.0026960268330475903 0 -0.066250102758565604 0.0050795624374354838 0 -0.068177504737001973 -6.222486620979239e-05 0 -0.070467859575939915 0.00016812752181154177 0 -0.071855150518709165 0.00018629152897358704 0 -0.072388647595314035 0.00041799513613302271 0 -0.071855150518709165 0.00018629152897358704 0 -0.072451933920281805 0.00034264595223298255 0 -0.072388647595314035 0.00041799513613302271 0 -0.072706251647715672 0.00035125636298023602 0 -0.071855150518709165 0.00018629152897358704 0 -0.070467859575939915 0.00016812752181154177 0 -0.071855150518709165 0.00018629152897358704 0 -0.072451933920281805 0.00034264595223298255 0 -0.070467859575939915 0.00016812752181154177 0 -0.072451933920281805 0.00034264595223298255 0 -0.071967523371172487 0.0002731267631349882 0 -0.068177504737001973 -6.222486620979239e-05 0 -0.070467859575939915 0.00016812752181154177 0 -0.069165883883983995 4.2558493606669718e-06 0 -0.075046154332888165 0.00024225654579756436 0 -0.071967523371172487 0.0002731267631349882 0 -0.069165883883983995 4.2558493606669718e-06 0 -0.070467859575939915 0.00016812752181154177 0 -0.071967523371172487 0.0002731267631349882 0 -0.069165883883983995 4.2558493606669718e-06 0 -0.021713641011804084 -0.0010786963153051707 0 -0.022338375761449796 -0.0019250916442574888 0 -0.021468294688438239 -0.0029579532255528669 0 -0.031566607240334339 -0.0045094114839288003 0 -0.032643001645498722 -0.0057319187303306093 0 -0.022566257480938733 -0.0013038604570098453 0 -0.023802800908875394 -0.0013845072477801201 0 -0.022458011706164356 -0.0011183637626518386 0 -0.023802800908875394 -0.0013845072477801201 0 -0.025283284703608969 -0.00064489581434005756 0 -0.022458011706164356 -0.0011183637626518386 0 -0.022566257480938733 -0.0013038604570098453 0 -0.021713641011804084 -0.0010786963153051707 0 -0.022338375761449796 -0.0019250916442574888 0 -0.022566257480938733 -0.0013038604570098453 0 -0.021713641011804084 -0.0010786963153051707 0 -0.022458011706164356 -0.0011183637626518386 0 -0.022338375761449796 -0.0019250916442574888 0 -0.023133169982050245 -0.0027410723763261983 0 -0.021468294688438239 -0.0029579532255528669 0 -0.022338375761449796 -0.0019250916442574888 0 -0.023802800908875394 -0.0013845072477801201 0 -0.023133169982050245 -0.0027410723763261983 0 -0.022566257480938733 -0.0013038604570098453 0 -0.022338375761449796 -0.0019250916442574888 0 -0.023802800908875394 -0.0013845072477801201 0 -0.023802800908875394 -0.0013845072477801201 0 -0.024725992812696683 -0.0021225629819083013 0 -0.023133169982050245 -0.0027410723763261983 0 -0.023802800908875394 -0.0013845072477801201 0 -0.024725992812696683 -0.0021225629819083013 0 -0.02570830552598306 -0.001103913000275378 0 -0.024725992812696683 -0.0021225629819083013 0 -0.02570830552598306 -0.001103913000275378 0 -0.028573914116021382 -0.00084526582740918586 0 -0.023802800908875394 -0.0013845072477801201 0 -0.02570830552598306 -0.001103913000275378 0 -0.025283284703608969 -0.00064489581434005756 0 -0.02570830552598306 -0.001103913000275378 0 -0.028573914116021382 -0.00084526582740918586 0 -0.025283284703608969 -0.00064489581434005756 0 -0.029361582427085246 -2.5357369999135417e-06 0 -0.025283284703608969 -0.00064489581434005756 0 -0.023829441148111152 -2.6701184286292434e-06 0 -0.029361582427085246 -2.5357369999135417e-06 0 -0.028573914116021382 -0.00084526582740918586 0 -0.025283284703608969 -0.00064489581434005756 0 -0.025283284703608969 -0.00064489581434005756 0 -0.023829441148111152 -2.6701184286292434e-06 0 -0.022383179401154422 -0.0010487355873849999 0 -0.025283284703608969 -0.00064489581434005756 0 -0.022383179401154422 -0.0010487355873849999 0 -0.022458011706164356 -0.0011183637626518386 0 -0.022383179401154422 -0.0010487355873849999 0 -0.020535783733981589 -0.0020555807030578832 0 -0.019615761596273405 -0.0017629326692773957 0 -0.020535783733981589 -0.0020555807030578832 0 -0.0219989382322597 -0.0011127443418989557 0 -0.017842162888472544 -0.0043661304334325001 0 -0.022383179401154422 -0.0010487355873849999 0 -0.022458011706164356 -0.0011183637626518386 0 -0.020535783733981589 -0.0020555807030578832 0 -0.021713641011804084 -0.0010786963153051707 0 -0.022458011706164356 -0.0011183637626518386 0 -0.020535783733981589 -0.0020555807030578832 0 -0.021713641011804084 -0.0010786963153051707 0 -0.020535783733981589 -0.0020555807030578832 0 -0.0219989382322597 -0.0011127443418989557 0 -0.013664762699740648 -0.008464356846729533 0 -0.017010669539524775 -0.016018082152347141 0 -0.017842162888472544 -0.0043661304334325001 0 -0.025866320521826611 -0.0096499952010170222 0 -0.024918901612299645 -0.0078434746906742934 0 -0.013664762699740648 -0.008464356846729533 0 -0.013545538764743424 -0.013703962621439383 0 -0.011179103835997553 -0.013216449359512127 0 -0.013545538764743424 -0.013703962621439383 0 -0.011179103835997553 -0.013216449359512127 0 -0.01251113557034321 -0.016890783876012987 0 -0.013545538764743424 -0.013703962621439383 0 -0.017010669539524775 -0.016018082152347141 0 -0.01251113557034321 -0.016890783876012987 0 -0.013664762699740648 -0.008464356846729533 0 -0.013545538764743424 -0.013703962621439383 0 -0.017010669539524775 -0.016018082152347141 0 -0.013664762699740648 -0.008464356846729533 0 -0.011179103835997553 -0.013216449359512127 0 -0.0075823531418789877 -0.0098156660604799533 0 -0.011179103835997553 -0.013216449359512127 0 -0.0070923804148511462 -0.015917765873442541 0 -0.010022681715091002 -0.016346472942191211 0 -0.011179103835997553 -0.013216449359512127 0 -0.010022681715091002 -0.016346472942191211 0 -0.01251113557034321 -0.016890783876012987 0 -0.0070923804148511462 -0.015917765873442541 0 -0.0034316441173634533 -0.014628326260739687 0 -0.0075823531418789877 -0.0098156660604799533 0 -0.011179103835997553 -0.013216449359512127 0 -0.0070923804148511462 -0.015917765873442541 0 -0.0075823531418789877 -0.0098156660604799533 0 -0.0070923804148511462 -0.015917765873442541 0 -0.0094488384098339821 -0.019276719549961158 0 -0.0062768223438750635 -0.019875097564541814 0 -0.0094488384098339821 -0.019276719549961158 0 -0.01251113557034321 -0.016890783876012987 0 -0.012526605766061273 -0.020742403813329688 0 -0.0070923804148511462 -0.015917765873442541 0 -0.010022681715091002 -0.016346472942191211 0 -0.0094488384098339821 -0.019276719549961158 0 -0.010022681715091002 -0.016346472942191211 0 -0.0094488384098339821 -0.019276719549961158 0 -0.01251113557034321 -0.016890783876012987 0 -0.0094488384098339821 -0.019276719549961158 0 -0.012526605766061273 -0.020742403813329688 0 -0.0090940898420129208 -0.022907955987455594 0 -0.0062768223438750635 -0.019875097564541814 0 -0.0090940898420129208 -0.022907955987455594 0 -0.0046146905191584335 -0.023548938214065562 0 -0.0094488384098339821 -0.019276719549961158 0 -0.0062768223438750635 -0.019875097564541814 0 -0.0090940898420129208 -0.022907955987455594 0 -0.0219989382322597 -0.0011127443418989557 0 -0.021989129161855425 -0.0008874621702653887 0 -0.021934462541117732 -0.00089248997150949969 0 -0.021713641011804084 -0.0010786963153051707 0 -0.0219989382322597 -0.0011127443418989557 0 -0.021934462541117732 -0.00089248997150949969 0 -0.025866320521826611 -0.0096499952010170222 0 -0.029098163693445152 -0.01279560987672778 0 -0.017010669539524775 -0.016018082152347141 0 -0.012526605766061273 -0.020742403813329688 0 -0.015228142356704543 -0.024240768410049469 0 -0.017010669539524775 -0.016018082152347141 0 -0.01251113557034321 -0.016890783876012987 0 -0.012526605766061273 -0.020742403813329688 0 -0.015228142356704543 -0.024240768410049469 0 -0.0097444633587280751 -0.027316061966401031 0 -0.013898096522949493 -0.031866337598382866 0 -0.029098163693445152 -0.01279560987672778 0 -0.036317208740112052 -0.014395919400008186 0 -0.021989129161855425 -0.0008874621702653887 0 -0.022019129666503382 -0.00093216226852903435 0 -0.021934462541117732 -0.00089248997150949969 0 -0.012526605766061273 -0.020742403813329688 0 -0.015228142356704543 -0.024240768410049469 0 -0.011641152078835454 -0.023822392368403281 0 -0.015228142356704543 -0.024240768410049469 0 -0.011641152078835454 -0.023822392368403281 0 -0.0097444633587280751 -0.027316061966401031 0 -0.0090940898420129208 -0.022907955987455594 0 -0.0097444633587280751 -0.027316061966401031 0 -0.0046146905191584335 -0.023548938214065562 0 -0.012526605766061273 -0.020742403813329688 0 -0.011641152078835454 -0.023822392368403281 0 -0.0090940898420129208 -0.022907955987455594 0 -0.011641152078835454 -0.023822392368403281 0 -0.0090940898420129208 -0.022907955987455594 0 -0.0097444633587280751 -0.027316061966401031 0 -0.037269431128317231 -0.014770279631539701 0 -0.034020341014052699 -0.020683265393241768 0 -0.057587367076361799 -0.02361341830660646 0 -0.061292715537451227 -0.020831842248133316 0 -0.063214801538251791 -0.023657429196961267 0 -0.0097444633587280751 -0.027316061966401031 0 -0.01314158155519087 -0.032433833256216682 0 -0.0034846635482372948 -0.032042285855987652 0 -0.021989129161855425 -0.0008874621702653887 0 -0.022019129666503382 -0.00093216226852903435 0 -0.022003160262472704 -0.0009713152246226969 0 -0.036105710935816972 -0.009801989608670637 0 -0.036317208740112052 -0.014395919400008186 0 -0.036105710935816972 -0.009801989608670637 0 -0.038669199339570706 -0.010817379413675898 0 -0.0097444633587280751 -0.027316061966401031 0 -0.013898096522949493 -0.031866337598382866 0 -0.01314158155519087 -0.032433833256216682 0 -0.036317208740112052 -0.014395919400008186 0 -0.037269431128317231 -0.014770279631539701 0 -0.037534180119076825 -0.012543571592006031 0 -0.037239573998779273 -0.014475666233553291 0 -0.035062818484138093 -0.014441021877975194 0 -0.036317208740112052 -0.014395919400008186 0 -0.037131609172311765 -0.014315807569961985 0 -0.037131609172311765 -0.014315807569961985 0 -0.037269431128317231 -0.014770279631539701 0 -0.036822550079413534 -0.01293390255726958 0 -0.038309851783781081 -0.01179350796462527 0 -0.036958832863051697 -0.011514156917026799 0 -0.037131609172311765 -0.014315807569961985 0 -0.038669199339570706 -0.010817379413675898 0 -0.038309851783781081 -0.01179350796462527 0 -0.038348747360141822 -0.011538004426704933 0 -0.036958832863051697 -0.011514156917026799 0 -0.04236581106267652 -0.0018635425347573557 0 -0.039982718327179145 -0.0018446000441048518 0 -0.041391835513454246 -0.00047504257234221177 0 -0.038669199339570706 -0.010817379413675898 0 -0.036504563067539089 -0.0049680128699944384 0 -0.031059072065531337 -0.00051090354279612743 0 -0.031562014562124451 -0.00055408592245691517 0 -0.031346982919682999 -0.00025645182131360495 0 -0.031106641291234204 -0.0002650233184206653 0 -0.031059072065531337 -0.00051090354279612743 0 -0.031346982919682999 -0.00025645182131360495 0 -0.036105710935816972 -0.009801989608670637 0 -0.032643001645498722 -0.0057319187303306093 0 -0.036105710935816972 -0.009801989608670637 0 -0.033744246398875112 -0.0084052487905353634 0 -0.020987443880316845 -0.007170756291752475 0 -0.023853657867366582 -0.0050121230426765258 0 -0.021468294688438239 -0.0029579532255528669 0 -0.031106641291234204 -0.0002650233184206653 0 -0.031346982919682999 -0.00025645182131360495 0 -0.031369317227234711 -0.00010807937504892752 0 -0.031346982919682999 -0.00025645182131360495 0 -0.031369317227234711 -0.00010807937504892752 0 -0.031518425818605034 8.9685589112052495e-05 0 -0.024725992812696683 -0.0021225629819083013 0 -0.023853657867366582 -0.0050121230426765258 0 -0.023133169982050245 -0.0027410723763261983 0 -0.023853657867366582 -0.0050121230426765258 0 -0.023133169982050245 -0.0027410723763261983 0 -0.021468294688438239 -0.0029579532255528669 0 -0.029361582427085246 -2.5357369999135417e-06 0 -0.031518425818605034 8.9685589112052495e-05 0 -0.034884804886580516 -9.2823237470693082e-07 0 -0.029361582427085246 -2.5357369999135417e-06 0 -0.028573914116021382 -0.00084526582740918586 0 -0.031518425818605034 8.9685589112052495e-05 0 -0.028573914116021382 -0.00084526582740918586 0 -0.031369317227234711 -0.00010807937504892752 0 -0.031518425818605034 8.9685589112052495e-05 0 -0.033288525207644332 -0.0077225521306429103 0 -0.033744246398875112 -0.0084052487905353634 0 -0.024725992812696683 -0.0021225629819083013 0 -0.028573914116021382 -0.00084526582740918586 0 -0.023853657867366582 -0.0050121230426765258 0 -0.036504563067539089 -0.0049680128699944384 0 -0.034893914257290388 -1.4618118814017757e-05 0 -0.031562014562124451 -0.00055408592245691517 0 -0.031518425818605034 8.9685589112052495e-05 0 -0.034884804886580516 -9.2823237470693082e-07 0 -0.031562014562124451 -0.00055408592245691517 0 -0.031346982919682999 -0.00025645182131360495 0 -0.031518425818605034 8.9685589112052495e-05 0 -0.039982718327179145 -0.0018446000441048518 0 -0.034898907559423389 -5.8226745848842002e-06 0 -0.039882988292990612 0.00011015618030601557 0 -0.034898907559423389 -5.8226745848842002e-06 0 -0.039882988292990612 0.00011015618030601557 0 -0.039346204776339898 2.6149594111695643e-06 0 -0.04236581106267652 -0.0018635425347573557 0 -0.041391835513454246 -0.00047504257234221177 0 -0.042697452654384384 0.000517517474294126 0 -0.039982718327179145 -0.0018446000441048518 0 -0.039882988292990612 0.00011015618030601557 0 -0.041391835513454246 -0.00047504257234221177 0 -0.039882988292990612 0.00011015618030601557 0 -0.041391835513454246 -0.00047504257234221177 0 -0.04176492898732509 0.0004489213335790463 0 -0.041391835513454246 -0.00047504257234221177 0 -0.04176492898732509 0.0004489213335790463 0 -0.042697452654384384 0.000517517474294126 0 -0.039882988292990612 0.00011015618030601557 0 -0.04176492898732509 0.0004489213335790463 0 -0.04188699685947353 0.00055588342406711006 0 -0.04176492898732509 0.0004489213335790463 0 -0.042755926353550112 0.00079270858281841152 0 -0.042697452654384384 0.000517517474294126 0 -0.04176492898732509 0.0004489213335790463 0 -0.042755926353550112 0.00079270858281841152 0 -0.04188699685947353 0.00055588342406711006 0 -0.039346204776339898 2.6149594111695643e-06 0 -0.04188699685947353 0.00055588342406711006 0 -0.043801336923311521 8.0580865258536459e-07 0 -0.039882988292990612 0.00011015618030601557 0 -0.039346204776339898 2.6149594111695643e-06 0 -0.04188699685947353 0.00055588342406711006 0 -0.04188699685947353 0.00055588342406711006 0 -0.043801336923311521 8.0580865258536459e-07 0 -0.044405411211519655 0.00061673090249585887 0 -0.042755926353550112 0.00079270858281841152 0 -0.044405411211519655 0.00061673090249585887 0 -0.043343939388976502 0.00088903001159480321 0 -0.042755926353550112 0.00079270858281841152 0 -0.04188699685947353 0.00055588342406711006 0 -0.044405411211519655 0.00061673090249585887 0 -0.046783065627417492 4.2735269312690506e-05 0 -0.044937467945641199 4.7898089627070044e-06 0 -0.044405411211519655 0.00061673090249585887 0 -0.044937467945641199 4.7898089627070044e-06 0 -0.044405411211519655 0.00061673090249585887 0 -0.043343939388976502 0.00088903001159480321 0 -0.048254928637054731 1.8544184840341927e-06 0 -0.043801336923311521 8.0580865258536459e-07 0 -0.044405411211519655 0.00061673090249585887 0 -0.048254928637054731 1.8544184840341927e-06 0 -0.046783065627417492 4.2735269312690506e-05 0 -0.044405411211519655 0.00061673090249585887 0 -0.061862201486861827 -0.0071616539874929464 0 -0.059868817798948717 -0.011624717452386605 0 -0.063250491844693515 -0.011716553452239922 0 -0.059868817798948717 -0.011624717452386605 0 -0.061280755241643586 -0.015056636187498531 0 -0.063250491844693515 -0.011716553452239922 0 -0.051921547025225362 -0.0043615544540800775 0 -0.04877612760448146 -0.0064101874855568633 0 -0.057650033824946691 -0.0091567354418294038 0 -0.059868817798948717 -0.011624717452386605 0 -0.057189214369133129 -0.013891547519082274 0 -0.04389331181151894 -8.7138388838434844e-05 0 -0.044937467945641199 4.7898089627070044e-06 0 -0.043343939388976502 0.00088903001159480321 0 -0.059868817798948717 -0.011624717452386605 0 -0.057189214369133129 -0.013891547519082274 0 -0.061280755241643586 -0.015056636187498531 0 -0.057189214369133129 -0.013891547519082274 0 -0.061280755241643586 -0.015056636187498531 0 -0.058939447152733443 -0.016991027192360553 0 -0.061280755241643586 -0.015056636187498531 0 -0.061035831734538609 -0.018130149993293834 0 -0.058939447152733443 -0.016991027192360553 0 -0.061035831734538609 -0.018130149993293834 0 -0.058939447152733443 -0.016991027192360553 0 -0.058554194343248933 -0.019031151423390305 0 -0.057189214369133129 -0.013891547519082274 0 -0.058939447152733443 -0.016991027192360553 0 -0.056731246302175339 -0.018555693550667246 0 -0.042755926353550112 0.00079270858281841152 0 -0.043343939388976502 0.00088903001159480321 0 -0.042697452654384384 0.000517517474294126 0 -0.04877612760448146 -0.0064101874855568633 0 -0.044891228423561705 -0.0086642738988472849 0 -0.058939447152733443 -0.016991027192360553 0 -0.058554194343248933 -0.019031151423390305 0 -0.056731246302175339 -0.018555693550667246 0 -0.057836954864469339 -0.023319757576000896 0 -0.058193279733911023 -0.023326310127884255 0 -0.058554194343248933 -0.019031151423390305 0 -0.037131609172311765 -0.014315807569961985 0 -0.040455436952548517 -0.016231085186294094 0 -0.056256043826857394 -0.023008678987232436 0 -0.058554194343248933 -0.019031151423390305 0 -0.056731246302175339 -0.018555693550667246 0 -0.057857272233391058 -0.023033142643257259 0 -0.056256043826857394 -0.023008678987232436 0 -0.058554194343248933 -0.019031151423390305 0 -0.038669199339570706 -0.010817379413675898 0 -0.044891228423561705 -0.0086642738988472849 0 -0.037269431128317231 -0.014770279631539701 0 -0.050150227708849179 -0.013289589618898142 0 -0.058193279733911023 -0.023326310127884255 0 -0.058554194343248933 -0.019031151423390305 0 -0.061584035189280094 -0.020784034031528054 0 -0.061035831734538609 -0.018130149993293834 0 -0.058554194343248933 -0.019031151423390305 0 -0.061584035189280094 -0.020784034031528054 0 -0.050150227708849179 -0.013289589618898142 0 -0.054057260511834675 -0.012798684145352728 0 -0.061292715537451227 -0.020831842248133316 0 -0.065385741648775197 -0.021167838295132708 0 -0.063214801538251791 -0.023657429196961267 0 -0.061292715537451227 -0.020831842248133316 0 -0.065385741648775197 -0.021167838295132708 0 -0.064938470259441716 -0.018271814121166994 0 -0.065385741648775197 -0.021167838295132708 0 -0.064938470259441716 -0.018271814121166994 0 -0.068722905973948714 -0.019510880445645695 0 -0.065385741648775197 -0.021167838295132708 0 -0.068722905973948714 -0.019510880445645695 0 -0.068546272832379809 -0.023559682037878876 0 -0.064938470259441716 -0.018271814121166994 0 -0.068645137678085055 -0.01515947565656706 0 -0.068722905973948714 -0.019510880445645695 0 -0.061035831734538609 -0.018130149993293834 0 -0.061584035189280094 -0.020784034031528054 0 -0.064938470259441716 -0.018271814121166994 0 -0.061280755241643586 -0.015056636187498531 0 -0.061035831734538609 -0.018130149993293834 0 -0.064938470259441716 -0.018271814121166994 0 -0.061280755241643586 -0.015056636187498531 0 -0.064938470259441716 -0.018271814121166994 0 -0.064787143461702987 -0.014726212297269625 0 -0.061280755241643586 -0.015056636187498531 0 -0.064787143461702987 -0.014726212297269625 0 -0.063250491844693515 -0.011716553452239922 0 -0.064938470259441716 -0.018271814121166994 0 -0.064787143461702987 -0.014726212297269625 0 -0.068645137678085055 -0.01515947565656706 0 -0.064787143461702987 -0.014726212297269625 0 -0.068645137678085055 -0.01515947565656706 0 -0.066346600871335981 -0.012269208452838912 0 -0.065615559152876188 -0.0084179121460001421 0 -0.066346600871335981 -0.012269208452838912 0 -0.068715974807495514 -0.010118447692184616 0 -0.068645137678085055 -0.01515947565656706 0 -0.066346600871335981 -0.012269208452838912 0 -0.068715974807495514 -0.010118447692184616 0 -0.065615559152876188 -0.0084179121460001421 0 -0.066346600871335981 -0.012269208452838912 0 -0.063250491844693515 -0.011716553452239922 0 -0.064787143461702987 -0.014726212297269625 0 -0.066346600871335981 -0.012269208452838912 0 -0.063250491844693515 -0.011716553452239922 0 -0.074580128389448913 -0.012026721476320671 0 -0.071273018410806452 -0.012388518606604136 0 -0.07286151935045207 -0.014900181766057423 0 -0.072408888798284901 -0.0096559719302640803 0 -0.074580128389448913 -0.012026721476320671 0 -0.071273018410806452 -0.012388518606604136 0 -0.07569989733226587 -0.0095708195301163115 0 -0.072408888798284901 -0.0096559719302640803 0 -0.074580128389448913 -0.012026721476320671 0 -0.072408888798284901 -0.0096559719302640803 0 -0.068715974807495514 -0.010118447692184616 0 -0.071273018410806452 -0.012388518606604136 0 -0.068645137678085055 -0.01515947565656706 0 -0.068715974807495514 -0.010118447692184616 0 -0.071273018410806452 -0.012388518606604136 0 -0.068645137678085055 -0.01515947565656706 0 -0.07286151935045207 -0.014900181766057423 0 -0.072226516360310244 -0.017988317546973432 0 -0.068645137678085055 -0.01515947565656706 0 -0.071273018410806452 -0.012388518606604136 0 -0.07286151935045207 -0.014900181766057423 0 -0.07286151935045207 -0.014900181766057423 0 -0.074678125944315374 -0.016543871855767573 0 -0.076510972244322295 -0.013975665429072132 0 -0.074580128389448913 -0.012026721476320671 0 -0.07286151935045207 -0.014900181766057423 0 -0.076510972244322295 -0.013975665429072132 0 -0.07286151935045207 -0.014900181766057423 0 -0.074678125944315374 -0.016543871855767573 0 -0.072226516360310244 -0.017988317546973432 0 -0.074678125944315374 -0.016543871855767573 0 -0.072226516360310244 -0.017988317546973432 0 -0.075745114584877204 -0.018339569012333034 0 -0.072226516360310244 -0.017988317546973432 0 -0.075069615218547825 -0.020705176080210715 0 -0.075745114584877204 -0.018339569012333034 0 -0.068645137678085055 -0.01515947565656706 0 -0.072226516360310244 -0.017988317546973432 0 -0.068722905973948714 -0.019510880445645695 0 -0.068722905973948714 -0.019510880445645695 0 -0.071664755361383031 -0.021020266048706927 0 -0.068546272832379809 -0.023559682037878876 0 -0.072226516360310244 -0.017988317546973432 0 -0.068722905973948714 -0.019510880445645695 0 -0.071664755361383031 -0.021020266048706927 0 -0.072226516360310244 -0.017988317546973432 0 -0.071664755361383031 -0.021020266048706927 0 -0.075069615218547825 -0.020705176080210715 0 -0.071664755361383031 -0.021020266048706927 0 -0.073576524083053457 -0.023360730198678348 0 -0.075069615218547825 -0.020705176080210715 0 0.012627184638024687 -0.029886474896554414 0 0.010121509836461462 -0.025782152945092045 0 0.01523607727935466 -0.025873607041678365 0 0.010121509836461462 -0.025782152945092045 0 0.01414401532205584 -0.022370705164802437 0 0.010648341802624407 -0.021874859049073294 0 0.010121509836461462 -0.025782152945092045 0 0.01414401532205584 -0.022370705164802437 0 0.01523607727935466 -0.025873607041678365 0 0.010121509836461462 -0.025782152945092045 0 0.0046038631673197212 -0.026198891262771994 0 0.0068284382880693904 -0.022911848263615663 0 0.010121509836461462 -0.025782152945092045 0 0.0054694712190169288 -0.031073678299846079 0 0.0046038631673197212 -0.026198891262771994 0 0.010121509836461462 -0.025782152945092045 0 0.010648341802624407 -0.021874859049073294 0 0.0068284382880693904 -0.022911848263615663 0 0.012627184638024687 -0.029886474896554414 0 0.010121509836461462 -0.025782152945092045 0 0.0054694712190169288 -0.031073678299846079 0 -0.030977101402858719 -0.022025024633711539 0 -0.032135833847155265 -0.022646248467157654 0 -0.071664755361383031 -0.021020266048706927 0 -0.073576524083053457 -0.023360730198678348 0 -0.068546272832379809 -0.023559682037878876 0 -0.032135833847155265 -0.022646248467157654 0 -0.034020341014052699 -0.020683265393241768 0 0.0054694712190169288 -0.031073678299846079 0 -0.00093968298010790169 -0.027319437650440138 0 0.0046038631673197212 -0.026198891262771994 0 -0.065385741648775197 -0.021167838295132708 0 -0.068546272832379809 -0.023559682037878876 0 -0.063214801538251791 -0.023657429196961267 0 0.0054694712190169288 -0.031073678299846079 0 -0.0034846635482372948 -0.032042285855987652 0 -0.00093968298010790169 -0.027319437650440138 0 -0.0097444633587280751 -0.027316061966401031 0 -0.0034846635482372948 -0.032042285855987652 0 -0.00093968298010790169 -0.027319437650440138 0 -0.0097444633587280751 -0.027316061966401031 0 -0.00093968298010790169 -0.027319437650440138 0 -0.0046146905191584335 -0.023548938214065562 0 -0.00093968298010790169 -0.027319437650440138 0 -0.0046146905191584335 -0.023548938214065562 0 0.0014824985931823265 -0.022783327473089497 0 -0.00093968298010790169 -0.027319437650440138 0 0.0046038631673197212 -0.026198891262771994 0 0.0014824985931823265 -0.022783327473089497 0 0.0046038631673197212 -0.026198891262771994 0 0.0014824985931823265 -0.022783327473089497 0 0.0068284382880693904 -0.022911848263615663 0 0.0014824985931823265 -0.022783327473089497 0 0.0046119550216714104 -0.020364748025671446 0 0.0068284382880693904 -0.022911848263615663 0 0.0014824985931823265 -0.022783327473089497 0 0.0016390585146700473 -0.019313979435904783 0 -0.002459513863818433 -0.018838064685121579 0 0.0014824985931823265 -0.022783327473089497 0 0.0016390585146700473 -0.019313979435904783 0 0.0046119550216714104 -0.020364748025671446 0 0.0016390585146700473 -0.019313979435904783 0 0.0046119550216714104 -0.020364748025671446 0 0.0042054412539647571 -0.01735621727932243 0 -0.0046146905191584335 -0.023548938214065562 0 0.0014824985931823265 -0.022783327473089497 0 -0.002459513863818433 -0.018838064685121579 0 -0.0062768223438750635 -0.019875097564541814 0 -0.0046146905191584335 -0.023548938214065562 0 -0.002459513863818433 -0.018838064685121579 0 0.0016390585146700473 -0.019313979435904783 0 -0.002459513863818433 -0.018838064685121579 0 0.00029492457553812325 -0.015617981080753822 0 -0.0070923804148511462 -0.015917765873442541 0 -0.0062768223438750635 -0.019875097564541814 0 -0.002459513863818433 -0.018838064685121579 0 -0.0034316441173634533 -0.014628326260739687 0 -0.0018009679750234091 -0.010971459598113794 0 -0.0075823531418789877 -0.0098156660604799533 0 -0.0070923804148511462 -0.015917765873442541 0 -0.002459513863818433 -0.018838064685121579 0 -0.0034316441173634533 -0.014628326260739687 0 -0.002459513863818433 -0.018838064685121579 0 -0.0034316441173634533 -0.014628326260739687 0 0.00029492457553812325 -0.015617981080753822 0 -0.0034316441173634533 -0.014628326260739687 0 0.00029492457553812325 -0.015617981080753822 0 -0.0018009679750234091 -0.010971459598113794 0 0.0042054412539647571 -0.01735621727932243 0 0.00029492457553812325 -0.015617981080753822 0 0.003637036421948433 -0.012917909805670737 0 0.0016390585146700473 -0.019313979435904783 0 0.0042054412539647571 -0.01735621727932243 0 0.00029492457553812325 -0.015617981080753822 0 0.00029492457553812325 -0.015617981080753822 0 0.003637036421948433 -0.012917909805670737 0 -0.0018009679750234091 -0.010971459598113794 0 0.0042054412539647571 -0.01735621727932243 0 0.003637036421948433 -0.012917909805670737 0 0.0070521496286457845 -0.016665988739559979 0 0.01115291368013808 -0.01666621755592124 0 0.01283422782126316 -0.019160513268803969 0 0.0088046430444992038 -0.019421364142566778 0 0.003637036421948433 -0.012917909805670737 0 0.0070521496286457845 -0.016665988739559979 0 0.01115291368013808 -0.01666621755592124 0 0.0070521496286457845 -0.016665988739559979 0 0.01115291368013808 -0.01666621755592124 0 0.0088046430444992038 -0.019421364142566778 0 0.0042054412539647571 -0.01735621727932243 0 0.0070521496286457845 -0.016665988739559979 0 0.0088046430444992038 -0.019421364142566778 0 0.01115291368013808 -0.01666621755592124 0 0.01283422782126316 -0.019160513268803969 0 0.01482447788882567 -0.016336721573186937 0 0.01115291368013808 -0.01666621755592124 0 0.01482447788882567 -0.016336721573186937 0 0.011792702798942007 -0.016941375844165177 0 0.01283422782126316 -0.019160513268803969 0 0.010648341802624407 -0.021874859049073294 0 0.0088046430444992038 -0.019421364142566778 0 0.01283422782126316 -0.019160513268803969 0 0.01414401532205584 -0.022370705164802437 0 0.010648341802624407 -0.021874859049073294 0 0.010648341802624407 -0.021874859049073294 0 0.0068284382880693904 -0.022911848263615663 0 0.0088046430444992038 -0.019421364142566778 0 0.0046119550216714104 -0.020364748025671446 0 0.0068284382880693904 -0.022911848263615663 0 0.0088046430444992038 -0.019421364142566778 0 0.0046119550216714104 -0.020364748025671446 0 0.0042054412539647571 -0.01735621727932243 0 0.0088046430444992038 -0.019421364142566778 0 0.021132713621295665 -0.020447710940756814 0 0.018784048120816941 -0.022980813648658345 0 0.016880587121736571 -0.019716172082047435 0 0.021132713621295665 -0.020447710940756814 0 0.018784048120816941 -0.022980813648658345 0 0.021942391949255284 -0.022974148019212024 0 0.01283422782126316 -0.019160513268803969 0 0.01414401532205584 -0.022370705164802437 0 0.016880587121736571 -0.019716172082047435 0 0.01414401532205584 -0.022370705164802437 0 0.018784048120816941 -0.022980813648658345 0 0.016880587121736571 -0.019716172082047435 0 0.016880587121736571 -0.019716172082047435 0 0.01482447788882567 -0.016336721573186937 0 0.020116286116577245 -0.017078488943857696 0 0.017870130161182527 -0.018369780178486405 0 0.020168413909578284 -0.01876408708988446 0 0.01283422782126316 -0.019160513268803969 0 0.016880587121736571 -0.019716172082047435 0 0.01482447788882567 -0.016336721573186937 0 0.021132713621295665 -0.020447710940756814 0 0.016880587121736571 -0.019716172082047435 0 0.020116286116577245 -0.017078488943857696 0 0.020168413909578284 -0.01876408708988446 0 0.016653652610706796 -0.018077446257485811 0 0.021132713621295665 -0.020447710940756814 0 0.020116286116577245 -0.017078488943857696 0 0.025301880545892427 -0.018049486628944865 0 0.025916669199151331 -0.021483058787222377 0 0.029979822183602522 -0.021573367904372049 0 0.027703889734678699 -0.018453129068358942 0 0.030190580715966416 -0.019285728881710599 0 0.03008781100152047 -0.019360226378134133 0 0.030162109592869957 -0.019422791687427273 0 0.030190580715966416 -0.019285728881710599 0 0.030162109592869957 -0.019422791687427273 0 0.030644889308726376 -0.018930679859671239 0 0.030190580715966416 -0.019285728881710599 0 0.03008781100152047 -0.019360226378134133 0 0.03004315352012276 -0.019332751414096048 0 0.016653652610706796 -0.018077446257485811 0 0.017423593700148142 -0.018223735460625896 0 0.029763485067142395 -0.019783766520566265 0 0.030162109592869957 -0.019422791687427273 0 0.02965750707260266 -0.019500052458531994 0 0.016653652610706796 -0.018077446257485811 0 0.019766489415644146 -0.018587796389300571 0 0.02965750707260266 -0.019500052458531994 0 0.029408133416853475 -0.019210576645094526 0 0.030892258847812087 -0.019947770018066767 0 0.029763485067142395 -0.019783766520566265 0 0.02965750707260266 -0.019500052458531994 0 0.030161850214469106 -0.018658554596241359 0 0.016653652610706796 -0.018077446257485811 0 -0.00082428742124852786 -0.016623080346523825 0 0.02965750707260266 -0.019500052458531994 0 0.029408133416853475 -0.019210576645094526 0 0.030161850214469106 -0.018658554596241359 0 0.029408133416853475 -0.019210576645094526 0 0.026634540069820412 -0.01736699199670242 0 0.024217155652903083 -0.01882519458765488 0 0.021132713621295665 -0.020447710940756814 0 0.025301880545892427 -0.018049486628944865 0 0.023279842190807247 -0.021249799059564759 0 0.025301880545892427 -0.018049486628944865 0 0.023279842190807247 -0.021249799059564759 0 0.024740523308929806 -0.023522236949069256 0 0.023279842190807247 -0.021249799059564759 0 0.021942391949255284 -0.022974148019212024 0 0.024740523308929806 -0.023522236949069256 0 0.021132713621295665 -0.020447710940756814 0 0.023279842190807247 -0.021249799059564759 0 0.021942391949255284 -0.022974148019212024 0 -0.00082428742124852786 -0.016623080346523825 0 -0.031995898059822378 -0.011538164781368021 0 0.021942391949255284 -0.022974148019212024 0 0.024740523308929806 -0.023522236949069256 0 0.02153296117189224 -0.025963020236288593 0 0.024740523308929806 -0.023522236949069256 0 0.02153296117189224 -0.025963020236288593 0 0.024117481106311789 -0.028927937083684754 0 0.030161850214469106 -0.018658554596241359 0 0.028470147726236395 -0.013949800086305905 0 0.031385208313195793 -0.01019498215499651 0 0.026634540069820412 -0.01736699199670242 0 0.026754681273894399 -0.015627860946241686 0 0.024344590515902605 -0.015875053237581108 0 0.029408133416853475 -0.019210576645094526 0 0.026634540069820412 -0.01736699199670242 0 0.028345668362347531 -0.017283389726534024 0 0.026634540069820412 -0.01736699199670242 0 0.028345668362347531 -0.017283389726534024 0 0.026754681273894399 -0.015627860946241686 0 0.030161850214469106 -0.018658554596241359 0 0.028345668362347531 -0.017283389726534024 0 0.028470147726236395 -0.013949800086305905 0 0.029408133416853475 -0.019210576645094526 0 0.030161850214469106 -0.018658554596241359 0 0.028345668362347531 -0.017283389726534024 0 0.026754681273894399 -0.015627860946241686 0 0.024582762025900092 -0.012875483248543521 0 0.024344590515902605 -0.015875053237581108 0 0.028470147726236395 -0.013949800086305905 0 0.026754681273894399 -0.015627860946241686 0 0.024582762025900092 -0.012875483248543521 0 0.028345668362347531 -0.017283389726534024 0 0.028470147726236395 -0.013949800086305905 0 0.026754681273894399 -0.015627860946241686 0 -0.033973062928120537 -0.0080405211911075674 0 -0.027606959394349241 -0.0046993267342764723 0 0.028470147726236395 -0.013949800086305905 0 0.027190400034939475 -0.010267685495716748 0 0.024582762025900092 -0.012875483248543521 0 0.028470147726236395 -0.013949800086305905 0 0.027190400034939475 -0.010267685495716748 0 0.031385208313195793 -0.01019498215499651 0 -0.033973062928120537 -0.0080405211911075674 0 -0.056770856668892054 -0.010936112620875502 0 -0.033973062928120537 -0.0080405211911075674 0 -0.031995898059822378 -0.011538164781368021 0 -0.043286104103589372 -0.0027639252601785011 0 -0.047270307078362397 -0.002833813586396144 0 -0.047645397306742006 -0.0071417254079583657 0 -0.031995898059822378 -0.011538164781368021 0 -0.030552449938061738 -0.018825699496824409 0 -0.082293155198984835 -0.023006618548223459 0 -0.078160988183780963 -0.023106107116036226 0 -0.081422143071733163 -0.021098979008584307 0 0.02153296117189224 -0.025963020236288593 0 0.024117481106311789 -0.028927937083684754 0 0.0184875743484724 -0.029176774103323064 0 -0.031995898059822378 -0.011538164781368021 0 -0.056770856668892054 -0.010936112620875502 0 0.018784048120816941 -0.022980813648658345 0 0.02153296117189224 -0.025963020236288593 0 0.0184875743484724 -0.029176774103323064 0 0.018784048120816941 -0.022980813648658345 0 0.021942391949255284 -0.022974148019212024 0 0.02153296117189224 -0.025963020236288593 0 0.01414401532205584 -0.022370705164802437 0 0.018784048120816941 -0.022980813648658345 0 0.01523607727935466 -0.025873607041678365 0 0.018784048120816941 -0.022980813648658345 0 0.0184875743484724 -0.029176774103323064 0 0.01523607727935466 -0.025873607041678365 0 -0.030977101402858719 -0.022025024633711539 0 -0.030552449938061738 -0.018825699496824409 0 -0.073576524083053457 -0.023360730198678348 0 -0.078160988183780963 -0.023106107116036226 0 -0.075069615218547825 -0.020705176080210715 0 0.012627184638024687 -0.029886474896554414 0 0.0184875743484724 -0.029176774103323064 0 0.01523607727935466 -0.025873607041678365 0 -0.078160988183780963 -0.023106107116036226 0 -0.075069615218547825 -0.020705176080210715 0 -0.077786138219611681 -0.019834369965679399 0 -0.075069615218547825 -0.020705176080210715 0 -0.077786138219611681 -0.019834369965679399 0 -0.075745114584877204 -0.018339569012333034 0 -0.078160988183780963 -0.023106107116036226 0 -0.07938243016404975 -0.020677484151913346 0 -0.081422143071733163 -0.021098979008584307 0 -0.078160988183780963 -0.023106107116036226 0 -0.07938243016404975 -0.020677484151913346 0 -0.077786138219611681 -0.019834369965679399 0 -0.07938243016404975 -0.020677484151913346 0 -0.077786138219611681 -0.019834369965679399 0 -0.080147701440806379 -0.018682317423155344 0 -0.080147701440806379 -0.018682317423155344 0 -0.077506107150816697 -0.017671761126698046 0 -0.078144858207218601 -0.016492060025006243 0 -0.077786138219611681 -0.019834369965679399 0 -0.080147701440806379 -0.018682317423155344 0 -0.077506107150816697 -0.017671761126698046 0 -0.076137847863507399 -0.012532847590339046 0 -0.076226646011320079 -0.01216116317258667 0 -0.088899995853813474 -0.0022182636810408047 0 -0.088733375935796416 -0.0020144083237042991 0 -0.088943620876297383 -0.0019648810141861275 0 -0.070921740936977146 -0.013642968528877704 0 -0.076226646011320079 -0.01216116317258667 0 -0.077786138219611681 -0.019834369965679399 0 -0.075745114584877204 -0.018339569012333034 0 -0.077506107150816697 -0.017671761126698046 0 -0.077506107150816697 -0.017671761126698046 0 -0.076531661602731754 -0.016079319471143112 0 -0.078356365147248586 -0.016258089776247219 0 -0.075745114584877204 -0.018339569012333034 0 -0.077506107150816697 -0.017671761126698046 0 -0.076531661602731754 -0.016079319471143112 0 -0.074678125944315374 -0.016543871855767573 0 -0.075745114584877204 -0.018339569012333034 0 -0.076531661602731754 -0.016079319471143112 0 -0.074678125944315374 -0.016543871855767573 0 -0.076510972244322295 -0.013975665429072132 0 -0.076531661602731754 -0.016079319471143112 0 -0.076510972244322295 -0.013975665429072132 0 -0.079034660134843546 -0.016414383866695127 0 -0.07876810661792874 -0.013400327053923843 0 -0.076510972244322295 -0.013975665429072132 0 -0.076531661602731754 -0.016079319471143112 0 -0.078356365147248586 -0.016258089776247219 0 -0.076696116657666263 -0.012784911468433229 0 -0.076226646011320079 -0.01216116317258667 0 -0.088733375935796416 -0.0020144083237042991 0 -0.088943620876297383 -0.0019648810141861275 0 -0.089053434789896371 -0.0016848811189518859 0 -0.076226646011320079 -0.01216116317258667 0 -0.081867276940986111 -0.0073067941995294565 0 -0.079034660134843546 -0.016414383866695127 0 -0.07876810661792874 -0.013400327053923843 0 -0.081283285497864871 -0.012015138234703498 0 -0.07876810661792874 -0.013400327053923843 0 -0.081283285497864871 -0.012015138234703498 0 -0.078192993051279691 -0.011290225175885906 0 -0.080568984145192701 -0.0091175282129894123 0 -0.081283285497864871 -0.012015138234703498 0 -0.078192993051279691 -0.011290225175885906 0 -0.07569989733226587 -0.0095708195301163115 0 -0.074580128389448913 -0.012026721476320671 0 -0.078192993051279691 -0.011290225175885906 0 -0.074580128389448913 -0.012026721476320671 0 -0.076510972244322295 -0.013975665429072132 0 -0.078192993051279691 -0.011290225175885906 0 -0.076510972244322295 -0.013975665429072132 0 -0.07876810661792874 -0.013400327053923843 0 -0.078192993051279691 -0.011290225175885906 0 -0.088870811219885243 -0.00093666227451997966 0 -0.088534253495569051 -0.0015162649401166538 0 -0.087656741480761455 -0.00062770459558651021 0 -0.088870811219885243 -0.00093666227451997966 0 -0.088534253495569051 -0.0015162649401166538 0 -0.088891527787258451 -0.0014453782493476057 0 -0.088871833155101609 -0.0017037892394751039 0 -0.088534253495569051 -0.0015162649401166538 0 -0.088891527787258451 -0.0014453782493476057 0 -0.076306177632694761 -0.0029883800973243492 0 -0.072104576088636449 -0.0040275613154826979 0 -0.088871833155101609 -0.0017037892394751039 0 -0.088891527787258451 -0.0014453782493476057 0 -0.089170740520038705 -0.0016551364825284976 0 -0.084562190963706665 -0.0054024870041696716 0 -0.081867276940986111 -0.0073067941995294565 0 -0.088870811219885243 -0.00093666227451997966 0 -0.088891527787258451 -0.0014453782493476057 0 -0.089170740520038705 -0.0016551364825284976 0 -0.089196059789574442 -0.0017655333771370363 0 -0.089053434789896371 -0.0016848811189518859 0 -0.089170740520038705 -0.0016551364825284976 0 -0.088870811219885243 -0.00093666227451997966 0 -0.089170740520038705 -0.0016551364825284976 0 -0.089303005859314305 -0.00015243065333558662 0 -0.089053434789896371 -0.0016848811189518859 0 -0.089170740520038705 -0.0016551364825284976 0 -0.089091257805460039 -0.0019573974965000963 0 -0.088943620876297383 -0.0019648810141861275 0 -0.089053434789896371 -0.0016848811189518859 0 -0.089091257805460039 -0.0019573974965000963 0 -0.088870811219885243 -0.00093666227451997966 0 -0.088455860596486038 -2.9413821819400812e-05 0 -0.087656741480761455 -0.00062770459558651021 0 -0.088870811219885243 -0.00093666227451997966 0 -0.089303005859314305 -0.00015243065333558662 0 -0.088455860596486038 -2.9413821819400812e-05 0 -0.088455860596486038 -2.9413821819400812e-05 0 -0.088664103573765751 0.00073983401623868659 0 -0.087904434939089157 0.0010059873767764855 0 -0.089303005859314305 -0.00015243065333558662 0 -0.088455860596486038 -2.9413821819400812e-05 0 -0.088664103573765751 0.00073983401623868659 0 -0.089303005859314305 -0.00015243065333558662 0 -0.088664103573765751 0.00073983401623868659 0 -0.089091389660122186 0.0013006422547127709 0 -0.072104576088636449 -0.0040275613154826979 0 -0.056770856668892054 -0.010936112620875502 0 -0.088899995853813474 -0.0022182636810408047 0 -0.089091257805460039 -0.0019573974965000963 0 -0.089022320484238471 -0.0024467986615085554 0 -0.088899995853813474 -0.0022182636810408047 0 -0.088943620876297383 -0.0019648810141861275 0 -0.089091257805460039 -0.0019573974965000963 0 -0.080147701440806379 -0.018682317423155344 0 -0.082173832902649152 -0.020882691102120224 0 -0.081422143071733163 -0.021098979008584307 0 -0.070921740936977146 -0.013642968528877704 0 -0.056770856668892054 -0.010936112620875502 0 -0.07938243016404975 -0.020677484151913346 0 -0.080147701440806379 -0.018682317423155344 0 -0.081422143071733163 -0.021098979008584307 0 -0.082293155198984835 -0.023006618548223459 0 -0.082146829251223352 -0.020890661341713662 0 -0.081422143071733163 -0.021098979008584307 0 -0.056770856668892054 -0.010936112620875502 0 -0.057532853411961349 -0.01087626218483897 0 -0.074526491869487357 -0.0042119904459276625 0 -0.072124679744723821 -0.0018662764928650732 0 -0.076626314031073756 -0.00065033898644886289 0 -0.088664103573765751 0.00073983401623868659 0 -0.089091389660122186 0.0013006422547127709 0 -0.087904434939089157 0.0010059873767764855 0 -0.056770856668892054 -0.010936112620875502 0 -0.077447083708423681 -0.0032223321756430202 0 -0.087904434939089157 0.0010059873767764855 0 -0.086642671608407121 0.00080491578660971835 0 -0.087656741480761455 -0.00062770459558651021 0 -0.088455860596486038 -2.9413821819400812e-05 0 -0.087904434939089157 0.0010059873767764855 0 -0.087656741480761455 -0.00062770459558651021 0 -0.076626314031073756 -0.00065033898644886289 0 -0.080937353860435213 0.00033771836447278337 0 -0.079435706784181229 -0.0040933196297286336 0 -0.080937353860435213 0.00033771836447278337 0 -0.082548905444933499 -0.0017982451307529351 0 -0.079435706784181229 -0.0040933196297286336 0 -0.077447083708423681 -0.0032223321756430202 0 -0.082492956926468325 -0.00099765263908783573 0 -0.086642671608407121 0.00080491578660971835 0 -0.087656741480761455 -0.00062770459558651021 0 -0.086140683453396732 -0.00011245374861296151 0 -0.087656741480761455 -0.00062770459558651021 0 -0.086731489920146967 -0.00077813331744437479 0 -0.086140683453396732 -0.00011245374861296151 0 -0.086945090603657321 -0.0015757381874139098 0 -0.087656741480761455 -0.00062770459558651021 0 -0.086731489920146967 -0.00077813331744437479 0 -0.087400204739982071 -0.0018316164534411532 0 -0.087648497769036784 -0.0012299065539135943 0 -0.088068896322120421 -0.0017888405692721202 0 -0.087512802335556916 -0.0019213755459211589 0 -0.087656741480761455 -0.00062770459558651021 0 -0.088068896322120421 -0.0017888405692721202 0 -0.088534253495569051 -0.0015162649401166538 0 -0.087656741480761455 -0.00062770459558651021 0 -0.085778779813107289 -0.0012739604432690859 0 -0.085951428852917872 -0.00072741310409708587 0 -0.085021688329562126 -0.00054432378199866622 0 -0.085951428852917872 -0.00072741310409708587 0 -0.085276476871479934 -0.00016424094836349777 0 -0.085021688329562126 -0.00054432378199866622 0 -0.085036455608721515 -0.001335729345435902 0 -0.085778779813107289 -0.0012739604432690859 0 -0.085021688329562126 -0.00054432378199866622 0 -0.086945090603657321 -0.0015757381874139098 0 -0.086731489920146967 -0.00077813331744437479 0 -0.085951428852917872 -0.00072741310409708587 0 -0.085778779813107289 -0.0012739604432690859 0 -0.086945090603657321 -0.0015757381874139098 0 -0.085951428852917872 -0.00072741310409708587 0 -0.085951428852917872 -0.00072741310409708587 0 -0.086140683453396732 -0.00011245374861296151 0 -0.085276476871479934 -0.00016424094836349777 0 -0.086731489920146967 -0.00077813331744437479 0 -0.085951428852917872 -0.00072741310409708587 0 -0.086140683453396732 -0.00011245374861296151 0 -0.085276476871479934 -0.00016424094836349777 0 -0.084995091825821392 5.6444673305416219e-05 0 -0.085021688329562126 -0.00054432378199866622 0 -0.086140683453396732 -0.00011245374861296151 0 -0.085276476871479934 -0.00016424094836349777 0 -0.084874590416641124 0.00041244355387527168 0 -0.085276476871479934 -0.00016424094836349777 0 -0.084874590416641124 0.00041244355387527168 0 -0.084995091825821392 5.6444673305416219e-05 0 -0.084874590416641124 0.00041244355387527168 0 -0.084468274682411693 -0.00099391828035313751 0 -0.085343792463327531 7.3420364202686169e-05 0 -0.084874590416641124 0.00041244355387527168 0 -0.083642590983845619 -0.00078664118632412868 0 -0.084468274682411693 -0.00099391828035313751 0 -0.082492956926468325 -0.00099765263908783573 0 -0.083641076512719487 -0.00048367208769064835 0 -0.086642671608407121 0.00080491578660971835 0 -0.086140683453396732 -0.00011245374861296151 0 -0.084874590416641124 0.00041244355387527168 0 -0.080937353860435213 0.00033771836447278337 0 -0.084874590416641124 0.00041244355387527168 0 -0.083642590983845619 -0.00078664118632412868 0 -0.080937353860435213 0.00033771836447278337 0 -0.083642590983845619 -0.00078664118632412868 0 -0.082548905444933499 -0.0017982451307529351 0 -0.083642590983845619 -0.00078664118632412868 0 -0.082548905444933499 -0.0017982451307529351 0 -0.08378417462076751 -0.001999160203733634 0 -0.082548905444933499 -0.0017982451307529351 0 -0.08378417462076751 -0.001999160203733634 0 -0.083735733451572592 -0.0036651545510780741 0 -0.084468274682411693 -0.00099391828035313751 0 -0.084361769211789644 -0.0031281573601955582 0 -0.085343792463327531 7.3420364202686169e-05 0 -0.061851276770935715 -0.00078288612504376646 0 -0.073873949807168604 0.0027479288555911359 0 -0.084468274682411693 -0.00099391828035313751 0 -0.08378417462076751 -0.001999160203733634 0 -0.084361769211789644 -0.0031281573601955582 0 -0.061851276770935715 -0.00078288612504376646 0 -0.077252109420579487 0.0033657078551770012 0 -0.083642590983845619 -0.00078664118632412868 0 -0.084468274682411693 -0.00099391828035313751 0 -0.08378417462076751 -0.001999160203733634 0 -0.050650259223447097 -0.0047164145809541307 0 -0.041173216076845535 -0.0047189900594270286 0 0.0090273798474382466 -0.01077694028913082 0 0.0079066688773978058 -0.013704335998542864 0 0.0014204094728135206 -0.011151625299798613 0 -0.076570589235542261 0.00080047168386384769 0 -0.076368306347868634 0.00064926612907146653 0 -0.07755649324492811 0.00078034848914856252 0 -0.08378417462076751 -0.001999160203733634 0 -0.084361769211789644 -0.0031281573601955582 0 -0.083735733451572592 -0.0036651545510780741 0 -0.061851276770935715 -0.00078288612504376646 0 -0.050650259223447097 -0.0047164145809541307 0 0.0090273798474382466 -0.01077694028913082 0 0.0079066688773978058 -0.013704335998542864 0 0.010347277131766136 -0.011519243727931738 0 0.0079066688773978058 -0.013704335998542864 0 0.010637384485848264 -0.016083080920874744 0 0.0058937546019574337 -0.018884780354688921 0 0.0079066688773978058 -0.013704335998542864 0 0.0058937546019574337 -0.018884780354688921 0 0.0014204094728135206 -0.011151625299798613 0 0.010637384485848264 -0.016083080920874744 0 0.014871575006890051 -0.016354655578327933 0 0.012183473083413925 -0.019254914419320431 0 0.0079066688773978058 -0.013704335998542864 0 0.010637384485848264 -0.016083080920874744 0 0.010340899345211919 -0.013810070262068293 0 0.010637384485848264 -0.016083080920874744 0 0.010340899345211919 -0.013810070262068293 0 0.012458217159680112 -0.014230693291194732 0 0.010637384485848264 -0.016083080920874744 0 0.012458217159680112 -0.014230693291194732 0 0.014871575006890051 -0.016354655578327933 0 0.012458217159680112 -0.014230693291194732 0 0.015411554774144413 -0.0134847147260285 0 0.014871575006890051 -0.016354655578327933 0 -0.050650259223447097 -0.0047164145809541307 0 -0.034628124546958516 -0.0064952750004413909 0 0.008878213693030719 -0.010620269869906327 0 0.010347277131766136 -0.011519243727931738 0 0.017958291423264768 -0.010257567737371399 0 0.012458217159680112 -0.014230693291194732 0 0.010347277131766136 -0.011519243727931738 0 0.015411554774144413 -0.0134847147260285 0 -0.082548905444933499 -0.0017982451307529351 0 -0.083735733451572592 -0.0036651545510780741 0 -0.079435706784181229 -0.0040933196297286336 0 0.0079066688773978058 -0.013704335998542864 0 0.010340899345211919 -0.013810070262068293 0 0.010347277131766136 -0.011519243727931738 0 0.010340899345211919 -0.013810070262068293 0 0.012458217159680112 -0.014230693291194732 0 0.010347277131766136 -0.011519243727931738 0 -0.050650259223447097 -0.0047164145809541307 0 -0.048627224128391704 -0.0056759745548993941 0 0.010347277131766136 -0.011519243727931738 0 0.017958291423264768 -0.010257567737371399 0 0.015411554774144413 -0.0134847147260285 0 0.017958291423264768 -0.010257567737371399 0 0.020090359510355291 -0.015400624088815543 0 0.015411554774144413 -0.0134847147260285 0 -0.033973062928120537 -0.0080405211911075674 0 -0.034628124546958516 -0.0064952750004413909 0 0.027215885885289847 -0.010172444225069032 0 0.017958291423264768 -0.010257567737371399 0 0.024582762025900092 -0.012875483248543521 0 0.017958291423264768 -0.010257567737371399 0 0.024582762025900092 -0.012875483248543521 0 0.020090359510355291 -0.015400624088815543 0 -0.074526491869487357 -0.0042119904459276625 0 -0.076626314031073756 -0.00065033898644886289 0 -0.079435706784181229 -0.0040933196297286336 0 0.020090359510355291 -0.015400624088815543 0 0.017152339616357922 -0.01928845037536463 0 0.024217155652903083 -0.01882519458765488 0 0.024582762025900092 -0.012875483248543521 0 0.020090359510355291 -0.015400624088815543 0 0.024344590515902605 -0.015875053237581108 0 0.020090359510355291 -0.015400624088815543 0 0.024344590515902605 -0.015875053237581108 0 0.024217155652903083 -0.01882519458765488 0 0.026634540069820412 -0.01736699199670242 0 0.024344590515902605 -0.015875053237581108 0 0.024217155652903083 -0.01882519458765488 0 0.020090359510355291 -0.015400624088815543 0 0.015411554774144413 -0.0134847147260285 0 0.014871575006890051 -0.016354655578327933 0 0.020090359510355291 -0.015400624088815543 0 0.014871575006890051 -0.016354655578327933 0 0.017152339616357922 -0.01928845037536463 0 0.025170605045494593 -0.019552763899594084 0 0.02199810079551727 -0.019511872620593698 0 0.014871575006890051 -0.016354655578327933 0 0.017152339616357922 -0.01928845037536463 0 0.012183473083413925 -0.019254914419320431 0 0.017152339616357922 -0.01928845037536463 0 0.020223501674128133 -0.02176825059384711 0 0.012011367167630979 -0.023318390054964243 0 0.017152339616357922 -0.01928845037536463 0 0.020223501674128133 -0.02176825059384711 0 0.024217155652903083 -0.01882519458765488 0 0.027024184549962089 -0.019258888888268797 0 0.025170605045494593 -0.019552763899594084 0 0.030162109592869957 -0.019422791687427273 0 0.02965750707260266 -0.019500052458531994 0 0.030892258847812087 -0.019947770018066767 0 0.029408133416853475 -0.019210576645094526 0 0.020223501674128133 -0.02176825059384711 0 0.024217155652903083 -0.01882519458765488 0 0.030162109592869957 -0.019422791687427273 0 0.031283218501912222 -0.019010201968231499 0 0.030644889308726376 -0.018930679859671239 0 0.030162109592869957 -0.019422791687427273 0 0.030892258847812087 -0.019947770018066767 0 0.031283218501912222 -0.019010201968231499 0 0.030892258847812087 -0.019947770018066767 0 0.031283218501912222 -0.019010201968231499 0 0.032352317075447147 -0.019606290304629376 0 0.031283218501912222 -0.019010201968231499 0 0.032352317075447147 -0.019606290304629376 0 0.032212782615448604 -0.018603646197628328 0 0.02199810079551727 -0.019511872620593698 0 0.019009801863765698 -0.018299909065028642 0 0.032352317075447147 -0.019606290304629376 0 0.033141815823496519 -0.018493994699877968 0 0.033447789152067087 -0.019210314691344082 0 0.012011367167630979 -0.023318390054964243 0 0.0058937546019574337 -0.018884780354688921 0 0.0045968447196817943 -0.024838467497120643 0 0.010637384485848264 -0.016083080920874744 0 0.0058937546019574337 -0.018884780354688921 0 0.012183473083413925 -0.019254914419320431 0 0.012011367167630979 -0.023318390054964243 0 0.0058937546019574337 -0.018884780354688921 0 0.012183473083413925 -0.019254914419320431 0 0.017152339616357922 -0.01928845037536463 0 0.012011367167630979 -0.023318390054964243 0 0.012183473083413925 -0.019254914419320431 0 0.032728336964886535 -0.018036050653315365 0 0.032287154508185159 -0.017788609040702525 0 0.032212782615448604 -0.018603646197628328 0 0.032728336964886535 -0.018036050653315365 0 0.032287154508185159 -0.017788609040702525 0 0.032758202676425596 -0.017472700157993255 0 0.032728336964886535 -0.018036050653315365 0 0.033196307983310656 -0.017771508998957988 0 0.033141815823496519 -0.018493994699877968 0 0.032728336964886535 -0.018036050653315365 0 0.033196307983310656 -0.017771508998957988 0 0.032758202676425596 -0.017472700157993255 0 0.033196307983310656 -0.017771508998957988 0 0.033141815823496519 -0.018493994699877968 0 0.033683160884350374 -0.01795235234405133 0 0.032352317075447147 -0.019606290304629376 0 0.033141815823496519 -0.018493994699877968 0 0.032212782615448604 -0.018603646197628328 0 0.032728336964886535 -0.018036050653315365 0 0.033141815823496519 -0.018493994699877968 0 0.032212782615448604 -0.018603646197628328 0 0.031283218501912222 -0.019010201968231499 0 0.031166292902488436 -0.018437552482320776 0 0.031704573761230141 -0.018218140767742027 0 0.031283218501912222 -0.019010201968231499 0 0.032212782615448604 -0.018603646197628328 0 0.031704573761230141 -0.018218140767742027 0 0.031283218501912222 -0.019010201968231499 0 0.030644889308726376 -0.018930679859671239 0 0.031166292902488436 -0.018437552482320776 0 0.030644889308726376 -0.018930679859671239 0 0.031166292902488436 -0.018437552482320776 0 0.030752717885844161 -0.018145527600384341 0 0.031166292902488436 -0.018437552482320776 0 0.030752717885844161 -0.018145527600384341 0 0.031374327506220975 -0.017861905602589587 0 0.031166292902488436 -0.018437552482320776 0 0.031374327506220975 -0.017861905602589587 0 0.031704573761230141 -0.018218140767742027 0 0.031374327506220975 -0.017861905602589587 0 0.031895770819878898 -0.017561547559393008 0 0.031598489374766205 -0.017354924182601029 0 0.030752717885844161 -0.018145527600384341 0 0.031374327506220975 -0.017861905602589587 0 0.031009158895560714 -0.017427555143832249 0 0.032287154508185159 -0.017788609040702525 0 0.032212782615448604 -0.018603646197628328 0 0.031704573761230141 -0.018218140767742027 0 0.031374327506220975 -0.017861905602589587 0 0.031704573761230141 -0.018218140767742027 0 0.031895770819878898 -0.017561547559393008 0 0.032287154508185159 -0.017788609040702525 0 0.031704573761230141 -0.018218140767742027 0 0.031895770819878898 -0.017561547559393008 0 0.032287154508185159 -0.017788609040702525 0 0.031895770819878898 -0.017561547559393008 0 0.03233541209864934 -0.017222620678950175 0 0.031895770819878898 -0.017561547559393008 0 0.03233541209864934 -0.017222620678950175 0 0.032021725766538847 -0.017048372441067647 0 0.031895770819878898 -0.017561547559393008 0 0.032021725766538847 -0.017048372441067647 0 0.031598489374766205 -0.017354924182601029 0 0.03233541209864934 -0.017222620678950175 0 0.032021725766538847 -0.017048372441067647 0 0.032216916609708164 -0.016785464807748045 0 0.031009158895560714 -0.017427555143832249 0 0.031665113049967802 -0.017053609189227454 0 0.030797336065808093 -0.016865916986113227 0 0.031009158895560714 -0.017427555143832249 0 0.031598489374766205 -0.017354924182601029 0 0.031665113049967802 -0.017053609189227454 0 0.031374327506220975 -0.017861905602589587 0 0.031009158895560714 -0.017427555143832249 0 0.031598489374766205 -0.017354924182601029 0 0.032021725766538847 -0.017048372441067647 0 0.031598489374766205 -0.017354924182601029 0 0.031665113049967802 -0.017053609189227454 0 0.03324999133586809 -0.011973461459073799 0 0.03190335323543822 -0.013652921496421127 0 0.031665113049967802 -0.017053609189227454 0 0.03263585932318884 -0.016605380547492492 0 0.030797336065808093 -0.016865916986113227 0 0.03263585932318884 -0.016605380547492492 0 0.032445087435361619 -0.014385470526516427 0 0.030797336065808093 -0.016865916986113227 0 0.032021725766538847 -0.017048372441067647 0 0.031665113049967802 -0.017053609189227454 0 0.03263585932318884 -0.016605380547492492 0 0.035078607226537981 -0.017549269103082098 0 0.039928828589065102 -0.016937323913656231 0 0.036985777297152661 -0.013864729483627587 0 0.032021725766538847 -0.017048372441067647 0 0.03263585932318884 -0.016605380547492492 0 0.032216916609708164 -0.016785464807748045 0 0.036025842326446969 -0.011188323066644195 0 0.036274329201421568 -0.011047109508617804 0 0.03263585932318884 -0.016605380547492492 0 0.035078607226537981 -0.017549269103082098 0 0.034708030149410207 -0.01518545770241745 0 0.03233541209864934 -0.017222620678950175 0 0.032216916609708164 -0.016785464807748045 0 0.032787242906140525 -0.016932978774432651 0 0.036274329201421568 -0.011047109508617804 0 0.03892172041126242 -0.01040950139809489 0 0.036274329201421568 -0.011047109508617804 0 0.036432984861506798 -0.010706305382885074 0 0.03677263542942142 -0.0081764184837889494 0 0.038335444138872181 -0.007916246255545694 0 0.038590721083687482 -0.0086157463553573326 0 0.03233541209864934 -0.017222620678950175 0 0.032787242906140525 -0.016932978774432651 0 0.032758202676425596 -0.017472700157993255 0 0.032287154508185159 -0.017788609040702525 0 0.03233541209864934 -0.017222620678950175 0 0.032758202676425596 -0.017472700157993255 0 0.032787242906140525 -0.016932978774432651 0 0.033264788152439335 -0.017222073405305301 0 0.033774254150450662 -0.017084613101783028 0 0.036432984861506798 -0.010706305382885074 0 0.037484956495307226 -0.0092442241333754189 0 0.033196307983310656 -0.017771508998957988 0 0.033264788152439335 -0.017222073405305301 0 0.033613718471232061 -0.017542199630987583 0 0.033196307983310656 -0.017771508998957988 0 0.032758202676425596 -0.017472700157993255 0 0.033264788152439335 -0.017222073405305301 0 0.032787242906140525 -0.016932978774432651 0 0.032758202676425596 -0.017472700157993255 0 0.033264788152439335 -0.017222073405305301 0 0.038590721083687482 -0.0086157463553573326 0 0.039897427607529047 -0.0076597442742904727 0 0.040404882395902529 -0.0090546837829322008 0 0.038335444138872181 -0.007916246255545694 0 0.038590721083687482 -0.0086157463553573326 0 0.039897427607529047 -0.0076597442742904727 0 0.03892172041126242 -0.01040950139809489 0 0.04172836445599306 -0.0089037948900784723 0 0.039928828589065102 -0.016937323913656231 0 0.040743641714497625 -0.012961852879507938 0 0.043978119115992094 -0.016338727789720071 0 0.040743641714497625 -0.012961852879507938 0 0.043978119115992094 -0.016338727789720071 0 0.044819143031780785 -0.01333525475358617 0 0.039928828589065102 -0.016937323913656231 0 0.040743641714497625 -0.012961852879507938 0 0.036985777297152661 -0.013864729483627587 0 0.040743641714497625 -0.012961852879507938 0 0.036054439198385517 -0.010048905510500351 0 0.036985777297152661 -0.013864729483627587 0 0.040743641714497625 -0.012961852879507938 0 0.039951097165822465 -0.0090364682345591505 0 0.036054439198385517 -0.010048905510500351 0 0.040743641714497625 -0.012961852879507938 0 0.043148354568893182 -0.010626319902144162 0 0.039951097165822465 -0.0090364682345591505 0 0.040743641714497625 -0.012961852879507938 0 0.043148354568893182 -0.010626319902144162 0 0.044819143031780785 -0.01333525475358617 0 0.043148354568893182 -0.010626319902144162 0 0.039951097165822465 -0.0090364682345591505 0 0.042844216472498274 -0.0074607761460261024 0 0.039951097165822465 -0.0090364682345591505 0 0.036879482913096756 -0.007978573065010805 0 0.040370059218089629 -0.0061857630656474948 0 0.039951097165822465 -0.0090364682345591505 0 0.042844216472498274 -0.0074607761460261024 0 0.040370059218089629 -0.0061857630656474948 0 0.042844216472498274 -0.0074607761460261024 0 0.042902805272885244 -0.0052416456009042323 0 0.040370059218089629 -0.0061857630656474948 0 0.03485222699950849 -0.0072553284972944453 0 0.036879482913096756 -0.007978573065010805 0 0.037463398253243345 -0.0052878858245879743 0 0.036879482913096756 -0.007978573065010805 0 0.037463398253243345 -0.0052878858245879743 0 0.040370059218089629 -0.0061857630656474948 0 0.039951097165822465 -0.0090364682345591505 0 0.036879482913096756 -0.007978573065010805 0 0.036054439198385517 -0.010048905510500351 0 0.03485222699950849 -0.0072553284972944453 0 0.036879482913096756 -0.007978573065010805 0 0.034079555202460733 -0.0094379316501999183 0 0.036879482913096756 -0.007978573065010805 0 0.036054439198385517 -0.010048905510500351 0 0.034079555202460733 -0.0094379316501999183 0 0.034068486806721643 -0.010976473110207894 0 0.03324999133586809 -0.011973461459073799 0 0.036054439198385517 -0.010048905510500351 0 0.034038966753496679 -0.0098513364331764136 0 0.034079555202460733 -0.0094379316501999183 0 0.036054439198385517 -0.010048905510500351 0 0.036985777297152661 -0.013864729483627587 0 0.032445087435361619 -0.014385470526516427 0 0.036985777297152661 -0.013864729483627587 0 0.034708030149410207 -0.01518545770241745 0 0.032445087435361619 -0.014385470526516427 0 0.035078607226537981 -0.017549269103082098 0 0.036985777297152661 -0.013864729483627587 0 0.034708030149410207 -0.01518545770241745 0 0.03263585932318884 -0.016605380547492492 0 0.034708030149410207 -0.01518545770241745 0 0.032445087435361619 -0.014385470526516427 0 0.032883290930951985 -0.009508938665469778 0 0.032963725642157229 -0.0095006088370856844 0 0.030973280001539427 -0.0092711709735429707 0 0.034038966753496679 -0.0098513364331764136 0 0.032883290930951985 -0.009508938665469778 0 0.034079555202460733 -0.0094379316501999183 0 0.030512236406598781 -0.0021981308881925655 0 0.026630674612103639 -0.0072785279878305135 0 0.030973280001539427 -0.0092711709735429707 0 0.032001703174161941 -0.0062740814261821381 0 0.031791477575469337 -0.007902290702105394 0 0.032001703174161941 -0.0062740814261821381 0 0.032513492359714527 -0.00418776252638145 0 0.032963725642157229 -0.0095006088370856844 0 0.034079555202460733 -0.0094379316501999183 0 0.032913215462482909 -0.0081918277994686445 0 0.032883290930951985 -0.009508938665469778 0 0.032963725642157229 -0.0095006088370856844 0 0.034079555202460733 -0.0094379316501999183 0 0.03485222699950849 -0.0072553284972944453 0 0.034079555202460733 -0.0094379316501999183 0 0.032913215462482909 -0.0081918277994686445 0 0.02996561022205859 0.0011624722415843861 0 0.029820175449174497 0.0010082473055674402 0 0.027437962029914782 0.00081049854730147833 0 0.030512236406598781 -0.0021981308881925655 0 0.02996561022205859 0.0011624722415843861 0 0.027437962029914782 0.00081049854730147833 0 0.02996561022205859 0.0011624722415843861 0 0.029820175449174497 0.0010082473055674402 0 0.030554206218156344 -0.00021608819785406253 0 0.032513492359714527 -0.00418776252638145 0 0.033672529387329633 -0.0036743414220231619 0 0.02996561022205859 0.0011624722415843861 0 0.030554206218156344 -0.00021608819785406253 0 0.030332991803476463 -0.0003432974700159836 0 0.032913215462482909 -0.0081918277994686445 0 0.033790161010865481 -0.0066056152184653652 0 0.03275478484934792 -0.0052674493306673394 0 0.03485222699950849 -0.0072553284972944453 0 0.032913215462482909 -0.0081918277994686445 0 0.033790161010865481 -0.0066056152184653652 0 0.03485222699950849 -0.0072553284972944453 0 0.033790161010865481 -0.0066056152184653652 0 0.034682010291376922 -0.0055853261330561232 0 0.025881586765077111 0.001828740570485104 0 0.022344431757427639 0.0018618241778013535 0 0.028722338281935281 0.0019326135661829277 0 0.023834839857790002 0.002085656246285469 0 0.023967006235045399 0.0032297705297290092 0 0.028722338281935281 0.0019326135661829277 0 0.033351601252378509 0.0010414758591567965 0 0.03184675844383688 -0.00058220012114709567 0 0.028722338281935281 0.0019326135661829277 0 0.029820175449174497 0.0010082473055674402 0 0.030426046181248605 -4.085482752955512e-05 0 0.028722338281935281 0.0019326135661829277 0 0.029820175449174497 0.0010082473055674402 0 0.027437962029914782 0.00081049854730147833 0 0.027437962029914782 0.00081049854730147833 0 0.023834839857790002 0.002085656246285469 0 0.022296414312457619 -0.0013260357432372427 0 0.028722338281935281 0.0019326135661829277 0 0.027437962029914782 0.00081049854730147833 0 0.023834839857790002 0.002085656246285469 0 0.027437962029914782 0.00081049854730147833 0 0.022296414312457619 -0.0013260357432372427 0 0.025059335890239506 -0.0035596931675418585 0 0.030512236406598781 -0.0021981308881925655 0 0.027437962029914782 0.00081049854730147833 0 0.025059335890239506 -0.0035596931675418585 0 0.030512236406598781 -0.0021981308881925655 0 0.025059335890239506 -0.0035596931675418585 0 0.026630674612103639 -0.0072785279878305135 0 0.022296414312457619 -0.0013260357432372427 0 0.025059335890239506 -0.0035596931675418585 0 0.019690796862023716 -0.0046112164889740752 0 0.025059335890239506 -0.0035596931675418585 0 0.022209556987471332 -0.0075459923541490864 0 0.019690796862023716 -0.0046112164889740752 0 0.022209556987471332 -0.0075459923541490864 0 0.019737634196808608 -0.010917370647218948 0 0.017697916416360909 -0.0078980441935019349 0 0.022209556987471332 -0.0075459923541490864 0 0.017697916416360909 -0.0078980441935019349 0 0.019690796862023716 -0.0046112164889740752 0 0.022209556987471332 -0.0075459923541490864 0 0.019737634196808608 -0.010917370647218948 0 0.024347966150043227 -0.010908105963912994 0 0.019737634196808608 -0.010917370647218948 0 0.024347966150043227 -0.010908105963912994 0 0.022613561079709375 -0.014554345269977129 0 0.024347966150043227 -0.010908105963912994 0 0.026630674612103639 -0.0072785279878305135 0 0.028195126243480147 -0.011526881784171912 0 0.024347966150043227 -0.010908105963912994 0 0.028195126243480147 -0.011526881784171912 0 0.026347614664520937 -0.01451033394973077 0 0.022209556987471332 -0.0075459923541490864 0 0.024347966150043227 -0.010908105963912994 0 0.026630674612103639 -0.0072785279878305135 0 0.025059335890239506 -0.0035596931675418585 0 0.022209556987471332 -0.0075459923541490864 0 0.026630674612103639 -0.0072785279878305135 0 0.026630674612103639 -0.0072785279878305135 0 0.030973280001539427 -0.0092711709735429707 0 0.028195126243480147 -0.011526881784171912 0 0.032883290930951985 -0.009508938665469778 0 0.030973280001539427 -0.0092711709735429707 0 0.032990328611781722 -0.0099177067698901101 0 0.034038966753496679 -0.0098513364331764136 0 0.032883290930951985 -0.009508938665469778 0 0.032990328611781722 -0.0099177067698901101 0 0.030973280001539427 -0.0092711709735429707 0 0.032990328611781722 -0.0099177067698901101 0 0.030980834727452167 -0.01341715974906779 0 0.031009158895560714 -0.017427555143832249 0 0.030797336065808093 -0.016865916986113227 0 0.029810198023738299 -0.017366102358911006 0 0.03190335323543822 -0.013652921496421127 0 0.030453908013797045 -0.015598814561058421 0 0.030973280001539427 -0.0092711709735429707 0 0.028195126243480147 -0.011526881784171912 0 0.030980834727452167 -0.01341715974906779 0 0.028195126243480147 -0.011526881784171912 0 0.030980834727452167 -0.01341715974906779 0 0.026347614664520937 -0.01451033394973077 0 0.030453908013797045 -0.015598814561058421 0 0.029538088573774494 -0.01687885925921968 0 0.029810198023738299 -0.017366102358911006 0 0.029878801586406961 -0.018274583491814152 0 0.027703889734678699 -0.018453129068358942 0 0.030980834727452167 -0.01341715974906779 0 0.027703889734678699 -0.018453129068358942 0 0.026347614664520937 -0.01451033394973077 0 0.030752717885844161 -0.018145527600384341 0 0.031009158895560714 -0.017427555143832249 0 0.029810198023738299 -0.017366102358911006 0 0.030752717885844161 -0.018145527600384341 0 0.029810198023738299 -0.017366102358911006 0 0.029878801586406961 -0.018274583491814152 0 0.030752717885844161 -0.018145527600384341 0 0.030383501020961507 -0.018732335622522557 0 0.029878801586406961 -0.018274583491814152 0 0.030644889308726376 -0.018930679859671239 0 0.030752717885844161 -0.018145527600384341 0 0.030383501020961507 -0.018732335622522557 0 0.030383501020961507 -0.018732335622522557 0 0.029878801586406961 -0.018274583491814152 0 0.03004315352012276 -0.019332751414096048 0 0.030190580715966416 -0.019285728881710599 0 0.030383501020961507 -0.018732335622522557 0 0.03004315352012276 -0.019332751414096048 0 0.030190580715966416 -0.019285728881710599 0 0.030644889308726376 -0.018930679859671239 0 0.030383501020961507 -0.018732335622522557 0 0.029878801586406961 -0.018274583491814152 0 0.03004315352012276 -0.019332751414096048 0 0.027703889734678699 -0.018453129068358942 0 0.029979822183602522 -0.021573367904372049 0 0.03004315352012276 -0.019332751414096048 0 0.027703889734678699 -0.018453129068358942 0 0.019388332545483392 -0.020658216615879774 0 0.025916669199151331 -0.021483058787222377 0 0.023969601658246791 -0.018144199399234756 0 0.027703889734678699 -0.018453129068358942 0 0.023969601658246791 -0.018144199399234756 0 0.026347614664520937 -0.01451033394973077 0 0.025916669199151331 -0.021483058787222377 0 0.027703889734678699 -0.018453129068358942 0 0.023969601658246791 -0.018144199399234756 0 0.019388332545483392 -0.020658216615879774 0 0.023969601658246791 -0.018144199399234756 0 0.02009336996683737 -0.016752832232513813 0 0.019388332545483392 -0.020658216615879774 0 0.02009336996683737 -0.016752832232513813 0 0.016066598064654027 -0.016449335311215112 0 0.02009336996683737 -0.016752832232513813 0 0.022613561079709375 -0.014554345269977129 0 0.017577653338638581 -0.014054508403027481 0 0.023969601658246791 -0.018144199399234756 0 0.02009336996683737 -0.016752832232513813 0 0.022613561079709375 -0.014554345269977129 0 0.019737634196808608 -0.010917370647218948 0 0.022613561079709375 -0.014554345269977129 0 0.017577653338638581 -0.014054508403027481 0 0.024347966150043227 -0.010908105963912994 0 0.022613561079709375 -0.014554345269977129 0 0.026347614664520937 -0.01451033394973077 0 0.023969601658246791 -0.018144199399234756 0 0.022613561079709375 -0.014554345269977129 0 0.026347614664520937 -0.01451033394973077 0 0.012563574022804454 -0.014928634951892474 0 0.0087326215299888595 -0.016722231958121711 0 0.0092490289514305796 -0.012607986473713022 0 0.012563574022804454 -0.014928634951892474 0 0.017577653338638581 -0.014054508403027481 0 0.016066598064654027 -0.016449335311215112 0 0.012563574022804454 -0.014928634951892474 0 0.017577653338638581 -0.014054508403027481 0 0.014093569131630476 -0.010653065440855005 0 0.02009336996683737 -0.016752832232513813 0 0.017577653338638581 -0.014054508403027481 0 0.016066598064654027 -0.016449335311215112 0 0.019388332545483392 -0.020658216615879774 0 0.016066598064654027 -0.016449335311215112 0 0.011792702798942007 -0.016941375844165177 0 0.012563574022804454 -0.014928634951892474 0 0.016066598064654027 -0.016449335311215112 0 0.011792702798942007 -0.016941375844165177 0 0.017870130161182527 -0.018369780178486405 0 0.016049421198635061 -0.018009787780259079 0 0.012563574022804454 -0.014928634951892474 0 0.011792702798942007 -0.016941375844165177 0 0.0087326215299888595 -0.016722231958121711 0 0.0069018025745913947 -0.013596731443185272 0 0.0040610530818987797 -0.011110324464802094 0 0.01115291368013808 -0.01666621755592124 0 0.011792702798942007 -0.016941375844165177 0 0.0087326215299888595 -0.016722231958121711 0 0.003637036421948433 -0.012917909805670737 0 0.0020709692779194719 -0.0055600688495770116 0 -0.0018009679750234091 -0.010971459598113794 0 0.003637036421948433 -0.012917909805670737 0 0.01115291368013808 -0.01666621755592124 0 0.0020709692779194719 -0.0055600688495770116 0 0.0020709692779194719 -0.0055600688495770116 0 -0.0051341377815338918 -0.0056664670157897034 0 -0.0018009679750234091 -0.010971459598113794 0 -0.0051341377815338918 -0.0056664670157897034 0 -0.0018009679750234091 -0.010971459598113794 0 -0.0075823531418789877 -0.0098156660604799533 0 0.0040610530818987797 -0.011110324464802094 0 -0.00083235004968441894 -0.0070846811748062699 0 0.0020709692779194719 -0.0055600688495770116 0 -0.0051341377815338918 -0.0056664670157897034 0 -0.0064333390777650901 -0.0012040298717150776 0 0.0087326215299888595 -0.016722231958121711 0 0.0092490289514305796 -0.012607986473713022 0 0.0015136504036322421 -0.012232682508175479 0 0.0092490289514305796 -0.012607986473713022 0 0.0015136504036322421 -0.012232682508175479 0 0.0079844556170483184 -0.00756572850855383 0 0.0015136504036322421 -0.012232682508175479 0 0.0020976072473000798 -0.0041766261156103521 0 0.0079844556170483184 -0.00756572850855383 0 0.0020976072473000798 -0.0041766261156103521 0 0.0079844556170483184 -0.00756572850855383 0 0.007846211208381422 -0.0016651175871694808 0 0.0079844556170483184 -0.00756572850855383 0 0.013552242488840481 -0.0056281519061560118 0 0.014093569131630476 -0.010653065440855005 0 0.0092490289514305796 -0.012607986473713022 0 0.0079844556170483184 -0.00756572850855383 0 0.014093569131630476 -0.010653065440855005 0 0.012563574022804454 -0.014928634951892474 0 0.0092490289514305796 -0.012607986473713022 0 0.014093569131630476 -0.010653065440855005 0 0.019737634196808608 -0.010917370647218948 0 0.017577653338638581 -0.014054508403027481 0 0.014093569131630476 -0.010653065440855005 0 0.019737634196808608 -0.010917370647218948 0 0.014093569131630476 -0.010653065440855005 0 0.017697916416360909 -0.0078980441935019349 0 0.013552242488840481 -0.0056281519061560118 0 0.014093569131630476 -0.010653065440855005 0 0.017697916416360909 -0.0078980441935019349 0 0.013552242488840481 -0.0056281519061560118 0 0.017697916416360909 -0.0078980441935019349 0 0.019690796862023716 -0.0046112164889740752 0 0.022296414312457619 -0.0013260357432372427 0 0.019690796862023716 -0.0046112164889740752 0 0.016394487379957832 -0.0014245904800387697 0 0.013552242488840481 -0.0056281519061560118 0 0.019690796862023716 -0.0046112164889740752 0 0.016394487379957832 -0.0014245904800387697 0 0.013552242488840481 -0.0056281519061560118 0 0.016394487379957832 -0.0014245904800387697 0 0.007846211208381422 -0.0016651175871694808 0 0.016394487379957832 -0.0014245904800387697 0 0.012134170787234043 0.0036779917162364341 0 0.007846211208381422 -0.0016651175871694808 0 0.023834839857790002 0.002085656246285469 0 0.022296414312457619 -0.0013260357432372427 0 0.016394487379957832 -0.0014245904800387697 0 0.023834839857790002 0.002085656246285469 0 0.016394487379957832 -0.0014245904800387697 0 0.012134170787234043 0.0036779917162364341 0 0.023834839857790002 0.002085656246285469 0 0.012134170787234043 0.0036779917162364341 0 0.017337746557276792 0.01081769564110475 0 0.012134170787234043 0.0036779917162364341 0 0.017337746557276792 0.01081769564110475 0 0.0077106646011956556 0.010075263532914614 0 0.022344431757427639 0.0018618241778013535 0 0.013833291358768974 0.0027228210283134239 0 0.022249425514391168 0.0024923815725657597 0 0.022344431757427639 0.0018618241778013535 0 0.00021068963821306165 0.0079733409871539703 0 0.0077106646011956556 0.010075263532914614 0 0.0024378521908083677 0.0035374890438048586 0 0.0075738883434975932 0.0026320046030407192 0 0.013833291358768974 0.0027228210283134239 0 0.012134170787234043 0.0036779917162364341 0 0.0077106646011956556 0.010075263532914614 0 0.0024378521908083677 0.0035374890438048586 0 0.0024378521908083677 0.0035374890438048586 0 0.007846211208381422 -0.0016651175871694808 0 0.00029923968714961919 -0.00049792118877568792 0 0.012134170787234043 0.0036779917162364341 0 0.0024378521908083677 0.0035374890438048586 0 0.007846211208381422 -0.0016651175871694808 0 0.0079844556170483184 -0.00756572850855383 0 0.013552242488840481 -0.0056281519061560118 0 0.007846211208381422 -0.0016651175871694808 0 0.0020976072473000798 -0.0041766261156103521 0 0.007846211208381422 -0.0016651175871694808 0 0.00029923968714961919 -0.00049792118877568792 0 0.0020976072473000798 -0.0041766261156103521 0 0.00029923968714961919 -0.00049792118877568792 0 -0.0071740973373894991 -0.0023923877253555705 0 -0.0036905463723839512 0.0013261256645758167 0 -0.0084690973132920313 0.00030159040941249709 0 -0.0071740973373894991 -0.0023923877253555705 0 0.00029923968714961919 -0.00049792118877568792 0 -0.0036905463723839512 0.0013261256645758167 0 -0.0071740973373894991 -0.0023923877253555705 0 -0.0036905463723839512 0.0013261256645758167 0 -0.0054074478618052341 0.0018685607428028839 0 -0.0084690973132920313 0.00030159040941249709 0 0.0024378521908083677 0.0035374890438048586 0 0.00029923968714961919 -0.00049792118877568792 0 -0.0036905463723839512 0.0013261256645758167 0 0.00021068963821306165 0.0079733409871539703 0 0.0024378521908083677 0.0035374890438048586 0 -0.003370013116802289 0.0036404341915286273 0 0.0024378521908083677 0.0035374890438048586 0 -0.0036905463723839512 0.0013261256645758167 0 -0.003370013116802289 0.0036404341915286273 0 -0.0036905463723839512 0.0013261256645758167 0 -0.003370013116802289 0.0036404341915286273 0 -0.0054074478618052341 0.0018685607428028839 0 -0.003370013116802289 0.0036404341915286273 0 -0.0041070598345078028 0.002735878842210604 0 -0.0054074478618052341 0.0018685607428028839 0 -0.003370013116802289 0.0036404341915286273 0 -0.0042831951664539262 0.0039781294864153051 0 -0.0041070598345078028 0.002735878842210604 0 0.00021068963821306165 0.0079733409871539703 0 -0.003370013116802289 0.0036404341915286273 0 -0.0042831951664539262 0.0039781294864153051 0 0.0075738883434975932 0.0026320046030407192 0 0.0033147195678130304 0.0021204443050791884 0 -0.001716552585587989 1.3543853869131509e-06 0 -0.00079454922450555594 0.00018342784919325849 0 -0.0036893946205779223 0.0012042011640731628 0 -0.00079454922450555594 0.00018342784919325849 0 -0.0041070598345078028 0.002735878842210604 0 -0.0036893946205779223 0.0012042011640731628 0 -0.0042831951664539262 0.0039781294864153051 0 -0.00079454922450555594 0.00018342784919325849 0 -0.0041070598345078028 0.002735878842210604 0 0.0033147195678130304 0.0021204443050791884 0 0.0018473757166623966 0.0018222672446715951 0 0.0056109192848693892 -0.00090203041832862462 0 -0.00079454922450555594 0.00018342784919325849 0 0.0024730575091635623 0.00074093094403897579 0 -0.0041070598345078028 0.002735878842210604 0 -0.0054074478618052341 0.0018685607428028839 0 -0.0036893946205779223 0.0012042011640731628 0 -0.0054074478618052341 0.0018685607428028839 0 -0.0036893946205779223 0.0012042011640731628 0 -0.0072464302070019459 2.5488224319279769e-06 0 -0.001716552585587989 1.3543853869131509e-06 0 -0.0036893946205779223 0.0012042011640731628 0 -0.0072464302070019459 2.5488224319279769e-06 0 -0.0054074478618052341 0.0018685607428028839 0 -0.0072464302070019459 2.5488224319279769e-06 0 -0.0084690973132920313 0.00030159040941249709 0 -0.0072464302070019459 2.5488224319279769e-06 0 -0.0084690973132920313 0.00030159040941249709 0 -0.012773303963245846 -6.3740621343737183e-07 0 -0.0084690973132920313 0.00030159040941249709 0 -0.012773303963245846 -6.3740621343737183e-07 0 -0.011762901317116178 -0.00068401875478080339 0 -0.012773303963245846 -6.3740621343737183e-07 0 -0.011762901317116178 -0.00068401875478080339 0 -0.01830281647471569 -1.5798898363563608e-06 0 -0.011762901317116178 -0.00068401875478080339 0 -0.01830281647471569 -1.5798898363563608e-06 0 -0.013733457875640263 -0.0014184608969530614 0 -0.0084690973132920313 0.00030159040941249709 0 -0.011762901317116178 -0.00068401875478080339 0 -0.0071740973373894991 -0.0023923877253555705 0 -0.0071740973373894991 -0.0023923877253555705 0 -0.01104347740682406 -0.0027106379333566755 0 -0.013733457875640263 -0.0014184608969530614 0 -0.0064333390777650901 -0.0012040298717150776 0 -0.0071740973373894991 -0.0023923877253555705 0 -0.01104347740682406 -0.0027106379333566755 0 0.0015136504036322421 -0.012232682508175479 0 0.0020976072473000798 -0.0041766261156103521 0 -0.0071740973373894991 -0.0023923877253555705 0 -0.00083235004968441894 -0.0070846811748062699 0 -0.0034964901624960324 -0.0047908757464640815 0 -0.011762901317116178 -0.00068401875478080339 0 -0.0071740973373894991 -0.0023923877253555705 0 -0.013733457875640263 -0.0014184608969530614 0 -0.01104347740682406 -0.0027106379333566755 0 -0.017842162888472544 -0.0043661304334325001 0 -0.013733457875640263 -0.0014184608969530614 0 -0.0051341377815338918 -0.0056664670157897034 0 -0.0064333390777650901 -0.0012040298717150776 0 -0.01104347740682406 -0.0027106379333566755 0 -0.013664762699740648 -0.008464356846729533 0 -0.01104347740682406 -0.0027106379333566755 0 -0.0075823531418789877 -0.0098156660604799533 0 -0.0051341377815338918 -0.0056664670157897034 0 -0.01104347740682406 -0.0027106379333566755 0 -0.0075823531418789877 -0.0098156660604799533 0 -0.013664762699740648 -0.008464356846729533 0 -0.01104347740682406 -0.0027106379333566755 0 -0.017842162888472544 -0.0043661304334325001 0 -0.020535783733981589 -0.0020555807030578832 0 -0.017842162888472544 -0.0043661304334325001 0 -0.019615761596273405 -0.0017629326692773957 0 -0.017842162888472544 -0.0043661304334325001 0 -0.019615761596273405 -0.0017629326692773957 0 -0.013733457875640263 -0.0014184608969530614 0 -0.023829441148111152 -2.6701184286292434e-06 0 -0.019615761596273405 -0.0017629326692773957 0 -0.01830281647471569 -1.5798898363563608e-06 0 -0.023829441148111152 -2.6701184286292434e-06 0 -0.022383179401154422 -0.0010487355873849999 0 -0.019615761596273405 -0.0017629326692773957 0 -0.019615761596273405 -0.0017629326692773957 0 -0.01830281647471569 -1.5798898363563608e-06 0 -0.013733457875640263 -0.0014184608969530614 0 0.039246092415797733 0.014625719050638022 0 0.039122022669745245 0.014658329023808429 0 0.039267074186182256 0.014695954719077371 0 0.039122022669745245 0.014658329023808429 0 0.039267074186182256 0.014695954719077371 0 0.039074129970355691 0.014737764334338271 0 0.039267074186182256 0.014695954719077371 0 0.039074129970355691 0.014737764334338271 0 0.039228499677082224 0.014818318141901071 0 0.039267074186182256 0.014695954719077371 0 0.039372051781325322 0.014635367857855889 0 0.039470748768566891 0.01475199575987271 0 0.039372051781325322 0.014635367857855889 0 0.039470748768566891 0.01475199575987271 0 0.039514039098437918 0.014640933798677053 0 0.039372051781325322 0.014635367857855889 0 0.039427357668942356 0.01455475125403344 0 0.039514039098437918 0.014640933798677053 0 0.039310081562644074 0.014589652534185361 0 0.039372051781325322 0.014635367857855889 0 0.039427357668942356 0.01455475125403344 0 0.039246092415797733 0.014625719050638022 0 0.039310081562644074 0.014589652534185361 0 0.039372051781325322 0.014635367857855889 0 0.039246092415797733 0.014625719050638022 0 0.039267074186182256 0.014695954719077371 0 0.039372051781325322 0.014635367857855889 0 0.039427357668942356 0.01455475125403344 0 0.039190707419050126 0.014545446593208998 0 0.039545127034190525 0.014510862486507882 0 -0.02065549598615192 0.012584205411130211 0 -0.020247191776741516 0.012443521869682226 0 -0.021046596873578429 0.012446739092054482 0 0.0048174473424300521 0.0098414548574601302 0 0.0072405697149669369 0.013685938772832466 0 0.039310081562644074 0.014589652534185361 0 0.039427357668942356 0.01455475125403344 0 0.039190707419050126 0.014545446593208998 0 -0.02065549598615192 0.012584205411130211 0 -0.020905941839622643 0.012703327461848834 0 -0.020749353245253156 0.012811769731441333 0 -0.02065549598615192 0.012584205411130211 0 -0.020505616406474386 0.012850151377613504 0 -0.020749353245253156 0.012811769731441333 0 -0.02065549598615192 0.012584205411130211 0 -0.020432082892234003 0.012558688692719699 0 -0.020247191776741516 0.012443521869682226 0 -0.02065549598615192 0.012584205411130211 0 -0.020432082892234003 0.012558688692719699 0 -0.020505616406474386 0.012850151377613504 0 -0.020432082892234003 0.012558688692719699 0 -0.020355775804999351 0.012708329617419739 0 -0.020505616406474386 0.012850151377613504 0 -0.020432082892234003 0.012558688692719699 0 -0.020355775804999351 0.012708329617419739 0 -0.020319327076649702 0.012550521571094004 0 -0.020250580898811956 0.012529117208113828 0 -0.020247191776741516 0.012443521869682226 0 -0.019936952701306743 0.012394819324916866 0 -0.020355775804999351 0.012708329617419739 0 -0.020250580898811956 0.012529117208113828 0 -0.020319327076649702 0.012550521571094004 0 -0.020432082892234003 0.012558688692719699 0 -0.020319327076649702 0.012550521571094004 0 -0.020247191776741516 0.012443521869682226 0 -0.020250580898811956 0.012529117208113828 0 -0.020319327076649702 0.012550521571094004 0 -0.020247191776741516 0.012443521869682226 0 0.039246092415797733 0.014625719050638022 0 0.039122022669745245 0.014658329023808429 0 0.039190707419050126 0.014545446593208998 0 0.039246092415797733 0.014625719050638022 0 0.039310081562644074 0.014589652534185361 0 0.039190707419050126 0.014545446593208998 0 0.0048174473424300521 0.0098414548574601302 0 -0.02138576203291247 0.0028390741094399701 0 0.039122022669745245 0.014658329023808429 0 0.039190707419050126 0.014545446593208998 0 0.038882615751745363 0.014735058102651176 0 -0.02138576203291247 0.0028390741094399701 0 -0.039886409973174705 0.008689404745971168 0 -0.020250580898811956 0.012529117208113828 0 -0.019936952701306743 0.012394819324916866 0 -0.02015875936099874 0.012658934950175506 0 -0.075669086254050805 0.0025687115522523684 0 -0.07634589583333698 0.0019116823111076425 0 -0.076877674278861288 0.0023481353798297444 0 -0.02138576203291247 0.0028390741094399701 0 -0.045019441193631562 -0.001339529847091032 0 -0.02138576203291247 0.0028390741094399701 0 -0.0028972805991594728 -0.0027027098655127819 0 0.038882615751745363 0.014735058102651176 0 0.038937843517534668 0.014834772356055072 0 0.039035796037366295 0.014956879522027518 0 0.038882615751745363 0.014735058102651176 0 0.039074129970355691 0.014737764334338271 0 0.038937843517534668 0.014834772356055072 0 0.039122022669745245 0.014658329023808429 0 0.038882615751745363 0.014735058102651176 0 0.039074129970355691 0.014737764334338271 0 0.039074129970355691 0.014737764334338271 0 0.038937843517534668 0.014834772356055072 0 0.039228499677082224 0.014818318141901071 0 0.038937843517534668 0.014834772356055072 0 0.039062686456439413 0.014891075411231913 0 0.039228499677082224 0.014818318141901071 0 0.038937843517534668 0.014834772356055072 0 0.038765522597951699 0.014735686867691375 0 0.039119304946801929 0.014813277898388984 0 0.038937843517534668 0.014834772356055072 0 0.039035796037366295 0.014956879522027518 0 0.039119304946801929 0.014813277898388984 0 0.038765522597951699 0.014735686867691375 0 0.039119304946801929 0.014813277898388984 0 0.039440434625110155 0.014269545886672652 0 0.038765522597951699 0.014735686867691375 0 0.039062686456439413 0.014891075411231913 0 0.03914338395104195 0.015208480939407935 0 0.038937843517534668 0.014834772356055072 0 0.038765522597951699 0.014735686867691375 0 0.039062686456439413 0.014891075411231913 0 0.039062686456439413 0.014891075411231913 0 0.039468133200770993 0.015143647983869893 0 0.03914338395104195 0.015208480939407935 0 0.039062686456439413 0.014891075411231913 0 0.039468133200770993 0.015143647983869893 0 0.039228499677082224 0.014818318141901071 0 0.039267074186182256 0.014695954719077371 0 0.039228499677082224 0.014818318141901071 0 0.039470748768566891 0.01475199575987271 0 0.039228499677082224 0.014818318141901071 0 0.039470748768566891 0.01475199575987271 0 0.039648488278527863 0.014952123719495208 0 0.039468133200770993 0.015143647983869893 0 0.039228499677082224 0.014818318141901071 0 0.039648488278527863 0.014952123719495208 0 0.039468133200770993 0.015143647983869893 0 0.039648488278527863 0.014952123719495208 0 0.039849617980564453 0.01519693025499482 0 0.039648488278527863 0.014952123719495208 0 0.039999321274637192 0.015016661231837699 0 0.039849617980564453 0.01519693025499482 0 0.040467120777015725 0.01724026464870634 0 0.039932114710186407 0.017168129236386456 0 0.04028012665491245 0.016872214717985851 0 0.040467120777015725 0.01724026464870634 0 0.039932114710186407 0.017168129236386456 0 0.040267087731139406 0.017850462687569221 0 0.039999321274637192 0.015016661231837699 0 0.039714743087708788 0.014780455782558344 0 0.039918292537256393 0.014697467810083908 0 0.029898326371443223 0.015138023957747179 0 0.019724316805577395 0.017196994025632954 0 0.039648488278527863 0.014952123719495208 0 0.039999321274637192 0.015016661231837699 0 0.039714743087708788 0.014780455782558344 0 0.039470748768566891 0.01475199575987271 0 0.039648488278527863 0.014952123719495208 0 0.039714743087708788 0.014780455782558344 0 0.0071028610712664713 0.013102601356633664 0 0.0063906193602281643 0.014565678763586727 0 0.039781914544125684 0.017131274630925494 0 0.039932114710186407 0.017168129236386456 0 0.039877758782642353 0.016993976361044456 0 0.039781914544125684 0.017131274630925494 0 0.039932114710186407 0.017168129236386456 0 0.039984761810524919 0.016950028882517666 0 0.039932114710186407 0.017168129236386456 0 0.039877758782642353 0.016993976361044456 0 0.039420602740211801 0.016832734696672274 0 0.027881045791691036 0.021115438415424334 0 0.019724316805577395 0.017196994025632954 0 -0.022064447312311986 0.007624761996693691 0 -0.020803796455028018 0.0098856662174402945 0 -0.022144600586551919 0.0095428916985315602 0 -0.020803796455028018 0.0098856662174402945 0 -0.022144600586551919 0.0095428916985315602 0 -0.021793918395422909 0.010865435445797081 0 -0.022815890667155444 0.010458173047399247 0 -0.022144600586551919 0.0095428916985315602 0 -0.021793918395422909 0.010865435445797081 0 -0.020803796455028018 0.0098856662174402945 0 -0.021793918395422909 0.010865435445797081 0 -0.020846103930081739 0.011439681797597927 0 -0.022790884205608375 0.011354143985657605 0 -0.021793918395422909 0.010865435445797081 0 -0.021733899927631428 0.012255146110511771 0 -0.021793918395422909 0.010865435445797081 0 -0.020846103930081739 0.011439681797597927 0 -0.021733899927631428 0.012255146110511771 0 0.0063906193602281643 0.014565678763586727 0 0.0029370862827571721 0.015541787345317241 0 0.039877758782642353 0.016993976361044456 0 0.039542799959667092 0.016450315932314722 0 0.039420602740211801 0.016832734696672274 0 -0.020803796455028018 0.0098856662174402945 0 -0.020846103930081739 0.011439681797597927 0 -0.019457841887126695 0.012298260567140741 0 -0.020389293668928807 0.012029401396583489 0 -0.021586681502930388 0.012783542669871757 0 -0.022281823642262239 0.012025521362670346 0 0.0029370862827571721 0.015541787345317241 0 -0.015265952227319506 0.014137711017665354 0 -0.020846103930081739 0.011439681797597927 0 -0.019457841887126695 0.012298260567140741 0 -0.021733899927631428 0.012255146110511771 0 -0.020389293668928807 0.012029401396583489 0 -0.019551499042241412 0.013651699437159454 0 -0.020838803365111486 0.013201997021438304 0 -0.020389293668928807 0.012029401396583489 0 -0.021586681502930388 0.012783542669871757 0 -0.020838803365111486 0.013201997021438304 0 -0.021586681502930388 0.012783542669871757 0 -0.022351510760933058 0.012942555377119852 0 -0.022281823642262239 0.012025521362670346 0 -0.023139112721145876 0.012499861330032849 0 -0.022351510760933058 0.012942555377119852 0 -0.022281823642262239 0.012025521362670346 0 0.039714743087708788 0.014780455782558344 0 0.039710057067342153 0.014607480414844973 0 0.039918292537256393 0.014697467810083908 0 0.039710057067342153 0.014607480414844973 0 0.039514039098437918 0.014640933798677053 0 0.039636148217426004 0.014433293924890869 0 0.039427357668942356 0.01455475125403344 0 0.039514039098437918 0.014640933798677053 0 0.039545127034190525 0.014510862486507882 0 0.011913157366670712 0.010857408368361668 0 0.0072405697149669369 0.013685938772832466 0 0.039714743087708788 0.014780455782558344 0 0.039710057067342153 0.014607480414844973 0 0.039514039098437918 0.014640933798677053 0 0.039470748768566891 0.01475199575987271 0 0.039714743087708788 0.014780455782558344 0 0.039514039098437918 0.014640933798677053 0 0.019724316805577395 0.017196994025632954 0 0.009690992877773608 0.014963293711299992 0 0.039710057067342153 0.014607480414844973 0 0.039918292537256393 0.014697467810083908 0 0.039720621983579098 0.014437879067631828 0 0.039542799959667092 0.016450315932314722 0 0.039420602740211801 0.016832734696672274 0 0.039436845358643127 0.016447953132781634 0 0.019724316805577395 0.017196994025632954 0 0.0085069569321503599 0.014773115108261963 0 0.014770985520623009 0.014827464363603857 0 0.014736545090281291 0.014929908485030721 0 0.014821270144678668 0.014928989106955594 0 0.0029370862827571721 0.015541787345317241 0 -0.0047857184739695984 0.013985065330936502 0 0.0016521237445770785 0.015368689057889302 0 0.001166536222250304 0.01540683827876007 0 0.0012969037325111406 0.015622678465994737 0 0.0022820329463264567 0.015650369969388563 0 0.0020308105677242791 0.015644380305006769 0 0.0017244854460571719 0.014585945416841457 0 0.0020308105677242791 0.015644380305006769 0 0.0016521237445770785 0.015368689057889302 0 0.0017244854460571719 0.014585945416841457 0 0.0020308105677242791 0.015644380305006769 0 0.0016521237445770785 0.015368689057889302 0 0.0012969037325111406 0.015622678465994737 0 0.009690992877773608 0.014963293711299992 0 0.0085069569321503599 0.014773115108261963 0 0.0029370862827571721 0.015541787345317241 0 0.009690992877773608 0.014963293711299992 0 0.0016521237445770785 0.015368689057889302 0 0.001166536222250304 0.01540683827876007 0 0.0017244854460571719 0.014585945416841457 0 -0.021128546303731757 0.012553636486851044 0 -0.021046596873578429 0.012446739092054482 0 -0.020905941839622643 0.012703327461848834 0 0.0044116030843023499 0.013553060725172476 0 0.0085069569321503599 0.014773115108261963 0 0.0085069569321503599 0.014773115108261963 0 0.0072405697149669369 0.013685938772832466 0 0.039710057067342153 0.014607480414844973 0 0.039720621983579098 0.014437879067631828 0 0.039636148217426004 0.014433293924890869 0 0.0024950439327900225 0.016121203613743681 0 0.00010376173607844789 0.012084740626934048 0 0.0052640560589856632 0.012164095873796703 0 0.0044116030843023499 0.013553060725172476 0 0.0072405697149669369 0.013685938772832466 0 -0.02065549598615192 0.012584205411130211 0 -0.021046596873578429 0.012446739092054482 0 -0.020905941839622643 0.012703327461848834 0 -0.020905941839622643 0.012703327461848834 0 -0.02093039597141268 0.013125372108500098 0 -0.020749353245253156 0.012811769731441333 0 -0.021422845798633232 0.012541247882450052 0 -0.021037097562349904 0.013266288783990226 0 -0.021463269370825374 0.013258748271319096 0 -0.021128546303731757 0.012553636486851044 0 -0.020905941839622643 0.012703327461848834 0 -0.02093039597141268 0.013125372108500098 0 0.0044116030843023499 0.013553060725172476 0 -0.0063679888351858846 0.0095492168367566702 0 -0.021037097562349904 0.013266288783990226 0 -0.021463269370825374 0.013258748271319096 0 -0.021283173530617677 0.013630713916270508 0 -0.021422845798633232 0.012541247882450052 0 -0.021463269370825374 0.013258748271319096 0 -0.021902968235105163 0.013174477897859711 0 0.0044116030843023499 0.013553060725172476 0 -0.0047857184739695984 0.013985065330936502 0 -0.0047857184739695984 0.013985065330936502 0 -0.013916594537464891 0.015853675682163941 0 -0.021463269370825374 0.013258748271319096 0 -0.021902968235105163 0.013174477897859711 0 -0.021706338904714136 0.013675332324602439 0 -0.0047857184739695984 0.013985065330936502 0 -0.0065157141084022747 0.012748620716703792 0 -0.021706338904714136 0.013675332324602439 0 -0.022030752263423985 0.014125441840309861 0 -0.022429124319601985 0.013806392424839675 0 -0.021955203171430383 0.013157354584564995 0 -0.021706338904714136 0.013675332324602439 0 -0.022429124319601985 0.013806392424839675 0 -0.022030752263423985 0.014125441840309861 0 -0.022429124319601985 0.013806392424839675 0 -0.02219641295649797 0.014620718063643304 0 -0.021706338904714136 0.013675332324602439 0 -0.022030752263423985 0.014125441840309861 0 -0.021780078834704418 0.01437184646565713 0 -0.021706338904714136 0.013675332324602439 0 -0.021269426829560241 0.014121932177386484 0 -0.021780078834704418 0.01437184646565713 0 -0.021269426829560241 0.014121932177386484 0 -0.021042637803165419 0.013744019938365062 0 -0.021283173530617677 0.013630713916270508 0 -0.021269426829560241 0.014121932177386484 0 -0.021042637803165419 0.013744019938365062 0 -0.020587734617789222 0.013976115572221908 0 -0.021037097562349904 0.013266288783990226 0 -0.021042637803165419 0.013744019938365062 0 -0.021283173530617677 0.013630713916270508 0 -0.021463269370825374 0.013258748271319096 0 -0.021706338904714136 0.013675332324602439 0 -0.021283173530617677 0.013630713916270508 0 -0.021706338904714136 0.013675332324602439 0 -0.021269426829560241 0.014121932177386484 0 -0.021283173530617677 0.013630713916270508 0 -0.023590606074484408 0.013875378849910743 0 -0.022054434060994332 0.013706315327133598 0 -0.022899056883532689 0.014571296299955362 0 -0.023229501241786452 0.013227000325984277 0 -0.022351510760933058 0.012942555377119852 0 -0.022054434060994332 0.013706315327133598 0 -0.021586681502930388 0.012783542669871757 0 -0.022351510760933058 0.012942555377119852 0 -0.022054434060994332 0.013706315327133598 0 -0.022054434060994332 0.013706315327133598 0 -0.020996796926640804 0.014098715610539735 0 -0.021924669792457992 0.014896876719833552 0 -0.019551499042241412 0.013651699437159454 0 -0.020996796926640804 0.014098715610539735 0 -0.02039265263660232 0.014825313693285377 0 -0.019551499042241412 0.013651699437159454 0 -0.020996796926640804 0.014098715610539735 0 -0.020838803365111486 0.013201997021438304 0 -0.022054434060994332 0.013706315327133598 0 -0.020996796926640804 0.014098715610539735 0 -0.020838803365111486 0.013201997021438304 0 -0.021586681502930388 0.012783542669871757 0 -0.022054434060994332 0.013706315327133598 0 -0.020838803365111486 0.013201997021438304 0 -0.02039265263660232 0.014825313693285377 0 -0.021924669792457992 0.014896876719833552 0 -0.021227871935266516 0.016017035573058207 0 -0.020996796926640804 0.014098715610539735 0 -0.02039265263660232 0.014825313693285377 0 -0.021924669792457992 0.014896876719833552 0 -0.013916594537464891 0.015853675682163941 0 -0.019676969087065191 0.015921625764487433 0 -0.023285368690932225 0.015421116105487314 0 -0.021924669792457992 0.014896876719833552 0 -0.022899056883532689 0.014571296299955362 0 -0.023285368690932225 0.015421116105487314 0 -0.021924669792457992 0.014896876719833552 0 -0.021227871935266516 0.016017035573058207 0 -0.022054434060994332 0.013706315327133598 0 -0.021924669792457992 0.014896876719833552 0 -0.022899056883532689 0.014571296299955362 0 -0.024701823305230367 0.01494211603162532 0 -0.024034666437105803 0.014724282361306311 0 -0.02429224132075623 0.015160865790548985 0 -0.023179240062639019 0.015065938927513962 0 -0.019676969087065191 0.015921625764487433 0 -0.025074374639187148 0.014604379710690779 0 -0.024701823305230367 0.01494211603162532 0 -0.024034666437105803 0.014724282361306311 0 -0.023806393309204258 0.014408335685886717 0 -0.023427424159823958 0.015479191170716309 0 -0.02429224132075623 0.015160865790548985 0 -0.022429124319601985 0.013806392424839675 0 -0.022855762337644511 0.014424958748850971 0 -0.02219641295649797 0.014620718063643304 0 -0.023806393309204258 0.014408335685886717 0 -0.023427424159823958 0.015479191170716309 0 -0.022766971713685569 0.014646493053754629 0 -0.019676969087065191 0.015921625764487433 0 -0.020127907660214217 0.016098329888983104 0 -0.019676969087065191 0.015921625764487433 0 -0.021198052350639249 0.015370449105023562 0 -0.022678380932842232 0.016240658550915565 0 -0.024217452304029548 0.016160475099428449 0 -0.023427424159823958 0.015479191170716309 0 -0.024217452304029548 0.016160475099428449 0 -0.023427424159823958 0.015479191170716309 0 -0.02429224132075623 0.015160865790548985 0 -0.025112531380322618 0.016225578361477585 0 -0.024217452304029548 0.016160475099428449 0 -0.024855082809434211 0.01549172883967345 0 -0.024217452304029548 0.016160475099428449 0 -0.02429224132075623 0.015160865790548985 0 -0.024855082809434211 0.01549172883967345 0 -0.024701823305230367 0.01494211603162532 0 -0.02429224132075623 0.015160865790548985 0 -0.024855082809434211 0.01549172883967345 0 -0.021269426829560241 0.014121932177386484 0 -0.021230889146073132 0.014867985355708836 0 -0.020587734617789222 0.013976115572221908 0 -0.021635396665873715 0.014896482401358685 0 -0.021484017237386806 0.014554827010060398 0 -0.021780078834704418 0.01437184646565713 0 -0.021635396665873715 0.014896482401358685 0 -0.021230889146073132 0.014867985355708836 0 -0.021484017237386806 0.014554827010060398 0 -0.021269426829560241 0.014121932177386484 0 -0.021230889146073132 0.014867985355708836 0 -0.021484017237386806 0.014554827010060398 0 -0.021269426829560241 0.014121932177386484 0 -0.021484017237386806 0.014554827010060398 0 -0.021780078834704418 0.01437184646565713 0 -0.022030752263423985 0.014125441840309861 0 -0.021780078834704418 0.01437184646565713 0 -0.02219641295649797 0.014620718063643304 0 -0.021635396665873715 0.014896482401358685 0 -0.021780078834704418 0.01437184646565713 0 -0.02219641295649797 0.014620718063643304 0 -0.021433969360848303 0.015267677187569032 0 -0.021198052350639249 0.015370449105023562 0 -0.022678380932842232 0.016240658550915565 0 -0.023427424159823958 0.015479191170716309 0 -0.022766971713685569 0.014646493053754629 0 -0.022678380932842232 0.016240658550915565 0 -0.021635396665873715 0.014896482401358685 0 -0.022766971713685569 0.014646493053754629 0 -0.022678380932842232 0.016240658550915565 0 -0.021635396665873715 0.014896482401358685 0 -0.021230889146073132 0.014867985355708836 0 -0.046647515441956437 0.0080272512626587845 0 -0.046749305324358142 0.0079931720580082924 0 -0.070595644737037472 -2.6311390605503935e-05 0 -0.071930787293789003 0.0012990997215346159 0 -0.072084716763433004 0.00019261378059047838 0 -0.071930787293789003 0.0012990997215346159 0 -0.072084716763433004 0.00019261378059047838 0 -0.072836879223616979 0.00096952540956334727 0 -0.07265790639614772 -0.00075314214361773938 0 -0.072084716763433004 0.00019261378059047838 0 -0.072836879223616979 0.00096952540956334727 0 -0.073977197358078839 -0.00080148608851956192 0 -0.073533665967269207 -2.4002405518497828e-05 0 -0.074335029059308583 0.00026804596566766466 0 -0.073977197358078839 -0.00080148608851956192 0 -0.074335029059308583 0.00026804596566766466 0 -0.074917821856748654 -0.0003362530497564455 0 -0.074335029059308583 0.00026804596566766466 0 -0.073913702768603137 0.0011709003349716451 0 -0.075026409715278242 0.00074947808919207661 0 -0.074335029059308583 0.00026804596566766466 0 -0.075026409715278242 0.00074947808919207661 0 -0.074917821856748654 -0.0003362530497564455 0 -0.046749305324358142 0.0079931720580082924 0 -0.046977341050716458 0.0079141096453889774 0 -0.073533665967269207 -2.4002405518497828e-05 0 -0.074335029059308583 0.00026804596566766466 0 -0.073913702768603137 0.0011709003349716451 0 -0.071930787293789003 0.0012990997215346159 0 -0.072836879223616979 0.00096952540956334727 0 -0.073055535549189532 0.0025201448021608583 0 -0.021230889146073132 0.014867985355708836 0 -0.020326851256120142 0.013827129577971588 0 -0.020587734617789222 0.013976115572221908 0 -0.059926643748585341 0.0032940188541549739 0 -0.046977341050716458 0.0079141096453889774 0 -0.021037097562349904 0.013266288783990226 0 -0.021042637803165419 0.013744019938365062 0 -0.020587734617789222 0.013976115572221908 0 -0.02093039597141268 0.013125372108500098 0 -0.020557966639385188 0.013381947284065053 0 -0.020587734617789222 0.013976115572221908 0 -0.0063679888351858846 0.0095492168367566702 0 -0.0090922210267146628 0.0091935824529946371 0 -0.046977341050716458 0.0079141096453889774 0 -0.040953176105836424 0.008846920526730891 0 -0.020557966639385188 0.013381947284065053 0 -0.020326851256120142 0.013827129577971588 0 -0.020227463478508321 0.013128485662987204 0 -0.020557966639385188 0.013381947284065053 0 -0.020326851256120142 0.013827129577971588 0 -0.020587734617789222 0.013976115572221908 0 -0.073913702768603137 0.0011709003349716451 0 -0.074838748867164531 0.0019076002757827076 0 -0.075026409715278242 0.00074947808919207661 0 -0.046977341050716458 0.0079141096453889774 0 -0.039886409973174705 0.008689404745971168 0 -0.020492898684949759 0.012936754253168325 0 -0.020388092861001884 0.012701297483974647 0 -0.02015875936099874 0.012658934950175506 0 -0.020250580898811956 0.012529117208113828 0 -0.020388092861001884 0.012701297483974647 0 -0.02015875936099874 0.012658934950175506 0 -0.020355775804999351 0.012708329617419739 0 -0.020250580898811956 0.012529117208113828 0 -0.020227463478508321 0.013128485662987204 0 -0.039062982394886071 0.0091020040491054752 0 -0.040953176105836424 0.008846920526730891 0 -0.020355775804999351 0.012708329617419739 0 -0.020227463478508321 0.013128485662987204 0 -0.020505616406474386 0.012850151377613504 0 -0.02093039597141268 0.013125372108500098 0 -0.020505616406474386 0.012850151377613504 0 -0.020749353245253156 0.012811769731441333 0 -0.02093039597141268 0.013125372108500098 0 -0.020557966639385188 0.013381947284065053 0 -0.020505616406474386 0.012850151377613504 0 -0.020557966639385188 0.013381947284065053 0 -0.020227463478508321 0.013128485662987204 0 -0.020505616406474386 0.012850151377613504 0 -0.075669086254050805 0.0025687115522523684 0 -0.07634589583333698 0.0019116823111076425 0 -0.074838748867164531 0.0019076002757827076 0 -0.07634589583333698 0.0019116823111076425 0 -0.074838748867164531 0.0019076002757827076 0 -0.076092808570446813 0.001223692428025377 0 -0.074838748867164531 0.0019076002757827076 0 -0.076092808570446813 0.001223692428025377 0 -0.075026409715278242 0.00074947808919207661 0 -0.076092808570446813 0.001223692428025377 0 -0.076035389591822669 0.00013989205103888018 0 -0.076710111202440645 0.00066145949133543727 0 -0.076092808570446813 0.001223692428025377 0 -0.075026409715278242 0.00074947808919207661 0 -0.076035389591822669 0.00013989205103888018 0 -0.075026409715278242 0.00074947808919207661 0 -0.074917821856748654 -0.0003362530497564455 0 -0.076035389591822669 0.00013989205103888018 0 -0.075706456685138798 -0.00073557571989977773 0 -0.074917821856748654 -0.0003362530497564455 0 -0.076035389591822669 0.00013989205103888018 0 -0.07663919672994518 -0.0011288454517547877 0 -0.075706456685138798 -0.00073557571989977773 0 -0.076035389591822669 0.00013989205103888018 0 -0.07663919672994518 -0.0011288454517547877 0 -0.076035389591822669 0.00013989205103888018 0 -0.077344023615669638 0.00014826158857167562 0 -0.077344023615669638 0.00014826158857167562 0 -0.076710111202440645 0.00066145949133543727 0 -0.077317237090886448 0.0010929937983650427 0 -0.076035389591822669 0.00013989205103888018 0 -0.077344023615669638 0.00014826158857167562 0 -0.076710111202440645 0.00066145949133543727 0 -0.077344023615669638 0.00014826158857167562 0 -0.07809918800014741 0.00063357240344885212 0 -0.077317237090886448 0.0010929937983650427 0 -0.077344023615669638 0.00014826158857167562 0 -0.078535353816499176 -0.00017226109163274146 0 -0.07809918800014741 0.00063357240344885212 0 -0.077879315801707108 -0.0010212129415657399 0 -0.077344023615669638 0.00014826158857167562 0 -0.078535353816499176 -0.00017226109163274146 0 -0.078603739592942617 0.0007394201676540577 0 -0.078971532648864681 0.0011844872825840038 0 -0.078535353816499176 -0.00017226109163274146 0 -0.078428639671757158 0.00063946250704751718 0 -0.07809918800014741 0.00063357240344885212 0 -0.08076261380979996 -0.00149784501201308 0 -0.078535353816499176 -0.00017226109163274146 0 -0.080581046172976442 0.0008096529544561439 0 -0.078428639671757158 0.00063946250704751718 0 -0.07820535745171163 0.001229036666906391 0 -0.078435618494202691 0.0011173864619289156 0 -0.078428639671757158 0.00063946250704751718 0 -0.07809918800014741 0.00063357240344885212 0 -0.07820535745171163 0.001229036666906391 0 -0.07809918800014741 0.00063357240344885212 0 -0.07820535745171163 0.001229036666906391 0 -0.077317237090886448 0.0010929937983650427 0 -0.07820535745171163 0.001229036666906391 0 -0.07738191471974612 0.001694492521812319 0 -0.077803255043864927 0.0019295809199058728 0 -0.07634589583333698 0.0019116823111076425 0 -0.07738191471974612 0.001694492521812319 0 -0.077317237090886448 0.0010929937983650427 0 -0.076092808570446813 0.001223692428025377 0 -0.076710111202440645 0.00066145949133543727 0 -0.077317237090886448 0.0010929937983650427 0 -0.07634589583333698 0.0019116823111076425 0 -0.076092808570446813 0.001223692428025377 0 -0.077317237090886448 0.0010929937983650427 0 -0.07820535745171163 0.001229036666906391 0 -0.07738191471974612 0.001694492521812319 0 -0.077317237090886448 0.0010929937983650427 0 -0.084995091825821392 5.6444673305416219e-05 0 -0.084048108633548779 1.3425115355017199e-05 0 -0.085343792463327531 7.3420364202686169e-05 0 -0.084995091825821392 5.6444673305416219e-05 0 -0.085021688329562126 -0.00054432378199866622 0 -0.084048108633548779 1.3425115355017199e-05 0 -0.084171967825071581 -0.0010304849819993628 0 -0.085036455608721515 -0.001335729345435902 0 -0.085021688329562126 -0.00054432378199866622 0 -0.082535507173737893 -0.00082786101445224706 0 -0.084171967825071581 -0.0010304849819993628 0 -0.084048108633548779 1.3425115355017199e-05 0 -0.084171967825071581 -0.0010304849819993628 0 -0.085021688329562126 -0.00054432378199866622 0 -0.084048108633548779 1.3425115355017199e-05 0 -0.082535507173737893 -0.00082786101445224706 0 -0.080581046172976442 0.0008096529544561439 0 -0.082201217939752547 0.0016218916733486968 0 -0.082535507173737893 -0.00082786101445224706 0 -0.083538966276865398 0.0009663376482715694 0 -0.082201217939752547 0.0016218916733486968 0 -0.083538966276865398 0.0009663376482715694 0 -0.082201217939752547 0.0016218916733486968 0 -0.083390644621638074 0.0021272296644551623 0 -0.081182201290404335 0.0010031848972766187 0 -0.080799779343633762 0.0020030278833306496 0 -0.078971532648864681 0.0011844872825840038 0 -0.079246983088605324 0.0020175905518204935 0 -0.07820535745171163 0.001229036666906391 0 -0.078435618494202691 0.0011173864619289156 0 -0.078326586872460274 0.0012810193268572604 0 -0.07820535745171163 0.001229036666906391 0 -0.078326586872460274 0.0012810193268572604 0 -0.078256505443090846 0.001511120176890812 0 -0.078326586872460274 0.0012810193268572604 0 -0.07811789024964394 0.0013909058399664189 0 -0.077967440686497511 0.0011811395811763435 0 -0.078326586872460274 0.0012810193268572604 0 -0.077967440686497511 0.0011811395811763435 0 -0.078184267271782751 0.0010988203973499469 0 -0.078435618494202691 0.0011173864619289156 0 -0.078326586872460274 0.0012810193268572604 0 -0.07811789024964394 0.0013909058399664189 0 -0.079246983088605324 0.0020175905518204935 0 -0.078378614307424571 0.0028417466251811807 0 -0.080799779343633762 0.0020030278833306496 0 -0.077252109420579487 0.0033657078551770012 0 -0.083538966276865398 0.0009663376482715694 0 -0.083390644621638074 0.0021272296644551623 0 -0.084057075629515726 0.00210500666668214 0 -0.078378614307424571 0.0028417466251811807 0 -0.073873949807168604 0.0027479288555911359 0 -0.07811789024964394 0.0013909058399664189 0 -0.077967440686497511 0.0011811395811763435 0 -0.077402060352059057 0.0012776240873532451 0 -0.077967440686497511 0.0011811395811763435 0 -0.077402060352059057 0.0012776240873532451 0 -0.07755649324492811 0.00078034848914856252 0 -0.083390644621638074 0.0021272296644551623 0 -0.084042764882854754 0.0024251386280211562 0 -0.084057075629515726 0.00210500666668214 0 -0.084277864588551535 0.0026662636415056089 0 -0.084042764882854754 0.0024251386280211562 0 -0.084057075629515726 0.00210500666668214 0 -0.084874590416641124 0.00041244355387527168 0 -0.084995091825821392 5.6444673305416219e-05 0 -0.085343792463327531 7.3420364202686169e-05 0 0.0058937546019574337 -0.018884780354688921 0 0.0014204094728135206 -0.011151625299798613 0 -0.0014528775550981087 -0.019375629170652598 0 -0.076570589235542261 0.00080047168386384769 0 -0.077402060352059057 0.0012776240873532451 0 -0.07755649324492811 0.00078034848914856252 0 0.0014204094728135206 -0.011151625299798613 0 -0.005016173459728949 -0.016260443733101041 0 -0.0057631684616195706 -0.011461667113536253 0 -0.077967440686497511 0.0011811395811763435 0 -0.07755649324492811 0.00078034848914856252 0 -0.078184267271782751 0.0010988203973499469 0 -0.041173216076845535 -0.0047189900594270286 0 -0.042317372283446786 -0.0046045591719526919 0 0.0014204094728135206 -0.011151625299798613 0 -0.005016173459728949 -0.016260443733101041 0 -0.0014528775550981087 -0.019375629170652598 0 -0.005016173459728949 -0.016260443733101041 0 -0.0057631684616195706 -0.011461667113536253 0 -0.01277319157022928 -0.01165515423914293 0 -0.078326586872460274 0.0012810193268572604 0 -0.078184267271782751 0.0010988203973499469 0 -0.078256505443090846 0.001511120176890812 0 -0.042317372283446786 -0.0046045591719526919 0 -0.045143477403426925 -0.0041917061672139587 0 -0.005016173459728949 -0.016260443733101041 0 -0.01277319157022928 -0.01165515423914293 0 -0.012923487419536016 -0.01739940156632332 0 -0.0078241148972363842 -0.020130521828666047 0 -0.012923487419536016 -0.01739940156632332 0 -0.014231959448163006 -0.022583731219844982 0 -0.005016173459728949 -0.016260443733101041 0 -0.0078241148972363842 -0.020130521828666047 0 -0.012923487419536016 -0.01739940156632332 0 -0.014231959448163006 -0.022583731219844982 0 -0.014889979774280812 -0.026441745143042157 0 -0.0091666572275786173 -0.028043183111872989 0 -0.0078241148972363842 -0.020130521828666047 0 -0.014231959448163006 -0.022583731219844982 0 -0.0091666572275786173 -0.028043183111872989 0 -0.0078241148972363842 -0.020130521828666047 0 -0.0041734049750601354 -0.023875042316910532 0 -0.0091666572275786173 -0.028043183111872989 0 -0.0041734049750601354 -0.023875042316910532 0 -0.0023803593182734088 -0.026354980708984403 0 -0.0091666572275786173 -0.028043183111872989 0 -0.005016173459728949 -0.016260443733101041 0 -0.0078241148972363842 -0.020130521828666047 0 -0.0014528775550981087 -0.019375629170652598 0 -0.0078241148972363842 -0.020130521828666047 0 -0.0014528775550981087 -0.019375629170652598 0 -0.0041734049750601354 -0.023875042316910532 0 -0.0014528775550981087 -0.019375629170652598 0 -0.0041734049750601354 -0.023875042316910532 0 -0.0017276614211230977 -0.023098941291024098 0 -0.0014528775550981087 -0.019375629170652598 0 -0.0017276614211230977 -0.023098941291024098 0 0.00070172994108616744 -0.023079806340206985 0 -0.0041734049750601354 -0.023875042316910532 0 -0.0023803593182734088 -0.026354980708984403 0 -0.0017276614211230977 -0.023098941291024098 0 -0.0023803593182734088 -0.026354980708984403 0 -0.0017276614211230977 -0.023098941291024098 0 0.00070172994108616744 -0.023079806340206985 0 -0.0023803593182734088 -0.026354980708984403 0 0.00070172994108616744 -0.023079806340206985 0 0.0045968447196817943 -0.024838467497120643 0 0.018054510771674429 -0.01442921153826026 0 0.019009801863765698 -0.018299909065028642 0 0.0058937546019574337 -0.018884780354688921 0 -0.0014528775550981087 -0.019375629170652598 0 0.00070172994108616744 -0.023079806340206985 0 0.0058937546019574337 -0.018884780354688921 0 0.00070172994108616744 -0.023079806340206985 0 0.0045968447196817943 -0.024838467497120643 0 -0.023264459476593002 -0.015853860434897327 0 -0.029017868571016375 -0.01634860133208859 0 -0.024683195507222137 -0.020833165316740187 0 -0.023264459476593002 -0.015853860434897327 0 -0.029017868571016375 -0.01634860133208859 0 -0.026524582902663473 -0.011865554966009014 0 -0.033307107230712459 -0.01190928998023651 0 -0.029017868571016375 -0.01634860133208859 0 -0.026524582902663473 -0.011865554966009014 0 -0.07634589583333698 0.0019116823111076425 0 -0.07738191471974612 0.001694492521812319 0 -0.076877674278861288 0.0023481353798297444 0 -0.023264459476593002 -0.015853860434897327 0 -0.026524582902663473 -0.011865554966009014 0 -0.019684638115939988 -0.011778775879642506 0 -0.045019441193631562 -0.001339529847091032 0 -0.047266095093432374 -0.0032685091272455597 0 -0.07738191471974612 0.001694492521812319 0 -0.076877674278861288 0.0023481353798297444 0 -0.077803255043864927 0.0019295809199058728 0 -0.07820535745171163 0.001229036666906391 0 -0.078256505443090846 0.001511120176890812 0 -0.077803255043864927 0.0019295809199058728 0 -0.045143477403426925 -0.0041917061672139587 0 -0.047266095093432374 -0.0032685091272455597 0 -0.01277319157022928 -0.01165515423914293 0 -0.019684638115939988 -0.011778775879642506 0 -0.012923487419536016 -0.01739940156632332 0 -0.019684638115939988 -0.011778775879642506 0 -0.012923487419536016 -0.01739940156632332 0 -0.01896028975124461 -0.018800961909945985 0 -0.023264459476593002 -0.015853860434897327 0 -0.019684638115939988 -0.011778775879642506 0 -0.01896028975124461 -0.018800961909945985 0 -0.012923487419536016 -0.01739940156632332 0 -0.01896028975124461 -0.018800961909945985 0 -0.014231959448163006 -0.022583731219844982 0 -0.014231959448163006 -0.022583731219844982 0 -0.020285920700880308 -0.025339164708178614 0 -0.014889979774280812 -0.026441745143042157 0 -0.01896028975124461 -0.018800961909945985 0 -0.014231959448163006 -0.022583731219844982 0 -0.020285920700880308 -0.025339164708178614 0 0.013231056903486816 -0.0026155152792413576 0 0.0061488313401185483 -0.0032659283152373501 0 0.040827578061423869 0.014126425991386034 0 0.03980817173824918 0.014904652775592404 0 0.040297712163623003 0.013804485961241066 0 -0.023264459476593002 -0.015853860434897327 0 -0.01896028975124461 -0.018800961909945985 0 -0.024683195507222137 -0.020833165316740187 0 -0.01896028975124461 -0.018800961909945985 0 -0.020285920700880308 -0.025339164708178614 0 -0.024683195507222137 -0.020833165316740187 0 0.039035796037366295 0.014956879522027518 0 0.03980817173824918 0.014904652775592404 0 0.039119304946801929 0.014813277898388984 0 -0.0028972805991594728 -0.0027027098655127819 0 0.0061488313401185483 -0.0032659283152373501 0 0.03980817173824918 0.014904652775592404 0 0.039440434625110155 0.014269545886672652 0 0.040297712163623003 0.013804485961241066 0 0.03980817173824918 0.014904652775592404 0 0.039119304946801929 0.014813277898388984 0 0.039440434625110155 0.014269545886672652 0 0.039440434625110155 0.014269545886672652 0 0.039810699280897248 0.013444264444293466 0 0.038827888472862032 0.013015517281189855 0 0.039440434625110155 0.014269545886672652 0 0.039810699280897248 0.013444264444293466 0 0.040297712163623003 0.013804485961241066 0 0.038335405756121231 0.015606350100165674 0 0.038362776959214744 0.015888284122691939 0 0.038400589172672001 0.015774393318695235 0 0.038827888472862032 0.013015517281189855 0 0.039994171150666662 0.012210028761505627 0 0.039779675418903322 0.0095222718211914071 0 0.039920354474894566 0.014222933793683591 0 0.04154972742676457 0.013238453889408605 0 0.039810699280897248 0.013444264444293466 0 0.038827888472862032 0.013015517281189855 0 0.039994171150666662 0.012210028761505627 0 0.039810699280897248 0.013444264444293466 0 0.039994171150666662 0.012210028761505627 0 0.040624675803527244 0.013171830321178971 0 0.042519019374094622 0.011258742388221785 0 0.040825176358927115 0.011327457089290579 0 0.040624675803527244 0.013171830321178971 0 0.039994171150666662 0.012210028761505627 0 0.040825176358927115 0.011327457089290579 0 0.040624675803527244 0.013171830321178971 0 0.040827578061423869 0.014126425991386034 0 0.040297712163623003 0.013804485961241066 0 0.040813612016247926 0.013138315805165274 0 0.040624675803527244 0.013171830321178971 0 0.040297712163623003 0.013804485961241066 0 0.040813612016247926 0.013138315805165274 0 0.039810699280897248 0.013444264444293466 0 0.040624675803527244 0.013171830321178971 0 0.040297712163623003 0.013804485961241066 0 -0.020285920700880308 -0.025339164708178614 0 -0.014889979774280812 -0.026441745143042157 0 -0.01585891229922717 -0.029809190342471745 0 0.021603122726086516 -0.00053422777373974466 0 0.029380869645200532 0.0025975721290299337 0 0.013231056903486816 -0.0026155152792413576 0 0.021603122726086516 -0.00053422777373974466 0 0.040827578061423869 0.014126425991386034 0 0.041522501132854446 0.013335721558452336 0 0.040813612016247926 0.013138315805165274 0 -0.014889979774280812 -0.026441745143042157 0 -0.01585891229922717 -0.029809190342471745 0 -0.0091666572275786173 -0.028043183111872989 0 0.040920237230496433 0.013045581812904165 0 0.04091450719317747 0.013031401356109662 0 0.040921076878937819 0.012943056367961357 0 0.039895553338156337 0.0043449322437363021 0 0.036845125445857871 -0.0015417053906845001 0 0.021603122726086516 -0.00053422777373974466 0 0.036845125445857871 -0.0015417053906845001 0 0.044743760608977695 0.012533558683559359 0 0.046572682252820678 0.011076771363698373 0 0.048626669599260181 0.011353463533843592 0 0.044743760608977695 0.012533558683559359 0 0.0446863343195067 0.010544007363346743 0 0.046572682252820678 0.011076771363698373 0 0.042519019374094622 0.011258742388221785 0 0.040624675803527244 0.013171830321178971 0 0.044743760608977695 0.012533558683559359 0 0.040624675803527244 0.013171830321178971 0 0.040813612016247926 0.013138315805165274 0 0.04091450719317747 0.013031401356109662 0 0.040920237230496433 0.013045581812904165 0 0.040813612016247926 0.013138315805165274 0 0.04091450719317747 0.013031401356109662 0 0.039990937739196791 0.0060765608986269367 0 0.039895553338156337 0.0043449322437363021 0 0.042519019374094622 0.011258742388221785 0 0.044743760608977695 0.012533558683559359 0 0.0446863343195067 0.010544007363346743 0 0.042519019374094622 0.011258742388221785 0 0.0446863343195067 0.010544007363346743 0 0.043242799327703092 0.009749504047076139 0 0.0446863343195067 0.010544007363346743 0 0.044404582782726597 0.0089578094978804233 0 0.043242799327703092 0.009749504047076139 0 0.0446863343195067 0.010544007363346743 0 0.044404582782726597 0.0089578094978804233 0 0.046279287221877047 0.0091627462489562595 0 0.044404582782726597 0.0089578094978804233 0 0.043242799327703092 0.009749504047076139 0 0.043365751469044464 0.0081351155090707093 0 0.047260949844559121 0.0093629332340459497 0 0.049649248987009259 0.011529942341256164 0 0.049375237438187218 0.0080323379927245177 0 0.043537972818494843 0.0052371481699812908 0 0.036845125445857871 -0.0015417053906845001 0 0.046572682252820678 0.011076771363698373 0 0.046279287221877047 0.0091627462489562595 0 0.048626669599260181 0.011353463533843592 0 0.0446863343195067 0.010544007363346743 0 0.046572682252820678 0.011076771363698373 0 0.046279287221877047 0.0091627462489562595 0 0.048459719676465687 0.0062621839176431092 0 0.046002592280334847 0.0072439479093485831 0 0.050229740672841396 0.0074158219096696022 0 0.047260949844559121 0.0093629332340459497 0 0.046002592280334847 0.0072439479093485831 0 0.049375237438187218 0.0080323379927245177 0 0.047702022449936168 0.0018871273859020923 0 0.047551770119646529 0.00092248273235913099 0 0.048459719676465687 0.0062621839176431092 0 0.046002592280334847 0.0072439479093485831 0 0.046277329536661867 0.0056932114915810841 0 0.043242799327703092 0.009749504047076139 0 0.043365751469044464 0.0081351155090707093 0 0.041888247964783708 0.0081071816996717023 0 0.044404582782726597 0.0089578094978804233 0 0.043365751469044464 0.0081351155090707093 0 0.044282887826440472 0.0068562353789904567 0 0.047260949844559121 0.0093629332340459497 0 0.046002592280334847 0.0072439479093485831 0 0.044282887826440472 0.0068562353789904567 0 0.044404582782726597 0.0089578094978804233 0 0.046279287221877047 0.0091627462489562595 0 0.044282887826440472 0.0068562353789904567 0 0.043537972818494843 0.0052371481699812908 0 0.044343850514513998 0.0061348719416210408 0 0.046002592280334847 0.0072439479093485831 0 0.044560376763842183 0.0057093005619356565 0 0.046277329536661867 0.0056932114915810841 0 0.046002592280334847 0.0072439479093485831 0 0.044282887826440472 0.0068562353789904567 0 0.044560376763842183 0.0057093005619356565 0 0.044282887826440472 0.0068562353789904567 0 0.043162357209574016 0.0067714967165959485 0 0.044560376763842183 0.0057093005619356565 0 0.043365751469044464 0.0081351155090707093 0 0.044282887826440472 0.0068562353789904567 0 0.043162357209574016 0.0067714967165959485 0 0.04154972742676457 0.013238453889408605 0 0.045302050638227655 0.011711577832761338 0 0.043162357209574016 0.0067714967165959485 0 0.041888247964783708 0.0081071816996717023 0 0.04180227872476952 0.0048492238864867093 0 0.041888247964783708 0.0081071816996717023 0 0.039779675418903322 0.0095222718211914071 0 0.04180227872476952 0.0048492238864867093 0 0.038362776959214744 0.015888284122691939 0 0.038398387764672637 0.015874866968337363 0 0.03842987270040174 0.01586086739847252 0 0.043365751469044464 0.0081351155090707093 0 0.043162357209574016 0.0067714967165959485 0 0.041888247964783708 0.0081071816996717023 0 0.038397276115324661 0.015881988543940313 0 0.038362776959214744 0.015888284122691939 0 0.038417929067665946 0.015868168483671452 0 0.038397276115324661 0.015881988543940313 0 0.038362776959214744 0.015888284122691939 0 0.038398387764672637 0.015874866968337363 0 0.038397276115324661 0.015881988543940313 0 0.038398387764672637 0.015874866968337363 0 0.038414279100151459 0.015887246701665757 0 0.038362776959214744 0.015888284122691939 0 0.038417929067665946 0.015868168483671452 0 0.038400589172672001 0.015774393318695235 0 0.039994171150666662 0.012210028761505627 0 0.040825176358927115 0.011327457089290579 0 0.039779675418903322 0.0095222718211914071 0 0.040825176358927115 0.011327457089290579 0 0.039779675418903322 0.0095222718211914071 0 0.041496407845599305 0.0099374498115033291 0 0.042519019374094622 0.011258742388221785 0 0.043242799327703092 0.009749504047076139 0 0.041496407845599305 0.0099374498115033291 0 0.042519019374094622 0.011258742388221785 0 0.040825176358927115 0.011327457089290579 0 0.041496407845599305 0.0099374498115033291 0 0.043242799327703092 0.009749504047076139 0 0.041888247964783708 0.0081071816996717023 0 0.041496407845599305 0.0099374498115033291 0 0.041888247964783708 0.0081071816996717023 0 0.039779675418903322 0.0095222718211914071 0 0.041496407845599305 0.0099374498115033291 0 0.033683160884350374 -0.01795235234405133 0 0.034014869159506418 -0.018373433689663932 0 0.034124403211987675 -0.017688735927487369 0 0.033196307983310656 -0.017771508998957988 0 0.033613718471232061 -0.017542199630987583 0 0.033683160884350374 -0.01795235234405133 0 0.033613718471232061 -0.017542199630987583 0 0.033683160884350374 -0.01795235234405133 0 0.034124403211987675 -0.017688735927487369 0 0.033141815823496519 -0.018493994699877968 0 0.033683160884350374 -0.01795235234405133 0 0.034014869159506418 -0.018373433689663932 0 0.033141815823496519 -0.018493994699877968 0 0.033447789152067087 -0.019210314691344082 0 0.034014869159506418 -0.018373433689663932 0 0.034466968297741901 -0.01887303155170026 0 0.033447789152067087 -0.019210314691344082 0 0.034014869159506418 -0.018373433689663932 0 0.034014869159506418 -0.018373433689663932 0 0.034574840605944422 -0.018342891491847167 0 0.034623289971111429 -0.017963298496935787 0 0.034466968297741901 -0.01887303155170026 0 0.034574840605944422 -0.018342891491847167 0 0.035257147832102251 -0.018166496232481382 0 0.034466968297741901 -0.01887303155170026 0 0.034014869159506418 -0.018373433689663932 0 0.034574840605944422 -0.018342891491847167 0 0.034014869159506418 -0.018373433689663932 0 0.034623289971111429 -0.017963298496935787 0 0.034124403211987675 -0.017688735927487369 0 0.034623289971111429 -0.017963298496935787 0 0.034124403211987675 -0.017688735927487369 0 0.034840372729501232 -0.017304132702052638 0 0.037784518397723947 -0.011546361455239563 0 0.039094386291075083 -0.0079260664733575709 0 0.035163545582635812 -0.017602448090977871 0 0.036206568532187844 -0.017265431854928504 0 0.03488219900830164 -0.017002399337496289 0 0.034623289971111429 -0.017963298496935787 0 0.035163545582635812 -0.017602448090977871 0 0.03488219900830164 -0.017002399337496289 0 0.035163545582635812 -0.017602448090977871 0 0.035257147832102251 -0.018166496232481382 0 0.036206568532187844 -0.017265431854928504 0 0.034623289971111429 -0.017963298496935787 0 0.035163545582635812 -0.017602448090977871 0 0.035257147832102251 -0.018166496232481382 0 0.018054510771674429 -0.01442921153826026 0 0.011427681558955178 -0.011557526922808172 0 0.018541534921872424 -0.010793938848794961 0 0.022185119206290817 -0.007320275892480195 0 0.024165317518981946 -0.0091629034210164179 0 0.018054510771674429 -0.01442921153826026 0 0.026938099816833667 -0.0094760828025200212 0 0.034574840605944422 -0.018342891491847167 0 0.034623289971111429 -0.017963298496935787 0 0.035257147832102251 -0.018166496232481382 0 0.021603122726086516 -0.00053422777373974466 0 0.011427681558955178 -0.011557526922808172 0 0.022185119206290817 -0.007320275892480195 0 0.024165317518981946 -0.0091629034210164179 0 0.025635944128728296 -0.006384803485743969 0 0.029752460392724452 -0.0075519985058465902 0 0.024165317518981946 -0.0091629034210164179 0 0.025635944128728296 -0.006384803485743969 0 0.026938099816833667 -0.0094760828025200212 0 0.036845125445857871 -0.0015417053906845001 0 0.022185119206290817 -0.007320275892480195 0 0.025635944128728296 -0.006384803485743969 0 0.025987055321545785 -0.0037390467985322345 0 0.029752460392724452 -0.0075519985058465902 0 0.025635944128728296 -0.006384803485743969 0 0.025987055321545785 -0.0037390467985322345 0 0.036845125445857871 -0.0015417053906845001 0 0.043195147292094532 -0.0029979234701617138 0 0.049649248987009259 0.011529942341256164 0 0.049375237438187218 0.0080323379927245177 0 0.052466138004860441 0.0086401481989657261 0 0.038509509286005612 -0.0027499981076454147 0 0.042088748540179508 -0.0063642746814246021 0 0.041041018705308657 -0.0043617769995669999 0 0.047551770119646529 0.00092248273235913099 0 0.043195147292094532 -0.0029979234701617138 0 0.050229740672841396 0.0074158219096696022 0 0.050600688284583646 0.0066287008101760603 0 0.05052734140653152 0.0066766472252808183 0 0.048459719676465687 0.0062621839176431092 0 0.050229740672841396 0.0074158219096696022 0 0.050899265911315154 0.0063289535137946796 0 0.050229740672841396 0.0074158219096696022 0 0.050899265911315154 0.0063289535137946796 0 0.05052734140653152 0.0066766472252808183 0 0.050899265911315154 0.0063289535137946796 0 0.05052734140653152 0.0066766472252808183 0 0.049919804679908975 0.0070143454733962588 0 0.05052734140653152 0.0066766472252808183 0 0.050579810370780187 0.0065930329684670197 0 0.049919804679908975 0.0070143454733962588 0 0.044507563423466921 -0.004464585048893163 0 0.045113406811849548 -0.0050797279119157209 0 0.044272829848689327 -0.0052048757081868445 0 0.04327975716163323 -0.0032566372649111604 0 0.048612829876836239 -0.0017684534481546312 0 0.050600688284583646 0.0066287008101760603 0 0.05052734140653152 0.0066766472252808183 0 0.050579810370780187 0.0065930329684670197 0 0.04251167473365422 -0.0084656933694119245 0 0.042460575625497411 -0.0086227555810235636 0 0.041455085238248632 -0.0074063925338615604 0 0.04327975716163323 -0.0032566372649111604 0 0.042562163579131847 -0.0037585848406222495 0 0.04197929678223989 -0.00094685182029471894 0 0.045202886132530075 -0.0042054938537687487 0 0.046559093051769342 -2.4714234650706378e-05 0 0.043195147292094532 -0.0029979234701617138 0 0.042562163579131847 -0.0037585848406222495 0 0.043195147292094532 -0.0029979234701617138 0 0.04327975716163323 -0.0032566372649111604 0 0.042562163579131847 -0.0037585848406222495 0 0.039094386291075083 -0.0079260664733575709 0 0.042579541094025099 -0.0062660016925811229 0 0.041041018705308657 -0.0043617769995669999 0 0.043372416104383818 -0.0038153204691340039 0 0.038509509286005612 -0.0027499981076454147 0 0.041041018705308657 -0.0043617769995669999 0 0.043372416104383818 -0.0038153204691340039 0 0.036845125445857871 -0.0015417053906845001 0 0.039094386291075083 -0.0079260664733575709 0 0.042088748540179508 -0.0063642746814246021 0 0.042579541094025099 -0.0062660016925811229 0 0.041041018705308657 -0.0043617769995669999 0 0.042562163579131847 -0.0037585848406222495 0 0.037484956495307226 -0.0092442241333754189 0 0.039094386291075083 -0.0079260664733575709 0 0.037484956495307226 -0.0092442241333754189 0 0.038545971744337819 -0.0078873591886046771 0 0.038642983601375212 -0.0075840357606821521 0 0.039268702410721328 -0.0077532534369599126 0 0.034124403211987675 -0.017688735927487369 0 0.034840372729501232 -0.017304132702052638 0 0.033815603969931884 -0.017076517453710745 0 0.042460575625497411 -0.0086227555810235636 0 0.040404882395902529 -0.0090546837829322008 0 0.041455085238248632 -0.0074063925338615604 0 0.04327975716163323 -0.0032566372649111604 0 0.044925093776893202 -0.0060457552008318441 0 0.039897427607529047 -0.0076597442742904727 0 0.040404882395902529 -0.0090546837829322008 0 0.041455085238248632 -0.0074063925338615604 0 0.036280224185031532 -0.0099709878731900937 0 0.037484956495307226 -0.0092442241333754189 0 0.033613718471232061 -0.017542199630987583 0 0.034124403211987675 -0.017688735927487369 0 0.033815603969931884 -0.017076517453710745 0 0.033264788152439335 -0.017222073405305301 0 0.033613718471232061 -0.017542199630987583 0 0.033815603969931884 -0.017076517453710745 0 0.043148354568893182 -0.010626319902144162 0 0.046315917668795822 -0.011518899960094088 0 0.044819143031780785 -0.01333525475358617 0 0.046315917668795822 -0.011518899960094088 0 0.044819143031780785 -0.01333525475358617 0 0.047343401754024399 -0.01329631727296279 0 0.043978119115992094 -0.016338727789720071 0 0.044819143031780785 -0.01333525475358617 0 0.04690022383537229 -0.014923587727360001 0 0.043978119115992094 -0.016338727789720071 0 0.04690022383537229 -0.014923587727360001 0 0.047733614093288995 -0.015760721503233266 0 0.04172836445599306 -0.0089037948900784723 0 0.044925093776893202 -0.0060457552008318441 0 0.044819143031780785 -0.01333525475358617 0 0.04690022383537229 -0.014923587727360001 0 0.047343401754024399 -0.01329631727296279 0 0.04690022383537229 -0.014923587727360001 0 0.048420997100174487 -0.014502257323152135 0 0.047343401754024399 -0.01329631727296279 0 0.04690022383537229 -0.014923587727360001 0 0.04770292415176576 -0.015660851365250073 0 0.048420997100174487 -0.014502257323152135 0 0.045269291866617177 -0.0065224924208981787 0 0.044925093776893202 -0.0060457552008318441 0 0.048420997100174487 -0.014502257323152135 0 0.047343401754024399 -0.01329631727296279 0 0.049167466131863902 -0.013500241685100181 0 0.047343401754024399 -0.01329631727296279 0 0.048555639302831285 -0.011967791274761136 0 0.049167466131863902 -0.013500241685100181 0 0.046315917668795822 -0.011518899960094088 0 0.047343401754024399 -0.01329631727296279 0 0.048555639302831285 -0.011967791274761136 0 0.046315917668795822 -0.011518899960094088 0 0.048555639302831285 -0.011967791274761136 0 0.048926972981059247 -0.010334334634045775 0 0.048555639302831285 -0.011967791274761136 0 0.049167466131863902 -0.013500241685100181 0 0.052014354833244687 -0.011382904121152412 0 0.049167466131863902 -0.013500241685100181 0 0.050848182415685797 -0.015064542897211609 0 0.052014354833244687 -0.011382904121152412 0 0.04770292415176576 -0.015660851365250073 0 0.048420997100174487 -0.014502257323152135 0 0.050848182415685797 -0.015064542897211609 0 0.044925093776893202 -0.0060457552008318441 0 0.048612829876836239 -0.0017684534481546312 0 0.048420997100174487 -0.014502257323152135 0 0.049167466131863902 -0.013500241685100181 0 0.050848182415685797 -0.015064542897211609 0 0.050899265911315154 0.0063289535137946796 0 0.049919804679908975 0.0070143454733962588 0 0.052362154531699706 0.0084347135988091966 0 0.060686017307613561 0.0095149405610828568 0 0.059583965111320719 0.0093625694133638287 0 0.060174616660504783 0.0077435096406435391 0 0.048612829876836239 -0.0017684534481546312 0 0.053655569639165783 0.0013325270950417971 0 0.059583965111320719 0.0093625694133638287 0 0.060174616660504783 0.0077435096406435391 0 0.059196535897984057 0.0082967912353277117 0 0.048612829876836239 -0.0017684534481546312 0 0.053092582217516032 -0.0011788896990011367 0 0.053092582217516032 -0.0011788896990011367 0 0.055346326241986481 -0.00086653889408811239 0 0.060174616660504783 0.0077435096406435391 0 0.059913533171150592 0.0059851289917839164 0 0.058869063039773087 0.0073677692629833987 0 0.052014354833244687 -0.011382904121152412 0 0.053243892038784546 -0.0086595218027939423 0 0.05077641531263527 -0.0090073060756362955 0 0.053243892038784546 -0.0086595218027939423 0 0.05077641531263527 -0.0090073060756362955 0 0.050824615502838975 -0.0070468256136922598 0 0.05077641531263527 -0.0090073060756362955 0 0.0478629379200727 -0.0080879842831470556 0 0.050824615502838975 -0.0070468256136922598 0 0.048555639302831285 -0.011967791274761136 0 0.052014354833244687 -0.011382904121152412 0 0.048926972981059247 -0.010334334634045775 0 0.052014354833244687 -0.011382904121152412 0 0.05077641531263527 -0.0090073060756362955 0 0.048926972981059247 -0.010334334634045775 0 0.046315917668795822 -0.011518899960094088 0 0.048926972981059247 -0.010334334634045775 0 0.045368062571436281 -0.0091689857186888699 0 0.047723359409147084 -0.0087090178418235166 0 0.046764423069464364 -0.0070479508351421289 0 0.048926972981059247 -0.010334334634045775 0 0.045368062571436281 -0.0091689857186888699 0 0.045988323258984352 -0.0059842304656382902 0 0.05077641531263527 -0.0090073060756362955 0 0.048926972981059247 -0.010334334634045775 0 0.0478629379200727 -0.0080879842831470556 0 0.042844216472498274 -0.0074607761460261024 0 0.045988323258984352 -0.0059842304656382902 0 0.042902805272885244 -0.0052416456009042323 0 0.042844216472498274 -0.0074607761460261024 0 0.045368062571436281 -0.0091689857186888699 0 0.045988323258984352 -0.0059842304656382902 0 0.043148354568893182 -0.010626319902144162 0 0.046315917668795822 -0.011518899960094088 0 0.045368062571436281 -0.0091689857186888699 0 0.043148354568893182 -0.010626319902144162 0 0.042844216472498274 -0.0074607761460261024 0 0.045368062571436281 -0.0091689857186888699 0 0.057114783310621496 0.0087682714846466711 0 0.057703204494625591 0.0084421559647387453 0 0.056945770833636236 0.0079199104656598185 0 0.057114783310621496 0.0087682714846466711 0 0.056013306328360435 0.0083925730352581995 0 0.056945770833636236 0.0079199104656598185 0 0.051661293064317611 0.010308632091214652 0 0.053886399581648543 0.0092463427553934104 0 0.051647239172274879 0.010432150092543219 0 0.051661293064317611 0.010308632091214652 0 0.048277633813149243 0.011433611608372189 0 0.048199286558059252 0.011412206322861213 0 0.048229128741681955 0.011454316498201108 0 0.048199286558059252 0.011412206322861213 0 0.048229128741681955 0.011454316498201108 0 0.048191434104438033 0.011462798312136585 0 0.048229128741681955 0.011454316498201108 0 0.048220616635767696 0.011498163375749479 0 0.04826668602152074 0.011460273931686712 0 0.048191434104438033 0.011462798312136585 0 0.048220616635767696 0.011498163375749479 0 0.048157595661510788 0.011514476849560053 0 0.044311718213100385 0.013072683059834278 0 0.044430718642071459 0.01410801656715489 0 0.048229128741681955 0.011454316498201108 0 0.048191434104438033 0.011462798312136585 0 0.048220616635767696 0.011498163375749479 0 0.048220616635767696 0.011498163375749479 0 0.04826668602152074 0.011460273931686712 0 0.048285894419376862 0.011478894120433066 0 0.044311718213100385 0.013072683059834278 0 0.045302050638227655 0.011711577832761338 0 0.048277633813149243 0.011433611608372189 0 0.048229128741681955 0.011454316498201108 0 0.04826668602152074 0.011460273931686712 0 0.048277633813149243 0.011433611608372189 0 0.04826668602152074 0.011460273931686712 0 0.048295059853046038 0.011460602392069988 0 0.04826668602152074 0.011460273931686712 0 0.048295059853046038 0.011460602392069988 0 0.048285894419376862 0.011478894120433066 0 0.045339256805609379 0.011679573887910712 0 0.045302050638227655 0.011711577832761338 0 0.04180227872476952 0.0048492238864867093 0 0.044560376763842183 0.0057093005619356565 0 0.045626873524497194 0.0038386803461042413 0 0.048295059853046038 0.011460602392069988 0 0.048286224199793726 0.011475692043497184 0 0.048362710899792404 0.011449790880040443 0 0.048277633813149243 0.011433611608372189 0 0.048295059853046038 0.011460602392069988 0 0.048362710899792404 0.011449790880040443 0 0.051647239172274879 0.010432150092543219 0 0.049777792530467949 0.010180786158604505 0 0.045302050638227655 0.011711577832761338 0 0.049777792530467949 0.010180786158604505 0 0.043162357209574016 0.0067714967165959485 0 0.04180227872476952 0.0048492238864867093 0 0.044560376763842183 0.0057093005619356565 0 0.044560376763842183 0.0057093005619356565 0 0.045626873524497194 0.0038386803461042413 0 0.046277329536661867 0.0056932114915810841 0 0.058343634508490567 0.0090027270618722784 0 0.058314607726174368 0.0088160142581509456 0 0.057703204494625591 0.0084421559647387453 0 0.058586261807516422 0.0089166371916644324 0 0.058343634508490567 0.0090027270618722784 0 0.058314607726174368 0.0088160142581509456 0 0.049843711931430716 0.010168109667191593 0 0.049777792530467949 0.010180786158604505 0 0.059583965111320719 0.0093625694133638287 0 0.057977481230691463 0.0090743134526794934 0 0.058621017553126729 0.008727597274794642 0 0.050899265911315154 0.0063289535137946796 0 0.052362154531699706 0.0084347135988091966 0 0.057977481230691463 0.0090743134526794934 0 0.050899265911315154 0.0063289535137946796 0 0.058586261807516422 0.0089166371916644324 0 0.057977481230691463 0.0090743134526794934 0 0.048459719676465687 0.0062621839176431092 0 0.050899265911315154 0.0063289535137946796 0 0.045626873524497194 0.0038386803461042413 0 0.050899265911315154 0.0063289535137946796 0 0.058586261807516422 0.0089166371916644324 0 0.059293598485007842 0.0087293153932663792 0 0.053655569639165783 0.0013325270950417971 0 0.05511532365019025 0.0022793158015173244 0 0.050279885615348387 0.0092738457124683562 0 0.049777792530467949 0.010180786158604505 0 0.048459719676465687 0.0062621839176431092 0 0.045626873524497194 0.0038386803461042413 0 0.046277329536661867 0.0056932114915810841 0 0.058586261807516422 0.0089166371916644324 0 0.058314607726174368 0.0088160142581509456 0 0.057977481230691463 0.0090743134526794934 0 0.058314607726174368 0.0088160142581509456 0 0.057977481230691463 0.0090743134526794934 0 0.058621017553126729 0.008727597274794642 0 0.059583965111320719 0.0093625694133638287 0 0.058621017553126729 0.008727597274794642 0 0.059196535897984057 0.0082967912353277117 0 0.060174616660504783 0.0077435096406435391 0 0.059196535897984057 0.0082967912353277117 0 0.058869063039773087 0.0073677692629833987 0 0.058621017553126729 0.008727597274794642 0 0.059196535897984057 0.0082967912353277117 0 0.058512499967202251 0.0083311500706658628 0 0.058314607726174368 0.0088160142581509456 0 0.058621017553126729 0.008727597274794642 0 0.058512499967202251 0.0083311500706658628 0 0.058512499967202251 0.0083311500706658628 0 0.058237139757812723 0.0079122794487369672 0 0.058869063039773087 0.0073677692629833987 0 0.059196535897984057 0.0082967912353277117 0 0.058512499967202251 0.0083311500706658628 0 0.058869063039773087 0.0073677692629833987 0 0.057114783310621496 0.0087682714846466711 0 0.058343634508490567 0.0090027270618722784 0 0.057703204494625591 0.0084421559647387453 0 0.057703204494625591 0.0084421559647387453 0 0.058237139757812723 0.0079122794487369672 0 0.057811772390889277 0.0074129135672958233 0 0.058314607726174368 0.0088160142581509456 0 0.058512499967202251 0.0083311500706658628 0 0.057703204494625591 0.0084421559647387453 0 0.058512499967202251 0.0083311500706658628 0 0.057703204494625591 0.0084421559647387453 0 0.058237139757812723 0.0079122794487369672 0 0.058237139757812723 0.0079122794487369672 0 0.057811772390889277 0.0074129135672958233 0 0.058869063039773087 0.0073677692629833987 0 0.057811772390889277 0.0074129135672958233 0 0.058869063039773087 0.0073677692629833987 0 0.058150892290301508 0.0059393622075371837 0 0.059913533171150592 0.0059851289917839164 0 0.058869063039773087 0.0073677692629833987 0 0.058150892290301508 0.0059393622075371837 0 0.058150892290301508 0.0059393622075371837 0 0.056690072110607073 0.0064356261025973888 0 0.05609778173792998 0.0045263108354448092 0 0.057811772390889277 0.0074129135672958233 0 0.058150892290301508 0.0059393622075371837 0 0.056690072110607073 0.0064356261025973888 0 0.057703204494625591 0.0084421559647387453 0 0.057811772390889277 0.0074129135672958233 0 0.056945770833636236 0.0079199104656598185 0 0.057811772390889277 0.0074129135672958233 0 0.056690072110607073 0.0064356261025973888 0 0.056945770833636236 0.0079199104656598185 0 0.054926454514548632 0.0094579188388260686 0 0.055382709595852161 0.0072765482004618692 0 0.054066869023035667 0.0081281347753628577 0 0.056690072110607073 0.0064356261025973888 0 0.056945770833636236 0.0079199104656598185 0 0.055382709595852161 0.0072765482004618692 0 0.054926454514548632 0.0094579188388260686 0 0.056945770833636236 0.0079199104656598185 0 0.055382709595852161 0.0072765482004618692 0 0.055508541063733881 0.0060062602761922386 0 0.053745337317672358 0.0058924887752899247 0 0.05609778173792998 0.0045263108354448092 0 0.056690072110607073 0.0064356261025973888 0 0.055508541063733881 0.0060062602761922386 0 0.05609778173792998 0.0045263108354448092 0 0.055382709595852161 0.0072765482004618692 0 0.055508541063733881 0.0060062602761922386 0 0.053745337317672358 0.0058924887752899247 0 0.056690072110607073 0.0064356261025973888 0 0.055382709595852161 0.0072765482004618692 0 0.055508541063733881 0.0060062602761922386 0 0.056422500158694801 0.0057169035110339397 0 0.055153338183216084 0.005528989916841749 0 0.054945789815444769 0.0062096753581330454 0 0.056422500158694801 0.0057169035110339397 0 0.055153338183216084 0.005528989916841749 0 0.055804922873576253 0.0050689801184226196 0 0.056422500158694801 0.0057169035110339397 0 0.054945789815444769 0.0062096753581330454 0 0.055097274005424988 0.0070517847695743601 0 0.050825530030551 0.0096665240735365494 0 0.052802843599874014 0.0079314520464486647 0 0.050935897526959623 0.011530333913418333 0 0.054471583753885645 0.0062421196903249734 0 0.051518752130339796 0.0087144451858763364 0 0.053745337317672358 0.0058924887752899247 0 0.050112822964498434 0.0085761551548283726 0 0.051145316853897366 0.0084217735134650192 0 0.049707561225572884 0.0087631509196634191 0 0.050825530030551 0.0096665240735365494 0 0.049511646430442445 0.010991439398729428 0 0.049707561225572884 0.0087631509196634191 0 0.050825530030551 0.0096665240735365494 0 0.051145316853897366 0.0084217735134650192 0 0.051518752130339796 0.0087144451858763364 0 0.051484936257846614 0.0087166747078023226 0 0.050825530030551 0.0096665240735365494 0 0.051145316853897366 0.0084217735134650192 0 0.052802843599874014 0.0079314520464486647 0 0.054066869023035667 0.0081281347753628577 0 0.052802843599874014 0.0079314520464486647 0 0.053266852957798309 0.0090630230255874557 0 0.053745337317672358 0.0058924887752899247 0 0.051145316853897366 0.0084217735134650192 0 0.052802843599874014 0.0079314520464486647 0 0.055382709595852161 0.0072765482004618692 0 0.053745337317672358 0.0058924887752899247 0 0.054066869023035667 0.0081281347753628577 0 0.053745337317672358 0.0058924887752899247 0 0.054066869023035667 0.0081281347753628577 0 0.052802843599874014 0.0079314520464486647 0 0.05169494901583515 0.010010018225133808 0 0.048504140371885593 0.011489985177499855 0 0.049435017041717426 0.0097622707923531171 0 0.050340775795558769 0.0089019575666846023 0 0.05169494901583515 0.010010018225133808 0 0.051214955051223185 0.007573326816222966 0 0.050340775795558769 0.0089019575666846023 0 0.049435017041717426 0.0097622707923531171 0 0.048945101325237488 0.008250633911926394 0 0.050340775795558769 0.0089019575666846023 0 0.05169494901583515 0.010010018225133808 0 0.049435017041717426 0.0097622707923531171 0 0.055153338183216084 0.005528989916841749 0 0.053634244878161298 0.0060253076596661218 0 0.054899406467892514 0.004452935888660501 0 0.055153338183216084 0.005528989916841749 0 0.054945789815444769 0.0062096753581330454 0 0.053634244878161298 0.0060253076596661218 0 0.054945789815444769 0.0062096753581330454 0 0.053634244878161298 0.0060253076596661218 0 0.054356676924705465 0.0067101884132550775 0 0.055097274005424988 0.0070517847695743601 0 0.054356676924705465 0.0067101884132550775 0 0.053743190476462602 0.0073839588426302854 0 0.048865387884687979 0.010032547840378171 0 0.04618579945627721 0.010696472703941501 0 0.047207657484798562 0.011599319711995907 0 0.053634244878161298 0.0060253076596661218 0 0.054356676924705465 0.0067101884132550775 0 0.053743190476462602 0.0073839588426302854 0 0.051518752130339796 0.0087144451858763364 0 0.049852049480279451 0.0096009528485118574 0 0.054945789815444769 0.0062096753581330454 0 0.055097274005424988 0.0070517847695743601 0 0.054356676924705465 0.0067101884132550775 0 0.051518752130339796 0.0087144451858763364 0 0.050499714051485033 0.0095541273808263088 0 0.051673388053139591 0.0078732965216113445 0 0.047805649284081611 0.010728252681356165 0 0.053634244878161298 0.0060253076596661218 0 0.053743190476462602 0.0073839588426302854 0 0.052348636584886206 0.0077027067787459767 0 0.05169494901583515 0.010010018225133808 0 0.048672049215703485 0.013939480006661538 0 0.048504140371885593 0.011489985177499855 0 0.049852049480279451 0.0096009528485118574 0 0.047805649284081611 0.010728252681356165 0 0.04618579945627721 0.010696472703941501 0 0.044526762086387693 0.012071510154145742 0 0.043359677069769148 0.011802596107765122 0 0.04404567946496888 0.013060150722798534 0 0.044526762086387693 0.012071510154145742 0 0.045400724662256052 0.012160540559639872 0 0.04404567946496888 0.013060150722798534 0 0.045400724662256052 0.012160540559639872 0 0.044994016355900779 0.013368951002497987 0 0.04404567946496888 0.013060150722798534 0 0.044526762086387693 0.012071510154145742 0 0.043654976473827378 0.012583948780241784 0 0.04618579945627721 0.010696472703941501 0 0.044526762086387693 0.012071510154145742 0 0.045400724662256052 0.012160540559639872 0 0.045400724662256052 0.012160540559639872 0 0.044994016355900779 0.013368951002497987 0 0.046101285848044612 0.012896470732038895 0 0.045400724662256052 0.012160540559639872 0 0.046101285848044612 0.012896470732038895 0 0.047207657484798562 0.011599319711995907 0 0.046101285848044612 0.012896470732038895 0 0.047207657484798562 0.011599319711995907 0 0.047188352825193944 0.01340954918890223 0 0.04618579945627721 0.010696472703941501 0 0.045400724662256052 0.012160540559639872 0 0.047207657484798562 0.011599319711995907 0 0.049707561225572884 0.0087631509196634191 0 0.047207657484798562 0.011599319711995907 0 0.049511646430442445 0.010991439398729428 0 0.047207657484798562 0.011599319711995907 0 0.049070077126816644 0.012815798214426768 0 0.049511646430442445 0.010991439398729428 0 0.047207657484798562 0.011599319711995907 0 0.049070077126816644 0.012815798214426768 0 0.047188352825193944 0.01340954918890223 0 0.049070077126816644 0.012815798214426768 0 0.047811131624209094 0.015237276242250724 0 0.047188352825193944 0.01340954918890223 0 0.047811131624209094 0.015237276242250724 0 0.047188352825193944 0.01340954918890223 0 0.045983183111954075 0.014437273682562321 0 0.046101285848044612 0.012896470732038895 0 0.047188352825193944 0.01340954918890223 0 0.045983183111954075 0.014437273682562321 0 0.045983183111954075 0.014437273682562321 0 0.043589087507730086 0.01622275700470175 0 0.043714357398843245 0.015047293920914426 0 0.047811131624209094 0.015237276242250724 0 0.045983183111954075 0.014437273682562321 0 0.043589087507730086 0.01622275700470175 0 0.044994016355900779 0.013368951002497987 0 0.046101285848044612 0.012896470732038895 0 0.045983183111954075 0.014437273682562321 0 0.044994016355900779 0.013368951002497987 0 0.045983183111954075 0.014437273682562321 0 0.044781438343359473 0.014252516751163704 0 0.045983183111954075 0.014437273682562321 0 0.044781438343359473 0.014252516751163704 0 0.043714357398843245 0.015047293920914426 0 0.044781438343359473 0.014252516751163704 0 0.043835476351129728 0.014213058674440979 0 0.043714357398843245 0.015047293920914426 0 0.044994016355900779 0.013368951002497987 0 0.044781438343359473 0.014252516751163704 0 0.043835476351129728 0.014213058674440979 0 0.04404567946496888 0.013060150722798534 0 0.044994016355900779 0.013368951002497987 0 0.043835476351129728 0.014213058674440979 0 0.049225725938860619 0.010776633751452427 0 0.048557700282312835 0.012092304478499313 0 0.052802843599874014 0.0079314520464486647 0 0.053425703655805297 0.010232235664145871 0 0.053266852957798309 0.0090630230255874557 0 0.048199286558059252 0.011412206322861213 0 0.048191434104438033 0.011462798312136585 0 0.048150960764075858 0.011437331393315276 0 0.051661293064317611 0.010308632091214652 0 0.048557700282312835 0.012092304478499313 0 0.051661293064317611 0.010308632091214652 0 0.052083366576242823 0.010322739011896802 0 0.054671860260698632 0.0095784135030719426 0 0.053425703655805297 0.010232235664145871 0 0.053266852957798309 0.0090630230255874557 0 0.054926454514548632 0.0094579188388260686 0 0.054066869023035667 0.0081281347753628577 0 0.053266852957798309 0.0090630230255874557 0 0.052802843599874014 0.0079314520464486647 0 0.053547587325954944 0.012838755103173952 0 0.050935897526959623 0.011530333913418333 0 0.049070077126816644 0.012815798214426768 0 0.053547587325954944 0.012838755103173952 0 0.050935897526959623 0.011530333913418333 0 0.049070077126816644 0.012815798214426768 0 0.050935897526959623 0.011530333913418333 0 0.049511646430442445 0.010991439398729428 0 0.050825530030551 0.0096665240735365494 0 0.050935897526959623 0.011530333913418333 0 0.049511646430442445 0.010991439398729428 0 0.049070077126816644 0.012815798214426768 0 0.047811131624209094 0.015237276242250724 0 0.053547587325954944 0.012838755103173952 0 0.046742397654164533 0.014077321475564817 0 0.048557700282312835 0.012092304478499313 0 0.045798897860792658 0.015148055228004376 0 0.047864276102855229 0.014112245720335575 0 0.04705527160473652 0.015075674974061006 0 0.04705527160473652 0.015075674974061006 0 0.046770356687760341 0.015518310214058908 0 0.048144768872690438 0.015692974958382826 0 0.045798897860792658 0.015148055228004376 0 0.04705527160473652 0.015075674974061006 0 0.046770356687760341 0.015518310214058908 0 0.048557700282312835 0.012092304478499313 0 0.044430718642071459 0.01410801656715489 0 0.048191434104438033 0.011462798312136585 0 0.048150960764075858 0.011437331393315276 0 0.048157595661510788 0.011514476849560053 0 0.047864276102855229 0.014112245720335575 0 0.04705527160473652 0.015075674974061006 0 0.048144768872690438 0.015692974958382826 0 0.038397276115324661 0.015881988543940313 0 0.038414279100151459 0.015887246701665757 0 0.038417929067665946 0.015868168483671452 0 0.038542099916749256 0.016762262845483752 0 0.038452605395383692 0.016310831868472674 0 0.038866168855492628 0.016467688738746246 0 0.044430718642071459 0.01410801656715489 0 0.043001170859799542 0.014854606685945074 0 0.043001170859799542 0.014854606685945074 0 0.042545177743955907 0.015010341264168642 0 0.038452605395383692 0.016310831868472674 0 0.038700812906257966 0.015943443328470839 0 0.038400589172672001 0.015774393318695235 0 0.038452605395383692 0.016310831868472674 0 0.038753975995125645 0.0162101450260899 0 0.038700812906257966 0.015943443328470839 0 0.038452605395383692 0.016310831868472674 0 0.038753975995125645 0.0162101450260899 0 0.038866168855492628 0.016467688738746246 0 0.038986074959987946 0.01611869394918311 0 0.039175964461370394 0.016298159027281475 0 0.039240692050879614 0.016001177495498467 0 0.038753975995125645 0.0162101450260899 0 0.038700812906257966 0.015943443328470839 0 0.038986074959987946 0.01611869394918311 0 0.038753975995125645 0.0162101450260899 0 0.038986074959987946 0.01611869394918311 0 0.038866168855492628 0.016467688738746246 0 0.038986074959987946 0.01611869394918311 0 0.039175964461370394 0.016298159027281475 0 0.038866168855492628 0.016467688738746246 0 0.044430718642071459 0.01410801656715489 0 0.042769028815819031 0.015466847343037151 0 0.039175964461370394 0.016298159027281475 0 0.038866168855492628 0.016467688738746246 0 0.039245602391251216 0.016654666689636995 0 0.038542099916749256 0.016762262845483752 0 0.038866168855492628 0.016467688738746246 0 0.039245602391251216 0.016654666689636995 0 0.046770356687760341 0.015518310214058908 0 0.048144768872690438 0.015692974958382826 0 0.046077928789569893 0.016149505518050552 0 0.045798897860792658 0.015148055228004376 0 0.046770356687760341 0.015518310214058908 0 0.046077928789569893 0.016149505518050552 0 0.042769028815819031 0.015466847343037151 0 0.042051856552202747 0.016030854696961788 0 0.045798897860792658 0.015148055228004376 0 0.046077928789569893 0.016149505518050552 0 0.044849620668623809 0.016048171253521523 0 0.046077928789569893 0.016149505518050552 0 0.044849620668623809 0.016048171253521523 0 0.043912397289237522 0.016668654997788267 0 0.045798897860792658 0.015148055228004376 0 0.044849620668623809 0.016048171253521523 0 0.043589087507730086 0.01622275700470175 0 0.039245602391251216 0.016654666689636995 0 0.040060923686940135 0.016644722738716068 0 0.039783822831898401 0.016420086717682532 0 0.046742397654164533 0.014077321475564817 0 0.045240876586320582 0.01504619821196306 0 0.044849620668623809 0.016048171253521523 0 0.043912397289237522 0.016668654997788267 0 0.043589087507730086 0.01622275700470175 0 0.039927505275432068 0.016143098060140786 0 0.039515720802748282 0.016229042066414717 0 0.039422093187329969 0.015673534218612378 0 0.039783822831898401 0.016420086717682532 0 0.039927505275432068 0.016143098060140786 0 0.040270417478749328 0.016392725680646696 0 0.040060923686940135 0.016644722738716068 0 0.039783822831898401 0.016420086717682532 0 0.040270417478749328 0.016392725680646696 0 0.039783822831898401 0.016420086717682532 0 0.039927505275432068 0.016143098060140786 0 0.039515720802748282 0.016229042066414717 0 0.039245602391251216 0.016654666689636995 0 0.039783822831898401 0.016420086717682532 0 0.039515720802748282 0.016229042066414717 0 0.039175964461370394 0.016298159027281475 0 0.039245602391251216 0.016654666689636995 0 0.039515720802748282 0.016229042066414717 0 0.039175964461370394 0.016298159027281475 0 0.039515720802748282 0.016229042066414717 0 0.039240692050879614 0.016001177495498467 0 0.039240692050879614 0.016001177495498467 0 0.039422093187329969 0.015673534218612378 0 0.038990491204506317 0.015646272423195991 0 0.039515720802748282 0.016229042066414717 0 0.039240692050879614 0.016001177495498467 0 0.039422093187329969 0.015673534218612378 0 0.039422093187329969 0.015673534218612378 0 0.03914338395104195 0.015208480939407935 0 0.038990491204506317 0.015646272423195991 0 0.039927505275432068 0.016143098060140786 0 0.039422093187329969 0.015673534218612378 0 0.039875217754743182 0.015578058058351033 0 0.039468133200770993 0.015143647983869893 0 0.039422093187329969 0.015673534218612378 0 0.039875217754743182 0.015578058058351033 0 0.039468133200770993 0.015143647983869893 0 0.039875217754743182 0.015578058058351033 0 0.039849617980564453 0.01519693025499482 0 0.039468133200770993 0.015143647983869893 0 0.039422093187329969 0.015673534218612378 0 0.03914338395104195 0.015208480939407935 0 0.038765522597951699 0.014735686867691375 0 0.03914338395104195 0.015208480939407935 0 0.038990491204506317 0.015646272423195991 0 0.038765522597951699 0.014735686867691375 0 0.039440434625110155 0.014269545886672652 0 0.038827888472862032 0.013015517281189855 0 0.038765522597951699 0.014735686867691375 0 0.038335405756121231 0.015606350100165674 0 0.038625380336396321 0.0155820775337504 0 0.038765522597951699 0.014735686867691375 0 0.038625380336396321 0.0155820775337504 0 0.038990491204506317 0.015646272423195991 0 0.039495365157665135 0.01454789017895664 0 0.039920354474894566 0.014222933793683591 0 0.038335405756121231 0.015606350100165674 0 0.038625380336396321 0.0155820775337504 0 0.038400589172672001 0.015774393318695235 0 0.038700812906257966 0.015943443328470839 0 0.038625380336396321 0.0155820775337504 0 0.038400589172672001 0.015774393318695235 0 0.038700812906257966 0.015943443328470839 0 0.038625380336396321 0.0155820775337504 0 0.038990491204506317 0.015646272423195991 0 0.038700812906257966 0.015943443328470839 0 0.038986074959987946 0.01611869394918311 0 0.038990491204506317 0.015646272423195991 0 0.038986074959987946 0.01611869394918311 0 0.039240692050879614 0.016001177495498467 0 0.038990491204506317 0.015646272423195991 0 0.040168037507564605 0.016659675794501047 0 0.040594982658874373 0.016478736727298028 0 0.040432907318168183 0.01632223926846597 0 0.040168037507564605 0.016659675794501047 0 0.040432907318168183 0.01632223926846597 0 0.039789386707516097 0.0164181073841945 0 0.040168037507564605 0.016659675794501047 0 0.04028012665491245 0.016872214717985851 0 0.040594982658874373 0.016478736727298028 0 0.040168037507564605 0.016659675794501047 0 0.039801540604816651 0.016802800922137335 0 0.039789386707516097 0.0164181073841945 0 0.039297613090041116 0.016727051741718731 0 0.039801540604816651 0.016802800922137335 0 0.039789386707516097 0.0164181073841945 0 0.040168037507564605 0.016659675794501047 0 0.039801540604816651 0.016802800922137335 0 0.039984761810524919 0.016950028882517666 0 0.039297613090041116 0.016727051741718731 0 0.039781914544125684 0.017131274630925494 0 0.039801540604816651 0.016802800922137335 0 0.039781914544125684 0.017131274630925494 0 0.039801540604816651 0.016802800922137335 0 0.039984761810524919 0.016950028882517666 0 0.039932114710186407 0.017168129236386456 0 0.039984761810524919 0.016950028882517666 0 0.04028012665491245 0.016872214717985851 0 0.040168037507564605 0.016659675794501047 0 0.039984761810524919 0.016950028882517666 0 0.04028012665491245 0.016872214717985851 0 0.04028012665491245 0.016872214717985851 0 0.040665185375706965 0.01670245897964023 0 0.040594982658874373 0.016478736727298028 0 0.029898326371443223 0.015138023957747179 0 0.034320576391688028 0.015180333985787709 0 0.040467120777015725 0.01724026464870634 0 0.04028012665491245 0.016872214717985851 0 0.040665185375706965 0.01670245897964023 0 0.039999321274637192 0.015016661231837699 0 0.040228212512637175 0.015448246207587557 0 0.039849617980564453 0.01519693025499482 0 0.039875217754743182 0.015578058058351033 0 0.040228212512637175 0.015448246207587557 0 0.039849617980564453 0.01519693025499482 0 0.034320576391688028 0.015180333985787709 0 0.035562822985396453 0.015345934148787568 0 0.039927505275432068 0.016143098060140786 0 0.039875217754743182 0.015578058058351033 0 0.040525596760760937 0.016236228203543701 0 0.039875217754743182 0.015578058058351033 0 0.040228212512637175 0.015448246207587557 0 0.040525596760760937 0.016236228203543701 0 0.040665185375706965 0.01670245897964023 0 0.040594982658874373 0.016478736727298028 0 0.040525596760760937 0.016236228203543701 0 0.040594982658874373 0.016478736727298028 0 0.041044626938635913 0.016417563837206231 0 0.040432907318168183 0.01632223926846597 0 0.040594982658874373 0.016478736727298028 0 0.041044626938635913 0.016417563837206231 0 0.040525596760760937 0.016236228203543701 0 0.041044626938635913 0.016417563837206231 0 0.040525596760760937 0.016236228203543701 0 0.040270417478749328 0.016392725680646696 0 0.040060923686940135 0.016644722738716068 0 0.041044626938635913 0.016417563837206231 0 0.040270417478749328 0.016392725680646696 0 0.039927505275432068 0.016143098060140786 0 0.040525596760760937 0.016236228203543701 0 0.040270417478749328 0.016392725680646696 0 0.043912397289237522 0.016668654997788267 0 0.041044626938635913 0.016417563837206231 0 0.042662119064494602 0.016051757308093505 0 0.042051856552202747 0.016030854696961788 0 0.041691628125796708 0.016184557148647284 0 0.043912397289237522 0.016668654997788267 0 0.043589087507730086 0.01622275700470175 0 0.042662119064494602 0.016051757308093505 0 0.042662119064494602 0.016051757308093505 0 0.04289148176801031 0.015513766644073609 0 0.041934415418263205 0.01544882623260963 0 0.043589087507730086 0.01622275700470175 0 0.042662119064494602 0.016051757308093505 0 0.04289148176801031 0.015513766644073609 0 0.043589087507730086 0.01622275700470175 0 0.04289148176801031 0.015513766644073609 0 0.043714357398843245 0.015047293920914426 0 0.041044626938635913 0.016417563837206231 0 0.041934415418263205 0.01544882623260963 0 0.041033022056114851 0.015247578282719309 0 0.041044626938635913 0.016417563837206231 0 0.041033022056114851 0.015247578282719309 0 0.040594783673819766 0.015839373548362477 0 0.041044626938635913 0.016417563837206231 0 0.042662119064494602 0.016051757308093505 0 0.041934415418263205 0.01544882623260963 0 0.041033022056114851 0.015247578282719309 0 0.040594783673819766 0.015839373548362477 0 0.040459779534176316 0.015234954684239086 0 0.040594783673819766 0.015839373548362477 0 0.040021123857309923 0.015943678964475835 0 0.040459779534176316 0.015234954684239086 0 0.041044626938635913 0.016417563837206231 0 0.040594783673819766 0.015839373548362477 0 0.040432907318168183 0.01632223926846597 0 0.040594783673819766 0.015839373548362477 0 0.040432907318168183 0.01632223926846597 0 0.040021123857309923 0.015943678964475835 0 0.040432907318168183 0.01632223926846597 0 0.039789386707516097 0.0164181073841945 0 0.040021123857309923 0.015943678964475835 0 0.039789386707516097 0.0164181073841945 0 0.039550908905489367 0.015995243884365767 0 0.040021123857309923 0.015943678964475835 0 0.039292884777668589 0.016226062515270721 0 0.039789386707516097 0.0164181073841945 0 0.039550908905489367 0.015995243884365767 0 0.039550908905489367 0.015995243884365767 0 0.040021123857309923 0.015943678964475835 0 0.039629228668967849 0.015580198704518293 0 0.039629228668967849 0.015580198704518293 0 0.039846856066412424 0.015071765156924618 0 0.040459779534176316 0.015234954684239086 0 0.040021123857309923 0.015943678964475835 0 0.039629228668967849 0.015580198704518293 0 0.040459779534176316 0.015234954684239086 0 0.039846856066412424 0.015071765156924618 0 0.040459779534176316 0.015234954684239086 0 0.040990172848268669 0.014301073382262872 0 0.039846856066412424 0.015071765156924618 0 0.040990172848268669 0.014301073382262872 0 0.0397559164571583 0.014263000135539858 0 0.041033022056114851 0.015247578282719309 0 0.040990172848268669 0.014301073382262872 0 0.04161378153162551 0.014407518571383195 0 0.041033022056114851 0.015247578282719309 0 0.040459779534176316 0.015234954684239086 0 0.040990172848268669 0.014301073382262872 0 0.043498864439992041 0.012606142132146361 0 0.044683629120217006 0.012134319625122354 0 0.040990172848268669 0.014301073382262872 0 0.044918382063351317 0.014501174107360411 0 0.043263503062454106 0.012606344165816323 0 0.040990172848268669 0.014301073382262872 0 0.041329253457078656 0.012616003426371711 0 0.043263503062454106 0.012606344165816323 0 0.040990172848268669 0.014301073382262872 0 0.040151119288136271 0.013162314360106142 0 0.041329253457078656 0.012616003426371711 0 0.040151119288136271 0.013162314360106142 0 0.039447819235793609 0.013501478021197106 0 0.0397559164571583 0.014263000135539858 0 0.039216245844452963 0.012749176644452893 0 0.040151119288136271 0.013162314360106142 0 0.039447819235793609 0.013501478021197106 0 0.040990172848268669 0.014301073382262872 0 0.040151119288136271 0.013162314360106142 0 0.0397559164571583 0.014263000135539858 0 0.04404567946496888 0.013060150722798534 0 0.043142208325478985 0.013792809818248725 0 0.043835476351129728 0.014213058674440979 0 0.043142208325478985 0.013792809818248725 0 0.043835476351129728 0.014213058674440979 0 0.042612144269375894 0.014631272373288417 0 0.04289148176801031 0.015513766644073609 0 0.043714357398843245 0.015047293920914426 0 0.042612144269375894 0.014631272373288417 0 0.043835476351129728 0.014213058674440979 0 0.043714357398843245 0.015047293920914426 0 0.042612144269375894 0.014631272373288417 0 0.04289148176801031 0.015513766644073609 0 0.041934415418263205 0.01544882623260963 0 0.042612144269375894 0.014631272373288417 0 0.043142208325478985 0.013792809818248725 0 0.042612144269375894 0.014631272373288417 0 0.042492022570563441 0.013740198267640938 0 0.042612144269375894 0.014631272373288417 0 0.04161378153162551 0.014407518571383195 0 0.042492022570563441 0.013740198267640938 0 0.041934415418263205 0.01544882623260963 0 0.042612144269375894 0.014631272373288417 0 0.04161378153162551 0.014407518571383195 0 0.041934415418263205 0.01544882623260963 0 0.041033022056114851 0.015247578282719309 0 0.04161378153162551 0.014407518571383195 0 0.040990172848268669 0.014301073382262872 0 0.04161378153162551 0.014407518571383195 0 0.041650862138561118 0.013431482920232817 0 0.04161378153162551 0.014407518571383195 0 0.041650862138561118 0.013431482920232817 0 0.042492022570563441 0.013740198267640938 0 0.044683629120217006 0.012134319625122354 0 0.047805649284081611 0.010728252681356165 0 0.041650862138561118 0.013431482920232817 0 0.042952746745488837 0.012788961685511413 0 0.0432361210723421 0.012276818344244276 0 0.041650862138561118 0.013431482920232817 0 0.042492022570563441 0.013740198267640938 0 0.042952746745488837 0.012788961685511413 0 0.044918382063351317 0.014501174107360411 0 0.048672049215703485 0.013939480006661538 0 0.047048311821827789 0.013005079911513305 0 0.042492022570563441 0.013740198267640938 0 0.042952746745488837 0.012788961685511413 0 0.043268950625997185 0.013193234802924827 0 0.044526762086387693 0.012071510154145742 0 0.043359677069769148 0.011802596107765122 0 0.043654976473827378 0.012583948780241784 0 0.0476470805345253 0.010878934730141229 0 0.047805649284081611 0.010728252681356165 0 0.042952746745488837 0.012788961685511413 0 0.043359677069769148 0.011802596107765122 0 0.043654976473827378 0.012583948780241784 0 0.04404567946496888 0.013060150722798534 0 0.043654976473827378 0.012583948780241784 0 0.043268950625997185 0.013193234802924827 0 0.042952746745488837 0.012788961685511413 0 0.043654976473827378 0.012583948780241784 0 0.043268950625997185 0.013193234802924827 0 0.043142208325478985 0.013792809818248725 0 0.042492022570563441 0.013740198267640938 0 0.043268950625997185 0.013193234802924827 0 0.04404567946496888 0.013060150722798534 0 0.043142208325478985 0.013792809818248725 0 0.043268950625997185 0.013193234802924827 0 0.048672049215703485 0.013939480006661538 0 0.048504140371885593 0.011489985177499855 0 0.047048311821827789 0.013005079911513305 0 0.048504140371885593 0.011489985177499855 0 0.047048311821827789 0.013005079911513305 0 0.046100913559785683 0.012076770251155729 0 0.048504140371885593 0.011489985177499855 0 0.046100913559785683 0.012076770251155729 0 0.047267163091364743 0.01026361173793781 0 0.046100913559785683 0.012076770251155729 0 0.044559863544179248 0.010651472705683767 0 0.047267163091364743 0.01026361173793781 0 0.044918382063351317 0.014501174107360411 0 0.047048311821827789 0.013005079911513305 0 0.046100913559785683 0.012076770251155729 0 0.044918382063351317 0.014501174107360411 0 0.046100913559785683 0.012076770251155729 0 0.043263503062454106 0.012606344165816323 0 0.046100913559785683 0.012076770251155729 0 0.044559863544179248 0.010651472705683767 0 0.043263503062454106 0.012606344165816323 0 0.044559863544179248 0.010651472705683767 0 0.046456989204475295 0.0086572266794003958 0 0.043403482916333842 0.0080167790055812697 0 0.044559863544179248 0.010651472705683767 0 0.046456989204475295 0.0086572266794003958 0 0.047267163091364743 0.01026361173793781 0 0.046456989204475295 0.0086572266794003958 0 0.047267163091364743 0.01026361173793781 0 0.048945101325237488 0.008250633911926394 0 0.047267163091364743 0.01026361173793781 0 0.049435017041717426 0.0097622707923531171 0 0.048945101325237488 0.008250633911926394 0 0.048504140371885593 0.011489985177499855 0 0.047267163091364743 0.01026361173793781 0 0.049435017041717426 0.0097622707923531171 0 0.040522957453710012 0.011798546018138218 0 0.039609580957875187 0.011707659075208651 0 0.040717799947309612 0.010064545367885119 0 0.040522957453710012 0.011798546018138218 0 0.041849422253397037 0.011018653020716305 0 0.040717799947309612 0.010064545367885119 0 0.040522957453710012 0.011798546018138218 0 0.039609580957875187 0.011707659075208651 0 0.039846569873886656 0.012353896997779897 0 0.039216245844452963 0.012749176644452893 0 0.039609580957875187 0.011707659075208651 0 0.039846569873886656 0.012353896997779897 0 0.039216245844452963 0.012749176644452893 0 0.040151119288136271 0.013162314360106142 0 0.039846569873886656 0.012353896997779897 0 0.040151119288136271 0.013162314360106142 0 0.040522957453710012 0.011798546018138218 0 0.039846569873886656 0.012353896997779897 0 0.040151119288136271 0.013162314360106142 0 0.040522957453710012 0.011798546018138218 0 0.041329253457078656 0.012616003426371711 0 0.041329253457078656 0.012616003426371711 0 0.043263503062454106 0.012606344165816323 0 0.041849422253397037 0.011018653020716305 0 0.044559863544179248 0.010651472705683767 0 0.043263503062454106 0.012606344165816323 0 0.041849422253397037 0.011018653020716305 0 0.040522957453710012 0.011798546018138218 0 0.041329253457078656 0.012616003426371711 0 0.041849422253397037 0.011018653020716305 0 0.042061457336283296 0.013150656055301694 0 0.041409871873716253 0.01499501434184293 0 0.030516266659209122 0.036248542053667183 0 0.030837541474417869 0.031966467410814048 0 0.035754554679116542 0.033550432704038145 0 0.044559863544179248 0.010651472705683767 0 0.041849422253397037 0.011018653020716305 0 0.043403482916333842 0.0080167790055812697 0 0.034575956147332151 0.019258555224025715 0 0.041409871873716253 0.01499501434184293 0 0.041849422253397037 0.011018653020716305 0 0.040717799947309612 0.010064545367885119 0 0.042740983689215584 0.0089957686366213471 0 0.025726335750208291 0.035834256913800891 0 0.030516266659209122 0.036248542053667183 0 0.026630061686851329 0.033434055491435889 0 0.025726335750208291 0.035834256913800891 0 0.026257722245158942 0.037642711977005743 0 0.030516266659209122 0.036248542053667183 0 0.028243232113575843 0.021899077738587115 0 0.034575956147332151 0.019258555224025715 0 0.025381112515385093 0.03870909623575837 0 0.026257722245158942 0.037642711977005743 0 0.030516266659209122 0.036248542053667183 0 0.030516266659209122 0.036248542053667183 0 0.030837541474417869 0.031966467410814048 0 0.026630061686851329 0.033434055491435889 0 0.038723630401323358 0.011248648268207432 0 0.039609580957875187 0.011707659075208651 0 0.040717799947309612 0.010064545367885119 0 0.030837541474417869 0.031966467410814048 0 0.026630061686851329 0.033434055491435889 0 0.02371696365752023 0.030216725629391802 0 0.030837541474417869 0.031966467410814048 0 0.031408334783903383 0.027623127143598648 0 0.02371696365752023 0.030216725629391802 0 0.035754554679116542 0.033550432704038145 0 0.034353029396116078 0.028983825597616007 0 0.03878522741404674 0.026865883526255813 0 0.030837541474417869 0.031966467410814048 0 0.035754554679116542 0.033550432704038145 0 0.034353029396116078 0.028983825597616007 0 0.030837541474417869 0.031966467410814048 0 0.034353029396116078 0.028983825597616007 0 0.031408334783903383 0.027623127143598648 0 0.034353029396116078 0.028983825597616007 0 0.034936427455431421 0.024966983167914895 0 0.031408334783903383 0.027623127143598648 0 0.034353029396116078 0.028983825597616007 0 0.034936427455431421 0.024966983167914895 0 0.03878522741404674 0.026865883526255813 0 0.031408334783903383 0.027623127143598648 0 0.029027012111920398 0.023071729709661353 0 0.02371696365752023 0.030216725629391802 0 0.034936427455431421 0.024966983167914895 0 0.031408334783903383 0.027623127143598648 0 0.029027012111920398 0.023071729709661353 0 0.048945101325237488 0.008250633911926394 0 0.048025433558222107 0.0061459894502510796 0 0.051214955051223185 0.007573326816222966 0 0.046456989204475295 0.0086572266794003958 0 0.048945101325237488 0.008250633911926394 0 0.048025433558222107 0.0061459894502510796 0 0.051014200404234537 0.0067698062783135265 0 0.052047404784450212 0.0062282977779192662 0 0.051516974652539918 0.0057483728066596469 0 0.041409871873716253 0.01499501434184293 0 0.043494972845332089 0.015032484616441962 0 0.046456989204475295 0.0086572266794003958 0 0.043403482916333842 0.0080167790055812697 0 0.048025433558222107 0.0061459894502510796 0 0.041409871873716253 0.01499501434184293 0 0.049019904892265438 0.0090083794420309747 0 0.034936427455431421 0.024966983167914895 0 0.03878522741404674 0.026865883526255813 0 0.037350871696581606 0.022439630668263624 0 0.052047404784450212 0.0062282977779192662 0 0.051516974652539918 0.0057483728066596469 0 0.052002792233406064 0.0058803840010780055 0 0.051516974652539918 0.0057483728066596469 0 0.052002792233406064 0.0058803840010780055 0 0.051538648264993998 0.0056279118048228041 0 0.052002792233406064 0.0058803840010780055 0 0.052463794780970033 0.005478743277533029 0 0.052559616667295778 0.0058481518549102296 0 0.052047404784450212 0.0062282977779192662 0 0.052002792233406064 0.0058803840010780055 0 0.052559616667295778 0.0058481518549102296 0 0.051538648264993998 0.0056279118048228041 0 0.051497221085339356 0.0062596141431983049 0 0.049285819700786507 0.007782030006022689 0 0.051538648264993998 0.0056279118048228041 0 0.053278302786823752 0.0028388157160343865 0 0.053021803491044996 0.0045034523310640076 0 0.052463794780970033 0.005478743277533029 0 0.051538648264993998 0.0056279118048228041 0 0.053021803491044996 0.0045034523310640076 0 0.052002792233406064 0.0058803840010780055 0 0.052463794780970033 0.005478743277533029 0 0.051538648264993998 0.0056279118048228041 0 0.043494972845332089 0.015032484616441962 0 0.045382360307071344 0.013021967521049021 0 0.051516974652539918 0.0057483728066596469 0 0.051538648264993998 0.0056279118048228041 0 0.051497221085339356 0.0062596141431983049 0 0.03878522741404674 0.026865883526255813 0 0.041642039779669057 0.020460031262604962 0 0.037350871696581606 0.022439630668263624 0 0.041642039779669057 0.020460031262604962 0 0.037350871696581606 0.022439630668263624 0 0.037551847163736551 0.019333966900415684 0 0.037551847163736551 0.019333966900415684 0 0.038762955446589496 0.01594871791092782 0 0.040062927659851269 0.018434853713709311 0 0.037551847163736551 0.019333966900415684 0 0.038762955446589496 0.01594871791092782 0 0.03440198050758534 0.016610777878254258 0 0.038762955446589496 0.01594871791092782 0 0.040062927659851269 0.018434853713709311 0 0.041493244536274149 0.016343133080679775 0 0.041642039779669057 0.020460031262604962 0 0.040062927659851269 0.018434853713709311 0 0.041493244536274149 0.016343133080679775 0 0.041642039779669057 0.020460031262604962 0 0.037551847163736551 0.019333966900415684 0 0.040062927659851269 0.018434853713709311 0 0.051497221085339356 0.0062596141431983049 0 0.049523660726032093 0.0082636686694186022 0 0.049285819700786507 0.007782030006022689 0 0.051606980576931194 0.0057813871246802312 0 0.051846779974624842 0.0054697337826230185 0 0.045382360307071344 0.013021967521049021 0 0.046646324839473313 0.011010180639163593 0 0.041642039779669057 0.020460031262604962 0 0.041493244536274149 0.016343133080679775 0 0.044554104154222361 0.014559945487901514 0 0.029027012111920398 0.023071729709661353 0 0.030002140088417728 0.017689478785435732 0 0.023275249094862317 0.020373838421838441 0 0.029027012111920398 0.023071729709661353 0 0.033748193749540856 0.020614354895052776 0 0.030002140088417728 0.017689478785435732 0 0.034936427455431421 0.024966983167914895 0 0.029027012111920398 0.023071729709661353 0 0.033748193749540856 0.020614354895052776 0 0.034936427455431421 0.024966983167914895 0 0.037350871696581606 0.022439630668263624 0 0.033748193749540856 0.020614354895052776 0 0.037350871696581606 0.022439630668263624 0 0.037551847163736551 0.019333966900415684 0 0.033748193749540856 0.020614354895052776 0 0.03440198050758534 0.016610777878254258 0 0.030002140088417728 0.017689478785435732 0 0.032452015471388117 0.012603482285054049 0 0.033748193749540856 0.020614354895052776 0 0.03440198050758534 0.016610777878254258 0 0.030002140088417728 0.017689478785435732 0 0.037551847163736551 0.019333966900415684 0 0.033748193749540856 0.020614354895052776 0 0.03440198050758534 0.016610777878254258 0 0.030002140088417728 0.017689478785435732 0 0.032452015471388117 0.012603482285054049 0 0.026744320089567265 0.013293921354143293 0 0.029329971471453969 0.0092220580036094062 0 0.032452015471388117 0.012603482285054049 0 0.026744320089567265 0.013293921354143293 0 0.029329971471453969 0.0092220580036094062 0 0.028625176048360582 0.0054593263521845094 0 0.034111029121295711 0.0065801947403906951 0 0.029329971471453969 0.0092220580036094062 0 0.032452015471388117 0.012603482285054049 0 0.034111029121295711 0.0065801947403906951 0 0.032452015471388117 0.012603482285054049 0 0.037198888173727518 0.012102631514491881 0 0.034111029121295711 0.0065801947403906951 0 0.037198888173727518 0.012102631514491881 0 0.038894847516406067 0.0087896433519979358 0 0.034111029121295711 0.0065801947403906951 0 0.03440198050758534 0.016610777878254258 0 0.032452015471388117 0.012603482285054049 0 0.037198888173727518 0.012102631514491881 0 0.038762955446589496 0.01594871791092782 0 0.03440198050758534 0.016610777878254258 0 0.037198888173727518 0.012102631514491881 0 0.038762955446589496 0.01594871791092782 0 0.040842243287105166 0.013703842140032552 0 0.037198888173727518 0.012102631514491881 0 0.038762955446589496 0.01594871791092782 0 0.041493244536274149 0.016343133080679775 0 0.040842243287105166 0.013703842140032552 0 0.040842243287105166 0.013703842140032552 0 0.037198888173727518 0.012102631514491881 0 0.040915551491677644 0.01085719489428255 0 0.041493244536274149 0.016343133080679775 0 0.040842243287105166 0.013703842140032552 0 0.042446191228620228 0.014252406765384385 0 0.041493244536274149 0.016343133080679775 0 0.044554104154222361 0.014559945487901514 0 0.042446191228620228 0.014252406765384385 0 0.044554104154222361 0.014559945487901514 0 0.042446191228620228 0.014252406765384385 0 0.042879850066947542 0.012397361946386524 0 0.040842243287105166 0.013703842140032552 0 0.042446191228620228 0.014252406765384385 0 0.042879850066947542 0.012397361946386524 0 0.040842243287105166 0.013703842140032552 0 0.042879850066947542 0.012397361946386524 0 0.040915551491677644 0.01085719489428255 0 0.044554104154222361 0.014559945487901514 0 0.042879850066947542 0.012397361946386524 0 0.044921722703474831 0.010735927204456893 0 0.044554104154222361 0.014559945487901514 0 0.044921722703474831 0.010735927204456893 0 0.048018935692625726 0.0085365723172979562 0 0.044921722703474831 0.010735927204456893 0 0.043518762310656572 0.0099412313260626457 0 0.045048441576437025 0.0080842826193057073 0 0.042879850066947542 0.012397361946386524 0 0.043518762310656572 0.0099412313260626457 0 0.040915551491677644 0.01085719489428255 0 0.043518762310656572 0.0099412313260626457 0 0.042198709007766795 0.0082162633445339757 0 0.040915551491677644 0.01085719489428255 0 0.042879850066947542 0.012397361946386524 0 0.044921722703474831 0.010735927204456893 0 0.043518762310656572 0.0099412313260626457 0 0.043518762310656572 0.0099412313260626457 0 0.042198709007766795 0.0082162633445339757 0 0.045048441576437025 0.0080842826193057073 0 0.042198709007766795 0.0082162633445339757 0 0.045048441576437025 0.0080842826193057073 0 0.044335439577630378 0.0058174879120644471 0 0.044921722703474831 0.010735927204456893 0 0.045048441576437025 0.0080842826193057073 0 0.048018935692625726 0.0085365723172979562 0 0.038894847516406067 0.0087896433519979358 0 0.040294023355572035 0.0057750767277863482 0 0.034111029121295711 0.0065801947403906951 0 0.037198888173727518 0.012102631514491881 0 0.040915551491677644 0.01085719489428255 0 0.038894847516406067 0.0087896433519979358 0 0.042198709007766795 0.0082162633445339757 0 0.040915551491677644 0.01085719489428255 0 0.038894847516406067 0.0087896433519979358 0 0.042198709007766795 0.0082162633445339757 0 0.038894847516406067 0.0087896433519979358 0 0.040294023355572035 0.0057750767277863482 0 0.037730075630614923 0.0030667645949791615 0 0.040294023355572035 0.0057750767277863482 0 0.044042629638113194 0.0017040003878001336 0 0.037730075630614923 0.0030667645949791615 0 0.040294023355572035 0.0057750767277863482 0 0.034111029121295711 0.0065801947403906951 0 0.040294023355572035 0.0057750767277863482 0 0.044335439577630378 0.0058174879120644471 0 0.044042629638113194 0.0017040003878001336 0 0.044335439577630378 0.0058174879120644471 0 0.044042629638113194 0.0017040003878001336 0 0.048470109258467758 0.0045711652742305596 0 0.045048441576437025 0.0080842826193057073 0 0.044335439577630378 0.0058174879120644471 0 0.047159959853324634 0.0068772643656730918 0 0.042198709007766795 0.0082162633445339757 0 0.040294023355572035 0.0057750767277863482 0 0.044335439577630378 0.0058174879120644471 0 0.037730075630614923 0.0030667645949791615 0 0.034697365047297868 0.00014743949210167782 0 0.039501574882672232 -0.0024030732310763472 0 0.037730075630614923 0.0030667645949791615 0 0.044042629638113194 0.0017040003878001336 0 0.039501574882672232 -0.0024030732310763472 0 0.034697365047297868 0.00014743949210167782 0 0.02982418092733357 0.0010292458905553136 0 0.034111029121295711 0.0065801947403906951 0 0.034697365047297868 0.00014743949210167782 0 0.02982418092733357 0.0010292458905553136 0 0.034377886431068309 -0.0050686951299865621 0 0.02982418092733357 0.0010292458905553136 0 0.028625176048360582 0.0054593263521845094 0 0.034111029121295711 0.0065801947403906951 0 0.037730075630614923 0.0030667645949791615 0 0.034697365047297868 0.00014743949210167782 0 0.034111029121295711 0.0065801947403906951 0 0.058001191318273505 0.00018355182748960703 0 0.058638373869631777 -0.00058148307670729984 0 0.057209794443895068 -0.00067894326794379475 0 0.059046765968829788 4.4358133756518635e-05 0 0.059536781518652424 -0.00065945529964099548 0 0.058638373869631777 -0.00058148307670729984 0 0.058001191318273505 0.00018355182748960703 0 0.059046765968829788 4.4358133756518635e-05 0 0.058638373869631777 -0.00058148307670729984 0 0.058001191318273505 0.00018355182748960703 0 0.059046765968829788 4.4358133756518635e-05 0 0.058637802960191131 0.0010756279696444873 0 0.059046765968829788 4.4358133756518635e-05 0 0.059831930039030465 0.00019301095110389554 0 0.058637802960191131 0.0010756279696444873 0 0.059046765968829788 4.4358133756518635e-05 0 0.059831930039030465 0.00019301095110389554 0 0.060134370679514756 -0.00044702917988813655 0 0.059831930039030465 0.00019301095110389554 0 0.060134370679514756 -0.00044702917988813655 0 0.060820616723718766 -0.00046643204903680085 0 0.059046765968829788 4.4358133756518635e-05 0 0.060134370679514756 -0.00044702917988813655 0 0.059536781518652424 -0.00065945529964099548 0 0.060134370679514756 -0.00044702917988813655 0 0.059536781518652424 -0.00065945529964099548 0 0.060363590733423678 -0.0010707626676950861 0 0.059536781518652424 -0.00065945529964099548 0 0.060363590733423678 -0.0010707626676950861 0 0.059609343961874936 -0.0011347056546082816 0 0.060134370679514756 -0.00044702917988813655 0 0.060363590733423678 -0.0010707626676950861 0 0.06081354294670957 -0.00090521467973653886 0 0.060363590733423678 -0.0010707626676950861 0 0.060945392867703028 -0.0015135787331404986 0 0.060339291087167297 -0.0014904814719602861 0 0.060363590733423678 -0.0010707626676950861 0 0.060971266011079626 -0.0012222943242509649 0 0.060945392867703028 -0.0015135787331404986 0 0.060363590733423678 -0.0010707626676950861 0 0.060971266011079626 -0.0012222943242509649 0 0.06081354294670957 -0.00090521467973653886 0 0.060363590733423678 -0.0010707626676950861 0 0.059609343961874936 -0.0011347056546082816 0 0.060339291087167297 -0.0014904814719602861 0 0.058909343813929135 -0.0012884020507836697 0 0.058638373869631777 -0.00058148307670729984 0 0.057209794443895068 -0.00067894326794379475 0 0.059609343961874936 -0.0011347056546082816 0 0.058909343813929135 -0.0012884020507836697 0 0.059796653139054801 -0.0018379804214093576 0 0.058909343813929135 -0.0012884020507836697 0 0.057209794443895068 -0.00067894326794379475 0 0.058522706078731244 -0.0025782531196354734 0 0.059609343961874936 -0.0011347056546082816 0 0.058909343813929135 -0.0012884020507836697 0 0.058638373869631777 -0.00058148307670729984 0 0.059536781518652424 -0.00065945529964099548 0 0.059609343961874936 -0.0011347056546082816 0 0.058638373869631777 -0.00058148307670729984 0 0.053065019639339822 0.0034665477272927099 0 0.049942733391385268 0.0008136600184785426 0 0.053263246932885588 -0.0013708429691099064 0 0.05490155102603933 0.0011292002807750325 0 0.05625064257155616 -0.001011295348485418 0 0.053065019639339822 0.0034665477272927099 0 0.049942733391385268 0.0008136600184785426 0 0.048470109258467758 0.0045711652742305596 0 0.044042629638113194 0.0017040003878001336 0 0.049942733391385268 0.0008136600184785426 0 0.048414210275277252 -0.002550541718253935 0 0.044042629638113194 0.0017040003878001336 0 0.049942733391385268 0.0008136600184785426 0 0.048470109258467758 0.0045711652742305596 0 0.053065019639339822 0.0034665477272927099 0 0.048470109258467758 0.0045711652742305596 0 0.048805376686362541 0.0089647937880783339 0 0.048470109258467758 0.0045711652742305596 0 0.047159959853324634 0.0068772643656730918 0 0.048805376686362541 0.0089647937880783339 0 0.044335439577630378 0.0058174879120644471 0 0.048470109258467758 0.0045711652742305596 0 0.047159959853324634 0.0068772643656730918 0 0.05490155102603933 0.0011292002807750325 0 0.052884878060248032 0.0041359728255604992 0 0.057209794443895068 -0.00067894326794379475 0 0.056770970122075631 0.00058100710966067662 0 0.055418373669378906 0.00081700289944028879 0 0.058001191318273505 0.00018355182748960703 0 0.057209794443895068 -0.00067894326794379475 0 0.056770970122075631 0.00058100710966067662 0 0.058001191318273505 0.00018355182748960703 0 0.056770970122075631 0.00058100710966067662 0 0.057072105735823449 0.0013465669369134021 0 0.056770970122075631 0.00058100710966067662 0 0.056121924238722323 0.0014112608762385616 0 0.055418373669378906 0.00081700289944028879 0 0.056770970122075631 0.00058100710966067662 0 0.056121924238722323 0.0014112608762385616 0 0.057072105735823449 0.0013465669369134021 0 0.049523660726032093 0.0082636686694186022 0 0.048018935692625726 0.0085365723172979562 0 0.048805376686362541 0.0089647937880783339 0 0.047159959853324634 0.0068772643656730918 0 0.048018935692625726 0.0085365723172979562 0 0.048805376686362541 0.0089647937880783339 0 0.045048441576437025 0.0080842826193057073 0 0.047159959853324634 0.0068772643656730918 0 0.048018935692625726 0.0085365723172979562 0 0.049523660726032093 0.0082636686694186022 0 0.048805376686362541 0.0089647937880783339 0 0.049285819700786507 0.007782030006022689 0 0.046646324839473313 0.011010180639163593 0 0.047247481656060152 0.0098281326576464927 0 0.055418373669378906 0.00081700289944028879 0 0.055238573425606695 0.0021864034977272695 0 0.053278302786823752 0.0028388157160343865 0 0.052884878060248032 0.0041359728255604992 0 0.051846779974624842 0.0054697337826230185 0 0.056121924238722323 0.0014112608762385616 0 0.055418373669378906 0.00081700289944028879 0 0.055238573425606695 0.0021864034977272695 0 0.057072105735823449 0.0013465669369134021 0 0.056286011285705352 0.0021367945912876413 0 0.056989493852081824 0.0022315699040452008 0 0.056121924238722323 0.0014112608762385616 0 0.057072105735823449 0.0013465669369134021 0 0.056286011285705352 0.0021367945912876413 0 0.056121924238722323 0.0014112608762385616 0 0.055238573425606695 0.0021864034977272695 0 0.056286011285705352 0.0021367945912876413 0 0.055238573425606695 0.0021864034977272695 0 0.056286011285705352 0.0021367945912876413 0 0.05566653987893961 0.0029053472627503189 0 0.056286011285705352 0.0021367945912876413 0 0.056750490181377025 0.0027962788683275359 0 0.05566653987893961 0.0029053472627503189 0 0.056286011285705352 0.0021367945912876413 0 0.056989493852081824 0.0022315699040452008 0 0.056750490181377025 0.0027962788683275359 0 0.056989493852081824 0.0022315699040452008 0 0.057659898555554749 0.002023770317991181 0 0.057527788984969054 0.0027060051951570338 0 0.056989493852081824 0.0022315699040452008 0 0.057527788984969054 0.0027060051951570338 0 0.056750490181377025 0.0027962788683275359 0 0.057659898555554749 0.002023770317991181 0 0.058426182036232427 0.0019567952023158744 0 0.058250114735230396 0.0025989872348012072 0 0.057659898555554749 0.002023770317991181 0 0.058250114735230396 0.0025989872348012072 0 0.057527788984969054 0.0027060051951570338 0 0.057659898555554749 0.002023770317991181 0 0.058637802960191131 0.0010756279696444873 0 0.058426182036232427 0.0019567952023158744 0 0.057072105735823449 0.0013465669369134021 0 0.056989493852081824 0.0022315699040452008 0 0.057659898555554749 0.002023770317991181 0 0.058001191318273505 0.00018355182748960703 0 0.057072105735823449 0.0013465669369134021 0 0.058637802960191131 0.0010756279696444873 0 0.057072105735823449 0.0013465669369134021 0 0.057659898555554749 0.002023770317991181 0 0.058637802960191131 0.0010756279696444873 0 0.058637802960191131 0.0010756279696444873 0 0.059126787176504547 0.0019011935285153582 0 0.059947528978748735 0.00087492319247663955 0 0.059831930039030465 0.00019301095110389554 0 0.058637802960191131 0.0010756279696444873 0 0.059947528978748735 0.00087492319247663955 0 0.058637802960191131 0.0010756279696444873 0 0.059126787176504547 0.0019011935285153582 0 0.058426182036232427 0.0019567952023158744 0 0.059126787176504547 0.0019011935285153582 0 0.058426182036232427 0.0019567952023158744 0 0.058250114735230396 0.0025989872348012072 0 0.059126787176504547 0.0019011935285153582 0 0.058250114735230396 0.0025989872348012072 0 0.058788745532754545 0.00283904246232544 0 0.059126787176504547 0.0019011935285153582 0 0.058788745532754545 0.00283904246232544 0 0.059092313006994766 0.0028334790414282205 0 0.058788745532754545 0.00283904246232544 0 0.059054319667688877 0.0031153926420603348 0 0.058363793872099279 0.0032166704534635398 0 0.058788745532754545 0.00283904246232544 0 0.059054319667688877 0.0031153926420603348 0 0.059092313006994766 0.0028334790414282205 0 0.059054319667688877 0.0031153926420603348 0 0.058363793872099279 0.0032166704534635398 0 0.058044304210752601 0.0039586468803530159 0 0.058250114735230396 0.0025989872348012072 0 0.058788745532754545 0.00283904246232544 0 0.058363793872099279 0.0032166704534635398 0 0.058250114735230396 0.0025989872348012072 0 0.057527788984969054 0.0027060051951570338 0 0.057556550806256275 0.0033995034052192669 0 0.058250114735230396 0.0025989872348012072 0 0.058363793872099279 0.0032166704534635398 0 0.057556550806256275 0.0033995034052192669 0 0.056750490181377025 0.0027962788683275359 0 0.057556550806256275 0.0033995034052192669 0 0.056234288195585243 0.0036494441963620316 0 0.057527788984969054 0.0027060051951570338 0 0.056750490181377025 0.0027962788683275359 0 0.057556550806256275 0.0033995034052192669 0 0.057556550806256275 0.0033995034052192669 0 0.056896256658489672 0.0044465384699157763 0 0.056234288195585243 0.0036494441963620316 0 0.057556550806256275 0.0033995034052192669 0 0.058044304210752601 0.0039586468803530159 0 0.056896256658489672 0.0044465384699157763 0 0.058363793872099279 0.0032166704534635398 0 0.057556550806256275 0.0033995034052192669 0 0.058044304210752601 0.0039586468803530159 0 0.058044304210752601 0.0039586468803530159 0 0.056896256658489672 0.0044465384699157763 0 0.058204036671335363 0.0052345340033076336 0 0.056896256658489672 0.0044465384699157763 0 0.058204036671335363 0.0052345340033076336 0 0.055889810501588158 0.0058967006557490327 0 0.05637473311174674 0.0041063573024348113 0 0.054919828896466225 0.004745470967254418 0 0.059054319667688877 0.0031153926420603348 0 0.058044304210752601 0.0039586468803530159 0 0.058204036671335363 0.0052345340033076336 0 0.056076283939727266 0.003044551237693544 0 0.056907872547475119 0.0036312077102777043 0 0.057146974284469979 0.002932262048144296 0 0.059054319667688877 0.0031153926420603348 0 0.059548801227051092 0.0024322725047578354 0 0.058911288509721063 0.0025388328239301953 0 0.05637473311174674 0.0041063573024348113 0 0.057462713058250771 0.0036424568806256181 0 0.057256106574817216 0.0034289396229333882 0 0.05637473311174674 0.0041063573024348113 0 0.053278302786823752 0.0028388157160343865 0 0.053933759438826515 0.0037255603120845029 0 0.053021803491044996 0.0045034523310640076 0 0.053933759438826515 0.0037255603120845029 0 0.053885164960440581 0.0043474634667971974 0 0.053021803491044996 0.0045034523310640076 0 0.053278302786823752 0.0028388157160343865 0 0.054548690037190289 0.0030828024686239313 0 0.053933759438826515 0.0037255603120845029 0 0.055238573425606695 0.0021864034977272695 0 0.053278302786823752 0.0028388157160343865 0 0.054548690037190289 0.0030828024686239313 0 0.053933759438826515 0.0037255603120845029 0 0.054869938803082982 0.0038746148900635751 0 0.053885164960440581 0.0043474634667971974 0 0.054548690037190289 0.0030828024686239313 0 0.053933759438826515 0.0037255603120845029 0 0.054869938803082982 0.0038746148900635751 0 0.054869938803082982 0.0038746148900635751 0 0.056234288195585243 0.0036494441963620316 0 0.055509512969281853 0.0046047915267018935 0 0.054869938803082982 0.0038746148900635751 0 0.05566653987893961 0.0029053472627503189 0 0.056234288195585243 0.0036494441963620316 0 0.055238573425606695 0.0021864034977272695 0 0.054548690037190289 0.0030828024686239313 0 0.05566653987893961 0.0029053472627503189 0 0.054548690037190289 0.0030828024686239313 0 0.054869938803082982 0.0038746148900635751 0 0.05566653987893961 0.0029053472627503189 0 0.056750490181377025 0.0027962788683275359 0 0.05566653987893961 0.0029053472627503189 0 0.056234288195585243 0.0036494441963620316 0 0.056896256658489672 0.0044465384699157763 0 0.056234288195585243 0.0036494441963620316 0 0.055509512969281853 0.0046047915267018935 0 0.056896256658489672 0.0044465384699157763 0 0.055509512969281853 0.0046047915267018935 0 0.055889810501588158 0.0058967006557490327 0 0.055509512969281853 0.0046047915267018935 0 0.05397376370254036 0.0050240616761088779 0 0.055889810501588158 0.0058967006557490327 0 0.054869938803082982 0.0038746148900635751 0 0.055509512969281853 0.0046047915267018935 0 0.05397376370254036 0.0050240616761088779 0 0.05397376370254036 0.0050240616761088779 0 0.052559616667295778 0.0058481518549102296 0 0.055889810501588158 0.0058967006557490327 0 0.054869938803082982 0.0038746148900635751 0 0.053885164960440581 0.0043474634667971974 0 0.05397376370254036 0.0050240616761088779 0 0.053885164960440581 0.0043474634667971974 0 0.05397376370254036 0.0050240616761088779 0 0.053183720206581894 0.0050836512439994454 0 0.052463794780970033 0.005478743277533029 0 0.053183720206581894 0.0050836512439994454 0 0.052559616667295778 0.0058481518549102296 0 0.05397376370254036 0.0050240616761088779 0 0.053183720206581894 0.0050836512439994454 0 0.052559616667295778 0.0058481518549102296 0 0.052463794780970033 0.005478743277533029 0 0.053183720206581894 0.0050836512439994454 0 0.053021803491044996 0.0045034523310640076 0 0.053885164960440581 0.0043474634667971974 0 0.053183720206581894 0.0050836512439994454 0 0.053021803491044996 0.0045034523310640076 0 0.054192561148230421 0.004987070058607092 0 0.054919828896466225 0.004745470967254418 0 0.049019904892265438 0.0090083794420309747 0 0.050868456521516656 0.0075763929717619196 0 0.052047404784450212 0.0062282977779192662 0 0.052559616667295778 0.0058481518549102296 0 0.052629893898067145 0.0055648006410630481 0 0.052559616667295778 0.0058481518549102296 0 0.052629893898067145 0.0055648006410630481 0 0.053044104637224504 0.0051655537362105194 0 0.048025433558222107 0.0061459894502510796 0 0.052629893898067145 0.0055648006410630481 0 0.051193394002865475 0.006381065400157716 0 0.052629893898067145 0.0055648006410630481 0 0.051193394002865475 0.006381065400157716 0 0.052492144738644539 0.0062434239246077477 0 0.052492144738644539 0.0062434239246077477 0 0.053044104637224504 0.0051655537362105194 0 0.053715754072700836 0.0068917456356513609 0 0.052629893898067145 0.0055648006410630481 0 0.052492144738644539 0.0062434239246077477 0 0.053044104637224504 0.0051655537362105194 0 0.052492144738644539 0.0062434239246077477 0 0.053715754072700836 0.0068917456356513609 0 0.051214955051223185 0.007573326816222966 0 0.05169494901583515 0.010010018225133808 0 0.053715754072700836 0.0068917456356513609 0 0.051214955051223185 0.007573326816222966 0 0.051673388053139591 0.0078732965216113445 0 0.05413393453598761 0.005863365612871714 0 0.048025433558222107 0.0061459894502510796 0 0.051193394002865475 0.006381065400157716 0 0.051214955051223185 0.007573326816222966 0 0.051193394002865475 0.006381065400157716 0 0.052492144738644539 0.0062434239246077477 0 0.051214955051223185 0.007573326816222966 0 0.050340775795558769 0.0089019575666846023 0 0.048945101325237488 0.008250633911926394 0 0.051214955051223185 0.007573326816222966 0 0.056076283939727266 0.003044551237693544 0 0.056907872547475119 0.0036312077102777043 0 0.056295396033884969 0.0043359835146218502 0 0.056907872547475119 0.0036312077102777043 0 0.056295396033884969 0.0043359835146218502 0 0.057625745720787568 0.0044064959842400903 0 0.056076283939727266 0.003044551237693544 0 0.054899406467892514 0.004452935888660501 0 0.056295396033884969 0.0043359835146218502 0 0.05637473311174674 0.0041063573024348113 0 0.05413393453598761 0.005863365612871714 0 0.055060448057252423 0.0048138334438511191 0 0.053044104637224504 0.0051655537362105194 0 0.053715754072700836 0.0068917456356513609 0 0.055153338183216084 0.005528989916841749 0 0.054899406467892514 0.004452935888660501 0 0.055804922873576253 0.0050689801184226196 0 0.054899406467892514 0.004452935888660501 0 0.055804922873576253 0.0050689801184226196 0 0.056295396033884969 0.0043359835146218502 0 0.056422500158694801 0.0057169035110339397 0 0.055804922873576253 0.0050689801184226196 0 0.056295396033884969 0.0043359835146218502 0 0.056422500158694801 0.0057169035110339397 0 0.056295396033884969 0.0043359835146218502 0 0.057625745720787568 0.0044064959842400903 0 0.054471583753885645 0.0062421196903249734 0 0.056269777994374576 0.0047755266861617086 0 0.056907872547475119 0.0036312077102777043 0 0.057625745720787568 0.0044064959842400903 0 0.057676889898290506 0.0034670167850816445 0 0.056907872547475119 0.0036312077102777043 0 0.057676889898290506 0.0034670167850816445 0 0.057146974284469979 0.002932262048144296 0 0.05609778173792998 0.0045263108354448092 0 0.05823105259019605 0.0033916985716359598 0 0.058512855768636997 0.0044889630702988244 0 0.057625745720787568 0.0044064959842400903 0 0.057676889898290506 0.0034670167850816445 0 0.05823105259019605 0.0033916985716359598 0 0.056269777994374576 0.0047755266861617086 0 0.057050712803395687 0.0041299432657189309 0 0.058150892290301508 0.0059393622075371837 0 0.05609778173792998 0.0045263108354448092 0 0.058512855768636997 0.0044889630702988244 0 0.059913533171150592 0.0059851289917839164 0 0.058150892290301508 0.0059393622075371837 0 0.058512855768636997 0.0044889630702988244 0 0.059913533171150592 0.0059851289917839164 0 0.058512855768636997 0.0044889630702988244 0 0.05952961133831447 0.0040821117303167509 0 0.055346326241986481 -0.00086653889408811239 0 0.056737658439811892 -0.00034048858244475091 0 0.05823105259019605 0.0033916985716359598 0 0.058512855768636997 0.0044889630702988244 0 0.05952961133831447 0.0040821117303167509 0 0.05823105259019605 0.0033916985716359598 0 0.05912749346215955 0.0028205735893869792 0 0.058603689710381351 0.0027939417539437814 0 0.05823105259019605 0.0033916985716359598 0 0.05952961133831447 0.0040821117303167509 0 0.05912749346215955 0.0028205735893869792 0 0.056737658439811892 -0.00034048858244475091 0 0.057762544217929576 0.00049273990259601655 0 0.055039696985720282 -0.0058148885405037449 0 0.057173864681062878 -0.002406004799749993 0 0.054010203290157426 -0.0029490568569049041 0 0.057173864681062878 -0.002406004799749993 0 0.056708719428276308 -0.0003864785745360652 0 0.054010203290157426 -0.0029490568569049041 0 0.057762544217929576 0.00049273990259601655 0 0.058439258524524043 0.0011859385594755372 0 0.057173864681062878 -0.002406004799749993 0 0.056708719428276308 -0.0003864785745360652 0 0.058870755678659389 0.0010980669618673444 0 0.05912749346215955 0.0028205735893869792 0 0.058884349310218055 0.0025786801999882745 0 0.058603689710381351 0.0027939417539437814 0 0.05912749346215955 0.0028205735893869792 0 0.058884349310218055 0.0025786801999882745 0 0.059214427917146838 0.0023082813092789724 0 0.058884349310218055 0.0025786801999882745 0 0.058603689710381351 0.0027939417539437814 0 0.058658531572606441 0.0026220496520348397 0 0.058603689710381351 0.0027939417539437814 0 0.058525526968238657 0.0027870813270826737 0 0.058658531572606441 0.0026220496520348397 0 0.058525526968238657 0.0027870813270826737 0 0.058658531572606441 0.0026220496520348397 0 0.058655532974249878 0.0028331716047632523 0 0.058525526968238657 0.0027870813270826737 0 0.058655532974249878 0.0028331716047632523 0 0.058251228830955341 0.0028899554472081338 0 0.058658531572606441 0.0026220496520348397 0 0.058743077675960514 0.0026754945376743595 0 0.058655532974249878 0.0028331716047632523 0 0.058743077675960514 0.0026754945376743595 0 0.0588907672515325 0.0028975826488134519 0 0.058655532974249878 0.0028331716047632523 0 0.059054319667688877 0.0031153926420603348 0 0.0588907672515325 0.0028975826488134519 0 0.059092313006994766 0.0028334790414282205 0 0.058743077675960514 0.0026754945376743595 0 0.0588907672515325 0.0028975826488134519 0 0.059092313006994766 0.0028334790414282205 0 0.059054319667688877 0.0031153926420603348 0 0.0588907672515325 0.0028975826488134519 0 0.058771302590290446 0.0028474692696111347 0 0.0588907672515325 0.0028975826488134519 0 0.058655532974249878 0.0028331716047632523 0 0.058771302590290446 0.0028474692696111347 0 0.057462713058250771 0.0036424568806256181 0 0.057766479984382918 0.0035131750366062804 0 0.058771302590290446 0.0028474692696111347 0 0.058911288509721063 0.0025388328239301953 0 0.058251228830955341 0.0028899554472081338 0 0.057676889898290506 0.0034670167850816445 0 0.057146974284469979 0.002932262048144296 0 0.058251228830955341 0.0028899554472081338 0 0.058655532974249878 0.0028331716047632523 0 0.058771302590290446 0.0028474692696111347 0 0.058251228830955341 0.0028899554472081338 0 0.059054319667688877 0.0031153926420603348 0 0.058771302590290446 0.0028474692696111347 0 0.058911288509721063 0.0025388328239301953 0 0.057676889898290506 0.0034670167850816445 0 0.05823105259019605 0.0033916985716359598 0 0.058251228830955341 0.0028899554472081338 0 0.05823105259019605 0.0033916985716359598 0 0.058603689710381351 0.0027939417539437814 0 0.058251228830955341 0.0028899554472081338 0 0.058603689710381351 0.0027939417539437814 0 0.058525526968238657 0.0027870813270826737 0 0.058251228830955341 0.0028899554472081338 0 0.045831410621588312 -0.0051829486247855121 0 0.0478629379200727 -0.0080879842831470556 0 0.04881253663692009 -0.005558500631103515 0 0.045265003081337768 -0.004501525423918234 0 0.046764423069464364 -0.0070479508351421289 0 0.043895677672052803 -0.0033531688843074048 0 0.045988323258984352 -0.0059842304656382902 0 0.042902805272885244 -0.0052416456009042323 0 0.0478629379200727 -0.0080879842831470556 0 0.04881253663692009 -0.005558500631103515 0 0.050824615502838975 -0.0070468256136922598 0 0.045831410621588312 -0.0051829486247855121 0 0.04881253663692009 -0.005558500631103515 0 0.048428319931704905 -0.0032175754544154964 0 0.04881253663692009 -0.005558500631103515 0 0.050824615502838975 -0.0070468256136922598 0 0.051162837819261363 -0.003931450191149456 0 0.050824615502838975 -0.0070468256136922598 0 0.052658423185627738 -0.0055816084696553928 0 0.051162837819261363 -0.003931450191149456 0 0.053243892038784546 -0.0086595218027939423 0 0.050824615502838975 -0.0070468256136922598 0 0.052658423185627738 -0.0055816084696553928 0 0.053243892038784546 -0.0086595218027939423 0 0.055039696985720282 -0.0058148885405037449 0 0.052658423185627738 -0.0055816084696553928 0 0.055039696985720282 -0.0058148885405037449 0 0.052658423185627738 -0.0055816084696553928 0 0.054010203290157426 -0.0029490568569049041 0 0.052658423185627738 -0.0055816084696553928 0 0.054010203290157426 -0.0029490568569049041 0 0.051162837819261363 -0.003931450191149456 0 0.054010203290157426 -0.0029490568569049041 0 0.053598793378393426 -0.0006184524649299278 0 0.051536867372293974 -0.0017111347984435637 0 0.056708719428276308 -0.0003864785745360652 0 0.054010203290157426 -0.0029490568569049041 0 0.053598793378393426 -0.0006184524649299278 0 0.053195172339955875 -0.0017512755768911467 0 0.053803527549425072 -0.0012112913649274615 0 0.053598793378393426 -0.0006184524649299278 0 0.051536867372293974 -0.0017111347984435637 0 0.051676225030255846 0.00072392583365763028 0 0.051174384129796108 -0.0016272794469246658 0 0.047978846075194079 -8.4625170935414149e-05 0 0.05122714729781451 0.00074496372081386244 0 0.051174384129796108 -0.0016272794469246658 0 0.051162837819261363 -0.003931450191149456 0 0.048428319931704905 -0.0032175754544154964 0 0.053195172339955875 -0.0017512755768911467 0 0.052992549219149372 -0.0022767145811080336 0 0.054010203290157426 -0.0029490568569049041 0 0.051536867372293974 -0.0017111347984435637 0 0.051162837819261363 -0.003931450191149456 0 0.04881253663692009 -0.005558500631103515 0 0.051162837819261363 -0.003931450191149456 0 0.048428319931704905 -0.0032175754544154964 0 0.048428319931704905 -0.0032175754544154964 0 0.047978846075194079 -8.4625170935414149e-05 0 0.04590239009979323 -0.0025621917934746941 0 0.051174384129796108 -0.0016272794469246658 0 0.048428319931704905 -0.0032175754544154964 0 0.047978846075194079 -8.4625170935414149e-05 0 0.050022178615845687 -0.0018627575142371382 0 0.04748408184148608 -0.0023569425719568542 0 0.050967687719336324 -0.003227357230005435 0 0.047994002062488141 -0.0037975400658174585 0 0.048007738026351367 -0.0023288888239304637 0 0.047978846075194079 -8.4625170935414149e-05 0 0.04590239009979323 -0.0025621917934746941 0 0.044369497678785688 -0.0011965597663179113 0 0.045831410621588312 -0.0051829486247855121 0 0.048428319931704905 -0.0032175754544154964 0 0.04590239009979323 -0.0025621917934746941 0 0.050193369420629089 -0.00048486418448467645 0 0.049245619252496001 -0.0014432265414286796 0 0.048395893923725355 -0.00014679071161670409 0 0.050193369420629089 -0.00048486418448467645 0 0.049245619252496001 -0.0014432265414286796 0 0.051570757687696499 -0.0013524031144872019 0 0.050967687719336324 -0.003227357230005435 0 0.049245619252496001 -0.0014432265414286796 0 0.048007738026351367 -0.0023288888239304637 0 0.050967687719336324 -0.003227357230005435 0 0.049245619252496001 -0.0014432265414286796 0 0.051570757687696499 -0.0013524031144872019 0 0.050967687719336324 -0.003227357230005435 0 0.051570757687696499 -0.0013524031144872019 0 0.052950128191411455 -0.0026514103400486233 0 0.050022178615845687 -0.0018627575142371382 0 0.053803527549425072 -0.0012112913649274615 0 0.051570757687696499 -0.0013524031144872019 0 0.052943451252357054 -0.00072962010672816607 0 0.052950128191411455 -0.0026514103400486233 0 0.055466043942863717 -0.00030982105473899573 0 0.053803527549425072 -0.0012112913649274615 0 0.060882480667204961 0.00024110235318393323 0 0.06097727899051144 0.0017518098518367862 0 0.059999870846619743 0.0015314690421707401 0 0.056708719428276308 -0.0003864785745360652 0 0.053598793378393426 -0.0006184524649299278 0 0.054701568199826925 0.0013262872353286615 0 0.053803527549425072 -0.0012112913649274615 0 0.056154351420548518 -0.00015390797410575935 0 0.053598793378393426 -0.0006184524649299278 0 0.051676225030255846 0.00072392583365763028 0 0.054701568199826925 0.0013262872353286615 0 0.060882480667204961 0.00024110235318393323 0 0.059999870846619743 0.0015314690421707401 0 0.059785173799100345 0.00062758635850353856 0 0.060882480667204961 0.00024110235318393323 0 0.059785173799100345 0.00062758635850353856 0 0.060079461984733212 -0.00022307834200040375 0 0.060882480667204961 0.00024110235318393323 0 0.060466817120888319 -0.0009309350258614481 0 0.060079461984733212 -0.00022307834200040375 0 0.060466817120888319 -0.0009309350258614481 0 0.060079461984733212 -0.00022307834200040375 0 0.060392611805127339 -0.0011287059017491593 0 0.055466043942863717 -0.00030982105473899573 0 0.056298029116388364 0.00015455296798185244 0 0.052943451252357054 -0.00072962010672816607 0 0.053340139273451222 0.00026352180989686568 0 0.051775853317798472 0.00020881154459637924 0 0.050193369420629089 -0.00048486418448467645 0 0.051570757687696499 -0.0013524031144872019 0 0.051775853317798472 0.00020881154459637924 0 0.051570757687696499 -0.0013524031144872019 0 0.052943451252357054 -0.00072962010672816607 0 0.051775853317798472 0.00020881154459637924 0 0.053340139273451222 0.00026352180989686568 0 0.051775853317798472 0.00020881154459637924 0 0.053165837197565652 0.00063591067546953149 0 0.051775853317798472 0.00020881154459637924 0 0.051211465601019288 0.00081450679128559889 0 0.049599177495332984 0.00068237039652390265 0 0.050193369420629089 -0.00048486418448467645 0 0.051775853317798472 0.00020881154459637924 0 0.049599177495332984 0.00068237039652390265 0 0.058819700480002235 0.0017443523333813607 0 0.058230603496951375 0.0017721224000307638 0 0.059038756835432624 0.00052553049655392761 0 0.058819700480002235 0.0017443523333813607 0 0.058230603496951375 0.0017721224000307638 0 0.058801257690446494 0.0022807958032397607 0 0.059126787176504547 0.0019011935285153582 0 0.059947528978748735 0.00087492319247663955 0 0.061138619143114692 0.0011073647009093885 0 0.059947528978748735 0.00087492319247663955 0 0.061138619143114692 0.0011073647009093885 0 0.060944668146387229 6.0854146271119295e-06 0 0.058743077675960514 0.0026754945376743595 0 0.059092313006994766 0.0028334790414282205 0 0.058230603496951375 0.0017721224000307638 0 0.059126787176504547 0.0019011935285153582 0 0.059092313006994766 0.0028334790414282205 0 0.061138619143114692 0.0011073647009093885 0 0.059589662292754766 0.0015461128436062884 0 0.059858319120152305 0.00099048308233591576 0 0.058743077675960514 0.0026754945376743595 0 0.058230603496951375 0.0017721224000307638 0 0.058625840466072845 0.0023777313991970414 0 0.058658531572606441 0.0026220496520348397 0 0.058743077675960514 0.0026754945376743595 0 0.058625840466072845 0.0023777313991970414 0 0.058658531572606441 0.0026220496520348397 0 0.058625840466072845 0.0023777313991970414 0 0.058801257690446494 0.0022807958032397607 0 0.058230603496951375 0.0017721224000307638 0 0.058625840466072845 0.0023777313991970414 0 0.058801257690446494 0.0022807958032397607 0 0.058884349310218055 0.0025786801999882745 0 0.058658531572606441 0.0026220496520348397 0 0.058801257690446494 0.0022807958032397607 0 0.058884349310218055 0.0025786801999882745 0 0.058801257690446494 0.0022807958032397607 0 0.059214427917146838 0.0023082813092789724 0 0.058819700480002235 0.0017443523333813607 0 0.058801257690446494 0.0022807958032397607 0 0.059214427917146838 0.0023082813092789724 0 0.059999870846619743 0.0015314690421707401 0 0.058504083677066006 0.0012703459835349024 0 0.059785173799100345 0.00062758635850353856 0 0.056708719428276308 -0.0003864785745360652 0 0.054701568199826925 0.0013262872353286615 0 0.058504083677066006 0.0012703459835349024 0 0.056154351420548518 -0.00015390797410575935 0 0.056860522070207579 0.00014532771015510917 0 0.056708719428276308 -0.0003864785745360652 0 0.058870755678659389 0.0010980669618673444 0 0.058504083677066006 0.0012703459835349024 0 0.059785173799100345 0.00062758635850353856 0 0.059191612604941136 0.00063619380173621882 0 0.060079461984733212 -0.00022307834200040375 0 0.058504083677066006 0.0012703459835349024 0 0.059785173799100345 0.00062758635850353856 0 0.059191612604941136 0.00063619380173621882 0 0.058819700480002235 0.0017443523333813607 0 0.059214427917146838 0.0023082813092789724 0 0.059038756835432624 0.00052553049655392761 0 0.058870755678659389 0.0010980669618673444 0 0.059191612604941136 0.00063619380173621882 0 0.059038756835432624 0.00052553049655392761 0 0.058870755678659389 0.0010980669618673444 0 0.058504083677066006 0.0012703459835349024 0 0.059191612604941136 0.00063619380173621882 0 0.058439258524524043 0.0011859385594755372 0 0.058576408194095167 0.0010858044980996823 0 0.059191612604941136 0.00063619380173621882 0 0.059759580526405467 -0.00024646413076933005 0 0.059038756835432624 0.00052553049655392761 0 0.059759580526405467 -0.00024646413076933005 0 0.058928965413215753 -0.00016972738958029589 0 0.059038756835432624 0.00052553049655392761 0 0.059191612604941136 0.00063619380173621882 0 0.059759580526405467 -0.00024646413076933005 0 0.060079461984733212 -0.00022307834200040375 0 0.059759580526405467 -0.00024646413076933005 0 0.060929973181318008 -0.0012226305985568097 0 0.060392611805127339 -0.0011287059017491593 0 0.059759580526405467 -0.00024646413076933005 0 0.060079461984733212 -0.00022307834200040375 0 0.060392611805127339 -0.0011287059017491593 0 0.059759580526405467 -0.00024646413076933005 0 0.058928965413215753 -0.00016972738958029589 0 0.060929973181318008 -0.0012226305985568097 0 0.06201550246855559 -0.00086630265098997406 0 0.061692368492705915 -0.0012305763244183289 0 0.060929973181318008 -0.0012226305985568097 0 0.060282660865836599 9.8235929568927092e-05 0 0.060464354445417666 -0.00026924536417464198 0 0.061743896527213474 -0.0010363750362540468 0 0.06201550246855559 -0.00086630265098997406 0 0.061692368492705915 -0.0012305763244183289 0 0.061638393700976735 -0.0011288534233473292 0 0.061743896527213474 -0.0010363750362540468 0 0.061692368492705915 -0.0012305763244183289 0 0.061638393700976735 -0.0011288534233473292 0 0.061785549030715071 -0.0013225853800703776 0 0.061692368492705915 -0.0012305763244183289 0 0.061743896527213474 -0.0010363750362540468 0 0.06201550246855559 -0.00086630265098997406 0 0.06147247286911986 -0.00072706966826644966 0 0.061638393700976735 -0.0011288534233473292 0 0.061743896527213474 -0.0010363750362540468 0 0.06147247286911986 -0.00072706966826644966 0 0.059858319120152305 0.00099048308233591576 0 0.060282660865836599 9.8235929568927092e-05 0 0.06201550246855559 -0.00086630265098997406 0 0.06147247286911986 -0.00072706966826644966 0 0.060944668146387229 6.0854146271119295e-06 0 0.061138619143114692 0.0011073647009093885 0 0.06201550246855559 -0.00086630265098997406 0 0.060944668146387229 6.0854146271119295e-06 0 0.058230603496951375 0.0017721224000307638 0 0.058928965413215753 -0.00016972738958029589 0 0.059038756835432624 0.00052553049655392761 0 0.059831930039030465 0.00019301095110389554 0 0.060944668146387229 6.0854146271119295e-06 0 0.060820616723718766 -0.00046643204903680085 0 0.059831930039030465 0.00019301095110389554 0 0.059947528978748735 0.00087492319247663955 0 0.060944668146387229 6.0854146271119295e-06 0 0.06147247286911986 -0.00072706966826644966 0 0.060944668146387229 6.0854146271119295e-06 0 0.060820616723718766 -0.00046643204903680085 0 0.06147247286911986 -0.00072706966826644966 0 0.060820616723718766 -0.00046643204903680085 0 0.061260282958011655 -0.00088565883594591633 0 0.060134370679514756 -0.00044702917988813655 0 0.060820616723718766 -0.00046643204903680085 0 0.06081354294670957 -0.00090521467973653886 0 0.060820616723718766 -0.00046643204903680085 0 0.06081354294670957 -0.00090521467973653886 0 0.061260282958011655 -0.00088565883594591633 0 0.06081354294670957 -0.00090521467973653886 0 0.061260282958011655 -0.00088565883594591633 0 0.061355671368179043 -0.0011517869151386464 0 0.061638393700976735 -0.0011288534233473292 0 0.06147247286911986 -0.00072706966826644966 0 0.061260282958011655 -0.00088565883594591633 0 0.061638393700976735 -0.0011288534233473292 0 0.061355671368179043 -0.0011517869151386464 0 0.061785549030715071 -0.0013225853800703776 0 0.061638393700976735 -0.0011288534233473292 0 0.061260282958011655 -0.00088565883594591633 0 0.061355671368179043 -0.0011517869151386464 0 0.060971266011079626 -0.0012222943242509649 0 0.06081354294670957 -0.00090521467973653886 0 0.061355671368179043 -0.0011517869151386464 0 0.060971266011079626 -0.0012222943242509649 0 0.061355671368179043 -0.0011517869151386464 0 0.061444703269256232 -0.0014090081235734072 0 0.061444703269256232 -0.0014090081235734072 0 0.061556328333239291 -0.0016303387928026886 0 0.060945392867703028 -0.0015135787331404986 0 0.061444703269256232 -0.0014090081235734072 0 0.061841499607295576 -0.0015078938003524073 0 0.061556328333239291 -0.0016303387928026886 0 0.061444703269256232 -0.0014090081235734072 0 0.061785549030715071 -0.0013225853800703776 0 0.061841499607295576 -0.0015078938003524073 0 0.061355671368179043 -0.0011517869151386464 0 0.061444703269256232 -0.0014090081235734072 0 0.061785549030715071 -0.0013225853800703776 0 0.061841499607295576 -0.0015078938003524073 0 0.062150574035751041 -0.0016982910348579039 0 0.06216003137864555 -0.0013565317490039489 0 0.061785549030715071 -0.0013225853800703776 0 0.061841499607295576 -0.0015078938003524073 0 0.06216003137864555 -0.0013565317490039489 0 0.061841499607295576 -0.0015078938003524073 0 0.061556328333239291 -0.0016303387928026886 0 0.062150574035751041 -0.0016982910348579039 0 0.062150574035751041 -0.0016982910348579039 0 0.063091510167757145 -0.0010641666546295494 0 0.062693477429372896 -0.0017323076967947031 0 0.062150574035751041 -0.0016982910348579039 0 0.06216003137864555 -0.0013565317490039489 0 0.063091510167757145 -0.0010641666546295494 0 0.06216003137864555 -0.0013565317490039489 0 0.06196918109928258 -0.00098351855720651407 0 0.063091510167757145 -0.0010641666546295494 0 0.06196918109928258 -0.00098351855720651407 0 0.062436476913430357 -0.00031554027986259523 0 0.063091510167757145 -0.0010641666546295494 0 0.06216003137864555 -0.0013565317490039489 0 0.061692368492705915 -0.0012305763244183289 0 0.06196918109928258 -0.00098351855720651407 0 0.061785549030715071 -0.0013225853800703776 0 0.06216003137864555 -0.0013565317490039489 0 0.061692368492705915 -0.0012305763244183289 0 0.061692368492705915 -0.0012305763244183289 0 0.060929973181318008 -0.0012226305985568097 0 0.06196918109928258 -0.00098351855720651407 0 0.060929973181318008 -0.0012226305985568097 0 0.060392611805127339 -0.0011287059017491593 0 0.060975218430179848 -0.00056835164903538764 0 0.060929973181318008 -0.0012226305985568097 0 0.060975218430179848 -0.00056835164903538764 0 0.06196918109928258 -0.00098351855720651407 0 0.060975218430179848 -0.00056835164903538764 0 0.06196918109928258 -0.00098351855720651407 0 0.062436476913430357 -0.00031554027986259523 0 0.062436476913430357 -0.00031554027986259523 0 0.062275184685105185 0.00077396473903173124 0 0.063684945082273792 0.00036608335236977167 0 0.060975218430179848 -0.00056835164903538764 0 0.062436476913430357 -0.00031554027986259523 0 0.062275184685105185 0.00077396473903173124 0 0.060975218430179848 -0.00056835164903538764 0 0.062275184685105185 0.00077396473903173124 0 0.061129514265452295 0.0020875191120216991 0 0.062275184685105185 0.00077396473903173124 0 0.061129514265452295 0.0020875191120216991 0 0.063732807329395472 0.0024792675584211165 0 0.062275184685105185 0.00077396473903173124 0 0.063684945082273792 0.00036608335236977167 0 0.063732807329395472 0.0024792675584211165 0 0.063684945082273792 0.00036608335236977167 0 0.065218177973702551 0.0022700163841800599 0 0.063732807329395472 0.0024792675584211165 0 0.063684945082273792 0.00036608335236977167 0 0.065288317971391022 0.00096458747210575937 0 0.065218177973702551 0.0022700163841800599 0 0.063684945082273792 0.00036608335236977167 0 0.065288317971391022 0.00096458747210575937 0 0.063880862023471971 -0.0015159614233131308 0 0.063091510167757145 -0.0010641666546295494 0 0.063880862023471971 -0.0015159614233131308 0 0.062693477429372896 -0.0017323076967947031 0 0.063684945082273792 0.00036608335236977167 0 0.063091510167757145 -0.0010641666546295494 0 0.063880862023471971 -0.0015159614233131308 0 0.062436476913430357 -0.00031554027986259523 0 0.063684945082273792 0.00036608335236977167 0 0.063091510167757145 -0.0010641666546295494 0 0.051834626516413067 0.00099440691398897454 0 0.053165837197565652 0.00063591067546953149 0 0.054047098663072335 0.00080394805497916789 0 0.051834626516413067 0.00099440691398897454 0 0.051211465601019288 0.00081450679128559889 0 0.053165837197565652 0.00063591067546953149 0 0.051775853317798472 0.00020881154459637924 0 0.051211465601019288 0.00081450679128559889 0 0.053165837197565652 0.00063591067546953149 0 0.053165837197565652 0.00063591067546953149 0 0.054755200516675685 0.00045246048936568438 0 0.054047098663072335 0.00080394805497916789 0 0.056767753543435308 0.00078209539469776244 0 0.056979193367587014 0.0013231052380166793 0 0.053340139273451222 0.00026352180989686568 0 0.053165837197565652 0.00063591067546953149 0 0.054755200516675685 0.00045246048936568438 0 0.056298029116388364 0.00015455296798185244 0 0.056767753543435308 0.00078209539469776244 0 0.060466817120888319 -0.0009309350258614481 0 0.060392611805127339 -0.0011287059017491593 0 0.059421856702659231 -0.00095954655023985144 0 0.060975218430179848 -0.00056835164903538764 0 0.059421856702659231 -0.00095954655023985144 0 0.057951774276319937 0.00087294761430975769 0 0.060392611805127339 -0.0011287059017491593 0 0.060975218430179848 -0.00056835164903538764 0 0.059421856702659231 -0.00095954655023985144 0 0.060975218430179848 -0.00056835164903538764 0 0.061129514265452295 0.0020875191120216991 0 0.057951774276319937 0.00087294761430975769 0 0.061129514265452295 0.0020875191120216991 0 0.057951774276319937 0.00087294761430975769 0 0.058823042820325501 0.0024993218308922943 0 0.057951774276319937 0.00087294761430975769 0 0.054910476237940327 0.001766144652284145 0 0.058823042820325501 0.0024993218308922943 0 0.054755200516675685 0.00045246048936568438 0 0.057951774276319937 0.00087294761430975769 0 0.054047098663072335 0.00080394805497916789 0 0.057951774276319937 0.00087294761430975769 0 0.054047098663072335 0.00080394805497916789 0 0.054910476237940327 0.001766144652284145 0 0.054910476237940327 0.001766144652284145 0 0.0567601039406187 0.0030488383175123219 0 0.058823042820325501 0.0024993218308922943 0 0.054910476237940327 0.001766144652284145 0 0.053285400846084525 0.0022366289454320027 0 0.055042640615945972 0.0030413376265377321 0 0.054910476237940327 0.001766144652284145 0 0.053285400846084525 0.0022366289454320027 0 0.052720512904592197 0.0012965197911119872 0 0.054047098663072335 0.00080394805497916789 0 0.054910476237940327 0.001766144652284145 0 0.052720512904592197 0.0012965197911119872 0 0.051834626516413067 0.00099440691398897454 0 0.054047098663072335 0.00080394805497916789 0 0.052720512904592197 0.0012965197911119872 0 0.053777206764218786 0.0056278293797393146 0 0.054031479448124933 0.0040618953630349565 0 0.055269645288391803 0.0074205172894597311 0 0.059756889698584004 0.0038525873121666374 0 0.062094364150885567 0.0045142289306101813 0 0.053777206764218786 0.0056278293797393146 0 0.054031479448124933 0.0040618953630349565 0 0.052303572463545812 0.0038444350998601273 0 0.053285400846084525 0.0022366289454320027 0 0.054031479448124933 0.0040618953630349565 0 0.052303572463545812 0.0038444350998601273 0 0.053285400846084525 0.0022366289454320027 0 0.055042640615945972 0.0030413376265377321 0 0.054031479448124933 0.0040618953630349565 0 0.054910476237940327 0.001766144652284145 0 0.055042640615945972 0.0030413376265377321 0 0.0567601039406187 0.0030488383175123219 0 0.055042640615945972 0.0030413376265377321 0 0.054031479448124933 0.0040618953630349565 0 0.056992464722528599 0.0046760560200799408 0 0.055042640615945972 0.0030413376265377321 0 0.0567601039406187 0.0030488383175123219 0 0.056992464722528599 0.0046760560200799408 0 0.054031479448124933 0.0040618953630349565 0 0.056992464722528599 0.0046760560200799408 0 0.056005084554275726 0.0075185723875358526 0 0.0567601039406187 0.0030488383175123219 0 0.056992464722528599 0.0046760560200799408 0 0.059912000028068783 0.0043592412155821032 0 0.056992464722528599 0.0046760560200799408 0 0.059912000028068783 0.0043592412155821032 0 0.060592721841311016 0.0067528801497262082 0 0.0567601039406187 0.0030488383175123219 0 0.059912000028068783 0.0043592412155821032 0 0.058823042820325501 0.0024993218308922943 0 0.061129514265452295 0.0020875191120216991 0 0.058823042820325501 0.0024993218308922943 0 0.06238201002778096 0.0039053426298422968 0 0.059912000028068783 0.0043592412155821032 0 0.058823042820325501 0.0024993218308922943 0 0.06238201002778096 0.0039053426298422968 0 0.059912000028068783 0.0043592412155821032 0 0.06238201002778096 0.0039053426298422968 0 0.06426498216552641 0.0058627234573129993 0 0.059912000028068783 0.0043592412155821032 0 0.060592721841311016 0.0067528801497262082 0 0.06426498216552641 0.0058627234573129993 0 0.066809401104395066 0.0089663536090313391 0 0.060592721841311016 0.0067528801497262082 0 0.06426498216552641 0.0058627234573129993 0 0.066370787734762238 0.0073225938065375768 0 0.066485562260002892 0.0066617671050892115 0 0.066809401104395066 0.0089663536090313391 0 0.060592721841311016 0.0067528801497262082 0 0.059784907019403172 0.011705998752357089 0 0.056992464722528599 0.0046760560200799408 0 0.060592721841311016 0.0067528801497262082 0 0.056005084554275726 0.0075185723875358526 0 0.062094364150885567 0.0045142289306101813 0 0.066485562260002892 0.0066617671050892115 0 0.063963422382051272 0.0044191280783156782 0 0.065117062132656028 0.0076918031818088515 0 0.066328255399951547 0.0073420329594816019 0 0.062094364150885567 0.0045142289306101813 0 0.067922366403865092 0.0058884924534545564 0 0.06317779213680827 0.0019872096921076344 0 0.063171128323873948 0.0020159735013954923 0 0.063210886921087409 0.0020420555538851956 0 0.060592721841311016 0.0067528801497262082 0 0.056005084554275726 0.0075185723875358526 0 0.059784907019403172 0.011705998752357089 0 0.063171128323873948 0.0020159735013954923 0 0.063134070672473161 0.0019938673395488798 0 0.063162797293247405 0.0020409430492434656 0 0.06317779213680827 0.0019872096921076344 0 0.063171128323873948 0.0020159735013954923 0 0.063134070672473161 0.0019938673395488798 0 0.063145112936035738 0.0019602625226223945 0 0.06317779213680827 0.0019872096921076344 0 0.063134070672473161 0.0019938673395488798 0 0.059632529543069711 0.0032874497218715972 0 0.062094364150885567 0.0045142289306101813 0 0.066169118275964098 0.0044335182692093944 0 0.068124632167679361 0.0056065576233571739 0 0.067286569663101967 0.0033713503528574685 0 0.065288317971391022 0.00096458747210575937 0 0.065218177973702551 0.0022700163841800599 0 0.067286569663101967 0.0033713503528574685 0 0.066169118275964098 0.0044335182692093944 0 0.065218177973702551 0.0022700163841800599 0 0.067286569663101967 0.0033713503528574685 0 0.066169118275964098 0.0044335182692093944 0 0.065218177973702551 0.0022700163841800599 0 0.063732807329395472 0.0024792675584211165 0 0.061129514265452295 0.0020875191120216991 0 0.06238201002778096 0.0039053426298422968 0 0.063732807329395472 0.0024792675584211165 0 0.06238201002778096 0.0039053426298422968 0 0.063732807329395472 0.0024792675584211165 0 0.064605216841479018 0.0044995117117108546 0 0.06238201002778096 0.0039053426298422968 0 0.064605216841479018 0.0044995117117108546 0 0.06426498216552641 0.0058627234573129993 0 0.066169118275964098 0.0044335182692093944 0 0.064605216841479018 0.0044995117117108546 0 0.066437838318145634 0.0059923598140412598 0 0.066169118275964098 0.0044335182692093944 0 0.063732807329395472 0.0024792675584211165 0 0.064605216841479018 0.0044995117117108546 0 0.064605216841479018 0.0044995117117108546 0 0.066437838318145634 0.0059923598140412598 0 0.06426498216552641 0.0058627234573129993 0 0.066437838318145634 0.0059923598140412598 0 0.06426498216552641 0.0058627234573129993 0 0.06682800410182374 0.0073140590887187532 0 0.066809401104395066 0.0089663536090313391 0 0.06426498216552641 0.0058627234573129993 0 0.06682800410182374 0.0073140590887187532 0 0.066809401104395066 0.0089663536090313391 0 0.06682800410182374 0.0073140590887187532 0 0.068346814676164561 0.0079070107665205076 0 0.066437838318145634 0.0059923598140412598 0 0.068277226610998026 0.0073556526965710498 0 0.068070074187951926 0.0065451572340679094 0 0.06682800410182374 0.0073140590887187532 0 0.068277226610998026 0.0073556526965710498 0 0.068346814676164561 0.0079070107665205076 0 0.066437838318145634 0.0059923598140412598 0 0.06682800410182374 0.0073140590887187532 0 0.068277226610998026 0.0073556526965710498 0 0.068277226610998026 0.0073556526965710498 0 0.068894574403675066 0.0071621814262589597 0 0.068070074187951926 0.0065451572340679094 0 0.068894574403675066 0.0071621814262589597 0 0.068070074187951926 0.0065451572340679094 0 0.069068863467457456 0.0070281956143225261 0 0.066169118275964098 0.0044335182692093944 0 0.066437838318145634 0.0059923598140412598 0 0.068070074187951926 0.0065451572340679094 0 0.066169118275964098 0.0044335182692093944 0 0.068070074187951926 0.0065451572340679094 0 0.068124632167679361 0.0056065576233571739 0 0.066421231948593187 0.00045004548694313202 0 0.068064455871952714 0.001774446384770433 0 0.068070074187951926 0.0065451572340679094 0 0.068124632167679361 0.0056065576233571739 0 0.069019562054208047 0.0070611589466075386 0 0.068070074187951926 0.0065451572340679094 0 0.069068863467457456 0.0070281956143225261 0 0.069019562054208047 0.0070611589466075386 0 0.065038388215025708 -0.0047094151801834426 0 0.065236633727594792 -0.0044949036168754905 0 0.064904466498391891 -0.0042402359054249973 0 0.065236633727594792 -0.0044949036168754905 0 0.065215831291028994 -0.0042354712501256019 0 0.064904466498391891 -0.0042402359054249973 0 0.065236633727594792 -0.0044949036168754905 0 0.065525821777515911 -0.0042261435388153351 0 0.065215831291028994 -0.0042354712501256019 0 0.065236633727594792 -0.0044949036168754905 0 0.065502073490597987 -0.0046087681646992977 0 0.065525821777515911 -0.0042261435388153351 0 0.065502073490597987 -0.0046087681646992977 0 0.06532672544629807 -0.0048527378142646949 0 0.065612705285516229 -0.0048570023234589099 0 0.065236633727594792 -0.0044949036168754905 0 0.065502073490597987 -0.0046087681646992977 0 0.06532672544629807 -0.0048527378142646949 0 0.065038388215025708 -0.0047094151801834426 0 0.065236633727594792 -0.0044949036168754905 0 0.06532672544629807 -0.0048527378142646949 0 0.06532672544629807 -0.0048527378142646949 0 0.065366024834470404 -0.0051991124506975198 0 0.065209908021180749 -0.0051458414440766287 0 0.065038388215025708 -0.0047094151801834426 0 0.06532672544629807 -0.0048527378142646949 0 0.065209908021180749 -0.0051458414440766287 0 0.066421231948593187 0.00045004548694313202 0 0.064913620744502368 -0.001625639826883959 0 0.065366024834470404 -0.0051991124506975198 0 0.065246894015703716 -0.0053490763619876286 0 0.065296594845332415 -0.0055920244899404859 0 0.067444607753424937 -0.0055985051036465698 0 0.068074307634429995 -0.005268027185189145 0 0.06532672544629807 -0.0048527378142646949 0 0.065366024834470404 -0.0051991124506975198 0 0.065612705285516229 -0.0048570023234589099 0 0.065366024834470404 -0.0051991124506975198 0 0.065244517643424788 -0.0051668908918577261 0 0.065341250441859927 -0.0052342805253101019 0 0.064913620744502368 -0.001625639826883959 0 0.063059762350323498 -0.0057951600249588767 0 0.065366024834470404 -0.0051991124506975198 0 0.065209908021180749 -0.0051458414440766287 0 0.065341250441859927 -0.0052342805253101019 0 0.059114158899420143 -0.010528750017648575 0 0.05655444796988298 -0.011932858119209917 0 0.047655126420655149 -0.020654148008498231 0 0.054997250308290557 -0.021050110092607637 0 0.047831752598736496 -0.026265311896606049 0 0.065244517643424788 -0.0051668908918577261 0 0.06507029650622051 -0.0054780690291722726 0 0.065246894015703716 -0.0053490763619876286 0 0.065366024834470404 -0.0051991124506975198 0 0.065244517643424788 -0.0051668908918577261 0 0.065246894015703716 -0.0053490763619876286 0 0.065244517643424788 -0.0051668908918577261 0 0.06507029650622051 -0.0054780690291722726 0 0.064765498216751136 -0.0054335883035738003 0 0.06507029650622051 -0.0054780690291722726 0 0.065246894015703716 -0.0053490763619876286 0 0.065296594845332415 -0.0055920244899404859 0 0.06507029650622051 -0.0054780690291722726 0 0.065296594845332415 -0.0055920244899404859 0 0.064980789199753058 -0.0057923426873766623 0 0.06507029650622051 -0.0054780690291722726 0 0.064765498216751136 -0.0054335883035738003 0 0.064980789199753058 -0.0057923426873766623 0 0.05655444796988298 -0.011932858119209917 0 0.057772106199377622 -0.010710589832298254 0 0.064651298732533558 -0.0053149860752828189 0 0.064787142602248618 -0.0057903821661806441 0 0.064422031288247944 -0.0054835357068913244 0 0.067565834366272171 -0.0062919911636021564 0 0.060751627720350247 -0.0083702937191286204 0 0.064651298732533558 -0.0053149860752828189 0 0.064787142602248618 -0.0057903821661806441 0 0.064980789199753058 -0.0057923426873766623 0 0.084988836967494749 -5.7564515065098373e-05 0 0.085220672264669006 -8.1412444313105526e-05 0 0.085221382806360643 -0.00024617811852039055 0 0.064787142602248618 -0.0057903821661806441 0 0.064980789199753058 -0.0057923426873766623 0 0.065116048597960108 -0.0060521046584332966 0 0.084988836967494749 -5.7564515065098373e-05 0 0.084377595284203216 0.00044595800028287392 0 0.084987740540930098 0.00047833028923403848 0 0.067565834366272171 -0.0062919911636021564 0 0.070627192258031643 -0.0032436553082429332 0 0.084988836967494749 -5.7564515065098373e-05 0 0.085203075280141025 0.00025343399721357253 0 0.085220672264669006 -8.1412444313105526e-05 0 0.084988836967494749 -5.7564515065098373e-05 0 0.085203075280141025 0.00025343399721357253 0 0.084987740540930098 0.00047833028923403848 0 0.065502073490597987 -0.0046087681646992977 0 0.065612705285516229 -0.0048570023234589099 0 0.065807507461824094 -0.0044874040237176394 0 0.065296594845332415 -0.0055920244899404859 0 0.064980789199753058 -0.0057923426873766623 0 0.065116048597960108 -0.0060521046584332966 0 0.068074307634429995 -0.005268027185189145 0 0.070627192258031643 -0.0032436553082429332 0 0.070627192258031643 -0.0032436553082429332 0 0.071203328340481473 0.0009455243895412712 0 0.071453589316273117 0.00077324821794247183 0 0.070599734552214202 -0.0010499536603163736 0 0.073360473682066996 -0.00094930879040503282 0 0.065502073490597987 -0.0046087681646992977 0 0.065807507461824094 -0.0044874040237176394 0 0.065525821777515911 -0.0042261435388153351 0 0.070627192258031643 -0.0032436553082429332 0 0.077010109725090578 0.0013693851567300852 0 0.085240814713677004 0.00055423689144738146 0 0.084987740540930098 0.00047833028923403848 0 0.085214515009883071 0.00081984231529326729 0 0.085203075280141025 0.00025343399721357253 0 0.085240814713677004 0.00055423689144738146 0 0.085420877577034898 0.00048077054658269463 0 0.085203075280141025 0.00025343399721357253 0 0.085240814713677004 0.00055423689144738146 0 0.084987740540930098 0.00047833028923403848 0 0.084377595284203216 0.00044595800028287392 0 0.084987740540930098 0.00047833028923403848 0 0.084879322028163381 0.00078107950254030739 0 0.084879322028163381 0.00078107950254030739 0 0.085071721145230178 0.00098388578148969619 0 0.084717713825015487 0.001179779004925327 0 0.084377595284203216 0.00044595800028287392 0 0.084879322028163381 0.00078107950254030739 0 0.084717713825015487 0.001179779004925327 0 0.085071721145230178 0.00098388578148969619 0 0.08536757340816091 0.00098740018374245467 0 0.085166194452005226 0.0012034601286845554 0 0.084987740540930098 0.00047833028923403848 0 0.084879322028163381 0.00078107950254030739 0 0.085214515009883071 0.00081984231529326729 0 0.084879322028163381 0.00078107950254030739 0 0.085071721145230178 0.00098388578148969619 0 0.085214515009883071 0.00081984231529326729 0 0.085240814713677004 0.00055423689144738146 0 0.085214515009883071 0.00081984231529326729 0 0.085376497429339074 0.00074545470600099974 0 0.085214515009883071 0.00081984231529326729 0 0.085379567631195599 0.00088641139110579579 0 0.085376497429339074 0.00074545470600099974 0 0.085214515009883071 0.00081984231529326729 0 0.085379567631195599 0.00088641139110579579 0 0.08536757340816091 0.00098740018374245467 0 0.085071721145230178 0.00098388578148969619 0 0.085214515009883071 0.00081984231529326729 0 0.08536757340816091 0.00098740018374245467 0 0.085565816267326511 0.00099019667540063412 0 0.085376497429339074 0.00074545470600099974 0 0.085420877577034898 0.00048077054658269463 0 0.085565816267326511 0.00099019667540063412 0 0.085520786978752636 0.0010819719466983345 0 0.085517875729792941 0.0012212719773398678 0 0.085565816267326511 0.00099019667540063412 0 0.085420877577034898 0.00048077054658269463 0 0.085627089668820586 0.00016707060393286971 0 0.072838431139006232 -0.0048058459720890494 0 0.07130003079648857 -0.0058814078038165601 0 0.08536757340816091 0.00098740018374245467 0 0.085565816267326511 0.00099019667540063412 0 0.085633540568879479 0.0011131303982375247 0 0.085379567631195599 0.00088641139110579579 0 0.08536757340816091 0.00098740018374245467 0 0.085565816267326511 0.00099019667540063412 0 0.085379567631195599 0.00088641139110579579 0 0.085565816267326511 0.00099019667540063412 0 0.085376497429339074 0.00074545470600099974 0 0.085240814713677004 0.00055423689144738146 0 0.085376497429339074 0.00074545470600099974 0 0.085420877577034898 0.00048077054658269463 0 0.085520786978752636 0.0010819719466983345 0 0.085393350306766619 0.0011536768281576841 0 0.085517875729792941 0.0012212719773398678 0 0.085565816267326511 0.00099019667540063412 0 0.085520786978752636 0.0010819719466983345 0 0.085591995132409809 0.0010551145555364933 0 0.085520786978752636 0.0010819719466983345 0 0.085492919746710194 0.0010449142312849496 0 0.085591995132409809 0.0010551145555364933 0 0.085393350306766619 0.0011536768281576841 0 0.085154371872993198 0.0012453650067106355 0 0.085325493246438233 0.0010542384031063644 0 0.085393350306766619 0.0011536768281576841 0 0.085325493246438233 0.0010542384031063644 0 0.085492919746710194 0.0010449142312849496 0 0.085520786978752636 0.0010819719466983345 0 0.085393350306766619 0.0011536768281576841 0 0.085492919746710194 0.0010449142312849496 0 0.085349752992854577 0.0012820086411862294 0 0.085154371872993198 0.0012453650067106355 0 0.085326373311425119 0.0014287198082765188 0 0.085393350306766619 0.0011536768281576841 0 0.085349752992854577 0.0012820086411862294 0 0.085154371872993198 0.0012453650067106355 0 0.085349752992854577 0.0012820086411862294 0 0.085517875729792941 0.0012212719773398678 0 0.085405457275213953 0.0013863227200710487 0 0.085393350306766619 0.0011536768281576841 0 0.085349752992854577 0.0012820086411862294 0 0.085517875729792941 0.0012212719773398678 0 0.07130003079648857 -0.0058814078038165601 0 0.066344079608380693 -0.0095049102620996199 0 0.085220672264669006 -8.1412444313105526e-05 0 0.085627089668820586 0.00016707060393286971 0 0.085846004364116726 -0.00057301330113699765 0 0.070962129505286103 -0.0099507276753648295 0 0.066344079608380693 -0.0095049102620996199 0 0.085203075280141025 0.00025343399721357253 0 0.085220672264669006 -8.1412444313105526e-05 0 0.085375674446918237 0.00019340175253319724 0 0.085220672264669006 -8.1412444313105526e-05 0 0.085375674446918237 0.00019340175253319724 0 0.085627089668820586 0.00016707060393286971 0 0.085203075280141025 0.00025343399721357253 0 0.085420877577034898 0.00048077054658269463 0 0.085375674446918237 0.00019340175253319724 0 0.085420877577034898 0.00048077054658269463 0 0.085375674446918237 0.00019340175253319724 0 0.085627089668820586 0.00016707060393286971 0 0.065296483620635032 -0.0097634369443757949 0 0.065768596493224099 -0.0098256524191846478 0 0.065810595481669398 -0.0091076153784806404 0 0.085154371872993198 0.0012453650067106355 0 0.085125103890520804 0.00093950102727874288 0 0.084900938544701474 0.0010087922410513294 0 0.065768596493224099 -0.0098256524191846478 0 0.065810595481669398 -0.0091076153784806404 0 0.066055157201134168 -0.0094914786492113819 0 0.071697691579979309 -0.0030096447269226936 0 0.074543424342449927 0.00041938649195618792 0 0.085154371872993198 0.0012453650067106355 0 0.085125103890520804 0.00093950102727874288 0 0.085325493246438233 0.0010542384031063644 0 0.071697691579979309 -0.0030096447269226936 0 0.062995277054413198 -0.0094370305554046068 0 0.065768596493224099 -0.0098256524191846478 0 0.065605166892877473 -0.010285209637414819 0 0.065914258712245294 -0.010294441156370293 0 0.065296483620635032 -0.0097634369443757949 0 0.065768596493224099 -0.0098256524191846478 0 0.065605166892877473 -0.010285209637414819 0 0.065605166892877473 -0.010285209637414819 0 0.065772680978667328 -0.010644889408850508 0 0.065914258712245294 -0.010294441156370293 0 0.065605166892877473 -0.010285209637414819 0 0.065519781467402602 -0.010540233859689767 0 0.065259156521254122 -0.010419698870967229 0 0.065605166892877473 -0.010285209637414819 0 0.065519781467402602 -0.010540233859689767 0 0.065772680978667328 -0.010644889408850508 0 0.065296483620635032 -0.0097634369443757949 0 0.065259156521254122 -0.010419698870967229 0 0.064796757478857589 -0.010385478883125233 0 0.065296483620635032 -0.0097634369443757949 0 0.065605166892877473 -0.010285209637414819 0 0.065259156521254122 -0.010419698870967229 0 0.065259156521254122 -0.010419698870967229 0 0.065441916458307089 -0.010809393095840827 0 0.064796757478857589 -0.010385478883125233 0 0.032727088676321237 -0.019755001699801406 0 0.039862302711583447 -0.021316230064402673 0 0.033878981115856861 -0.016137949542434509 0 0.057235561919352175 -0.011134266537722454 0 0.048293377309909159 -0.0096354295391162751 0 0.052698616723429979 -0.011195430055400777 0 0.062995277054413198 -0.0094370305554046068 0 0.065519781467402602 -0.010540233859689767 0 0.065259156521254122 -0.010419698870967229 0 0.065441916458307089 -0.010809393095840827 0 0.065441916458307089 -0.010809393095840827 0 0.065772680978667328 -0.010644889408850508 0 0.066089565935006464 -0.011121346095758277 0 0.065519781467402602 -0.010540233859689767 0 0.065441916458307089 -0.010809393095840827 0 0.065772680978667328 -0.010644889408850508 0 0.060751627720350247 -0.0083702937191286204 0 0.060495196397243309 -0.011571010382304851 0 0.043955723074754059 -0.024527916457678347 0 0.040648328078292946 -0.021572954490417517 0 0.042852018784094885 -0.021355316398031881 0 0.085221382806360643 -0.00024617811852039055 0 0.085247050285874135 -0.00026619499669202685 0 0.085217386965271813 -0.00030733973441816073 0 0.046118138288158389 -0.022913401263886076 0 0.043955723074754059 -0.024527916457678347 0 0.042852018784094885 -0.021355316398031881 0 0.085220672264669006 -8.1412444313105526e-05 0 0.085221382806360643 -0.00024617811852039055 0 0.085247050285874135 -0.00026619499669202685 0 0.05655444796988298 -0.011932858119209917 0 0.060751627720350247 -0.0083702937191286204 0 0.085349752992854577 0.0012820086411862294 0 0.085405457275213953 0.0013863227200710487 0 0.085326373311425119 0.0014287198082765188 0 0.066344079608380693 -0.0095049102620996199 0 0.062995277054413198 -0.0094370305554046068 0 0.085247050285874135 -0.00026619499669202685 0 0.085224048955319515 -0.00030092751704373941 0 0.085217386965271813 -0.00030733973441816073 0 0.039595059712541743 -0.024371402357067553 0 0.040600336882417341 -0.023130699455641432 0 0.039862302711583447 -0.021316230064402673 0 0.066344079608380693 -0.0095049102620996199 0 0.061186145955593609 -0.010839774452614338 0 0.064064299727129001 -0.0088824566260368894 0 0.06256773071753477 -0.0078579290964873698 0 0.063298315658211798 -0.0069597799809480547 0 0.062995277054413198 -0.0094370305554046068 0 0.061186145955593609 -0.010839774452614338 0 0.061186145955593609 -0.010839774452614338 0 0.060495196397243309 -0.011571010382304851 0 0.057235561919352175 -0.011134266537722454 0 0.048640055493547475 -0.010986932922978513 0 0.040640161147057083 -0.021580598781588575 0 0.0394894684483671 -0.020561229113053654 0 0.041314950276491048 -0.020748178979752785 0 0.0394894684483671 -0.020561229113053654 0 0.0406767287096199 -0.018604080789995623 0 0.041314950276491048 -0.020748178979752785 0 0.060495196397243309 -0.011571010382304851 0 0.060107427201833305 -0.011947396407297677 0 0.032727088676321237 -0.019755001699801406 0 0.039595059712541743 -0.024371402357067553 0 0.039862302711583447 -0.021316230064402673 0 0.0394894684483671 -0.020561229113053654 0 0.0406767287096199 -0.018604080789995623 0 0.039554607847702719 -0.016466364216989465 0 0.059136140582831551 -0.013303185480024168 0 0.059228872584855194 -0.013188426346083606 0 0.05900849449773754 -0.012991833418119702 0 0.061186145955593609 -0.010839774452614338 0 0.057235561919352175 -0.011134266537722454 0 0.060495196397243309 -0.011571010382304851 0 0.057235561919352175 -0.011134266537722454 0 0.05655444796988298 -0.011932858119209917 0 0.047876601496886759 -0.013575216542012151 0 0.042852018784094885 -0.021355316398031881 0 0.041314950276491048 -0.020748178979752785 0 0.042230255358964165 -0.017010734373882046 0 0.046118138288158389 -0.022913401263886076 0 0.042852018784094885 -0.021355316398031881 0 0.042230255358964165 -0.017010734373882046 0 0.047655126420655149 -0.020654148008498231 0 0.047831752598736496 -0.026265311896606049 0 0.043085573853008929 -0.018831968751726241 0 0.0406767287096199 -0.018604080789995623 0 0.041314950276491048 -0.020748178979752785 0 0.042230255358964165 -0.017010734373882046 0 0.040648328078292946 -0.021572954490417517 0 0.042852018784094885 -0.021355316398031881 0 0.041314950276491048 -0.020748178979752785 0 0.04610662061625076 -0.016390496058112051 0 0.043085573853008929 -0.018831968751726241 0 0.043654922929354821 -0.013217640798123081 0 0.047655126420655149 -0.020654148008498231 0 0.04610662061625076 -0.016390496058112051 0 0.043085573853008929 -0.018831968751726241 0 0.039554607847702719 -0.016466364216989465 0 0.037164928074264386 -0.015057603189039712 0 0.038217333872495825 -0.011046241675422118 0 0.0406767287096199 -0.018604080789995623 0 0.042230255358964165 -0.017010734373882046 0 0.039554607847702719 -0.016466364216989465 0 0.042230255358964165 -0.017010734373882046 0 0.039554607847702719 -0.016466364216989465 0 0.038217333872495825 -0.011046241675422118 0 0.0394894684483671 -0.020561229113053654 0 0.039554607847702719 -0.016466364216989465 0 0.037164928074264386 -0.015057603189039712 0 0.047876601496886759 -0.013575216542012151 0 0.041049637687358746 -0.009740325649538471 0 0.038634034698024206 -0.011579839379651279 0 0.043654922929354821 -0.013217640798123081 0 0.041781028577944294 -0.0096224522444415435 0 0.043085573853008929 -0.018831968751726241 0 0.038634034698024206 -0.011579839379651279 0 0.043654922929354821 -0.013217640798123081 0 0.043654922929354821 -0.013217640798123081 0 0.045159941230600333 -0.009434768403107063 0 0.041781028577944294 -0.0096224522444415435 0 0.043654922929354821 -0.013217640798123081 0 0.045159941230600333 -0.009434768403107063 0 0.048208031719677275 -0.012595829373475245 0 0.04610662061625076 -0.016390496058112051 0 0.043654922929354821 -0.013217640798123081 0 0.048208031719677275 -0.012595829373475245 0 0.033878981115856861 -0.016137949542434509 0 0.030611661939807321 -0.012113585529179204 0 0.026141301685793573 -0.015216188837928527 0 0.052698616723429979 -0.011195430055400777 0 0.047266378387286256 -0.011440502950257276 0 0.032727088676321237 -0.019755001699801406 0 0.033878981115856861 -0.016137949542434509 0 0.026141301685793573 -0.015216188837928527 0 0.039537967779403195 -0.021134491883432329 0 0.03714608092518893 -0.015307879028377549 0 0.033878981115856861 -0.016137949542434509 0 0.03714608092518893 -0.015307879028377549 0 0.033878981115856861 -0.016137949542434509 0 0.034001628788072599 -0.013107140714220323 0 0.048640055493547475 -0.010986932922978513 0 0.04559258537983412 -0.0095600764763384104 0 0.037164928074264386 -0.015057603189039712 0 0.038217333872495825 -0.011046241675422118 0 0.03469305463661921 -0.0094689770385582451 0 0.03714608092518893 -0.015307879028377549 0 0.034001628788072599 -0.013107140714220323 0 0.03469305463661921 -0.0094689770385582451 0 0.034001628788072599 -0.013107140714220323 0 0.030611661939807321 -0.012113585529179204 0 0.03469305463661921 -0.0094689770385582451 0 0.033878981115856861 -0.016137949542434509 0 0.034001628788072599 -0.013107140714220323 0 0.030611661939807321 -0.012113585529179204 0 0.030611661939807321 -0.012113585529179204 0 0.031256809464293982 -0.0075811319839986999 0 0.027963976287474743 -0.0091738163896735864 0 0.030611661939807321 -0.012113585529179204 0 0.031256809464293982 -0.0075811319839986999 0 0.03469305463661921 -0.0094689770385582451 0 0.031256809464293982 -0.0075811319839986999 0 0.028370963249804121 -0.0038510768765451574 0 0.027963976287474743 -0.0091738163896735864 0 0.031256809464293982 -0.0075811319839986999 0 0.033994327378494928 -0.0049427357906655662 0 0.028370963249804121 -0.0038510768765451574 0 0.041049637687358746 -0.009740325649538471 0 0.035963698254068047 -0.0047805005850029446 0 0.031256809464293982 -0.0075811319839986999 0 0.03469305463661921 -0.0094689770385582451 0 0.033994327378494928 -0.0049427357906655662 0 0.038217333872495825 -0.011046241675422118 0 0.03469305463661921 -0.0094689770385582451 0 0.033994327378494928 -0.0049427357906655662 0 0.034697365047297868 0.00014743949210167782 0 0.034377886431068309 -0.0050686951299865621 0 0.039501574882672232 -0.0024030732310763472 0 0.033466942143191347 -0.0017808442614743567 0 0.035963698254068047 -0.0047805005850029446 0 0.02982418092733357 0.0010292458905553136 0 0.033994327378494928 -0.0049427357906655662 0 0.028370963249804121 -0.0038510768765451574 0 0.042261115441818035 -0.0059127704687876211 0 0.046415757747924065 -0.0057072248980523741 0 0.045159941230600333 -0.009434768403107063 0 0.042261115441818035 -0.0059127704687876211 0 0.045159941230600333 -0.009434768403107063 0 0.041781028577944294 -0.0096224522444415435 0 0.038634034698024206 -0.011579839379651279 0 0.034377886431068309 -0.0050686951299865621 0 0.039298252991245591 -0.0068894045086837878 0 0.038634034698024206 -0.011579839379651279 0 0.041781028577944294 -0.0096224522444415435 0 0.039298252991245591 -0.0068894045086837878 0 0.042261115441818035 -0.0059127704687876211 0 0.041781028577944294 -0.0096224522444415435 0 0.039298252991245591 -0.0068894045086837878 0 0.042261115441818035 -0.0059127704687876211 0 0.039298252991245591 -0.0068894045086837878 0 0.039501574882672232 -0.0024030732310763472 0 0.034377886431068309 -0.0050686951299865621 0 0.039298252991245591 -0.0068894045086837878 0 0.039501574882672232 -0.0024030732310763472 0 0.044042629638113194 0.0017040003878001336 0 0.039501574882672232 -0.0024030732310763472 0 0.044115154743421404 -0.0029417683709517381 0 0.044042629638113194 0.0017040003878001336 0 0.044115154743421404 -0.0029417683709517381 0 0.048414210275277252 -0.002550541718253935 0 0.042261115441818035 -0.0059127704687876211 0 0.039501574882672232 -0.0024030732310763472 0 0.044115154743421404 -0.0029417683709517381 0 0.042261115441818035 -0.0059127704687876211 0 0.046415757747924065 -0.0057072248980523741 0 0.044115154743421404 -0.0029417683709517381 0 0.046415757747924065 -0.0057072248980523741 0 0.044115154743421404 -0.0029417683709517381 0 0.048414210275277252 -0.002550541718253935 0 0.049942733391385268 0.0008136600184785426 0 0.048414210275277252 -0.002550541718253935 0 0.051236957936592255 -0.0031997773807612658 0 0.048414210275277252 -0.002550541718253935 0 0.051236957936592255 -0.0031997773807612658 0 0.049849251305731632 -0.0055258056771632664 0 0.046415757747924065 -0.0057072248980523741 0 0.048414210275277252 -0.002550541718253935 0 0.049849251305731632 -0.0055258056771632664 0 0.046415757747924065 -0.0057072248980523741 0 0.049849251305731632 -0.0055258056771632664 0 0.048677194359877531 -0.008539996318381475 0 0.049849251305731632 -0.0055258056771632664 0 0.051031601747532185 -0.0075031531276088144 0 0.053172970438471384 -0.00602053755525098 0 0.051236957936592255 -0.0031997773807612658 0 0.049849251305731632 -0.0055258056771632664 0 0.053172970438471384 -0.00602053755525098 0 0.049849251305731632 -0.0055258056771632664 0 0.051031601747532185 -0.0075031531276088144 0 0.048677194359877531 -0.008539996318381475 0 0.051031601747532185 -0.0075031531276088144 0 0.048677194359877531 -0.008539996318381475 0 0.052266445793339382 -0.0097383940624013888 0 0.046415757747924065 -0.0057072248980523741 0 0.045159941230600333 -0.009434768403107063 0 0.048677194359877531 -0.008539996318381475 0 0.054965940431395563 -0.0075456920764932853 0 0.057570899771979961 -0.0065900799518624747 0 0.056397916536292843 -0.01000391199093701 0 0.054965940431395563 -0.0075456920764932853 0 0.052266445793339382 -0.0097383940624013888 0 0.056397916536292843 -0.01000391199093701 0 0.051031601747532185 -0.0075031531276088144 0 0.053172970438471384 -0.00602053755525098 0 0.052266445793339382 -0.0097383940624013888 0 0.054965940431395563 -0.0075456920764932853 0 0.053172970438471384 -0.00602053755525098 0 0.052266445793339382 -0.0097383940624013888 0 0.053172970438471384 -0.00602053755525098 0 0.055619128776443989 -0.0053451915763683766 0 0.054878960662661923 -0.0037141611614164832 0 0.054965940431395563 -0.0075456920764932853 0 0.053172970438471384 -0.00602053755525098 0 0.055619128776443989 -0.0053451915763683766 0 0.055619128776443989 -0.0053451915763683766 0 0.057220137827626354 -0.004244742748986321 0 0.057570899771979961 -0.0065900799518624747 0 0.054965940431395563 -0.0075456920764932853 0 0.055619128776443989 -0.0053451915763683766 0 0.057570899771979961 -0.0065900799518624747 0 0.055619128776443989 -0.0053451915763683766 0 0.054878960662661923 -0.0037141611614164832 0 0.057220137827626354 -0.004244742748986321 0 0.054878960662661923 -0.0037141611614164832 0 0.058522706078731244 -0.0025782531196354734 0 0.057220137827626354 -0.004244742748986321 0 0.054878960662661923 -0.0037141611614164832 0 0.053263246932885588 -0.0013708429691099064 0 0.058522706078731244 -0.0025782531196354734 0 0.053065019639339822 0.0034665477272927099 0 0.053263246932885588 -0.0013708429691099064 0 0.058522706078731244 -0.0025782531196354734 0 0.051236957936592255 -0.0031997773807612658 0 0.054878960662661923 -0.0037141611614164832 0 0.053263246932885588 -0.0013708429691099064 0 0.051236957936592255 -0.0031997773807612658 0 0.053172970438471384 -0.00602053755525098 0 0.054878960662661923 -0.0037141611614164832 0 0.049942733391385268 0.0008136600184785426 0 0.051236957936592255 -0.0031997773807612658 0 0.053263246932885588 -0.0013708429691099064 0 0.058909343813929135 -0.0012884020507836697 0 0.059796653139054801 -0.0018379804214093576 0 0.058522706078731244 -0.0025782531196354734 0 0.059796653139054801 -0.0018379804214093576 0 0.059793674812668028 -0.0025934768683992236 0 0.058522706078731244 -0.0025782531196354734 0 0.059796653139054801 -0.0018379804214093576 0 0.060241676177295027 -0.0022602161920167734 0 0.059793674812668028 -0.0025934768683992236 0 0.060241676177295027 -0.0022602161920167734 0 0.059793674812668028 -0.0025934768683992236 0 0.060483278976188992 -0.0027352300495357353 0 0.059793674812668028 -0.0025934768683992236 0 0.058522706078731244 -0.0025782531196354734 0 0.059531521257692725 -0.0034705316860842808 0 0.058522706078731244 -0.0025782531196354734 0 0.057220137827626354 -0.004244742748986321 0 0.059531521257692725 -0.0034705316860842808 0 0.060945392867703028 -0.0015135787331404986 0 0.060550172836721525 -0.0018638507785236505 0 0.061242396736702065 -0.0019008727206751004 0 0.060971266011079626 -0.0012222943242509649 0 0.061444703269256232 -0.0014090081235734072 0 0.060945392867703028 -0.0015135787331404986 0 0.059609343961874936 -0.0011347056546082816 0 0.059796653139054801 -0.0018379804214093576 0 0.060339291087167297 -0.0014904814719602861 0 0.060945392867703028 -0.0015135787331404986 0 0.060339291087167297 -0.0014904814719602861 0 0.060550172836721525 -0.0018638507785236505 0 0.059796653139054801 -0.0018379804214093576 0 0.060339291087167297 -0.0014904814719602861 0 0.060550172836721525 -0.0018638507785236505 0 0.060800572173715831 -0.0022210996444870998 0 0.061242396736702065 -0.0019008727206751004 0 0.061445074581404871 -0.0021674342169578417 0 0.060241676177295027 -0.0022602161920167734 0 0.060550172836721525 -0.0018638507785236505 0 0.060800572173715831 -0.0022210996444870998 0 0.059796653139054801 -0.0018379804214093576 0 0.060241676177295027 -0.0022602161920167734 0 0.060550172836721525 -0.0018638507785236505 0 0.060241676177295027 -0.0022602161920167734 0 0.060800572173715831 -0.0022210996444870998 0 0.060483278976188992 -0.0027352300495357353 0 0.060550172836721525 -0.0018638507785236505 0 0.060800572173715831 -0.0022210996444870998 0 0.061242396736702065 -0.0019008727206751004 0 0.061556328333239291 -0.0016303387928026886 0 0.062150574035751041 -0.0016982910348579039 0 0.061242396736702065 -0.0019008727206751004 0 0.061556328333239291 -0.0016303387928026886 0 0.060945392867703028 -0.0015135787331404986 0 0.061242396736702065 -0.0019008727206751004 0 0.061445074581404871 -0.0021674342169578417 0 0.062693477429372896 -0.0017323076967947031 0 0.061296994128578676 -0.002170412706072428 0 0.062150574035751041 -0.0016982910348579039 0 0.061242396736702065 -0.0019008727206751004 0 0.061445074581404871 -0.0021674342169578417 0 0.062150574035751041 -0.0016982910348579039 0 0.061445074581404871 -0.0021674342169578417 0 0.062693477429372896 -0.0017323076967947031 0 0.060800572173715831 -0.0022210996444870998 0 0.061445074581404871 -0.0021674342169578417 0 0.060483278976188992 -0.0027352300495357353 0 0.061445074581404871 -0.0021674342169578417 0 0.060483278976188992 -0.0027352300495357353 0 0.061296994128578676 -0.002170412706072428 0 0.061831083062784675 -0.0044605731554044148 0 0.062284251890022339 -0.0052406879085975374 0 0.059531521257692725 -0.0034705316860842808 0 0.060483278976188992 -0.0027352300495357353 0 0.061296994128578676 -0.002170412706072428 0 0.059531521257692725 -0.0034705316860842808 0 0.057570899771979961 -0.0065900799518624747 0 0.060986326470718256 -0.010242410237260453 0 0.057220137827626354 -0.004244742748986321 0 0.059531521257692725 -0.0034705316860842808 0 0.057570899771979961 -0.0065900799518624747 0 0.059793674812668028 -0.0025934768683992236 0 0.059531521257692725 -0.0034705316860842808 0 0.060483278976188992 -0.0027352300495357353 0 0.057570899771979961 -0.0065900799518624747 0 0.060986326470718256 -0.010242410237260453 0 0.056397916536292843 -0.01000391199093701 0 0.062284251890022339 -0.0052406879085975374 0 0.063059762350323498 -0.0057951600249588767 0 0.060986326470718256 -0.010242410237260453 0 0.057587651722939351 -0.01425686926296665 0 0.056397916536292843 -0.01000391199093701 0 0.060986326470718256 -0.010242410237260453 0 0.057587651722939351 -0.01425686926296665 0 0.062438929331924908 -0.015732038222952782 0 0.063880862023471971 -0.0015159614233131308 0 0.061296994128578676 -0.002170412706072428 0 0.062039131768565438 -0.003439260504681481 0 0.063880862023471971 -0.0015159614233131308 0 0.062693477429372896 -0.0017323076967947031 0 0.061296994128578676 -0.002170412706072428 0 0.063951858765162989 -0.0047125640940988709 0 0.063059762350323498 -0.0057951600249588767 0 0.065288317971391022 0.00096458747210575937 0 0.063880862023471971 -0.0015159614233131308 0 0.067336687816700935 0.00024260986363086942 0 0.065288317971391022 0.00096458747210575937 0 0.067286569663101967 0.0033713503528574685 0 0.067336687816700935 0.00024260986363086942 0 0.054997250308290557 -0.021050110092607637 0 0.057587651722939351 -0.01425686926296665 0 0.062438929331924908 -0.015732038222952782 0 0.059114158899420143 -0.010528750017648575 0 0.063059762350323498 -0.0057951600249588767 0 0.054997250308290557 -0.021050110092607637 0 0.049499517786981938 -0.01705460550278743 0 0.053186319629949325 -0.014020497689419742 0 0.054997250308290557 -0.021050110092607637 0 0.057587651722939351 -0.01425686926296665 0 0.053186319629949325 -0.014020497689419742 0 0.047655126420655149 -0.020654148008498231 0 0.054997250308290557 -0.021050110092607637 0 0.049499517786981938 -0.01705460550278743 0 0.047655126420655149 -0.020654148008498231 0 0.04610662061625076 -0.016390496058112051 0 0.049499517786981938 -0.01705460550278743 0 0.04610662061625076 -0.016390496058112051 0 0.049499517786981938 -0.01705460550278743 0 0.048208031719677275 -0.012595829373475245 0 0.049499517786981938 -0.01705460550278743 0 0.048208031719677275 -0.012595829373475245 0 0.053186319629949325 -0.014020497689419742 0 0.045159941230600333 -0.009434768403107063 0 0.048677194359877531 -0.008539996318381475 0 0.048208031719677275 -0.012595829373475245 0 0.048677194359877531 -0.008539996318381475 0 0.048208031719677275 -0.012595829373475245 0 0.052266445793339382 -0.0097383940624013888 0 0.048208031719677275 -0.012595829373475245 0 0.052266445793339382 -0.0097383940624013888 0 0.053186319629949325 -0.014020497689419742 0 0.052266445793339382 -0.0097383940624013888 0 0.056397916536292843 -0.01000391199093701 0 0.053186319629949325 -0.014020497689419742 0 0.057587651722939351 -0.01425686926296665 0 0.056397916536292843 -0.01000391199093701 0 0.053186319629949325 -0.014020497689419742 0 0.022275856826983177 0.00047859965356778205 0 0.023353639388270016 0.00097210554889441746 0 0.025853961438680677 0.0013921406173871308 0 0.022275856826983177 0.00047859965356778205 0 0.025853961438680677 0.0013921406173871308 0 0.02530394363667738 0.00010982881715141383 0 0.022275856826983177 0.00047859965356778205 0 0.020485207453170642 5.5731655690942225e-06 0 0.014883974575774988 -9.6656090722938968e-06 0 0.022275856826983177 0.00047859965356778205 0 0.020485207453170642 5.5731655690942225e-06 0 0.023353639388270016 0.00097210554889441746 0 0.020485207453170642 5.5731655690942225e-06 0 0.02333026290814956 0.0006929237995700918 0 0.023353639388270016 0.00097210554889441746 0 0.02333026290814956 0.0006929237995700918 0 0.023353639388270016 0.00097210554889441746 0 0.025311693138445893 0.0020657923622729997 0 0.020485207453170642 5.5731655690942225e-06 0 0.02333026290814956 0.0006929237995700918 0 0.026103199821134904 6.0088686213397269e-07 0 0.023353639388270016 0.00097210554889441746 0 0.025853961438680677 0.0013921406173871308 0 0.025311693138445893 0.0020657923622729997 0 0.025853961438680677 0.0013921406173871308 0 0.027353408208054642 0.0025960216510989183 0 0.025311693138445893 0.0020657923622729997 0 0.025853961438680677 0.0013921406173871308 0 0.029140926105220205 0.0024515346812750321 0 0.028359671716023837 0.00039894009274017391 0 0.025853961438680677 0.0013921406173871308 0 0.029140926105220205 0.0024515346812750321 0 0.027353408208054642 0.0025960216510989183 0 0.029140926105220205 0.0024515346812750321 0 0.028359671716023837 0.00039894009274017391 0 0.03200551933719236 0.0027654789627244076 0 0.028359671716023837 0.00039894009274017391 0 0.02530394363667738 0.00010982881715141383 0 0.026399032676590918 -0.0012229934359077367 0 0.025853961438680677 0.0013921406173871308 0 0.028359671716023837 0.00039894009274017391 0 0.02530394363667738 0.00010982881715141383 0 0.026399032676590918 -0.0012229934359077367 0 0.024288747011254337 -0.0033286118446873075 0 0.022824287348502777 -0.0010727694811319857 0 0.02530394363667738 0.00010982881715141383 0 0.026399032676590918 -0.0012229934359077367 0 0.022824287348502777 -0.0010727694811319857 0 0.026399032676590918 -0.0012229934359077367 0 0.029151597805117422 -0.0012136452648460088 0 0.027283680929957439 -0.0029770895781264062 0 0.028359671716023837 0.00039894009274017391 0 0.026399032676590918 -0.0012229934359077367 0 0.029151597805117422 -0.0012136452648460088 0 0.028359671716023837 0.00039894009274017391 0 0.029151597805117422 -0.0012136452648460088 0 0.030918261923999435 0.00011953919701201966 0 0.027283680929957439 -0.0029770895781264062 0 0.028195647825394708 -0.004708111968205665 0 0.029618184365995268 -0.0028846366672053048 0 0.029151597805117422 -0.0012136452648460088 0 0.027283680929957439 -0.0029770895781264062 0 0.029618184365995268 -0.0028846366672053048 0 0.027283680929957439 -0.0029770895781264062 0 0.024288747011254337 -0.0033286118446873075 0 0.025824772839105687 -0.0049924190012098704 0 0.026399032676590918 -0.0012229934359077367 0 0.027283680929957439 -0.0029770895781264062 0 0.024288747011254337 -0.0033286118446873075 0 0.024288747011254337 -0.0033286118446873075 0 0.022824287348502777 -0.0010727694811319857 0 0.021199332772380015 -0.0052382541198007764 0 0.024288747011254337 -0.0033286118446873075 0 0.021199332772380015 -0.0052382541198007764 0 0.025824772839105687 -0.0049924190012098704 0 0.022275856826983177 0.00047859965356778205 0 0.02530394363667738 0.00010982881715141383 0 0.022824287348502777 -0.0010727694811319857 0 0.022275856826983177 0.00047859965356778205 0 0.022824287348502777 -0.0010727694811319857 0 0.014883974575774988 -9.6656090722938968e-06 0 0.014864581457560712 -4.0865387966712256e-06 0 0.00934080250383767 1.4371012624193587e-06 0 0.0082026967503287893 -0.00068348075194848697 0 0.022824287348502777 -0.0010727694811319857 0 0.014883974575774988 -9.6656090722938968e-06 0 0.021199332772380015 -0.0052382541198007764 0 0.014869650128225911 -6.2650920169886971e-07 0 0.014951610444507751 -0.00076050150470105158 0 0.00934080250383767 1.4371012624193587e-06 0 0.0082026967503287893 -0.00068348075194848697 0 0.0058751928767027369 0.00050965013398129324 0 0.021199332772380015 -0.0052382541198007764 0 0.024696724203802582 -0.0071080689409995226 0 0.025824772839105687 -0.0049924190012098704 0 0.014951610444507751 -0.00076050150470105158 0 0.015615982093051166 -0.0011163795883828559 0 0.0082026967503287893 -0.00068348075194848697 0 0.0058751928767027369 0.00050965013398129324 0 0.0047949571759550507 0.00016284147272007066 0 0.0058751928767027369 0.00050965013398129324 0 0.0045324222498105216 0.00067184844947187233 0 0.0047949571759550507 0.00016284147272007066 0 0.00934080250383767 1.4371012624193587e-06 0 0.0058751928767027369 0.00050965013398129324 0 0.0038119201912117646 9.0085118786018111e-07 0 0.0058751928767027369 0.00050965013398129324 0 0.0038119201912117646 9.0085118786018111e-07 0 0.0035756356763517938 0.00051087187965780632 0 0.0058751928767027369 0.00050965013398129324 0 0.0045324222498105216 0.00067184844947187233 0 0.0035756356763517938 0.00051087187965780632 0 0.0045324222498105216 0.00067184844947187233 0 0.0035756356763517938 0.00051087187965780632 0 0.0042383550395281543 0.00043368595640335284 0 0.0035756356763517938 0.00051087187965780632 0 0.00066953657215652971 0.00046737504985827269 0 0.0042383550395281543 0.00043368595640335284 0 0.007046334777940976 -0.0010986986142864231 0 0.0091551150099033474 -0.00061297618074694562 0 0.0024730575091635623 0.00074093094403897579 0 0.00066953657215652971 0.00046737504985827269 0 0.0043957413310915351 0.0034954039613062965 0 -0.00079454922450555594 0.00018342784919325849 0 0.0024730575091635623 0.00074093094403897579 0 0.00066953657215652971 0.00046737504985827269 0 0.0038119201912117646 9.0085118786018111e-07 0 0.0035756356763517938 0.00051087187965780632 0 0.00066953657215652971 0.00046737504985827269 0 -0.001716552585587989 1.3543853869131509e-06 0 -0.00079454922450555594 0.00018342784919325849 0 0.0038119201912117646 9.0085118786018111e-07 0 -0.00079454922450555594 0.00018342784919325849 0 0.0038119201912117646 9.0085118786018111e-07 0 0.00066953657215652971 0.00046737504985827269 0 0.011600817392412782 -0.00097466902720089513 0 0.0056109192848693892 -0.00090203041832862462 0 0.0080789441195721519 0.0022053016928769297 0 0.011600817392412782 -0.00097466902720089513 0 0.0080789441195721519 0.0022053016928769297 0 0.011019664598357275 0.0039492237027258558 0 0.0056109192848693892 -0.00090203041832862462 0 0.0080789441195721519 0.0022053016928769297 0 0.0043957413310915351 0.0034954039613062965 0 0.0056109192848693892 -0.00090203041832862462 0 0.0024730575091635623 0.00074093094403897579 0 0.0043957413310915351 0.0034954039613062965 0 0.0080789441195721519 0.0022053016928769297 0 0.0043957413310915351 0.0034954039613062965 0 0.0085223964308598736 0.0064817236303882858 0 0.0045324222498105216 0.00067184844947187233 0 0.0042383550395281543 0.00043368595640335284 0 0.0043550290655868336 0.00063725535259325015 0 0.0091551150099033474 -0.00061297618074694562 0 0.015577273116587503 0.00073979840761134925 0 0.0080789441195721519 0.0022053016928769297 0 0.0085223964308598736 0.0064817236303882858 0 0.011019664598357275 0.0039492237027258558 0 0.0087124799106957883 0.0062534745834531818 0 0.011019664598357275 0.0039492237027258558 0 0.011693762319913221 0.0084877371320100908 0 0.015577273116587503 0.00073979840761134925 0 0.014217370095337734 0.0019814225783320251 0 0.027375456533113945 -0.0093789469816802154 0 0.027473196553359443 -0.006624584357808657 0 0.029458498533509136 -0.007761396948814784 0 0.015577273116587503 0.00073979840761134925 0 0.019070239299896086 0.00061585101968559717 0 0.027473196553359443 -0.006624584357808657 0 0.029454727499959008 -0.0057256540728984192 0 0.029458498533509136 -0.007761396948814784 0 0.0045324222498105216 0.00067184844947187233 0 0.0043550290655868336 0.00063725535259325015 0 0.0047949571759550507 0.00016284147272007066 0 0.027375456533113945 -0.0093789469816802154 0 0.027473196553359443 -0.006624584357808657 0 0.024696724203802582 -0.0071080689409995226 0 0.015577273116587503 0.00073979840761134925 0 0.015615982093051166 -0.0011163795883828559 0 0.027473196553359443 -0.006624584357808657 0 0.024696724203802582 -0.0071080689409995226 0 0.025824772839105687 -0.0049924190012098704 0 0.027473196553359443 -0.006624584357808657 0 0.028195647825394708 -0.004708111968205665 0 0.029454727499959008 -0.0057256540728984192 0 0.027473196553359443 -0.006624584357808657 0 0.025824772839105687 -0.0049924190012098704 0 0.028195647825394708 -0.004708111968205665 0 0.027283680929957439 -0.0029770895781264062 0 0.025824772839105687 -0.0049924190012098704 0 0.028195647825394708 -0.004708111968205665 0 0.028195647825394708 -0.004708111968205665 0 0.029699858952926483 -0.0042282456665060321 0 0.029618184365995268 -0.0028846366672053048 0 0.028195647825394708 -0.004708111968205665 0 0.029699858952926483 -0.0042282456665060321 0 0.029454727499959008 -0.0057256540728984192 0 0.029699858952926483 -0.0042282456665060321 0 0.030895168690505011 -0.0044856048820278212 0 0.031339265582526449 -0.0030054154095915261 0 0.030895168690505011 -0.0044856048820278212 0 0.03174746802851032 -0.0058186602175224851 0 0.029454727499959008 -0.0057256540728984192 0 0.02213845929345486 -0.00054358743767037021 0 0.021576457077151039 5.8146644430069551e-05 0 0.029699858952926483 -0.0042282456665060321 0 0.030895168690505011 -0.0044856048820278212 0 0.029454727499959008 -0.0057256540728984192 0 0.033326640163692925 -0.0028234759524184915 0 0.032729716549629181 -0.003207526059172888 0 0.033095188484368002 -0.0026427056606533185 0 0.032729716549629181 -0.003207526059172888 0 0.03307073410362369 -0.0025482342961521596 0 0.032697025958782475 -0.0020833132894719272 0 0.030895168690505011 -0.0044856048820278212 0 0.032729716549629181 -0.003207526059172888 0 0.031339265582526449 -0.0030054154095915261 0 0.021576457077151039 5.8146644430069551e-05 0 0.023020908700875503 0.00043128863280067904 0 0.030895168690505011 -0.0044856048820278212 0 0.031450248599038035 -0.0050280295100989655 0 0.032729716549629181 -0.003207526059172888 0 0.032729716549629181 -0.003207526059172888 0 0.033095188484368002 -0.0026427056606533185 0 0.03307073410362369 -0.0025482342961521596 0 0.033326640163692925 -0.0028234759524184915 0 0.033488585775095586 -0.0022017634501449073 0 0.033095188484368002 -0.0026427056606533185 0 0.014698063121115979 0.010729920343821661 0 0.014413937422535394 0.0079650872194876859 0 0.017492444819588338 0.0067616243020937527 0 0.021576457077151039 5.8146644430069551e-05 0 0.023114544442500655 0.00073227765111086502 0 0.03174746802851032 -0.0058186602175224851 0 0.029454727499959008 -0.0057256540728984192 0 0.029458498533509136 -0.007761396948814784 0 0.021576457077151039 5.8146644430069551e-05 0 0.019070239299896086 0.00061585101968559717 0 0.014698063121115979 0.010729920343821661 0 0.014413937422535394 0.0079650872194876859 0 0.011693762319913221 0.0084877371320100908 0 0.014413937422535394 0.0079650872194876859 0 0.011693762319913221 0.0084877371320100908 0 0.01378122290336797 0.0058799065066462387 0 0.011019664598357275 0.0039492237027258558 0 0.01378122290336797 0.0058799065066462387 0 0.015339818318015556 0.0028882266511465961 0 0.011019664598357275 0.0039492237027258558 0 0.011693762319913221 0.0084877371320100908 0 0.01378122290336797 0.0058799065066462387 0 0.017492444819588338 0.0067616243020937527 0 0.015339818318015556 0.0028882266511465961 0 0.020299850432616971 0.0027622314281546823 0 0.01378122290336797 0.0058799065066462387 0 0.017492444819588338 0.0067616243020937527 0 0.015339818318015556 0.0028882266511465961 0 0.014413937422535394 0.0079650872194876859 0 0.01378122290336797 0.0058799065066462387 0 0.017492444819588338 0.0067616243020937527 0 0.017370768279389485 -0.0010799603752799712 0 0.015339818318015556 0.0028882266511465961 0 0.020299850432616971 0.0027622314281546823 0 0.011600817392412782 -0.00097466902720089513 0 0.011019664598357275 0.0039492237027258558 0 0.015339818318015556 0.0028882266511465961 0 0.011600817392412782 -0.00097466902720089513 0 0.017370768279389485 -0.0010799603752799712 0 0.015339818318015556 0.0028882266511465961 0 0.033351601252378509 0.0010414758591567965 0 0.033870989027942625 -0.0011938556588290481 0 0.03184675844383688 -0.00058220012114709567 0 0.033870989027942625 -0.0011938556588290481 0 0.032810146339620844 -0.0019320153502807489 0 0.03184675844383688 -0.00058220012114709567 0 0.022344431757427639 0.0018618241778013535 0 0.023874531475263274 0.00058445097203402286 0 0.0230920290595432 -0.0012251871231476468 0 0.017370768279389485 -0.0010799603752799712 0 0.020299850432616971 0.0027622314281546823 0 0.023114544442500655 0.00073227765111086502 0 0.023874531475263274 0.00058445097203402286 0 0.033488585775095586 -0.0022017634501449073 0 0.033870989027942625 -0.0011938556588290481 0 0.033324215686860836 -0.0021225547441376964 0 0.033870989027942625 -0.0011938556588290481 0 0.033324215686860836 -0.0021225547441376964 0 0.032810146339620844 -0.0019320153502807489 0 0.032810146339620844 -0.0019320153502807489 0 0.033213249035132224 -0.0025143481238631333 0 0.033422472239742866 -0.0023347104559726379 0 0.033324215686860836 -0.0021225547441376964 0 0.032810146339620844 -0.0019320153502807489 0 0.033213249035132224 -0.0025143481238631333 0 0.033488585775095586 -0.0022017634501449073 0 0.033324215686860836 -0.0021225547441376964 0 0.033095188484368002 -0.0026427056606533185 0 0.033324215686860836 -0.0021225547441376964 0 0.033213249035132224 -0.0025143481238631333 0 0.033095188484368002 -0.0026427056606533185 0 0.033213249035132224 -0.0025143481238631333 0 0.03307073410362369 -0.0025482342961521596 0 0.033475632544836126 -0.0019350670713217839 0 0.033213249035132224 -0.0025143481238631333 0 0.033095188484368002 -0.0026427056606533185 0 0.03307073410362369 -0.0025482342961521596 0 0.033213249035132224 -0.0025143481238631333 0 0.033475632544836126 -0.0019350670713217839 0 0.033422472239742866 -0.0023347104559726379 0 0.033475632544836126 -0.0019350670713217839 0 0.034603226773134481 -0.0014212325156351918 0 0.033422472239742866 -0.0023347104559726379 0 0.033475632544836126 -0.0019350670713217839 0 0.034683770426713667 -9.1355734452493989e-05 0 0.034603226773134481 -0.0014212325156351918 0 0.034008231661818572 0.00036362745628572296 0 0.034679428369581169 0.001146304911125363 0 0.034683770426713667 -9.1355734452493989e-05 0 0.033475632544836126 -0.0019350670713217839 0 0.033085947557943557 -0.00028295229154801479 0 0.034683770426713667 -9.1355734452493989e-05 0 0.033135997894784497 -7.7425529661782751e-06 0 0.03395664309706007 -0.00012010193854072878 0 0.033475632544836126 -0.0019350670713217839 0 0.033085947557943557 -0.00028295229154801479 0 0.032697025958782475 -0.0020833132894719272 0 0.03307073410362369 -0.0025482342961521596 0 0.033475632544836126 -0.0019350670713217839 0 0.032697025958782475 -0.0020833132894719272 0 0.032729716549629181 -0.003207526059172888 0 0.032697025958782475 -0.0020833132894719272 0 0.031339265582526449 -0.0030054154095915261 0 0.032697025958782475 -0.0020833132894719272 0 0.031351451092300565 -0.0015790821226589057 0 0.031339265582526449 -0.0030054154095915261 0 0.029151597805117422 -0.0012136452648460088 0 0.031351451092300565 -0.0015790821226589057 0 0.029618184365995268 -0.0028846366672053048 0 0.029699858952926483 -0.0042282456665060321 0 0.029618184365995268 -0.0028846366672053048 0 0.031339265582526449 -0.0030054154095915261 0 0.031351451092300565 -0.0015790821226589057 0 0.029618184365995268 -0.0028846366672053048 0 0.031339265582526449 -0.0030054154095915261 0 0.029151597805117422 -0.0012136452648460088 0 0.031351451092300565 -0.0015790821226589057 0 0.030918261923999435 0.00011953919701201966 0 0.033085947557943557 -0.00028295229154801479 0 0.032697025958782475 -0.0020833132894719272 0 0.031351451092300565 -0.0015790821226589057 0 0.033135997894784497 -7.7425529661782751e-06 0 0.031412250753388951 0.00021802207940333529 0 0.033085947557943557 -0.00028295229154801479 0 0.031351451092300565 -0.0015790821226589057 0 0.030918261923999435 0.00011953919701201966 0 0.034008231661818572 0.00036362745628572296 0 0.032169539661513494 0.00017966528530503513 0 0.034041865448479515 0.0021292950134803299 0 0.028359671716023837 0.00039894009274017391 0 0.032169539661513494 0.00017966528530503513 0 0.03200551933719236 0.0027654789627244076 0 0.030172282554605558 0.00038700689100885574 0 0.031412250753388951 0.00021802207940333529 0 0.032169539661513494 0.00017966528530503513 0 0.03200551933719236 0.0027654789627244076 0 0.034041865448479515 0.0021292950134803299 0 0.034041865448479515 0.0021292950134803299 0 0.035133416478567138 0.0024944596758974518 0 0.035095940693561624 0.0038605606950102189 0 0.035133416478567138 0.0024944596758974518 0 0.034679428369581169 0.001146304911125363 0 0.035804900398290915 0.0017295076391933028 0 0.034041865448479515 0.0021292950134803299 0 0.035133416478567138 0.0024944596758974518 0 0.034679428369581169 0.001146304911125363 0 0.034679428369581169 0.001146304911125363 0 0.035804900398290915 0.0017295076391933028 0 0.034683770426713667 -9.1355734452493989e-05 0 0.034008231661818572 0.00036362745628572296 0 0.034041865448479515 0.0021292950134803299 0 0.034679428369581169 0.001146304911125363 0 0.035804900398290915 0.0017295076391933028 0 0.037691621051675797 0.002786963271909736 0 0.036534819294914707 0.00048105026446202325 0 0.035804900398290915 0.0017295076391933028 0 0.036534819294914707 0.00048105026446202325 0 0.034683770426713667 -9.1355734452493989e-05 0 0.035133416478567138 0.0024944596758974518 0 0.035804900398290915 0.0017295076391933028 0 0.036364575514900507 0.0035653315555054408 0 0.035804900398290915 0.0017295076391933028 0 0.037691621051675797 0.002786963271909736 0 0.036364575514900507 0.0035653315555054408 0 0.037691621051675797 0.002786963271909736 0 0.040348680450530701 0.0021008314484920682 0 0.039378629835764713 0.0046148643953616971 0 0.037691621051675797 0.002786963271909736 0 0.038325516556887762 0.0013132922853755576 0 0.040348680450530701 0.0021008314484920682 0 0.038325516556887762 0.0013132922853755576 0 0.038708099799251099 -0.00033269591783665947 0 0.040348680450530701 0.0021008314484920682 0 0.037691621051675797 0.002786963271909736 0 0.038325516556887762 0.0013132922853755576 0 0.036534819294914707 0.00048105026446202325 0 0.038708099799251099 -0.00033269591783665947 0 0.036476189401197963 -0.00088068833500802861 0 0.036534819294914707 0.00048105026446202325 0 0.038325516556887762 0.0013132922853755576 0 0.038708099799251099 -0.00033269591783665947 0 0.036534819294914707 0.00048105026446202325 0 0.038708099799251099 -0.00033269591783665947 0 0.037867863664037799 -0.0014626332155709681 0 0.040801569708118213 -0.0012401070591721356 0 0.038708099799251099 -0.00033269591783665947 0 0.037867863664037799 -0.0014626332155709681 0 0.036476189401197963 -0.00088068833500802861 0 0.037867863664037799 -0.0014626332155709681 0 0.036476189401197963 -0.00088068833500802861 0 0.035226194343592192 -0.0018463356018221188 0 0.036476189401197963 -0.00088068833500802861 0 0.034603226773134481 -0.0014212325156351918 0 0.035226194343592192 -0.0018463356018221188 0 0.036476189401197963 -0.00088068833500802861 0 0.036534819294914707 0.00048105026446202325 0 0.034603226773134481 -0.0014212325156351918 0 0.036534819294914707 0.00048105026446202325 0 0.034683770426713667 -9.1355734452493989e-05 0 0.034603226773134481 -0.0014212325156351918 0 0.034603226773134481 -0.0014212325156351918 0 0.033761512671538756 -0.0022766908843586094 0 0.033422472239742866 -0.0023347104559726379 0 0.034603226773134481 -0.0014212325156351918 0 0.033761512671538756 -0.0022766908843586094 0 0.035226194343592192 -0.0018463356018221188 0 0.033761512671538756 -0.0022766908843586094 0 0.032138631732882429 -0.0018378061518232909 0 0.03373800794739109 -0.0026645824634922858 0 0.033761512671538756 -0.0022766908843586094 0 0.03373800794739109 -0.0026645824634922858 0 0.035226194343592192 -0.0018463356018221188 0 0.033761512671538756 -0.0022766908843586094 0 0.033422472239742866 -0.0023347104559726379 0 0.032138631732882429 -0.0018378061518232909 0 0.032810146339620844 -0.0019320153502807489 0 0.032138631732882429 -0.0018378061518232909 0 0.03184675844383688 -0.00058220012114709567 0 0.032810146339620844 -0.0019320153502807489 0 0.033422472239742866 -0.0023347104559726379 0 0.032138631732882429 -0.0018378061518232909 0 0.032138631732882429 -0.0018378061518232909 0 0.03213669126402377 -0.0020665781201259035 0 0.03373800794739109 -0.0026645824634922858 0 0.032138631732882429 -0.0018378061518232909 0 0.031151457969242222 -0.0006732596035140295 0 0.03213669126402377 -0.0020665781201259035 0 0.032138631732882429 -0.0018378061518232909 0 0.031151457969242222 -0.0006732596035140295 0 0.030426046181248605 -4.085482752955512e-05 0 0.029820175449174497 0.0010082473055674402 0 0.031151457969242222 -0.0006732596035140295 0 0.030426046181248605 -4.085482752955512e-05 0 0.032138631732882429 -0.0018378061518232909 0 0.030426046181248605 -4.085482752955512e-05 0 0.03184675844383688 -0.00058220012114709567 0 0.028722338281935281 0.0019326135661829277 0 0.030426046181248605 -4.085482752955512e-05 0 0.03184675844383688 -0.00058220012114709567 0 0.033672529387329633 -0.0036743414220231619 0 0.036673953628369907 -0.003631516285296748 0 0.034682010291376922 -0.0055853261330561232 0 0.03275478484934792 -0.0052674493306673394 0 0.035495137405204671 -0.0037240893994268712 0 0.033790161010865481 -0.0066056152184653652 0 0.034682010291376922 -0.0055853261330561232 0 0.03275478484934792 -0.0052674493306673394 0 0.033631436506344634 -0.0036493830179759714 0 0.033672529387329633 -0.0036743414220231619 0 0.029820175449174497 0.0010082473055674402 0 0.031151457969242222 -0.0006732596035140295 0 0.030554206218156344 -0.00021608819785406253 0 0.031151457969242222 -0.0006732596035140295 0 0.030554206218156344 -0.00021608819785406253 0 0.03213669126402377 -0.0020665781201259035 0 0.030554206218156344 -0.00021608819785406253 0 0.03044045206408548 -0.00078811914660975309 0 0.03213669126402377 -0.0020665781201259035 0 0.03044045206408548 -0.00078811914660975309 0 0.033855484999336487 -0.0034675324670733307 0 0.03213669126402377 -0.0020665781201259035 0 0.033672529387329633 -0.0036743414220231619 0 0.033637763014796367 -0.003245573254198227 0 0.033855484999336487 -0.0034675324670733307 0 0.03213669126402377 -0.0020665781201259035 0 0.03373800794739109 -0.0026645824634922858 0 0.033764720847893441 -0.0075591123547820525 0 0.033855484999336487 -0.0034675324670733307 0 0.03888051925711599 -0.0055575920586435285 0 0.033855484999336487 -0.0034675324670733307 0 0.039356349252140058 -0.0033587478901809156 0 0.03888051925711599 -0.0055575920586435285 0 0.033855484999336487 -0.0034675324670733307 0 0.03668887048659223 -0.0023993477327764888 0 0.039356349252140058 -0.0033587478901809156 0 0.033855484999336487 -0.0034675324670733307 0 0.03668887048659223 -0.0023993477327764888 0 0.03373800794739109 -0.0026645824634922858 0 0.03668887048659223 -0.0023993477327764888 0 0.03373800794739109 -0.0026645824634922858 0 0.035226194343592192 -0.0018463356018221188 0 0.037867863664037799 -0.0014626332155709681 0 0.03668887048659223 -0.0023993477327764888 0 0.035226194343592192 -0.0018463356018221188 0 0.037867863664037799 -0.0014626332155709681 0 0.03668887048659223 -0.0023993477327764888 0 0.039961008682042616 -0.0021744565509055833 0 0.039961008682042616 -0.0021744565509055833 0 0.041977527503277288 -0.0029636896027005529 0 0.039356349252140058 -0.0033587478901809156 0 0.039961008682042616 -0.0021744565509055833 0 0.041977527503277288 -0.0029636896027005529 0 0.043090615588588774 -0.0018611311255587245 0 0.041977527503277288 -0.0029636896027005529 0 0.043585245548061625 -0.0030240344071132716 0 0.043090615588588774 -0.0018611311255587245 0 0.041977527503277288 -0.0029636896027005529 0 0.042463147689986526 -0.0042024896684096907 0 0.039356349252140058 -0.0033587478901809156 0 0.041977527503277288 -0.0029636896027005529 0 0.042463147689986526 -0.0042024896684096907 0 0.043585245548061625 -0.0030240344071132716 0 0.03668887048659223 -0.0023993477327764888 0 0.039961008682042616 -0.0021744565509055833 0 0.039356349252140058 -0.0033587478901809156 0 0.042463147689986526 -0.0042024896684096907 0 0.039356349252140058 -0.0033587478901809156 0 0.03888051925711599 -0.0055575920586435285 0 0.039414436084907419 -0.0030005166211328239 0 0.036673953628369907 -0.003631516285296748 0 0.039120625112555159 -0.0023912872704980512 0 0.035495137405204671 -0.0037240893994268712 0 0.037463398253243345 -0.0052878858245879743 0 0.039120625112555159 -0.0023912872704980512 0 0.037463398253243345 -0.0052878858245879743 0 0.041593979699878714 -0.0038049189855884563 0 0.03485222699950849 -0.0072553284972944453 0 0.034682010291376922 -0.0055853261330561232 0 0.037463398253243345 -0.0052878858245879743 0 0.034682010291376922 -0.0055853261330561232 0 0.035495137405204671 -0.0037240893994268712 0 0.037463398253243345 -0.0052878858245879743 0 0.042902805272885244 -0.0052416456009042323 0 0.040370059218089629 -0.0061857630656474948 0 0.041593979699878714 -0.0038049189855884563 0 0.037463398253243345 -0.0052878858245879743 0 0.040370059218089629 -0.0061857630656474948 0 0.041593979699878714 -0.0038049189855884563 0 0.043895677672052803 -0.0033531688843074048 0 0.042902805272885244 -0.0052416456009042323 0 0.041593979699878714 -0.0038049189855884563 0 0.043895677672052803 -0.0033531688843074048 0 0.041593979699878714 -0.0038049189855884563 0 0.043288170884373561 -0.0023349372916609775 0 0.045831410621588312 -0.0051829486247855121 0 0.04590239009979323 -0.0025621917934746941 0 0.043780705120107746 -0.0020166315022209767 0 0.045265003081337768 -0.004501525423918234 0 0.044503815863113798 -0.0031513280342007669 0 0.043895677672052803 -0.0033531688843074048 0 0.043288170884373561 -0.0023349372916609775 0 0.043780705120107746 -0.0020166315022209767 0 0.039414436084907419 -0.0030005166211328239 0 0.040624861723605535 -0.0026334592004025382 0 0.039120625112555159 -0.0023912872704980512 0 0.041593979699878714 -0.0038049189855884563 0 0.043288170884373561 -0.0023349372916609775 0 0.042463147689986526 -0.0042024896684096907 0 0.043288170884373561 -0.0023349372916609775 0 0.043585245548061625 -0.0030240344071132716 0 0.043585245548061625 -0.0030240344071132716 0 0.045491390853763261 -0.0023457885786178625 0 0.043090615588588774 -0.0018611311255587245 0 0.043288170884373561 -0.0023349372916609775 0 0.043585245548061625 -0.0030240344071132716 0 0.043780705120107746 -0.0020166315022209767 0 0.043585245548061625 -0.0030240344071132716 0 0.047994002062488141 -0.0037975400658174585 0 0.045491390853763261 -0.0023457885786178625 0 0.043585245548061625 -0.0030240344071132716 0 0.043780705120107746 -0.0020166315022209767 0 0.044369497678785688 -0.0011965597663179113 0 0.04590239009979323 -0.0025621917934746941 0 0.043780705120107746 -0.0020166315022209767 0 0.044369497678785688 -0.0011965597663179113 0 0.046384451793998846 -0.0025835626604567789 0 0.04748408184148608 -0.0023569425719568542 0 0.049245619252496001 -0.0014432265414286796 0 0.048007738026351367 -0.0023288888239304637 0 0.04604558238151029 -0.0010846988536648817 0 0.048007738026351367 -0.0023288888239304637 0 0.04604558238151029 -0.0010846988536648817 0 0.045491390853763261 -0.0023457885786178625 0 0.047994002062488141 -0.0037975400658174585 0 0.048007738026351367 -0.0023288888239304637 0 0.045491390853763261 -0.0023457885786178625 0 0.049245619252496001 -0.0014432265414286796 0 0.04604558238151029 -0.0010846988536648817 0 0.048395893923725355 -0.00014679071161670409 0 0.04604558238151029 -0.0010846988536648817 0 0.045491390853763261 -0.0023457885786178625 0 0.043090615588588774 -0.0018611311255587245 0 0.04604558238151029 -0.0010846988536648817 0 0.043090615588588774 -0.0018611311255587245 0 0.042090762835256611 -0.00019843168317324391 0 0.043090615588588774 -0.0018611311255587245 0 0.040801569708118213 -0.0012401070591721356 0 0.042090762835256611 -0.00019843168317324391 0 0.039961008682042616 -0.0021744565509055833 0 0.043090615588588774 -0.0018611311255587245 0 0.040801569708118213 -0.0012401070591721356 0 0.037867863664037799 -0.0014626332155709681 0 0.039961008682042616 -0.0021744565509055833 0 0.040801569708118213 -0.0012401070591721356 0 0.038708099799251099 -0.00033269591783665947 0 0.042090762835256611 -0.00019843168317324391 0 0.040348680450530701 0.0021008314484920682 0 0.038708099799251099 -0.00033269591783665947 0 0.040801569708118213 -0.0012401070591721356 0 0.042090762835256611 -0.00019843168317324391 0 0.04604558238151029 -0.0010846988536648817 0 0.042090762835256611 -0.00019843168317324391 0 0.046723809422413269 0.0013625226765705391 0 0.042090762835256611 -0.00019843168317324391 0 0.040348680450530701 0.0021008314484920682 0 0.046723809422413269 0.0013625226765705391 0 0.040348680450530701 0.0021008314484920682 0 0.046723809422413269 0.0013625226765705391 0 0.042849058655043036 0.0045812834093126665 0 0.047091231539966437 0.0013858185485171636 0 0.04673011887417057 0.0021363269057284068 0 0.049599177495332984 0.00068237039652390265 0 0.046723809422413269 0.0013625226765705391 0 0.049851860707062212 0.0012994138636997165 0 0.051211465601019288 0.00081450679128559889 0 0.049599177495332984 0.00068237039652390265 0 0.049851860707062212 0.0012994138636997165 0 0.050193369420629089 -0.00048486418448467645 0 0.049599177495332984 0.00068237039652390265 0 0.048395893923725355 -0.00014679071161670409 0 0.049599177495332984 0.00068237039652390265 0 0.048395893923725355 -0.00014679071161670409 0 0.046723809422413269 0.0013625226765705391 0 0.04604558238151029 -0.0010846988536648817 0 0.048395893923725355 -0.00014679071161670409 0 0.046723809422413269 0.0013625226765705391 0 0.049851860707062212 0.0012994138636997165 0 0.050779290966255934 0.0013817802377033112 0 0.051214954563120835 0.0012717528557584731 0 0.051834626516413067 0.00099440691398897454 0 0.049851860707062212 0.0012994138636997165 0 0.051214954563120835 0.0012717528557584731 0 0.051834626516413067 0.00099440691398897454 0 0.051211465601019288 0.00081450679128559889 0 0.049851860707062212 0.0012994138636997165 0 0.046723809422413269 0.0013625226765705391 0 0.049851860707062212 0.0012994138636997165 0 0.050059471329450524 0.0014454077413604807 0 0.040348680450530701 0.0021008314484920682 0 0.042849058655043036 0.0045812834093126665 0 0.039378629835764713 0.0046148643953616971 0 0.042849058655043036 0.0045812834093126665 0 0.040502419533872423 0.0058263944519402764 0 0.039378629835764713 0.0046148643953616971 0 0.04673011887417057 0.0021363269057284068 0 0.046284430242408511 0.0028874142977301366 0 0.050059471329450524 0.0014454077413604807 0 0.050779290966255934 0.0013817802377033112 0 0.051522657290286419 0.0016130197867617153 0 0.049851860707062212 0.0012994138636997165 0 0.050059471329450524 0.0014454077413604807 0 0.050779290966255934 0.0013817802377033112 0 0.050779290966255934 0.0013817802377033112 0 0.05115575915059508 0.0012724122964308097 0 0.051522657290286419 0.0016130197867617153 0 0.050779290966255934 0.0013817802377033112 0 0.05115575915059508 0.0012724122964308097 0 0.051246845087268601 0.0013702126927555792 0 0.05115575915059508 0.0012724122964308097 0 0.051522657290286419 0.0016130197867617153 0 0.051564667655904145 0.0010229836044868658 0 0.051522657290286419 0.0016130197867617153 0 0.051564667655904145 0.0010229836044868658 0 0.052564363084960819 0.00022670293264521747 0 0.051564667655904145 0.0010229836044868658 0 0.051912932055382159 0.00066932290491493874 0 0.051650680187956342 0.00094327037800184398 0 0.051564667655904145 0.0010229836044868658 0 0.051912932055382159 0.00066932290491493874 0 0.052564363084960819 0.00022670293264521747 0 0.05115575915059508 0.0012724122964308097 0 0.051363351612294737 0.0012024522391932749 0 0.051246845087268601 0.0013702126927555792 0 0.05115575915059508 0.0012724122964308097 0 0.051564667655904145 0.0010229836044868658 0 0.051363351612294737 0.0012024522391932749 0 0.051564667655904145 0.0010229836044868658 0 0.051363351612294737 0.0012024522391932749 0 0.051650680187956342 0.00094327037800184398 0 0.051363351612294737 0.0012024522391932749 0 0.051485566432467808 0.0013979474735800164 0 0.051650680187956342 0.00094327037800184398 0 0.051489355210103477 0.0015566173883727521 0 0.051246845087268601 0.0013702126927555792 0 0.051485566432467808 0.0013979474735800164 0 0.051363351612294737 0.0012024522391932749 0 0.051246845087268601 0.0013702126927555792 0 0.051485566432467808 0.0013979474735800164 0 0.051489355210103477 0.0015566173883727521 0 0.051246845087268601 0.0013702126927555792 0 0.051825741202140056 0.0015411038322600001 0 0.051246845087268601 0.0013702126927555792 0 0.051214954563120835 0.0012717528557584731 0 0.051825741202140056 0.0015411038322600001 0 0.050779290966255934 0.0013817802377033112 0 0.051246845087268601 0.0013702126927555792 0 0.051214954563120835 0.0012717528557584731 0 0.052720512904592197 0.0012965197911119872 0 0.051214954563120835 0.0012717528557584731 0 0.051825741202140056 0.0015411038322600001 0 0.051834626516413067 0.00099440691398897454 0 0.052720512904592197 0.0012965197911119872 0 0.051214954563120835 0.0012717528557584731 0 0.053285400846084525 0.0022366289454320027 0 0.052720512904592197 0.0012965197911119872 0 0.051825741202140056 0.0015411038322600001 0 0.053285400846084525 0.0022366289454320027 0 0.051825741202140056 0.0015411038322600001 0 0.05153308815668467 0.001869345883284282 0 0.051489355210103477 0.0015566173883727521 0 0.051825741202140056 0.0015411038322600001 0 0.05153308815668467 0.001869345883284282 0 0.053285400846084525 0.0022366289454320027 0 0.05153308815668467 0.001869345883284282 0 0.052166663148141501 0.0027608082292554736 0 0.056675072757550134 0.0028628757432164497 0 0.057746708934552263 0.0022043193669594925 0 0.05153308815668467 0.001869345883284282 0 0.051128132868711838 0.0013324389987811084 0 0.051544004425067361 0.0012920091891506327 0 0.057130944499877045 0.0017941800355382894 0 0.057746708934552263 0.0022043193669594925 0 0.05153308815668467 0.001869345883284282 0 0.051485566432467808 0.0013979474735800164 0 0.051544004425067361 0.0012920091891506327 0 0.051489355210103477 0.0015566173883727521 0 0.05153308815668467 0.001869345883284282 0 0.051485566432467808 0.0013979474735800164 0 0.051485566432467808 0.0013979474735800164 0 0.051544004425067361 0.0012920091891506327 0 0.051685376992114167 0.0010148600437924393 0 0.051544004425067361 0.0012920091891506327 0 0.051538743535807563 0.00075566933927608134 0 0.051685376992114167 0.0010148600437924393 0 0.051538743535807563 0.00075566933927608134 0 0.051685376992114167 0.0010148600437924393 0 0.051813763597548197 0.00072194096844599258 0 0.063145112936035738 0.0019602625226223945 0 0.063116549635562638 0.0019366613513174804 0 0.063101030025186425 0.001963515526528091 0 0.057746708934552263 0.0022043193669594925 0 0.057493931289550444 0.0014392204896203833 0 0.051128132868711838 0.0013324389987811084 0 0.051544004425067361 0.0012920091891506327 0 0.051538743535807563 0.00075566933927608134 0 0.059632529543069711 0.0032874497218715972 0 0.057746708934552263 0.0022043193669594925 0 0.063145112936035738 0.0019602625226223945 0 0.063101030025186425 0.001963515526528091 0 0.063134070672473161 0.0019938673395488798 0 0.063101030025186425 0.001963515526528091 0 0.063134070672473161 0.0019938673395488798 0 0.06308542569639386 0.0019866768882860234 0 0.051538743535807563 0.00075566933927608134 0 0.051744491040069042 0.00052085643688552254 0 0.051813763597548197 0.00072194096844599258 0 0.057493931289550444 0.0014392204896203833 0 0.057386887556365243 0.00060549948256701967 0 0.063134070672473161 0.0019938673395488798 0 0.06308542569639386 0.0019866768882860234 0 0.063117110844164354 0.0020123857105673075 0 0.06308542569639386 0.0019866768882860234 0 0.063096087630094999 0.002017886851802729 0 0.063117110844164354 0.0020123857105673075 0 0.063134070672473161 0.0019938673395488798 0 0.063117110844164354 0.0020123857105673075 0 0.063162797293247405 0.0020409430492434656 0 0.055581889889054596 -0.001224927979366894 0 0.057753691592586372 -0.0010864160861840874 0 0.055273588084238073 -0.0031993277812895106 0 0.054597870763911566 -0.0032972946960191894 0 0.054828174770519385 -0.0031681910250080016 0 0.055273588084238073 -0.0031993277812895106 0 0.054597870763911566 -0.0032972946960191894 0 0.055234693636609163 -0.0032117019691436663 0 0.051744491040069042 0.00052085643688552254 0 0.051935119722202661 0.00058305211263892491 0 0.051895240889823731 0.00034439112595403105 0 0.057386887556365243 0.00060549948256701967 0 0.057753691592586372 -0.0010864160861840874 0 0.06308542569639386 0.0019866768882860234 0 0.063096087630094999 0.002017886851802729 0 0.063071696792838652 0.0020042197099825413 0 0.051744491040069042 0.00052085643688552254 0 0.051935119722202661 0.00058305211263892491 0 0.051813763597548197 0.00072194096844599258 0 0.055581889889054596 -0.001224927979366894 0 0.054555237826839548 -0.0007731671300356016 0 0.054597870763911566 -0.0032972946960191894 0 0.053214502320845167 -0.0027602566301459246 0 0.054159217612829068 -0.0033962895423640923 0 0.051939165878760123 0.00068132996657956817 0 0.051813763597548197 0.00072194096844599258 0 0.051843258725245929 0.00077565306714973039 0 0.051935119722202661 0.00058305211263892491 0 0.051939165878760123 0.00068132996657956817 0 0.051813763597548197 0.00072194096844599258 0 0.051685376992114167 0.0010148600437924393 0 0.051813763597548197 0.00072194096844599258 0 0.051843258725245929 0.00077565306714973039 0 0.051685376992114167 0.0010148600437924393 0 0.051843258725245929 0.00077565306714973039 0 0.051650680187956342 0.00094327037800184398 0 0.051843258725245929 0.00077565306714973039 0 0.051650680187956342 0.00094327037800184398 0 0.051971543382217059 0.00060528004212095248 0 0.051485566432467808 0.0013979474735800164 0 0.051685376992114167 0.0010148600437924393 0 0.051650680187956342 0.00094327037800184398 0 0.054555237826839548 -0.0007731671300356016 0 0.054292069563514581 -0.00035764675031112149 0 0.051939165878760123 0.00068132996657956817 0 0.051971543382217059 0.00060528004212095248 0 0.052564363084960819 0.00022670293264521747 0 0.051939165878760123 0.00068132996657956817 0 0.051843258725245929 0.00077565306714973039 0 0.051971543382217059 0.00060528004212095248 0 0.051912932055382159 0.00066932290491493874 0 0.051650680187956342 0.00094327037800184398 0 0.051971543382217059 0.00060528004212095248 0 0.051912932055382159 0.00066932290491493874 0 0.051971543382217059 0.00060528004212095248 0 0.052564363084960819 0.00022670293264521747 0 0.053597987909430315 -0.0019649980313623944 0 0.052564363084960819 0.00022670293264521747 0 0.053534944190295662 0.00021739809532803883 0 0.053214502320845167 -0.0027602566301459246 0 0.053597987909430315 -0.0019649980313623944 0 0.052564363084960819 0.00022670293264521747 0 0.053597987909430315 -0.0019649980313623944 0 0.054788233040951713 -0.0036945696248446274 0 0.053534944190295662 0.00021739809532803883 0 0.045779871844892205 0.0025690324602126915 0 0.046107923777457517 0.0028482766510330051 0 0.038193797164929183 0.0065567445567734405 0 0.038378520891121405 0.0070696693798660941 0 0.039032083045460894 0.0065395262875624421 0 0.053214502320845167 -0.0027602566301459246 0 0.053597987909430315 -0.0019649980313623944 0 0.054159217612829068 -0.0033962895423640923 0 0.053597987909430315 -0.0019649980313623944 0 0.054788233040951713 -0.0036945696248446274 0 0.054159217612829068 -0.0033962895423640923 0 0.054159217612829068 -0.0033962895423640923 0 0.054278553290770172 -0.0034493135558538919 0 0.054828174770519385 -0.0031681910250080016 0 0.054597870763911566 -0.0032972946960191894 0 0.054159217612829068 -0.0033962895423640923 0 0.054828174770519385 -0.0031681910250080016 0 0.054788233040951713 -0.0036945696248446274 0 0.054159217612829068 -0.0033962895423640923 0 0.054278553290770172 -0.0034493135558538919 0 0.054788233040951713 -0.0036945696248446274 0 0.053448711930292894 -0.0034421417295038563 0 0.054278553290770172 -0.0034493135558538919 0 0.054788233040951713 -0.0036945696248446274 0 0.053448711930292894 -0.0034421417295038563 0 0.050326840390966361 -0.0033314422566382085 0 0.053448711930292894 -0.0034421417295038563 0 0.054278553290770172 -0.0034493135558538919 0 0.054622575668555232 -0.0026544242532204033 0 0.053448711930292894 -0.0034421417295038563 0 0.054622575668555232 -0.0026544242532204033 0 0.050326840390966361 -0.0033314422566382085 0 0.055273588084238073 -0.0031993277812895106 0 0.054828174770519385 -0.0031681910250080016 0 0.055418404296197599 -0.0031984647570035252 0 0.054622575668555232 -0.0026544242532204033 0 0.054828174770519385 -0.0031681910250080016 0 0.055418404296197599 -0.0031984647570035252 0 0.054278553290770172 -0.0034493135558538919 0 0.054622575668555232 -0.0026544242532204033 0 0.054828174770519385 -0.0031681910250080016 0 0.038972309935546942 0.0061324371859373334 0 0.039033386187533561 0.0058428603334548298 0 0.040740820467702367 0.0063124500132891621 0 0.0391136091310062 0.0074128702078679835 0 0.043184403943912028 0.0061568833606962248 0 0.042204044333119403 0.0055196495460516533 0 0.040740820467702367 0.0063124500132891621 0 0.043184403943912028 0.0061568833606962248 0 0.042204044333119403 0.0055196495460516533 0 0.043184403943912028 0.0061568833606962248 0 0.043112274518688612 0.0051147950847440383 0 0.040740820467702367 0.0063124500132891621 0 0.038828216170431896 0.0071073105380386027 0 0.044190724685202652 0.0042064942035045577 0 0.054622575668555232 -0.0026544242532204033 0 0.050326840390966361 -0.0033314422566382085 0 0.046570532178804164 0.003740440965010462 0 0.040740820467702367 0.0063124500132891621 0 0.038828216170431896 0.0071073105380386027 0 0.0391136091310062 0.0074128702078679835 0 0.038378520891121405 0.0070696693798660941 0 0.038828216170431896 0.0071073105380386027 0 0.038309069494518719 0.0071188782992571706 0 0.038828216170431896 0.0071073105380386027 0 0.0391136091310062 0.0074128702078679835 0 0.038309069494518719 0.0071188782992571706 0 0.045779871844892205 0.0025690324602126915 0 0.044810583536668482 0.0032797752212398038 0 0.0391136091310062 0.0074128702078679835 0 0.037558164930148817 0.0072474052954097324 0 0.036764903017040565 0.0084658048828175035 0 0.0391136091310062 0.0074128702078679835 0 0.037558164930148817 0.0072474052954097324 0 0.038309069494518719 0.0071188782992571706 0 0.037558164930148817 0.0072474052954097324 0 0.037144161337128889 0.0066843376214670248 0 0.036353600221305744 0.0069214520210067465 0 0.037558164930148817 0.0072474052954097324 0 0.037144161337128889 0.0066843376214670248 0 0.038309069494518719 0.0071188782992571706 0 0.037144161337128889 0.0066843376214670248 0 0.038309069494518719 0.0071188782992571706 0 0.037831407149275444 0.0066919049780232243 0 0.038378520891121405 0.0070696693798660941 0 0.038309069494518719 0.0071188782992571706 0 0.037831407149275444 0.0066919049780232243 0 0.038193797164929183 0.0065567445567734405 0 0.037831407149275444 0.0066919049780232243 0 0.037375085064621269 0.0061286104098287868 0 0.038193797164929183 0.0065567445567734405 0 0.038378520891121405 0.0070696693798660941 0 0.037831407149275444 0.0066919049780232243 0 0.037144161337128889 0.0066843376214670248 0 0.037831407149275444 0.0066919049780232243 0 0.036743033272838378 0.0062519925666152604 0 0.037144161337128889 0.0066843376214670248 0 0.036743033272838378 0.0062519925666152604 0 0.035965987396333943 0.0062850727486112737 0 0.037831407149275444 0.0066919049780232243 0 0.036743033272838378 0.0062519925666152604 0 0.037375085064621269 0.0061286104098287868 0 0.036743033272838378 0.0062519925666152604 0 0.036512424206778596 0.0056964184355806904 0 0.037375085064621269 0.0061286104098287868 0 0.036512424206778596 0.0056964184355806904 0 0.037488380922814563 0.0056484337847611575 0 0.037375085064621269 0.0061286104098287868 0 0.036512424206778596 0.0056964184355806904 0 0.037488380922814563 0.0056484337847611575 0 0.037089948055627736 0.0048176337639572178 0 0.036512424206778596 0.0056964184355806904 0 0.037089948055627736 0.0048176337639572178 0 0.035925779033042227 0.0047763184357042278 0 0.037488380922814563 0.0056484337847611575 0 0.038188480019938111 0.0052919238977472529 0 0.037089948055627736 0.0048176337639572178 0 0.037488380922814563 0.0056484337847611575 0 0.037375085064621269 0.0061286104098287868 0 0.038269736003518656 0.0061519574400452351 0 0.038193797164929183 0.0065567445567734405 0 0.037375085064621269 0.0061286104098287868 0 0.038269736003518656 0.0061519574400452351 0 0.038269736003518656 0.0061519574400452351 0 0.039032083045460894 0.0065395262875624421 0 0.039055468348317988 0.0058431771689832377 0 0.038193797164929183 0.0065567445567734405 0 0.038269736003518656 0.0061519574400452351 0 0.039032083045460894 0.0065395262875624421 0 0.046284430242408511 0.0028874142977301366 0 0.046107923777457517 0.0028482766510330051 0 0.051522657290286419 0.0016130197867617153 0 0.052564363084960819 0.00022670293264521747 0 0.053534944190295662 0.00021739809532803883 0 0.040502419533872423 0.0058263944519402764 0 0.039032083045460894 0.0065395262875624421 0 0.039055468348317988 0.0058431771689832377 0 0.038269736003518656 0.0061519574400452351 0 0.039055468348317988 0.0058431771689832377 0 0.038188480019938111 0.0052919238977472529 0 0.037488380922814563 0.0056484337847611575 0 0.038269736003518656 0.0061519574400452351 0 0.038188480019938111 0.0052919238977472529 0 0.039055468348317988 0.0058431771689832377 0 0.038188480019938111 0.0052919238977472529 0 0.039378629835764713 0.0046148643953616971 0 0.038188480019938111 0.0052919238977472529 0 0.039378629835764713 0.0046148643953616971 0 0.03775637226757797 0.004228474754537608 0 0.040502419533872423 0.0058263944519402764 0 0.039055468348317988 0.0058431771689832377 0 0.039378629835764713 0.0046148643953616971 0 0.037691621051675797 0.002786963271909736 0 0.039378629835764713 0.0046148643953616971 0 0.03775637226757797 0.004228474754537608 0 0.037691621051675797 0.002786963271909736 0 0.03775637226757797 0.004228474754537608 0 0.036364575514900507 0.0035653315555054408 0 0.036364575514900507 0.0035653315555054408 0 0.037089948055627736 0.0048176337639572178 0 0.035925779033042227 0.0047763184357042278 0 0.03775637226757797 0.004228474754537608 0 0.036364575514900507 0.0035653315555054408 0 0.037089948055627736 0.0048176337639572178 0 0.038188480019938111 0.0052919238977472529 0 0.03775637226757797 0.004228474754537608 0 0.037089948055627736 0.0048176337639572178 0 0.034790512814747043 0.0050894033307995745 0 0.035095940693561624 0.0038605606950102189 0 0.034117085100019907 0.0042259437764657123 0 0.034790512814747043 0.0050894033307995745 0 0.035925779033042227 0.0047763184357042278 0 0.035095940693561624 0.0038605606950102189 0 0.036364575514900507 0.0035653315555054408 0 0.035925779033042227 0.0047763184357042278 0 0.035095940693561624 0.0038605606950102189 0 0.035133416478567138 0.0024944596758974518 0 0.036364575514900507 0.0035653315555054408 0 0.035095940693561624 0.0038605606950102189 0 0.034041865448479515 0.0021292950134803299 0 0.035095940693561624 0.0038605606950102189 0 0.034117085100019907 0.0042259437764657123 0 0.03200551933719236 0.0027654789627244076 0 0.034117085100019907 0.0042259437764657123 0 0.032979842865097524 0.0046816198082956402 0 0.03200551933719236 0.0027654789627244076 0 0.034041865448479515 0.0021292950134803299 0 0.034117085100019907 0.0042259437764657123 0 0.03200551933719236 0.0027654789627244076 0 0.032979842865097524 0.0046816198082956402 0 0.031210511267721654 0.003868273003425932 0 0.032979842865097524 0.0046816198082956402 0 0.0339746623732958 0.0065357190931377707 0 0.032109357880304182 0.005489578429439452 0 0.032979842865097524 0.0046816198082956402 0 0.03414312590980402 0.005478487635402123 0 0.0339746623732958 0.0065357190931377707 0 0.032979842865097524 0.0046816198082956402 0 0.032109357880304182 0.005489578429439452 0 0.031210511267721654 0.003868273003425932 0 0.034117085100019907 0.0042259437764657123 0 0.032979842865097524 0.0046816198082956402 0 0.03414312590980402 0.005478487635402123 0 0.034790512814747043 0.0050894033307995745 0 0.034117085100019907 0.0042259437764657123 0 0.03414312590980402 0.005478487635402123 0 0.03414312590980402 0.005478487635402123 0 0.034652521651927802 0.006132672501799729 0 0.0339746623732958 0.0065357190931377707 0 0.034790512814747043 0.0050894033307995745 0 0.03414312590980402 0.005478487635402123 0 0.034652521651927802 0.006132672501799729 0 0.0339746623732958 0.0065357190931377707 0 0.03465081448550654 0.0072188130057807441 0 0.033502753138164511 0.0070998241372977958 0 0.0339746623732958 0.0065357190931377707 0 0.034774846928049205 0.0065891700357705264 0 0.03465081448550654 0.0072188130057807441 0 0.034652521651927802 0.006132672501799729 0 0.0339746623732958 0.0065357190931377707 0 0.034774846928049205 0.0065891700357705264 0 0.034652521651927802 0.006132672501799729 0 0.034774846928049205 0.0065891700357705264 0 0.03506249276742443 0.0061929365971874276 0 0.034652521651927802 0.006132672501799729 0 0.03506249276742443 0.0061929365971874276 0 0.035381666210671993 0.0057093642728553344 0 0.03506249276742443 0.0061929365971874276 0 0.035381666210671993 0.0057093642728553344 0 0.035737092382198958 0.0060715512475159718 0 0.034790512814747043 0.0050894033307995745 0 0.034652521651927802 0.006132672501799729 0 0.035381666210671993 0.0057093642728553344 0 0.034790512814747043 0.0050894033307995745 0 0.035925779033042227 0.0047763184357042278 0 0.035381666210671993 0.0057093642728553344 0 0.036512424206778596 0.0056964184355806904 0 0.035925779033042227 0.0047763184357042278 0 0.035381666210671993 0.0057093642728553344 0 0.036512424206778596 0.0056964184355806904 0 0.035381666210671993 0.0057093642728553344 0 0.035737092382198958 0.0060715512475159718 0 0.036743033272838378 0.0062519925666152604 0 0.036512424206778596 0.0056964184355806904 0 0.035737092382198958 0.0060715512475159718 0 0.035737092382198958 0.0060715512475159718 0 0.035965987396333943 0.0062850727486112737 0 0.035261619885890515 0.0061679278728840057 0 0.036743033272838378 0.0062519925666152604 0 0.035737092382198958 0.0060715512475159718 0 0.035965987396333943 0.0062850727486112737 0 0.035261619885890515 0.0061679278728840057 0 0.034949240936781589 0.0061103785739840179 0 0.035016242942323819 0.0061266425075293717 0 0.03506249276742443 0.0061929365971874276 0 0.035261619885890515 0.0061679278728840057 0 0.035016242942323819 0.0061266425075293717 0 0.03506249276742443 0.0061929365971874276 0 0.035737092382198958 0.0060715512475159718 0 0.035261619885890515 0.0061679278728840057 0 0.035965987396333943 0.0062850727486112737 0 0.035261619885890515 0.0061679278728840057 0 0.034949240936781589 0.0061103785739840179 0 0.037144161337128889 0.0066843376214670248 0 0.035965987396333943 0.0062850727486112737 0 0.036353600221305744 0.0069214520210067465 0 0.035965987396333943 0.0062850727486112737 0 0.034949240936781589 0.0061103785739840179 0 0.036353600221305744 0.0069214520210067465 0 0.037558164930148817 0.0072474052954097324 0 0.036353600221305744 0.0069214520210067465 0 0.036764903017040565 0.0084658048828175035 0 0.036353600221305744 0.0069214520210067465 0 0.035342582526936873 0.0076030580416901368 0 0.036764903017040565 0.0084658048828175035 0 0.034949240936781589 0.0061103785739840179 0 0.036353600221305744 0.0069214520210067465 0 0.035342582526936873 0.0076030580416901368 0 0.034949240936781589 0.0061103785739840179 0 0.035342582526936873 0.0076030580416901368 0 0.033902579498787312 0.0077061742385537649 0 0.036310773239456071 0.005641704433726585 0 0.036855754857851607 0.0052161684450469118 0 0.035342582526936873 0.0076030580416901368 0 0.034833586787463781 0.0088629601520511785 0 0.033902579498787312 0.0077061742385537649 0 0.038833319467668381 0.004948654951826577 0 0.039033386187533561 0.0058428603334548298 0 0.035342582526936873 0.0076030580416901368 0 0.034833586787463781 0.0088629601520511785 0 0.036764903017040565 0.0084658048828175035 0 0.043013046386588941 0.00535016233460752 0 0.043184403943912028 0.0061568833606962248 0 0.043028840168160304 0.0052443943768258347 0 0.043184403943912028 0.0061568833606962248 0 0.043112274518688612 0.0051147950847440383 0 0.043028840168160304 0.0052443943768258347 0 0.039491411528525852 0.0029132448228407718 0 0.038858332049472068 0.0025639204375101179 0 0.038616400341527142 0.00088823265366807375 0 0.037910177945325987 0.0010745477135973385 0 0.038471836905837366 0.002863594175756413 0 0.035848324160846955 0.001680420509295358 0 0.036147570869077154 0.0037074498968424647 0 0.038471836905837366 0.002863594175756413 0 0.039367987550288183 0.0028470356362901394 0 0.039491411528525852 0.0029132448228407718 0 0.038833319467668381 0.004948654951826577 0 0.039491411528525852 0.0029132448228407718 0 0.035848324160846955 0.001680420509295358 0 0.034869665266681608 0.0038529268653362809 0 0.036147570869077154 0.0037074498968424647 0 0.039491411528525852 0.0029132448228407718 0 0.036855754857851607 0.0052161684450469118 0 0.034833586787463781 0.0088629601520511785 0 0.032862618971266078 0.0091473666440674301 0 0.033902579498787312 0.0077061742385537649 0 0.034949240936781589 0.0061103785739840179 0 0.034869665266681608 0.0038529268653362809 0 0.035435377865457661 0.0052623514342130806 0 0.034869665266681608 0.0038529268653362809 0 0.036147570869077154 0.0037074498968424647 0 0.035435377865457661 0.0052623514342130806 0 0.036147570869077154 0.0037074498968424647 0 0.036615002383048455 0.0045318313761696146 0 0.038471836905837366 0.002863594175756413 0 0.036147570869077154 0.0037074498968424647 0 0.036615002383048455 0.0045318313761696146 0 0.035435377865457661 0.0052623514342130806 0 0.036615002383048455 0.0045318313761696146 0 0.035630045123732718 0.0059533324591221418 0 0.037429663831623473 0.0047765531866008626 0 0.036615002383048455 0.0045318313761696146 0 0.035435377865457661 0.0052623514342130806 0 0.035630045123732718 0.0059533324591221418 0 0.035435377865457661 0.0052623514342130806 0 0.035016242942323819 0.0061266425075293717 0 0.035630045123732718 0.0059533324591221418 0 0.034949240936781589 0.0061103785739840179 0 0.035435377865457661 0.0052623514342130806 0 0.035016242942323819 0.0061266425075293717 0 0.034774846928049205 0.0065891700357705264 0 0.035016242942323819 0.0061266425075293717 0 0.035630045123732718 0.0059533324591221418 0 0.034774846928049205 0.0065891700357705264 0 0.03506249276742443 0.0061929365971874276 0 0.035016242942323819 0.0061266425075293717 0 0.034774846928049205 0.0065891700357705264 0 0.035630045123732718 0.0059533324591221418 0 0.03465081448550654 0.0072188130057807441 0 0.035630045123732718 0.0059533324591221418 0 0.037094789888835918 0.0061276949744144289 0 0.037429663831623473 0.0047765531866008626 0 0.035630045123732718 0.0059533324591221418 0 0.037094789888835918 0.0061276949744144289 0 0.03465081448550654 0.0072188130057807441 0 0.037094789888835918 0.0061276949744144289 0 0.039620290644154517 0.0040501528122515867 0 0.041148948060828569 0.0062917036032456948 0 0.037094789888835918 0.0061276949744144289 0 0.041148948060828569 0.0062917036032456948 0 0.037661108496046661 0.0073601994420792322 0 0.039620290644154517 0.0040501528122515867 0 0.037429663831623473 0.0047765531866008626 0 0.038471836905837366 0.002863594175756413 0 0.037094789888835918 0.0061276949744144289 0 0.039620290644154517 0.0040501528122515867 0 0.037429663831623473 0.0047765531866008626 0 0.036615002383048455 0.0045318313761696146 0 0.037429663831623473 0.0047765531866008626 0 0.038471836905837366 0.002863594175756413 0 0.038471836905837366 0.002863594175756413 0 0.041110105765806752 0.0024689574803030611 0 0.040923179902269027 0.0014280903627340625 0 0.039620290644154517 0.0040501528122515867 0 0.041110105765806752 0.0024689574803030611 0 0.042353998795519252 0.0027428145854397779 0 0.039620290644154517 0.0040501528122515867 0 0.038471836905837366 0.002863594175756413 0 0.041110105765806752 0.0024689574803030611 0 0.040923179902269027 0.0014280903627340625 0 0.043284239399081867 0.0014778222423823589 0 0.043257868096848347 0.00055476981710976796 0 0.041110105765806752 0.0024689574803030611 0 0.040923179902269027 0.0014280903627340625 0 0.043284239399081867 0.0014778222423823589 0 0.040923179902269027 0.0014280903627340625 0 0.043257868096848347 0.00055476981710976796 0 0.041829598033290678 0.00014641549121226859 0 0.040923179902269027 0.0014280903627340625 0 0.040584356455764796 0.00040521413808040154 0 0.041829598033290678 0.00014641549121226859 0 0.038471836905837366 0.002863594175756413 0 0.040923179902269027 0.0014280903627340625 0 0.03964881997352894 0.0011450653693591162 0 0.038616400341527142 0.00088823265366807375 0 0.038471836905837366 0.002863594175756413 0 0.03964881997352894 0.0011450653693591162 0 0.040923179902269027 0.0014280903627340625 0 0.03964881997352894 0.0011450653693591162 0 0.040584356455764796 0.00040521413808040154 0 0.045482402797062997 0.00064198449851991541 0 0.043284239399081867 0.0014778222423823589 0 0.044377597229108973 5.1367788083910216e-06 0 0.045482402797062997 0.00064198449851991541 0 0.044377597229108973 5.1367788083910216e-06 0 0.047842785093873241 1.369263276777667e-06 0 0.045482402797062997 0.00064198449851991541 0 0.043284239399081867 0.0014778222423823589 0 0.043257868096848347 0.00055476981710976796 0 0.043284239399081867 0.0014778222423823589 0 0.042353998795519252 0.0027428145854397779 0 0.044377597229108973 5.1367788083910216e-06 0 0.041110105765806752 0.0024689574803030611 0 0.043284239399081867 0.0014778222423823589 0 0.042353998795519252 0.0027428145854397779 0 0.044368092522851003 -1.1042838367330627e-06 0 0.039816140366491289 0.00023568601689465373 0 0.041234159769057532 1.0209948836211818e-06 0 0.044364846127940498 1.9162922333546267e-06 0 0.041348535375193611 0.0016164672092995925 0 0.042353998795519252 0.0027428145854397779 0 0.044377597229108973 5.1367788083910216e-06 0 0.043551885304069289 0.003640347380659732 0 0.039816140366491289 0.00023568601689465373 0 0.041234159769057532 1.0209948836211818e-06 0 0.038105637284117005 -8.8397489020177489e-07 0 0.039620290644154517 0.0040501528122515867 0 0.042353998795519252 0.0027428145854397779 0 0.041148948060828569 0.0062917036032456948 0 0.042353998795519252 0.0027428145854397779 0 0.043551885304069289 0.003640347380659732 0 0.041148948060828569 0.0062917036032456948 0 0.041348535375193611 0.0016164672092995925 0 0.038607961213903079 0.0021285920803318951 0 0.039816140366491289 0.00023568601689465373 0 0.038105637284117005 -8.8397489020177489e-07 0 0.039105420113568108 -0.00070427749810542746 0 0.039816140366491289 0.00023568601689465373 0 0.039824555228958496 -0.00077132408078588817 0 0.039105420113568108 -0.00070427749810542746 0 0.038091617636710332 9.4225144536808347e-06 0 0.03547819855667201 0.00032785180615984476 0 0.038105637284117005 -8.8397489020177489e-07 0 0.039105420113568108 -0.00070427749810542746 0 0.038463405751956552 -0.0013659268219530438 0 0.039824555228958496 -0.00077132408078588817 0 0.039105420113568108 -0.00070427749810542746 0 0.039342290318350112 -0.001509337665410255 0 0.038463405751956552 -0.0013659268219530438 0 0.039342290318350112 -0.001509337665410255 0 0.038565340466406049 -0.0024117975312360194 0 0.03547819855667201 0.00032785180615984476 0 0.032580493951398608 0.00033352456298178519 0 0.03494378058028523 1.246032744732924e-07 0 0.031720661172431788 -1.2193382850851271e-07 0 0.031875681910052349 -3.3231854295566186e-06 0 0.039105420113568108 -0.00070427749810542746 0 0.038463405751956552 -0.0013659268219530438 0 0.039342290318350112 -0.001509337665410255 0 0.039342290318350112 -0.001509337665410255 0 0.038565340466406049 -0.0024117975312360194 0 0.039568181427288296 -0.0022579255238598262 0 0.022745678989341416 0.0082745696704676405 0 0.024764167224129666 0.0065598252554687625 0 0.023013311971543649 0.0045921553012620098 0 0.032580493951398608 0.00033352456298178519 0 0.02972224846204553 0.0026240084758717818 0 0.031716711028744203 -8.2958315456020319e-07 0 0.031571084639868081 -2.3795939755112671e-05 0 0.027580132412072092 -7.7750677138439618e-05 0 0.031726478456660059 4.8095133081848741e-06 0 0.032580493951398608 0.00033352456298178519 0 0.032580493951398608 0.00033352456298178519 0 0.033290384012915224 0.0018789865895980395 0 0.022745678989341416 0.0082745696704676405 0 0.024764167224129666 0.0065598252554687625 0 0.025497865722397175 0.008702643631356359 0 0.027254611166080925 0.007549703741793542 0 0.028632211035091396 0.0064178875154075488 0 0.026717318217902779 0.0057084922254622026 0 0.024764167224129666 0.0065598252554687625 0 0.027254611166080925 0.007549703741793542 0 0.026717318217902779 0.0057084922254622026 0 0.024764167224129666 0.0065598252554687625 0 0.027254611166080925 0.007549703741793542 0 0.025497865722397175 0.008702643631356359 0 0.033290384012915224 0.0018789865895980395 0 0.034480335275892594 0.0032099320329044066 0 0.027254611166080925 0.007549703741793542 0 0.025497865722397175 0.008702643631356359 0 0.028831795640765882 0.0091526002575237804 0 0.039342290318350112 -0.001509337665410255 0 0.039568181427288296 -0.0022579255238598262 0 0.040536329007817021 -0.0021132684047356566 0 0.039824555228958496 -0.00077132408078588817 0 0.039342290318350112 -0.001509337665410255 0 0.040536329007817021 -0.0021132684047356566 0 0.038607961213903079 0.0021285920803318951 0 0.034480335275892594 0.0032099320329044066 0 0.037094789888835918 0.0061276949744144289 0 0.037661108496046661 0.0073601994420792322 0 0.034188999185711437 0.0084342632181945206 0 0.041148948060828569 0.0062917036032456948 0 0.037661108496046661 0.0073601994420792322 0 0.03858363497324075 0.0096685680076602724 0 0.037661108496046661 0.0073601994420792322 0 0.034188999185711437 0.0084342632181945206 0 0.03858363497324075 0.0096685680076602724 0 0.03439904561331579 0.0036814438101434592 0 0.034480335275892594 0.0032099320329044066 0 0.037094789888835918 0.0061276949744144289 0 0.03465081448550654 0.0072188130057807441 0 0.034188999185711437 0.0084342632181945206 0 0.03465081448550654 0.0072188130057807441 0 0.034188999185711437 0.0084342632181945206 0 0.033502753138164511 0.0070998241372977958 0 0.034188999185711437 0.0084342632181945206 0 0.033502753138164511 0.0070998241372977958 0 0.032042948311973789 0.0064899924195209232 0 0.033502753138164511 0.0070998241372977958 0 0.032042948311973789 0.0064899924195209232 0 0.032109357880304182 0.005489578429439452 0 0.0339746623732958 0.0065357190931377707 0 0.033502753138164511 0.0070998241372977958 0 0.032109357880304182 0.005489578429439452 0 0.027254611166080925 0.007549703741793542 0 0.029748782782153642 0.0075140826644004002 0 0.028831795640765882 0.0091526002575237804 0 0.034207520729710221 0.0036314844059678331 0 0.034480335275892594 0.0032099320329044066 0 0.034188999185711437 0.0084342632181945206 0 0.029748782782153642 0.0075140826644004002 0 0.028851608598880293 0.009230158570094368 0 0.034188999185711437 0.0084342632181945206 0 0.032042948311973789 0.0064899924195209232 0 0.029748782782153642 0.0075140826644004002 0 0.032042948311973789 0.0064899924195209232 0 0.029748782782153642 0.0075140826644004002 0 0.030125986921972121 0.0064055296230101783 0 0.027254611166080925 0.007549703741793542 0 0.029748782782153642 0.0075140826644004002 0 0.028632211035091396 0.0064178875154075488 0 0.029748782782153642 0.0075140826644004002 0 0.030125986921972121 0.0064055296230101783 0 0.028632211035091396 0.0064178875154075488 0 0.029174549519363976 0.0052125276913572152 0 0.032109357880304182 0.005489578429439452 0 0.029389938772106185 0.0037761840678887672 0 0.030125986921972121 0.0064055296230101783 0 0.028632211035091396 0.0064178875154075488 0 0.029174549519363976 0.0052125276913572152 0 0.028632211035091396 0.0064178875154075488 0 0.029174549519363976 0.0052125276913572152 0 0.026717318217902779 0.0057084922254622026 0 0.032042948311973789 0.0064899924195209232 0 0.030125986921972121 0.0064055296230101783 0 0.029174549519363976 0.0052125276913572152 0 0.029174549519363976 0.0052125276913572152 0 0.029389938772106185 0.0037761840678887672 0 0.027098063256237055 0.0035027193221602408 0 0.032042948311973789 0.0064899924195209232 0 0.029174549519363976 0.0052125276913572152 0 0.032109357880304182 0.005489578429439452 0 0.032109357880304182 0.005489578429439452 0 0.031210511267721654 0.003868273003425932 0 0.029389938772106185 0.0037761840678887672 0 0.029140926105220205 0.0024515346812750321 0 0.03200551933719236 0.0027654789627244076 0 0.031210511267721654 0.003868273003425932 0 0.029140926105220205 0.0024515346812750321 0 0.031210511267721654 0.003868273003425932 0 0.029389938772106185 0.0037761840678887672 0 0.029389938772106185 0.0037761840678887672 0 0.027353408208054642 0.0025960216510989183 0 0.027098063256237055 0.0035027193221602408 0 0.029140926105220205 0.0024515346812750321 0 0.029389938772106185 0.0037761840678887672 0 0.027353408208054642 0.0025960216510989183 0 0.027353408208054642 0.0025960216510989183 0 0.025311693138445893 0.0020657923622729997 0 0.027098063256237055 0.0035027193221602408 0 0.025311693138445893 0.0020657923622729997 0 0.027098063256237055 0.0035027193221602408 0 0.024861065166784355 0.0030108825220386795 0 0.027098063256237055 0.0035027193221602408 0 0.024861065166784355 0.0030108825220386795 0 0.026358129968045971 0.0042625262617345646 0 0.02333026290814956 0.0006929237995700918 0 0.024861065166784355 0.0030108825220386795 0 0.023013311971543649 0.0045921553012620098 0 0.028771329458847063 0.0026893131847369909 0 0.02972224846204553 0.0026240084758717818 0 0.02333026290814956 0.0006929237995700918 0 0.025311693138445893 0.0020657923622729997 0 0.024861065166784355 0.0030108825220386795 0 0.02333026290814956 0.0006929237995700918 0 0.026103199821134904 6.0088686213397269e-07 0 0.027580132412072092 -7.7750677138439618e-05 0 0.024861065166784355 0.0030108825220386795 0 0.023013311971543649 0.0045921553012620098 0 0.025099718779179766 0.0047737976268673763 0 0.031716711028744203 -8.2958315456020319e-07 0 0.026103199821134904 6.0088686213397269e-07 0 0.027580132412072092 -7.7750677138439618e-05 0 0.024764167224129666 0.0065598252554687625 0 0.023013311971543649 0.0045921553012620098 0 0.025099718779179766 0.0047737976268673763 0 0.024764167224129666 0.0065598252554687625 0 0.026717318217902779 0.0057084922254622026 0 0.025099718779179766 0.0047737976268673763 0 0.029174549519363976 0.0052125276913572152 0 0.026717318217902779 0.0057084922254622026 0 0.026358129968045971 0.0042625262617345646 0 0.029174549519363976 0.0052125276913572152 0 0.027098063256237055 0.0035027193221602408 0 0.026358129968045971 0.0042625262617345646 0 0.024861065166784355 0.0030108825220386795 0 0.026358129968045971 0.0042625262617345646 0 0.025099718779179766 0.0047737976268673763 0 0.026717318217902779 0.0057084922254622026 0 0.026358129968045971 0.0042625262617345646 0 0.025099718779179766 0.0047737976268673763 0 0.068754444798618419 0.00039894916358039186 0 0.067874996466317714 0.00027748345301341793 0 0.065360015831036566 0.00027626800822309926 0 0.068754444798618419 0.00039894916358039186 0 0.068116358578130462 8.6480851080668932e-07 0 0.065360015831036566 0.00027626800822309926 0 0.068116358578130462 8.6480851080668932e-07 0 0.071518789807439823 0.00068951855571786004 0 0.073713558061436701 1.3336465837341681e-06 0 0.068754444798618419 0.00039894916358039186 0 0.068116358578130462 8.6480851080668932e-07 0 0.071518789807439823 0.00068951855571786004 0 0.068754444798618419 0.00039894916358039186 0 0.071257911313350714 0.00084633415188292216 0 0.071518789807439823 0.00068951855571786004 0 0.071257911313350714 0.00084633415188292216 0 0.071159340285175385 0.0012046401201204907 0 0.071271876239226262 0.0008696764295686891 0 0.068754444798618419 0.00039894916358039186 0 0.071257911313350714 0.00084633415188292216 0 0.067874996466317714 0.00027748345301341793 0 0.071257911313350714 0.00084633415188292216 0 0.071159340285175385 0.0012046401201204907 0 0.071372832795487895 0.0011948301799062321 0 0.067770859336034037 0.0020975048557664365 0 0.066912808285739436 0.0019759803666545925 0 0.071372832795487895 0.0011948301799062321 0 0.071243165839022612 0.0013917835720128858 0 0.071400504729278003 0.0015104027784301427 0 0.071159340285175385 0.0012046401201204907 0 0.071372832795487895 0.0011948301799062321 0 0.071243165839022612 0.0013917835720128858 0 0.066912808285739436 0.0019759803666545925 0 0.064438204043219996 0.0014183510576485849 0 0.071159340285175385 0.0012046401201204907 0 0.071243165839022612 0.0013917835720128858 0 0.071045882539896771 0.0015074187615720159 0 0.071159340285175385 0.0012046401201204907 0 0.071045882539896771 0.0015074187615720159 0 0.070937711531909184 0.0014018672177628889 0 0.057467407743029345 0.00024574632340826347 0 0.054890807682117737 0.0020737101707814409 0 0.071243165839022612 0.0013917835720128858 0 0.071045882539896771 0.0015074187615720159 0 0.071165394358750148 0.001660870433371191 0 0.071045882539896771 0.0015074187615720159 0 0.071165394358750148 0.001660870433371191 0 0.070788855821748001 0.0015516781824054496 0 0.071243165839022612 0.0013917835720128858 0 0.071400504729278003 0.0015104027784301427 0 0.071165394358750148 0.001660870433371191 0 0.064223182255097322 0.00016726584353385905 0 0.065360015831036566 0.00027626800822309926 0 0.061069141617907663 7.7471744852223646e-05 0 0.067874996466317714 0.00027748345301341793 0 0.064223182255097322 0.00016726584353385905 0 0.065360015831036566 0.00027626800822309926 0 0.068116358578130462 8.6480851080668932e-07 0 0.065360015831036566 0.00027626800822309926 0 0.062519602321267104 1.4509754781453281e-06 0 0.062519602321267104 1.4509754781453281e-06 0 0.061069141617907663 7.7471744852223646e-05 0 0.056917863036468772 -3.493300841621912e-06 0 0.065360015831036566 0.00027626800822309926 0 0.062519602321267104 1.4509754781453281e-06 0 0.061069141617907663 7.7471744852223646e-05 0 0.061069141617907663 7.7471744852223646e-05 0 0.058897598474554454 -0.0003611644111952871 0 0.056917863036468772 -3.493300841621912e-06 0 0.061069141617907663 7.7471744852223646e-05 0 0.058897598474554454 -0.0003611644111952871 0 0.06144025885634561 -0.0011184307679203275 0 0.058897598474554454 -0.0003611644111952871 0 0.056917863036468772 -3.493300841621912e-06 0 0.05500994688702663 -0.00049328205872007085 0 0.064438204043219996 0.0014183510576485849 0 0.059680090830421841 -0.0010462109330391406 0 0.064223182255097322 0.00016726584353385905 0 0.061069141617907663 7.7471744852223646e-05 0 0.06144025885634561 -0.0011184307679203275 0 0.050446838623988903 -0.0030910324161193808 0 0.051186394894149764 0.00026289589739938031 0 0.05500994688702663 -0.00049328205872007085 0 0.04874781173330963 -0.003935479466218899 0 0.047659600457376244 -0.0015017398976717958 0 0.044848267147668583 -0.0028205024663454036 0 0.04874781173330963 -0.003935479466218899 0 0.047659600457376244 -0.0015017398976717958 0 0.051186394894149764 0.00026289589739938031 0 0.059680090830421841 -0.0010462109330391406 0 0.058850338848141087 -0.0012656826723449653 0 0.047659600457376244 -0.0015017398976717958 0 0.051186394894149764 0.00026289589739938031 0 0.050719330807624904 0.00098897593066101311 0 0.051186394894149764 0.00026289589739938031 0 0.05500994688702663 -0.00049328205872007085 0 0.051326860112885966 2.5526887895312061e-06 0 0.056917863036468772 -3.493300841621912e-06 0 0.05500994688702663 -0.00049328205872007085 0 0.051326860112885966 2.5526887895312061e-06 0 0.058897598474554454 -0.0003611644111952871 0 0.06144025885634561 -0.0011184307679203275 0 0.05500994688702663 -0.00049328205872007085 0 0.059680090830421841 -0.0010462109330391406 0 0.058250754626446313 -0.0014017178107092625 0 0.051186394894149764 0.00026289589739938031 0 0.051326860112885966 2.5526887895312061e-06 0 0.050719330807624904 0.00098897593066101311 0 0.05131362620650344 -5.5637544811190483e-06 0 0.04618418442572738 -0.00085642216430864961 0 0.047734600267362114 0.00010122857320870842 0 0.05131362620650344 -5.5637544811190483e-06 0 0.044461780973857272 -0.0029827144867817026 0 0.04618418442572738 -0.00085642216430864961 0 0.051316233601646742 -8.7091197973334137e-07 0 0.048129554994494034 -0.00097555958097364135 0 0.044461780973857272 -0.0029827144867817026 0 0.044476741622883773 -0.0018196523593393276 0 0.04618418442572738 -0.00085642216430864961 0 0.044461780973857272 -0.0029827144867817026 0 0.044476741622883773 -0.0018196523593393276 0 0.043486052980650988 -0.0020466068336998581 0 0.044089336466292366 -0.0011374378516836859 0 0.044476741622883773 -0.0018196523593393276 0 0.043486052980650988 -0.0020466068336998581 0 0.044089336466292366 -0.0011374378516836859 0 0.04618418442572738 -0.00085642216430864961 0 0.044994033062360633 -7.2755961221920206e-05 0 0.044089336466292366 -0.0011374378516836859 0 0.044476741622883773 -0.0018196523593393276 0 0.04618418442572738 -0.00085642216430864961 0 0.045482402797062997 0.00064198449851991541 0 0.044994033062360633 -7.2755961221920206e-05 0 0.043257868096848347 0.00055476981710976796 0 0.044089336466292366 -0.0011374378516836859 0 0.044994033062360633 -7.2755961221920206e-05 0 0.042975665213566057 -0.00049831504378450785 0 0.044994033062360633 -7.2755961221920206e-05 0 0.043257868096848347 0.00055476981710976796 0 0.042975665213566057 -0.00049831504378450785 0 0.05131362620650344 -5.5637544811190483e-06 0 0.047842785093873241 1.369263276777667e-06 0 0.047734600267362114 0.00010122857320870842 0 0.045482402797062997 0.00064198449851991541 0 0.044994033062360633 -7.2755961221920206e-05 0 0.047734600267362114 0.00010122857320870842 0 0.045482402797062997 0.00064198449851991541 0 0.047842785093873241 1.369263276777667e-06 0 0.047734600267362114 0.00010122857320870842 0 0.04618418442572738 -0.00085642216430864961 0 0.044994033062360633 -7.2755961221920206e-05 0 0.047734600267362114 0.00010122857320870842 0 0.041521931414259181 -0.0008274290417963965 0 0.039732207081658748 0.000199607683991049 0 0.039192883998301863 -0.00069038481958317069 0 0.038616400341527142 0.00088823265366807375 0 0.03964881997352894 0.0011450653693591162 0 0.039732207081658748 0.000199607683991049 0 0.03964881997352894 0.0011450653693591162 0 0.039732207081658748 0.000199607683991049 0 0.040584356455764796 0.00040521413808040154 0 0.041521931414259181 -0.0008274290417963965 0 0.039732207081658748 0.000199607683991049 0 0.040584356455764796 0.00040521413808040154 0 0.041521931414259181 -0.0008274290417963965 0 0.040584356455764796 0.00040521413808040154 0 0.041829598033290678 0.00014641549121226859 0 0.043257868096848347 0.00055476981710976796 0 0.041829598033290678 0.00014641549121226859 0 0.042975665213566057 -0.00049831504378450785 0 0.041521931414259181 -0.0008274290417963965 0 0.041829598033290678 0.00014641549121226859 0 0.042975665213566057 -0.00049831504378450785 0 0.041521931414259181 -0.0008274290417963965 0 0.042919746414598225 -0.0014753707718058969 0 0.042603489589328733 -0.0017498233716020399 0 0.041521931414259181 -0.0008274290417963965 0 0.042975665213566057 -0.00049831504378450785 0 0.042919746414598225 -0.0014753707718058969 0 0.044089336466292366 -0.0011374378516836859 0 0.042919746414598225 -0.0014753707718058969 0 0.043486052980650988 -0.0020466068336998581 0 0.044089336466292366 -0.0011374378516836859 0 0.042975665213566057 -0.00049831504378450785 0 0.042919746414598225 -0.0014753707718058969 0 0.042919746414598225 -0.0014753707718058969 0 0.043486052980650988 -0.0020466068336998581 0 0.042603489589328733 -0.0017498233716020399 0 0.043486052980650988 -0.0020466068336998581 0 0.042603489589328733 -0.0017498233716020399 0 0.043087550218599259 -0.0016721055487208525 0 0.041158290738850883 -0.00038003935865566928 0 0.040796984532868195 0.00027743128491459449 0 0.041521931414259181 -0.0008274290417963965 0 0.041895086447096386 -0.0019856881569591325 0 0.039192883998301863 -0.00069038481958317069 0 0.041521931414259181 -0.0008274290417963965 0 0.042603489589328733 -0.0017498233716020399 0 0.041895086447096386 -0.0019856881569591325 0 0.041895086447096386 -0.0019856881569591325 0 0.042234340882304551 -0.0021025908686553236 0 0.042291538591857095 -0.0021267082053262943 0 0.042603489589328733 -0.0017498233716020399 0 0.041895086447096386 -0.0019856881569591325 0 0.043087550218599259 -0.0016721055487208525 0 0.041895086447096386 -0.0019856881569591325 0 0.042234340882304551 -0.0021025908686553236 0 0.043087550218599259 -0.0016721055487208525 0 0.042234340882304551 -0.0021025908686553236 0 0.043087550218599259 -0.0016721055487208525 0 0.042903015391180396 -0.0025632591005917966 0 0.044461780973857272 -0.0029827144867817026 0 0.043486052980650988 -0.0020466068336998581 0 0.043087550218599259 -0.0016721055487208525 0 0.047659600457376244 -0.0015017398976717958 0 0.050719330807624904 0.00098897593066101311 0 0.043087550218599259 -0.0016721055487208525 0 0.048129554994494034 -0.00097555958097364135 0 0.046437935323221692 -0.0014813037097802437 0 0.043087550218599259 -0.0016721055487208525 0 0.044848267147668583 -0.0028205024663454036 0 0.042903015391180396 -0.0025632591005917966 0 0.047659600457376244 -0.0015017398976717958 0 0.043087550218599259 -0.0016721055487208525 0 0.044848267147668583 -0.0028205024663454036 0 0.04874781173330963 -0.003935479466218899 0 0.044848267147668583 -0.0028205024663454036 0 0.042673854232924018 -0.0035872654862836918 0 0.059680090830421841 -0.0010462109330391406 0 0.057467407743029345 0.00024574632340826347 0 0.071400504729278003 0.0015104027784301427 0 0.071418945336202119 0.0017572696819481983 0 0.071165394358750148 0.001660870433371191 0 0.044848267147668583 -0.0028205024663454036 0 0.042903015391180396 -0.0025632591005917966 0 0.042673854232924018 -0.0035872654862836918 0 0.042355161403510908 -0.0025290294141676237 0 0.042673854232924018 -0.0035872654862836918 0 0.042278599087473084 -0.0022820612353335393 0 0.042234340882304551 -0.0021025908686553236 0 0.042355161403510908 -0.0025290294141676237 0 0.042258962436223596 -0.002154114746441838 0 0.042234340882304551 -0.0021025908686553236 0 0.042355161403510908 -0.0025290294141676237 0 0.042903015391180396 -0.0025632591005917966 0 0.042355161403510908 -0.0025290294141676237 0 0.042903015391180396 -0.0025632591005917966 0 0.042673854232924018 -0.0035872654862836918 0 0.042278599087473084 -0.0022820612353335393 0 0.042258962436223596 -0.002154114746441838 0 0.042448409225758148 -0.0017246366683878278 0 0.042258962436223596 -0.002154114746441838 0 0.042448409225758148 -0.0017246366683878278 0 0.042531056847898818 -0.0020152657127586525 0 0.042355161403510908 -0.0025290294141676237 0 0.042278599087473084 -0.0022820612353335393 0 0.042258962436223596 -0.002154114746441838 0 0.042448409225758148 -0.0017246366683878278 0 0.042987346733257575 -0.0016711569729255128 0 0.043408110903482219 -0.00020430507115838382 0 0.042448409225758148 -0.0017246366683878278 0 0.042987346733257575 -0.0016711569729255128 0 0.042531056847898818 -0.0020152657127586525 0 0.042987346733257575 -0.0016711569729255128 0 0.042872992793907806 -0.0020377292519863279 0 0.042531056847898818 -0.0020152657127586525 0 0.042872992793907806 -0.0020377292519863279 0 0.042531056847898818 -0.0020152657127586525 0 0.0426503958404102 -0.0021774582177935091 0 0.042531056847898818 -0.0020152657127586525 0 0.0426503958404102 -0.0021774582177935091 0 0.042291538591857095 -0.0021267082053262943 0 0.042872992793907806 -0.0020377292519863279 0 0.0426503958404102 -0.0021774582177935091 0 0.042965321234221109 -0.0022401394325871214 0 0.042258962436223596 -0.002154114746441838 0 0.042531056847898818 -0.0020152657127586525 0 0.042291538591857095 -0.0021267082053262943 0 0.042234340882304551 -0.0021025908686553236 0 0.042258962436223596 -0.002154114746441838 0 0.042291538591857095 -0.0021267082053262943 0 0.042291538591857095 -0.0021267082053262943 0 0.042598769076436338 -0.0024240861008977565 0 0.042188356945319076 -0.0025577736253740544 0 0.041895086447096386 -0.0019856881569591325 0 0.042291538591857095 -0.0021267082053262943 0 0.042188356945319076 -0.0025577736253740544 0 0.042598769076436338 -0.0024240861008977565 0 0.04299054967259365 -0.0025792170977255412 0 0.042965321234221109 -0.0022401394325871214 0 0.0426503958404102 -0.0021774582177935091 0 0.042291538591857095 -0.0021267082053262943 0 0.042598769076436338 -0.0024240861008977565 0 0.0426503958404102 -0.0021774582177935091 0 0.042598769076436338 -0.0024240861008977565 0 0.042965321234221109 -0.0022401394325871214 0 0.042481066335392094 -0.0029621665648795633 0 0.042520045795428472 -0.0027683313018462903 0 0.04299054967259365 -0.0025792170977255412 0 0.042598769076436338 -0.0024240861008977565 0 0.042520045795428472 -0.0027683313018462903 0 0.04299054967259365 -0.0025792170977255412 0 0.039491411528525852 0.0029132448228407718 0 0.042946601790071794 0.0013715895605853033 0 0.043013046386588941 0.00535016233460752 0 0.043092981577184768 0.0053112645123638193 0 0.042792180050229153 0.0051883274998753585 0 0.038616400341527142 0.00088823265366807375 0 0.03730700440667311 0.0012246861246572184 0 0.039192883998301863 -0.00069038481958317069 0 0.042481066335392094 -0.0029621665648795633 0 0.042520045795428472 -0.0027683313018462903 0 0.042188356945319076 -0.0025577736253740544 0 0.039491411528525852 0.0029132448228407718 0 0.040796984532868195 0.00027743128491459449 0 0.042598769076436338 -0.0024240861008977565 0 0.042520045795428472 -0.0027683313018462903 0 0.042188356945319076 -0.0025577736253740544 0 0.038616400341527142 0.00088823265366807375 0 0.039732207081658748 0.000199607683991049 0 0.039192883998301863 -0.00069038481958317069 0 0.042862146337193728 0.0050657023098286567 0 0.043028840168160304 0.0052443943768258347 0 0.042792180050229153 0.0051883274998753585 0 0.042862146337193728 0.0050657023098286567 0 0.043112274518688612 0.0051147950847440383 0 0.043237277872179555 0.0048028262100099934 0 0.042862146337193728 0.0050657023098286567 0 0.043112274518688612 0.0051147950847440383 0 0.043028840168160304 0.0052443943768258347 0 0.043013046386588941 0.00535016233460752 0 0.043028840168160304 0.0052443943768258347 0 0.042792180050229153 0.0051883274998753585 0 0.04299054967259365 -0.0025792170977255412 0 0.042965321234221109 -0.0022401394325871214 0 0.043448282795364827 -0.0022321122843702744 0 0.042862146337193728 0.0050657023098286567 0 0.042143371899074251 0.0065338552651307714 0 0.044190724685202652 0.0042064942035045577 0 0.042946601790071794 0.0013715895605853033 0 0.045795341953153955 -0.00051154386991709207 0 0.042862146337193728 0.0050657023098286567 0 0.042792180050229153 0.0051883274998753585 0 0.042143371899074251 0.0065338552651307714 0 0.046596630481106065 -0.0048846038318848643 0 0.044469159827125418 -0.0029139257834863205 0 0.04661786427079908 -0.0017740373227607847 0 0.045795341953153955 -0.00051154386991709207 0 0.04511843505064024 -0.00093554728129757703 0 0.042965321234221109 -0.0022401394325871214 0 0.043448282795364827 -0.0022321122843702744 0 0.043164378366370729 -0.0019991940353360168 0 0.042872992793907806 -0.0020377292519863279 0 0.042965321234221109 -0.0022401394325871214 0 0.043164378366370729 -0.0019991940353360168 0 0.042987346733257575 -0.0016711569729255128 0 0.042872992793907806 -0.0020377292519863279 0 0.043164378366370729 -0.0019991940353360168 0 0.042987346733257575 -0.0016711569729255128 0 0.044675439079566143 -0.0009898073900928984 0 0.043408110903482219 -0.00020430507115838382 0 0.044728209933363551 -0.00090884906171025007 0 0.04511843505064024 -0.00093554728129757703 0 0.042987346733257575 -0.0016711569729255128 0 0.044469159827125418 -0.0029139257834863205 0 0.044675439079566143 -0.0009898073900928984 0 0.044675439079566143 -0.0009898073900928984 0 0.04661786427079908 -0.0017740373227607847 0 0.046546323101366707 0.001104892228010341 0 0.044469159827125418 -0.0029139257834863205 0 0.044675439079566143 -0.0009898073900928984 0 0.04661786427079908 -0.0017740373227607847 0 0.044630416135890381 0.0036257415895680095 0 0.042270630864998597 0.0069470355144339042 0 0.038682803395449987 0.0046154031369673304 0 0.044630416135890381 0.0036257415895680095 0 0.042270630864998597 0.0069470355144339042 0 0.048212077171366559 0.0083017236132865747 0 0.042270630864998597 0.0069470355144339042 0 0.043315106755073884 0.010568488845392295 0 0.048212077171366559 0.0083017236132865747 0 0.042270630864998597 0.0069470355144339042 0 0.043315106755073884 0.010568488845392295 0 0.038051117057169966 0.0078068801174507691 0 0.057453909606916764 0.004581879448157352 0 0.055427032958697726 0.0034100255246127232 0 0.0697301481459668 0.0014181072039587681 0 0.070359399489826044 0.001581696614053236 0 0.070438942393325321 0.0012577246735558829 0 0.046697339119134998 0.0024728124413500763 0 0.045703873582425454 0.0026743597174849294 0 0.042270630864998597 0.0069470355144339042 0 0.038051117057169966 0.0078068801174507691 0 0.038682803395449987 0.0046154031369673304 0 0.044675439079566143 -0.0009898073900928984 0 0.046546323101366707 0.001104892228010341 0 0.043408110903482219 -0.00020430507115838382 0 0.045703873582425454 0.0026743597174849294 0 0.054890807682117737 0.0020737101707814409 0 0.042448409225758148 -0.0017246366683878278 0 0.043408110903482219 -0.00020430507115838382 0 0.042222759012397644 -0.0014147839010223082 0 0.038051117057169966 0.0078068801174507691 0 0.038682803395449987 0.0046154031369673304 0 0.033125187665324421 0.0053656437673158469 0 0.055427032958697726 0.0034100255246127232 0 0.054890807682117737 0.0020737101707814409 0 0.06004555528397007 0.0015543737694003734 0 0.054890807682117737 0.0020737101707814409 0 0.042673854232924018 -0.0035872654862836918 0 0.042278599087473084 -0.0022820612353335393 0 0.042222759012397644 -0.0014147839010223082 0 0.071045882539896771 0.0015074187615720159 0 0.070823481724458764 0.0016308021514035047 0 0.070937711531909184 0.0014018672177628889 0 0.042278599087473084 -0.0022820612353335393 0 0.042448409225758148 -0.0017246366683878278 0 0.042222759012397644 -0.0014147839010223082 0 0.071159340285175385 0.0012046401201204907 0 0.070937711531909184 0.0014018672177628889 0 0.070882148775776019 0.0012138002680512669 0 0.070823481724458764 0.0016308021514035047 0 0.070937711531909184 0.0014018672177628889 0 0.070715243993112908 0.0014314537404164834 0 0.070937711531909184 0.0014018672177628889 0 0.070715243993112908 0.0014314537404164834 0 0.070882148775776019 0.0012138002680512669 0 0.070359399489826044 0.001581696614053236 0 0.070823481724458764 0.0016308021514035047 0 0.070715243993112908 0.0014314537404164834 0 0.070359399489826044 0.001581696614053236 0 0.070715243993112908 0.0014314537404164834 0 0.070438942393325321 0.0012577246735558829 0 0.070715243993112908 0.0014314537404164834 0 0.070438942393325321 0.0012577246735558829 0 0.070882148775776019 0.0012138002680512669 0 0.070438942393325321 0.0012577246735558829 0 0.070882148775776019 0.0012138002680512669 0 0.070629408114322736 0.00088639867169920455 0 0.070438942393325321 0.0012577246735558829 0 0.070629408114322736 0.00088639867169920455 0 0.070170738829215984 0.0010144660629571112 0 0.071159340285175385 0.0012046401201204907 0 0.070882148775776019 0.0012138002680512669 0 0.071271876239226262 0.0008696764295686891 0 0.070882148775776019 0.0012138002680512669 0 0.071271876239226262 0.0008696764295686891 0 0.070629408114322736 0.00088639867169920455 0 0.071271876239226262 0.0008696764295686891 0 0.070629408114322736 0.00088639867169920455 0 0.070519257111014963 0.00019297950761428727 0 0.070629408114322736 0.00088639867169920455 0 0.070003564417644118 0.00052712646735328448 0 0.070519257111014963 0.00019297950761428727 0 0.070003564417644118 0.00052712646735328448 0 0.069622420191126966 0.00091713606925173915 0 0.070170738829215984 0.0010144660629571112 0 0.070629408114322736 0.00088639867169920455 0 0.070003564417644118 0.00052712646735328448 0 0.070170738829215984 0.0010144660629571112 0 0.070003564417644118 0.00052712646735328448 0 0.069622420191126966 0.00091713606925173915 0 0.069224269882436767 0.00048699915814231012 0 0.0697301481459668 0.0014181072039587681 0 0.069622420191126966 0.00091713606925173915 0 0.070170738829215984 0.0010144660629571112 0 0.0697301481459668 0.0014181072039587681 0 0.069622420191126966 0.00091713606925173915 0 0.069048340434427521 0.0011479037759908573 0 0.0697301481459668 0.0014181072039587681 0 0.070438942393325321 0.0012577246735558829 0 0.070170738829215984 0.0010144660629571112 0 0.060209417688022938 0.0052403835511158929 0 0.063849141981638616 0.0050782312954126118 0 0.051992424836467849 0.01291531868571277 0 0.048843244039942696 0.01344517745993248 0 0.054308555617522208 0.016453469854039518 0 0.051992424836467849 0.01291531868571277 0 0.053857313455069611 0.013316345120563438 0 0.054308555617522208 0.016453469854039518 0 0.051992424836467849 0.01291531868571277 0 0.053857313455069611 0.013316345120563438 0 0.053699581628898096 0.010846519532366143 0 0.051992424836467849 0.01291531868571277 0 0.048843244039942696 0.01344517745993248 0 0.048212077171366559 0.0083017236132865747 0 0.057453909606916764 0.004581879448157352 0 0.060209417688022938 0.0052403835511158929 0 0.069622420191126966 0.00091713606925173915 0 0.069048340434427521 0.0011479037759908573 0 0.069224269882436767 0.00048699915814231012 0 0.069048340434427521 0.0011479037759908573 0 0.069224269882436767 0.00048699915814231012 0 0.06882236327606181 0.00082499915900343171 0 0.069224269882436767 0.00048699915814231012 0 0.068779345982797849 0.00053659593447871604 0 0.06882236327606181 0.00082499915900343171 0 0.069048340434427521 0.0011479037759908573 0 0.06882236327606181 0.00082499915900343171 0 0.068394048587175141 0.00083013176364959637 0 0.068779345982797849 0.00053659593447871604 0 0.06882236327606181 0.00082499915900343171 0 0.068532366139226975 0.00065284152852042592 0 0.06882236327606181 0.00082499915900343171 0 0.068532366139226975 0.00065284152852042592 0 0.068394048587175141 0.00083013176364959637 0 0.068532366139226975 0.00065284152852042592 0 0.068394048587175141 0.00083013176364959637 0 0.068411819003181482 0.00073060435651416957 0 0.068779345982797849 0.00053659593447871604 0 0.068532366139226975 0.00065284152852042592 0 0.068540955389408631 0.00045273988053803654 0 0.068540955389408631 0.00045273988053803654 0 0.068422788144183608 0.00052277711377001445 0 0.068385323071555537 0.00039422254624692243 0 0.068532366139226975 0.00065284152852042592 0 0.068540955389408631 0.00045273988053803654 0 0.068422788144183608 0.00052277711377001445 0 0.056228656339221243 0.016197249987960807 0 0.054308555617522208 0.016453469854039518 0 0.058682256031242344 0.017209057160969959 0 0.068422788144183608 0.00052277711377001445 0 0.068373686589249333 0.00062798333475898164 0 0.068283204390184635 0.00048668715996872346 0 0.068422788144183608 0.00052277711377001445 0 0.068283204390184635 0.00048668715996872346 0 0.068385323071555537 0.00039422254624692243 0 0.063849141981638616 0.0050782312954126118 0 0.067117944278059019 0.005684989942877681 0 0.068222048557664602 0.00067210043721743133 0 0.068394048587175141 0.00083013176364959637 0 0.067715184645244772 0.00048147996576526788 0 0.068222048557664602 0.00067210043721743133 0 0.068126932849111102 0.00060438857882089386 0 0.067715184645244772 0.00048147996576526788 0 0.063849141981638616 0.0050782312954126118 0 0.065368681844026374 0.0043621216284546573 0 0.054308555617522208 0.016453469854039518 0 0.061427476673046905 0.01917294301770197 0 0.058682256031242344 0.017209057160969959 0 0.068532366139226975 0.00065284152852042592 0 0.068373686589249333 0.00062798333475898164 0 0.068411819003181482 0.00073060435651416957 0 0.068532366139226975 0.00065284152852042592 0 0.068422788144183608 0.00052277711377001445 0 0.068373686589249333 0.00062798333475898164 0 0.068373686589249333 0.00062798333475898164 0 0.068411819003181482 0.00073060435651416957 0 0.068327540316964655 0.00069231154239279586 0 0.068373686589249333 0.00062798333475898164 0 0.068253286930274173 0.00059794445037333129 0 0.068327540316964655 0.00069231154239279586 0 0.068373686589249333 0.00062798333475898164 0 0.068253286930274173 0.00059794445037333129 0 0.068283204390184635 0.00048668715996872346 0 0.068222048557664602 0.00067210043721743133 0 0.068253286930274173 0.00059794445037333129 0 0.068327540316964655 0.00069231154239279586 0 0.068253286930274173 0.00059794445037333129 0 0.068283204390184635 0.00048668715996872346 0 0.068161258485541706 0.00052969449571097871 0 0.068161258485541706 0.00052969449571097871 0 0.068013902623370259 0.00052256762480060366 0 0.068129467440705929 0.00043680381998006203 0 0.068283204390184635 0.00048668715996872346 0 0.068161258485541706 0.00052969449571097871 0 0.068129467440705929 0.00043680381998006203 0 0.068161258485541706 0.00052969449571097871 0 0.068013902623370259 0.00052256762480060366 0 0.068126932849111102 0.00060438857882089386 0 0.068013902623370259 0.00052256762480060366 0 0.067975555700668336 0.00041964553115278046 0 0.068129467440705929 0.00043680381998006203 0 0.068253286930274173 0.00059794445037333129 0 0.068161258485541706 0.00052969449571097871 0 0.068126932849111102 0.00060438857882089386 0 0.068222048557664602 0.00067210043721743133 0 0.068253286930274173 0.00059794445037333129 0 0.068126932849111102 0.00060438857882089386 0 0.057345301913509471 0.016289988522820084 0 0.056228656339221243 0.016197249987960807 0 0.058682256031242344 0.017209057160969959 0 0.057934984066993621 0.016397347764250014 0 0.057345301913509471 0.016289988522820084 0 0.058682256031242344 0.017209057160969959 0 0.057934984066993621 0.016397347764250014 0 0.058663525604622034 0.015994225498034496 0 0.057558054022169257 0.01546408446989616 0 0.057345301913509471 0.016289988522820084 0 0.056504510999229117 0.015574842998956234 0 0.057558054022169257 0.01546408446989616 0 0.057934984066993621 0.016397347764250014 0 0.057345301913509471 0.016289988522820084 0 0.057558054022169257 0.01546408446989616 0 0.057345301913509471 0.016289988522820084 0 0.056228656339221243 0.016197249987960807 0 0.056504510999229117 0.015574842998956234 0 0.056228656339221243 0.016197249987960807 0 0.055550178690396031 0.015797082363583657 0 0.056504510999229117 0.015574842998956234 0 0.056228656339221243 0.016197249987960807 0 0.055550178690396031 0.015797082363583657 0 0.054308555617522208 0.016453469854039518 0 0.055550178690396031 0.015797082363583657 0 0.054308555617522208 0.016453469854039518 0 0.055267319434039695 0.015274644380246965 0 0.068394048587175141 0.00083013176364959637 0 0.068411819003181482 0.00073060435651416957 0 0.068327540316964655 0.00069231154239279586 0 0.068222048557664602 0.00067210043721743133 0 0.068394048587175141 0.00083013176364959637 0 0.068327540316964655 0.00069231154239279586 0 0.068159988188113738 0.00077778933318377655 0 0.067715184645244772 0.00048147996576526788 0 0.067659085815066147 0.00056186803072146799 0 0.061427476673046905 0.01917294301770197 0 0.061907353389493727 0.017975180398919655 0 0.063117724811830284 0.018109962847234276 0 0.067637277675315174 0.00043577056145804654 0 0.067659085815066147 0.00056186803072146799 0 0.067511188229261193 0.0003758153382164576 0 0.067637277675315174 0.00043577056145804654 0 0.067715184645244772 0.00048147996576526788 0 0.067659085815066147 0.00056186803072146799 0 0.061427476673046905 0.01917294301770197 0 0.060444689076569046 0.018017417793943957 0 0.061120979270755736 0.017897962737687862 0 0.061427476673046905 0.01917294301770197 0 0.061120979270755736 0.017897962737687862 0 0.061907353389493727 0.017975180398919655 0 0.068013902623370259 0.00052256762480060366 0 0.068126932849111102 0.00060438857882089386 0 0.067715184645244772 0.00048147996576526788 0 0.068013902623370259 0.00052256762480060366 0 0.067715184645244772 0.00048147996576526788 0 0.06788241283256706 0.00044069070565631933 0 0.068013902623370259 0.00052256762480060366 0 0.067975555700668336 0.00041964553115278046 0 0.06788241283256706 0.00044069070565631933 0 0.061427476673046905 0.01917294301770197 0 0.058682256031242344 0.017209057160969959 0 0.060444689076569046 0.018017417793943957 0 0.058682256031242344 0.017209057160969959 0 0.058663525604622034 0.015994225498034496 0 0.059620226871343503 0.016457539630180804 0 0.057934984066993621 0.016397347764250014 0 0.058682256031242344 0.017209057160969959 0 0.058663525604622034 0.015994225498034496 0 0.059620226871343503 0.016457539630180804 0 0.060336007706580486 0.017134044137242802 0 0.060765447626608529 0.016033058223318464 0 0.058682256031242344 0.017209057160969959 0 0.059620226871343503 0.016457539630180804 0 0.060336007706580486 0.017134044137242802 0 0.058682256031242344 0.017209057160969959 0 0.060336007706580486 0.017134044137242802 0 0.060444689076569046 0.018017417793943957 0 0.060336007706580486 0.017134044137242802 0 0.060444689076569046 0.018017417793943957 0 0.061120979270755736 0.017897962737687862 0 0.061120979270755736 0.017897962737687862 0 0.061418478364276691 0.017184460854001746 0 0.061907353389493727 0.017975180398919655 0 0.060336007706580486 0.017134044137242802 0 0.061120979270755736 0.017897962737687862 0 0.061418478364276691 0.017184460854001746 0 0.060336007706580486 0.017134044137242802 0 0.061418478364276691 0.017184460854001746 0 0.060765447626608529 0.016033058223318464 0 0.061418478364276691 0.017184460854001746 0 0.060765447626608529 0.016033058223318464 0 0.062450201858971495 0.015881862273295098 0 0.061418478364276691 0.017184460854001746 0 0.062532700883557488 0.017204736588223857 0 0.062450201858971495 0.015881862273295098 0 0.062532700883557488 0.017204736588223857 0 0.061907353389493727 0.017975180398919655 0 0.063117724811830284 0.018109962847234276 0 0.061418478364276691 0.017184460854001746 0 0.062532700883557488 0.017204736588223857 0 0.061907353389493727 0.017975180398919655 0 0.062450201858971495 0.015881862273295098 0 0.061242499924503611 0.014754891427109212 0 0.062828482729642171 0.013624271782793273 0 0.061242499924503611 0.014754891427109212 0 0.06056527667054299 0.013189624302109453 0 0.062828482729642171 0.013624271782793273 0 0.060765447626608529 0.016033058223318464 0 0.062450201858971495 0.015881862273295098 0 0.061242499924503611 0.014754891427109212 0 0.060765447626608529 0.016033058223318464 0 0.061242499924503611 0.014754891427109212 0 0.059808327035637238 0.015136403437096071 0 0.061242499924503611 0.014754891427109212 0 0.059808327035637238 0.015136403437096071 0 0.06056527667054299 0.013189624302109453 0 0.059808327035637238 0.015136403437096071 0 0.058785364307081506 0.01331135179055536 0 0.06056527667054299 0.013189624302109453 0 0.058663525604622034 0.015994225498034496 0 0.059620226871343503 0.016457539630180804 0 0.059808327035637238 0.015136403437096071 0 0.059620226871343503 0.016457539630180804 0 0.060765447626608529 0.016033058223318464 0 0.059808327035637238 0.015136403437096071 0 0.058663525604622034 0.015994225498034496 0 0.059808327035637238 0.015136403437096071 0 0.058485563393866818 0.014923334084792302 0 0.058663525604622034 0.015994225498034496 0 0.058485563393866818 0.014923334084792302 0 0.057558054022169257 0.01546408446989616 0 0.058485563393866818 0.014923334084792302 0 0.058785364307081506 0.01331135179055536 0 0.0574098588730306 0.014202805753620739 0 0.059808327035637238 0.015136403437096071 0 0.058485563393866818 0.014923334084792302 0 0.058785364307081506 0.01331135179055536 0 0.058785364307081506 0.01331135179055536 0 0.057857026680114915 0.011701788964209821 0 0.059335160309865166 0.011119373325901169 0 0.058785364307081506 0.01331135179055536 0 0.06056527667054299 0.013189624302109453 0 0.059335160309865166 0.011119373325901169 0 0.06056527667054299 0.013189624302109453 0 0.061462546107097199 0.011794732914213211 0 0.062828482729642171 0.013624271782793273 0 0.06056527667054299 0.013189624302109453 0 0.061462546107097199 0.011794732914213211 0 0.059335160309865166 0.011119373325901169 0 0.053857313455069611 0.013316345120563438 0 0.054308555617522208 0.016453469854039518 0 0.054874307324502117 0.014523735832503619 0 0.056034106712271048 0.013853359510538061 0 0.054874307324502117 0.014523735832503619 0 0.055809034530166675 0.01488533127658366 0 0.055060597742860581 0.013523372183189381 0 0.056034106712271048 0.013853359510538061 0 0.054874307324502117 0.014523735832503619 0 0.053857313455069611 0.013316345120563438 0 0.055060597742860581 0.013523372183189381 0 0.054874307324502117 0.014523735832503619 0 0.054308555617522208 0.016453469854039518 0 0.054874307324502117 0.014523735832503619 0 0.055267319434039695 0.015274644380246965 0 0.054874307324502117 0.014523735832503619 0 0.055267319434039695 0.015274644380246965 0 0.055809034530166675 0.01488533127658366 0 0.055550178690396031 0.015797082363583657 0 0.055267319434039695 0.015274644380246965 0 0.055809034530166675 0.01488533127658366 0 0.055550178690396031 0.015797082363583657 0 0.055809034530166675 0.01488533127658366 0 0.056504510999229117 0.015574842998956234 0 0.056504510999229117 0.015574842998956234 0 0.056633583545514274 0.014847706596820968 0 0.057558054022169257 0.01546408446989616 0 0.055809034530166675 0.01488533127658366 0 0.056504510999229117 0.015574842998956234 0 0.056633583545514274 0.014847706596820968 0 0.058485563393866818 0.014923334084792302 0 0.057558054022169257 0.01546408446989616 0 0.0574098588730306 0.014202805753620739 0 0.056633583545514274 0.014847706596820968 0 0.057558054022169257 0.01546408446989616 0 0.0574098588730306 0.014202805753620739 0 0.056034106712271048 0.013853359510538061 0 0.056633583545514274 0.014847706596820968 0 0.0574098588730306 0.014202805753620739 0 0.056034106712271048 0.013853359510538061 0 0.0574098588730306 0.014202805753620739 0 0.056978962470563929 0.012827737481515547 0 0.056034106712271048 0.013853359510538061 0 0.055809034530166675 0.01488533127658366 0 0.056633583545514274 0.014847706596820968 0 0.056034106712271048 0.013853359510538061 0 0.056978962470563929 0.012827737481515547 0 0.055288989304832406 0.012364012784106334 0 0.058785364307081506 0.01331135179055536 0 0.056978962470563929 0.012827737481515547 0 0.057857026680114915 0.011701788964209821 0 0.058785364307081506 0.01331135179055536 0 0.0574098588730306 0.014202805753620739 0 0.056978962470563929 0.012827737481515547 0 0.056978962470563929 0.012827737481515547 0 0.057857026680114915 0.011701788964209821 0 0.056481412573260593 0.011523034257773769 0 0.056978962470563929 0.012827737481515547 0 0.056481412573260593 0.011523034257773769 0 0.055288989304832406 0.012364012784106334 0 0.056481412573260593 0.011523034257773769 0 0.055288989304832406 0.012364012784106334 0 0.055491188400371261 0.010302536753483719 0 0.053857313455069611 0.013316345120563438 0 0.055288989304832406 0.012364012784106334 0 0.053699581628898096 0.010846519532366143 0 0.055060597742860581 0.013523372183189381 0 0.056034106712271048 0.013853359510538061 0 0.055288989304832406 0.012364012784106334 0 0.053857313455069611 0.013316345120563438 0 0.055060597742860581 0.013523372183189381 0 0.055288989304832406 0.012364012784106334 0 0.055491188400371261 0.010302536753483719 0 0.054105213076719144 0.0081755012380449084 0 0.053699581628898096 0.010846519532366143 0 0.055288989304832406 0.012364012784106334 0 0.055491188400371261 0.010302536753483719 0 0.053699581628898096 0.010846519532366143 0 0.056481412573260593 0.011523034257773769 0 0.055491188400371261 0.010302536753483719 0 0.057355058514084921 0.010063684303856417 0 0.057857026680114915 0.011701788964209821 0 0.056481412573260593 0.011523034257773769 0 0.057355058514084921 0.010063684303856417 0 0.055491188400371261 0.010302536753483719 0 0.057355058514084921 0.010063684303856417 0 0.056360505104308088 0.008146960615915232 0 0.057355058514084921 0.010063684303856417 0 0.056360505104308088 0.008146960615915232 0 0.05853917156461292 0.008755934147213278 0 0.056360505104308088 0.008146960615915232 0 0.05853917156461292 0.008755934147213278 0 0.057522585436275801 0.0060386374781930931 0 0.055491188400371261 0.010302536753483719 0 0.056360505104308088 0.008146960615915232 0 0.054105213076719144 0.0081755012380449084 0 0.056360505104308088 0.008146960615915232 0 0.054105213076719144 0.0081755012380449084 0 0.055099235604820967 0.0062170170385875134 0 0.061462546107097199 0.011794732914213211 0 0.060774672708721965 0.0097243413162636447 0 0.063872654053624148 0.011090810386384287 0 0.061462546107097199 0.011794732914213211 0 0.060774672708721965 0.0097243413162636447 0 0.059335160309865166 0.011119373325901169 0 0.057355058514084921 0.010063684303856417 0 0.059335160309865166 0.011119373325901169 0 0.05853917156461292 0.008755934147213278 0 0.060774672708721965 0.0097243413162636447 0 0.059335160309865166 0.011119373325901169 0 0.05853917156461292 0.008755934147213278 0 0.057857026680114915 0.011701788964209821 0 0.057355058514084921 0.010063684303856417 0 0.059335160309865166 0.011119373325901169 0 0.060774672708721965 0.0097243413162636447 0 0.05853917156461292 0.008755934147213278 0 0.059979854084401256 0.0075089434684902411 0 0.05853917156461292 0.008755934147213278 0 0.059979854084401256 0.0075089434684902411 0 0.057522585436275801 0.0060386374781930931 0 0.060774672708721965 0.0097243413162636447 0 0.059979854084401256 0.0075089434684902411 0 0.062782400925728676 0.0072666823300416962 0 0.059932129383941296 0.0052727411473668905 0 0.061696009100903178 0.0034001595507394604 0 0.062782400925728676 0.0072666823300416962 0 0.059979854084401256 0.0075089434684902411 0 0.059932129383941296 0.0052727411473668905 0 0.062782400925728676 0.0072666823300416962 0 0.059932129383941296 0.0052727411473668905 0 0.057783629956013272 0.0033432689856815428 0 0.057522585436275801 0.0060386374781930931 0 0.059979854084401256 0.0075089434684902411 0 0.059932129383941296 0.0052727411473668905 0 0.057522585436275801 0.0060386374781930931 0 0.059932129383941296 0.0052727411473668905 0 0.057783629956013272 0.0033432689856815428 0 0.061696009100903178 0.0034001595507394604 0 0.055099235604820967 0.0062170170385875134 0 0.057522585436275801 0.0060386374781930931 0 0.055385225100157906 0.0038872860104723853 0 0.055099235604820967 0.0062170170385875134 0 0.055385225100157906 0.0038872860104723853 0 0.052970101278417898 0.0053656255350499477 0 0.056360505104308088 0.008146960615915232 0 0.055099235604820967 0.0062170170385875134 0 0.057522585436275801 0.0060386374781930931 0 0.057783629956013272 0.0033432689856815428 0 0.055385225100157906 0.0038872860104723853 0 0.054959533119506292 0.0010440394919972592 0 0.057783629956013272 0.0033432689856815428 0 0.057522585436275801 0.0060386374781930931 0 0.055385225100157906 0.0038872860104723853 0 0.055385225100157906 0.0038872860104723853 0 0.053628223321435166 0.002506682112755741 0 0.052970101278417898 0.0053656255350499477 0 0.053628223321435166 0.002506682112755741 0 0.051355430690207919 0.0023742992037368775 0 0.052970101278417898 0.0053656255350499477 0 0.052970101278417898 0.0053656255350499477 0 0.051861351120600238 0.0084929225834891146 0 0.04983270619621797 0.0056430432851499734 0 0.051355430690207919 0.0023742992037368775 0 0.052970101278417898 0.0053656255350499477 0 0.04983270619621797 0.0056430432851499734 0 0.054105213076719144 0.0081755012380449084 0 0.055099235604820967 0.0062170170385875134 0 0.052970101278417898 0.0053656255350499477 0 0.051992424836467849 0.01291531868571277 0 0.051861351120600238 0.0084929225834891146 0 0.048212077171366559 0.0083017236132865747 0 0.054105213076719144 0.0081755012380449084 0 0.052970101278417898 0.0053656255350499477 0 0.051861351120600238 0.0084929225834891146 0 0.051992424836467849 0.01291531868571277 0 0.051861351120600238 0.0084929225834891146 0 0.053699581628898096 0.010846519532366143 0 0.054105213076719144 0.0081755012380449084 0 0.051861351120600238 0.0084929225834891146 0 0.053699581628898096 0.010846519532366143 0 0.043315106755073884 0.010568488845392295 0 0.048843244039942696 0.01344517745993248 0 0.048212077171366559 0.0083017236132865747 0 0.051861351120600238 0.0084929225834891146 0 0.048212077171366559 0.0083017236132865747 0 0.04983270619621797 0.0056430432851499734 0 0.044630416135890381 0.0036257415895680095 0 0.048212077171366559 0.0083017236132865747 0 0.04983270619621797 0.0056430432851499734 0 0.044630416135890381 0.0036257415895680095 0 0.051355430690207919 0.0023742992037368775 0 0.04983270619621797 0.0056430432851499734 0 0.046697339119134998 0.0024728124413500763 0 0.048561818987264832 0.0022807066936395073 0 0.046546323101366707 0.001104892228010341 0 0.051355430690207919 0.0023742992037368775 0 0.049145739475962964 -9.1955852327533743e-05 0 0.04661786427079908 -0.0017740373227607847 0 0.046546323101366707 0.001104892228010341 0 0.049145739475962964 -9.1955852327533743e-05 0 0.049145739475962964 -9.1955852327533743e-05 0 0.052950962408863378 1.6795554566882983e-05 0 0.049227188643448765 -0.0029888532531237009 0 0.04661786427079908 -0.0017740373227607847 0 0.049145739475962964 -9.1955852327533743e-05 0 0.049227188643448765 -0.0029888532531237009 0 0.053628223321435166 0.002506682112755741 0 0.052950962408863378 1.6795554566882983e-05 0 0.054959533119506292 0.0010440394919972592 0 0.053628223321435166 0.002506682112755741 0 0.051355430690207919 0.0023742992037368775 0 0.052950962408863378 1.6795554566882983e-05 0 0.051355430690207919 0.0023742992037368775 0 0.049145739475962964 -9.1955852327533743e-05 0 0.052950962408863378 1.6795554566882983e-05 0 0.049621805512956349 0.00041990219131153589 0 0.048478214347995909 -2.4447106036457116e-05 0 0.052950962408863378 1.6795554566882983e-05 0 0.054306594555489099 -0.00081559938606998021 0 0.053695560754373338 -0.0016320551204754294 0 0.052950962408863378 1.6795554566882983e-05 0 0.054306594555489099 -0.00081559938606998021 0 0.054959533119506292 0.0010440394919972592 0 0.054306594555489099 -0.00081559938606998021 0 0.053695560754373338 -0.0016320551204754294 0 0.05488490643743775 -0.0017779824543639482 0 0.052950962408863378 1.6795554566882983e-05 0 0.053695560754373338 -0.0016320551204754294 0 0.05276999258410172 -0.0014828175242594236 0 0.053695560754373338 -0.0016320551204754294 0 0.05276999258410172 -0.0014828175242594236 0 0.053623277512727621 -0.0025424504336990549 0 0.053695560754373338 -0.0016320551204754294 0 0.053623277512727621 -0.0025424504336990549 0 0.05488902689103977 -0.0026865945393537817 0 0.053695560754373338 -0.0016320551204754294 0 0.05488902689103977 -0.0026865945393537817 0 0.05488490643743775 -0.0017779824543639482 0 0.051764672161331196 -0.0024519581500095514 0 0.05276999258410172 -0.0014828175242594236 0 0.053623277512727621 -0.0025424504336990549 0 0.046596630481106065 -0.0048846038318848643 0 0.04661786427079908 -0.0017740373227607847 0 0.049227188643448765 -0.0029888532531237009 0 0.045795341953153955 -0.00051154386991709207 0 0.048478214347995909 -2.4447106036457116e-05 0 0.051764672161331196 -0.0024519581500095514 0 0.053623277512727621 -0.0025424504336990549 0 0.054115989311266072 -0.0036832857474978632 0 0.045795341953153955 -0.00051154386991709207 0 0.049308608624265594 -0.0011293507578909125 0 0.042143371899074251 0.0065338552651307714 0 0.046570532178804164 0.003740440965010462 0 0.044190724685202652 0.0042064942035045577 0 0.053623277512727621 -0.0025424504336990549 0 0.054577727703825546 -0.0032397420486018204 0 0.054115989311266072 -0.0036832857474978632 0 0.053623277512727621 -0.0025424504336990549 0 0.054577727703825546 -0.0032397420486018204 0 0.05488902689103977 -0.0026865945393537817 0 0.051430085863849395 -0.002162246190168045 0 0.049308608624265594 -0.0011293507578909125 0 0.054577727703825546 -0.0032397420486018204 0 0.054115989311266072 -0.0036832857474978632 0 0.055048413405393362 -0.0033554185673515197 0 0.050326840390966361 -0.0033314422566382085 0 0.046570532178804164 0.003740440965010462 0 0.044190724685202652 0.0042064942035045577 0 0.044810583536668482 0.0032797752212398038 0 0.044219890554335284 0.0041155450683573978 0 0.042204044333119403 0.0055196495460516533 0 0.040740820467702367 0.0063124500132891621 0 0.044190724685202652 0.0042064942035045577 0 0.042204044333119403 0.0055196495460516533 0 0.043237277872179555 0.0048028262100099934 0 0.044190724685202652 0.0042064942035045577 0 0.042204044333119403 0.0055196495460516533 0 0.043112274518688612 0.0051147950847440383 0 0.043237277872179555 0.0048028262100099934 0 0.042862146337193728 0.0050657023098286567 0 0.043237277872179555 0.0048028262100099934 0 0.044190724685202652 0.0042064942035045577 0 0.055273588084238073 -0.0031993277812895106 0 0.055418404296197599 -0.0031984647570035252 0 0.056392827592073438 -0.0032101283811580002 0 0.055418404296197599 -0.0031984647570035252 0 0.055048413405393362 -0.0033554185673515197 0 0.056163539838942171 -0.0033561163137953271 0 0.055418404296197599 -0.0031984647570035252 0 0.056163539838942171 -0.0033561163137953271 0 0.056392827592073438 -0.0032101283811580002 0 0.054622575668555232 -0.0026544242532204033 0 0.055418404296197599 -0.0031984647570035252 0 0.055048413405393362 -0.0033554185673515197 0 0.054622575668555232 -0.0026544242532204033 0 0.054115989311266072 -0.0036832857474978632 0 0.055048413405393362 -0.0033554185673515197 0 0.055048413405393362 -0.0033554185673515197 0 0.05514840363883209 -0.0032498101686371681 0 0.056066739671238854 -0.0034225171015413837 0 0.055048413405393362 -0.0033554185673515197 0 0.056066739671238854 -0.0034225171015413837 0 0.056163539838942171 -0.0033561163137953271 0 0.054577727703825546 -0.0032397420486018204 0 0.055048413405393362 -0.0033554185673515197 0 0.05514840363883209 -0.0032498101686371681 0 0.054577727703825546 -0.0032397420486018204 0 0.05514840363883209 -0.0032498101686371681 0 0.05488902689103977 -0.0026865945393537817 0 0.05514840363883209 -0.0032498101686371681 0 0.05488902689103977 -0.0026865945393537817 0 0.056066739671238854 -0.0034225171015413837 0 0.05488902689103977 -0.0026865945393537817 0 0.056066739671238854 -0.0034225171015413837 0 0.056089315353017977 -0.0025445878390270098 0 0.056066739671238854 -0.0034225171015413837 0 0.056163539838942171 -0.0033561163137953271 0 0.058030878492074667 -0.0041195506528259561 0 0.056066739671238854 -0.0034225171015413837 0 0.058030878492074667 -0.0041195506528259561 0 0.056089315353017977 -0.0025445878390270098 0 0.056163539838942171 -0.0033561163137953271 0 0.058030878492074667 -0.0041195506528259561 0 0.056392827592073438 -0.0032101283811580002 0 0.058030878492074667 -0.0041195506528259561 0 0.057493802651554515 -0.0016629293486968993 0 0.061987005874816349 -0.0007811330183121949 0 0.058030878492074667 -0.0041195506528259561 0 0.057493802651554515 -0.0016629293486968993 0 0.056089315353017977 -0.0025445878390270098 0 0.05488902689103977 -0.0026865945393537817 0 0.056089315353017977 -0.0025445878390270098 0 0.05488490643743775 -0.0017779824543639482 0 0.057493802651554515 -0.0016629293486968993 0 0.056089315353017977 -0.0025445878390270098 0 0.055725555740506853 -0.00095421352599399183 0 0.054306594555489099 -0.00081559938606998021 0 0.055725555740506853 -0.00095421352599399183 0 0.05488490643743775 -0.0017779824543639482 0 0.056089315353017977 -0.0025445878390270098 0 0.055725555740506853 -0.00095421352599399183 0 0.05488490643743775 -0.0017779824543639482 0 0.054306594555489099 -0.00081559938606998021 0 0.055725555740506853 -0.00095421352599399183 0 0.054959533119506292 0.0010440394919972592 0 0.055725555740506853 -0.00095421352599399183 0 0.054959533119506292 0.0010440394919972592 0 0.057914732300248226 0.00089005264622478626 0 0.057493802651554515 -0.0016629293486968993 0 0.055725555740506853 -0.00095421352599399183 0 0.057914732300248226 0.00089005264622478626 0 0.057783629956013272 0.0033432689856815428 0 0.054959533119506292 0.0010440394919972592 0 0.057914732300248226 0.00089005264622478626 0 0.055385225100157906 0.0038872860104723853 0 0.053628223321435166 0.002506682112755741 0 0.054959533119506292 0.0010440394919972592 0 0.057914732300248226 0.00089005264622478626 0 0.061987005874816349 -0.0007811330183121949 0 0.061696009100903178 0.0034001595507394604 0 0.057493802651554515 -0.0016629293486968993 0 0.057914732300248226 0.00089005264622478626 0 0.061987005874816349 -0.0007811330183121949 0 0.057783629956013272 0.0033432689856815428 0 0.057914732300248226 0.00089005264622478626 0 0.061696009100903178 0.0034001595507394604 0 0.065020652974420612 0.0019263154482527637 0 0.061987005874816349 -0.0007811330183121949 0 0.061696009100903178 0.0034001595507394604 0 0.065020652974420612 0.0019263154482527637 0 0.069663360048738021 -0.00024808069137792249 0 0.061987005874816349 -0.0007811330183121949 0 0.065020652974420612 0.0019263154482527637 0 0.069663360048738021 -0.00024808069137792249 0 0.066999053521486218 0.005202049096818125 0 0.069663360048738021 -0.00024808069137792249 0 0.061987005874816349 -0.0007811330183121949 0 0.067006628656279987 -0.0074727471360422565 0 0.073889993845928953 -0.00024728294005312761 0 0.073063547690630212 -0.0051471824751812625 0 0.076799447526609249 -0.0031887000894377355 0 0.068357573185716017 0.0013929277198781987 0 0.064203953370518096 -0.00098201274772538334 0 0.058030878492074667 -0.0041195506528259561 0 0.061987005874816349 -0.0007811330183121949 0 0.067006628656279987 -0.0074727471360422565 0 0.058030878492074667 -0.0041195506528259561 0 0.056392827592073438 -0.0032101283811580002 0 0.054239954491303595 -0.0038682322604064166 0 0.061291506205947741 -0.0013987889908363591 0 0.064203953370518096 -0.00098201274772538334 0 0.064203953370518096 -0.00098201274772538334 0 0.057753691592586372 -0.0010864160861840874 0 0.063087456259593472 0.002031092499853001 0 0.063096087630094999 0.002017886851802729 0 0.063071696792838652 0.0020042197099825413 0 0.056392827592073438 -0.0032101283811580002 0 0.054239954491303595 -0.0038682322604064166 0 0.054900344642068333 -0.001336425971047839 0 0.05742339413921449 -0.0013692687952113411 0 0.057753691592586372 -0.0010864160861840874 0 0.055273588084238073 -0.0031993277812895106 0 0.056392827592073438 -0.0032101283811580002 0 0.055234693636609163 -0.0032117019691436663 0 0.063117110844164354 0.0020123857105673075 0 0.063123189745357813 0.0020335124612441665 0 0.063162797293247405 0.0020409430492434656 0 0.069458868613078914 0.00033676048293112344 0 0.071727152207252676 0.0032224887268231116 0 0.063096087630094999 0.002017886851802729 0 0.063117110844164354 0.0020123857105673075 0 0.063123189745357813 0.0020335124612441665 0 0.073063547690630212 -0.0051471824751812625 0 0.077416291514455754 -0.0062143203777739152 0 0.076799447526609249 -0.0031887000894377355 0 0.063087456259593472 0.002031092499853001 0 0.063096087630094999 0.002017886851802729 0 0.063123189745357813 0.0020335124612441665 0 0.064203953370518096 -0.00098201274772538334 0 0.069458868613078914 0.00033676048293112344 0 0.077416291514455754 -0.0062143203777739152 0 0.080405767837490386 -0.0034524256452140929 0 0.081520097411200462 -0.0070797304964010975 0 0.077416291514455754 -0.0062143203777739152 0 0.080405767837490386 -0.0034524256452140929 0 0.076799447526609249 -0.0031887000894377355 0 0.080405767837490386 -0.0034524256452140929 0 0.076799447526609249 -0.0031887000894377355 0 0.079191282647734756 -0.00044142675963422225 0 0.080405767837490386 -0.0034524256452140929 0 0.079191282647734756 -0.00044142675963422225 0 0.082435336890413213 0.00074024083793868315 0 0.073889993845928953 -0.00024728294005312761 0 0.076799447526609249 -0.0031887000894377355 0 0.079191282647734756 -0.00044142675963422225 0 0.073889993845928953 -0.00024728294005312761 0 0.079191282647734756 -0.00044142675963422225 0 0.080748403620267362 0.0035265169338288519 0 0.079191282647734756 -0.00044142675963422225 0 0.080748403620267362 0.0035265169338288519 0 0.082435336890413213 0.00074024083793868315 0 0.080748403620267362 0.0035265169338288519 0 0.083037568731780462 0.0032806070619688225 0 0.082660769635957171 0.002813727834295269 0 0.080748403620267362 0.0035265169338288519 0 0.083241876631943337 0.0031685406530401698 0 0.084608220566292427 0.0029999720523366403 0 0.080420571473027849 0.0045129208816014005 0 0.079863977765695315 0.0056751542136256484 0 0.080748403620267362 0.0035265169338288519 0 0.083241876631943337 0.0031685406530401698 0 0.083037568731780462 0.0032806070619688225 0 0.083241876631943337 0.0031685406530401698 0 0.084608220566292427 0.0029999720523366403 0 0.084227705587445828 0.0025950724575040103 0 0.083241876631943337 0.0031685406530401698 0 0.083786618056093165 0.0027962580826161915 0 0.083037568731780462 0.0032806070619688225 0 0.083241876631943337 0.0031685406530401698 0 0.083786618056093165 0.0027962580826161915 0 0.084227705587445828 0.0025950724575040103 0 0.080748403620267362 0.0035265169338288519 0 0.076981189856718535 0.01084717225582481 0 0.073904893318493509 0.0065581135406691578 0 0.076981189856718535 0.01084717225582481 0 0.073904893318493509 0.0065581135406691578 0 0.071970564904592471 0.01101260766211179 0 0.068357573185716017 0.0013929277198781987 0 0.070123605324608776 0.0043165241629223618 0 0.073889993845928953 -0.00024728294005312761 0 0.080748403620267362 0.0035265169338288519 0 0.073904893318493509 0.0065581135406691578 0 0.073904893318493509 0.0065581135406691578 0 0.066999053521486218 0.005202049096818125 0 0.06963315790131562 0.0085095192739628681 0 0.069663360048738021 -0.00024808069137792249 0 0.073904893318493509 0.0065581135406691578 0 0.066999053521486218 0.005202049096818125 0 0.066999053521486218 0.005202049096818125 0 0.061696009100903178 0.0034001595507394604 0 0.062782400925728676 0.0072666823300416962 0 0.065020652974420612 0.0019263154482527637 0 0.066999053521486218 0.005202049096818125 0 0.061696009100903178 0.0034001595507394604 0 0.062782400925728676 0.0072666823300416962 0 0.066648176146947916 0.0091104998425863403 0 0.063872654053624148 0.011090810386384287 0 0.066999053521486218 0.005202049096818125 0 0.062782400925728676 0.0072666823300416962 0 0.066648176146947916 0.0091104998425863403 0 0.066648176146947916 0.0091104998425863403 0 0.066258394815819549 0.011462218929399044 0 0.063872654053624148 0.011090810386384287 0 0.060774672708721965 0.0097243413162636447 0 0.062782400925728676 0.0072666823300416962 0 0.063872654053624148 0.011090810386384287 0 0.073904893318493509 0.0065581135406691578 0 0.06963315790131562 0.0085095192739628681 0 0.071970564904592471 0.01101260766211179 0 0.066999053521486218 0.005202049096818125 0 0.066648176146947916 0.0091104998425863403 0 0.06963315790131562 0.0085095192739628681 0 0.066648176146947916 0.0091104998425863403 0 0.06963315790131562 0.0085095192739628681 0 0.068428202284448875 0.011975101541005208 0 0.066648176146947916 0.0091104998425863403 0 0.066258394815819549 0.011462218929399044 0 0.068428202284448875 0.011975101541005208 0 0.06963315790131562 0.0085095192739628681 0 0.071970564904592471 0.01101260766211179 0 0.068428202284448875 0.011975101541005208 0 0.071970564904592471 0.01101260766211179 0 0.070216573982054817 0.013722715128907157 0 0.068428202284448875 0.011975101541005208 0 0.071970564904592471 0.01101260766211179 0 0.070216573982054817 0.013722715128907157 0 0.072622448020765548 0.014461030915052043 0 0.068428202284448875 0.011975101541005208 0 0.068091651820977678 0.014623096716529978 0 0.065716132137887795 0.013448539044763789 0 0.070216573982054817 0.013722715128907157 0 0.068428202284448875 0.011975101541005208 0 0.068091651820977678 0.014623096716529978 0 0.070216573982054817 0.013722715128907157 0 0.068091651820977678 0.014623096716529978 0 0.069891768174250218 0.01581832320434496 0 0.068091651820977678 0.014623096716529978 0 0.066222340693372211 0.015937050947692225 0 0.068052895891327278 0.016785238045359051 0 0.068091651820977678 0.014623096716529978 0 0.069891768174250218 0.01581832320434496 0 0.068052895891327278 0.016785238045359051 0 0.070216573982054817 0.013722715128907157 0 0.069891768174250218 0.01581832320434496 0 0.072622448020765548 0.014461030915052043 0 0.069891768174250218 0.01581832320434496 0 0.071297199194716471 0.017049940217007616 0 0.072622448020765548 0.014461030915052043 0 0.061462546107097199 0.011794732914213211 0 0.063872654053624148 0.011090810386384287 0 0.062828482729642171 0.013624271782793273 0 0.063872654053624148 0.011090810386384287 0 0.062828482729642171 0.013624271782793273 0 0.065716132137887795 0.013448539044763789 0 0.066258394815819549 0.011462218929399044 0 0.068428202284448875 0.011975101541005208 0 0.065716132137887795 0.013448539044763789 0 0.066258394815819549 0.011462218929399044 0 0.063872654053624148 0.011090810386384287 0 0.065716132137887795 0.013448539044763789 0 0.065716132137887795 0.013448539044763789 0 0.066222340693372211 0.015937050947692225 0 0.06434721843811031 0.015532482447433743 0 0.068091651820977678 0.014623096716529978 0 0.065716132137887795 0.013448539044763789 0 0.066222340693372211 0.015937050947692225 0 0.062828482729642171 0.013624271782793273 0 0.065716132137887795 0.013448539044763789 0 0.06434721843811031 0.015532482447433743 0 0.062450201858971495 0.015881862273295098 0 0.062828482729642171 0.013624271782793273 0 0.06434721843811031 0.015532482447433743 0 0.067117944278059019 0.005684989942877681 0 0.075410746902847256 0.0046300446555026242 0 0.061427476673046905 0.01917294301770197 0 0.066328021741035734 0.019651334639542876 0 0.064583789268618477 0.018808451889520496 0 0.067659085815066147 0.00056186803072146799 0 0.066947582183995519 0.00036453355945932533 0 0.067511188229261193 0.0003758153382164576 0 0.061427476673046905 0.01917294301770197 0 0.066328021741035734 0.019651334639542876 0 0.06913031531013776 0.021693246337438552 0 0.063117724811830284 0.018109962847234276 0 0.063668844928893714 0.016965062782392858 0 0.06442034049918835 0.017918191427642019 0 0.062532700883557488 0.017204736588223857 0 0.063117724811830284 0.018109962847234276 0 0.063668844928893714 0.016965062782392858 0 0.062532700883557488 0.017204736588223857 0 0.062450201858971495 0.015881862273295098 0 0.063668844928893714 0.016965062782392858 0 0.062450201858971495 0.015881862273295098 0 0.06434721843811031 0.015532482447433743 0 0.063668844928893714 0.016965062782392858 0 0.06434721843811031 0.015532482447433743 0 0.063668844928893714 0.016965062782392858 0 0.065150810776745754 0.017156826246719072 0 0.063117724811830284 0.018109962847234276 0 0.06442034049918835 0.017918191427642019 0 0.064583789268618477 0.018808451889520496 0 0.063668844928893714 0.016965062782392858 0 0.06442034049918835 0.017918191427642019 0 0.065150810776745754 0.017156826246719072 0 0.06442034049918835 0.017918191427642019 0 0.065312322905953402 0.018149366481622051 0 0.064583789268618477 0.018808451889520496 0 0.065312322905953402 0.018149366481622051 0 0.065150810776745754 0.017156826246719072 0 0.066446774137730244 0.018058483792956718 0 0.065312322905953402 0.018149366481622051 0 0.066446774137730244 0.018058483792956718 0 0.065962987469636886 0.018805948220147077 0 0.06442034049918835 0.017918191427642019 0 0.065312322905953402 0.018149366481622051 0 0.065150810776745754 0.017156826246719072 0 0.066222340693372211 0.015937050947692225 0 0.06434721843811031 0.015532482447433743 0 0.065150810776745754 0.017156826246719072 0 0.066222340693372211 0.015937050947692225 0 0.065150810776745754 0.017156826246719072 0 0.066446774137730244 0.018058483792956718 0 0.066222340693372211 0.015937050947692225 0 0.066446774137730244 0.018058483792956718 0 0.068052895891327278 0.016785238045359051 0 0.066911362469807625 0.018982270354094305 0 0.066328021741035734 0.019651334639542876 0 0.067639378944709422 0.019426953381192706 0 0.066446774137730244 0.018058483792956718 0 0.066911362469807625 0.018982270354094305 0 0.068129443718419017 0.018630280704322936 0 0.066446774137730244 0.018058483792956718 0 0.066911362469807625 0.018982270354094305 0 0.065962987469636886 0.018805948220147077 0 0.066911362469807625 0.018982270354094305 0 0.066328021741035734 0.019651334639542876 0 0.065962987469636886 0.018805948220147077 0 0.066328021741035734 0.019651334639542876 0 0.065962987469636886 0.018805948220147077 0 0.064583789268618477 0.018808451889520496 0 0.065312322905953402 0.018149366481622051 0 0.065962987469636886 0.018805948220147077 0 0.064583789268618477 0.018808451889520496 0 0.061427476673046905 0.01917294301770197 0 0.063117724811830284 0.018109962847234276 0 0.064583789268618477 0.018808451889520496 0 0.071087826310120103 0.018923026688087145 0 0.073429516767085479 0.016854554562837919 0 0.071218260514475856 0.022244748150126833 0 0.071297199194716471 0.017049940217007616 0 0.071087826310120103 0.018923026688087145 0 0.073429516767085479 0.016854554562837919 0 0.069546813127968662 0.017755570788464008 0 0.069405750331235014 0.01917671090850092 0 0.071087826310120103 0.018923026688087145 0 0.071297199194716471 0.017049940217007616 0 0.069546813127968662 0.017755570788464008 0 0.071087826310120103 0.018923026688087145 0 0.069891768174250218 0.01581832320434496 0 0.071297199194716471 0.017049940217007616 0 0.069546813127968662 0.017755570788464008 0 0.069891768174250218 0.01581832320434496 0 0.068052895891327278 0.016785238045359051 0 0.069546813127968662 0.017755570788464008 0 0.066446774137730244 0.018058483792956718 0 0.068052895891327278 0.016785238045359051 0 0.068129443718419017 0.018630280704322936 0 0.068052895891327278 0.016785238045359051 0 0.069546813127968662 0.017755570788464008 0 0.068129443718419017 0.018630280704322936 0 0.069546813127968662 0.017755570788464008 0 0.069405750331235014 0.01917671090850092 0 0.068129443718419017 0.018630280704322936 0 0.069405750331235014 0.01917671090850092 0 0.068528983096146912 0.019487976072395614 0 0.068129443718419017 0.018630280704322936 0 0.066328021741035734 0.019651334639542876 0 0.068341532989862355 0.020307609996144799 0 0.06913031531013776 0.021693246337438552 0 0.069405750331235014 0.01917671090850092 0 0.068528983096146912 0.019487976072395614 0 0.06919843229375601 0.020121484650107237 0 0.066911362469807625 0.018982270354094305 0 0.068129443718419017 0.018630280704322936 0 0.067639378944709422 0.019426953381192706 0 0.068528983096146912 0.019487976072395614 0 0.068129443718419017 0.018630280704322936 0 0.067639378944709422 0.019426953381192706 0 0.066328021741035734 0.019651334639542876 0 0.067639378944709422 0.019426953381192706 0 0.068341532989862355 0.020307609996144799 0 0.068528983096146912 0.019487976072395614 0 0.067639378944709422 0.019426953381192706 0 0.068341532989862355 0.020307609996144799 0 0.069405750331235014 0.01917671090850092 0 0.06919843229375601 0.020121484650107237 0 0.070004606079888412 0.020413716856605479 0 0.068341532989862355 0.020307609996144799 0 0.06919843229375601 0.020121484650107237 0 0.06913031531013776 0.021693246337438552 0 0.06919843229375601 0.020121484650107237 0 0.070004606079888412 0.020413716856605479 0 0.06913031531013776 0.021693246337438552 0 0.068528983096146912 0.019487976072395614 0 0.068341532989862355 0.020307609996144799 0 0.06919843229375601 0.020121484650107237 0 0.070004606079888412 0.020413716856605479 0 0.071087826310120103 0.018923026688087145 0 0.071218260514475856 0.022244748150126833 0 0.069405750331235014 0.01917671090850092 0 0.070004606079888412 0.020413716856605479 0 0.071087826310120103 0.018923026688087145 0 0.078819432006799084 0.0067162056287330121 0 0.077209457028598855 0.0050933113279624069 0 0.086065668765967995 0.0015500435642381853 0 0.086034256201379736 0.001154286841140758 0 0.085080383441491325 0.0020017493442495149 0 0.078819432006799084 0.0067162056287330121 0 0.081738474275484307 0.0042686289813598302 0 0.086065668765967995 0.0015500435642381853 0 0.086034256201379736 0.001154286841140758 0 0.086418425951811983 0.0006752207273853332 0 0.085080383441491325 0.0020017493442495149 0 0.08562563536210184 0.00065863676266829623 0 0.085146259770323654 0.0011329892519635473 0 0.086034256201379736 0.001154286841140758 0 0.085080383441491325 0.0020017493442495149 0 0.086603109052353133 0.00060668913421046901 0 0.085080383441491325 0.0020017493442495149 0 0.085146259770323654 0.0011329892519635473 0 0.084736247075363591 0.0016744415464992788 0 0.086561887249884992 0.0011758773075353805 0 0.086851618954710802 0.00063516407581824287 0 0.085080383441491325 0.0020017493442495149 0 0.084377293580873217 0.0022665077987507297 0 0.084736247075363591 0.0016744415464992788 0 0.083786618056093165 0.0027962580826161915 0 0.084377293580873217 0.0022665077987507297 0 0.084227705587445828 0.0025950724575040103 0 0.084608220566292427 0.0029999720523366403 0 0.085080383441491325 0.0020017493442495149 0 0.084227705587445828 0.0025950724575040103 0 0.085080383441491325 0.0020017493442495149 0 0.084377293580873217 0.0022665077987507297 0 0.084227705587445828 0.0025950724575040103 0 0.079863977765695315 0.0056751542136256484 0 0.078819432006799084 0.0067162056287330121 0 0.084608220566292427 0.0029999720523366403 0 0.086065668765967995 0.0015500435642381853 0 0.085080383441491325 0.0020017493442495149 0 0.076981189856718535 0.01084717225582481 0 0.0737114207703045 0.017353714641343148 0 0.072622448020765548 0.014461030915052043 0 0.076981189856718535 0.01084717225582481 0 0.071970564904592471 0.01101260766211179 0 0.072622448020765548 0.014461030915052043 0 0.071297199194716471 0.017049940217007616 0 0.073429516767085479 0.016854554562837919 0 0.072622448020765548 0.014461030915052043 0 0.078819432006799084 0.0067162056287330121 0 0.07881606021885075 0.0075723080635532831 0 0.081584844614300975 0.0037883542829465319 0 0.081478018575187647 0.0040240448612913118 0 0.081344476897292642 0.003655124855505348 0 0.081584844614300975 0.0037883542829465319 0 0.081504848726594692 0.0036295506840073833 0 0.081344476897292642 0.003655124855505348 0 0.081584844614300975 0.0037883542829465319 0 0.081478018575187647 0.0040240448612913118 0 0.08161077460011236 0.0039316234540231962 0 0.081584844614300975 0.0037883542829465319 0 0.08161077460011236 0.0039316234540231962 0 0.081711052716369442 0.0038634816171387188 0 0.081584844614300975 0.0037883542829465319 0 0.081731158023579609 0.0037233736641942004 0 0.081672935747790804 0.0036283255478183805 0 0.081584844614300975 0.0037883542829465319 0 0.081504848726594692 0.0036295506840073833 0 0.081672935747790804 0.0036283255478183805 0 0.081584844614300975 0.0037883542829465319 0 0.081711052716369442 0.0038634816171387188 0 0.081731158023579609 0.0037233736641942004 0 0.086978868404550172 0.00043915837819216691 0 0.086603109052353133 0.00060668913421046901 0 0.088170173543889188 -0.00017823828058767045 0 0.081738474275484307 0.0042686289813598302 0 0.085845228677126129 0.0027639157257356791 0 0.086978868404550172 0.00043915837819216691 0 0.087835073624930038 -9.9597462359733157e-05 0 0.088170173543889188 -0.00017823828058767045 0 0.086978868404550172 0.00043915837819216691 0 0.087236032893603516 0.00053518402192779689 0 0.087835073624930038 -9.9597462359733157e-05 0 0.086851618954710802 0.00063516407581824287 0 0.087659962368223363 -3.7376481220586345e-05 0 0.086978868404550172 0.00043915837819216691 0 0.086603109052353133 0.00060668913421046901 0 0.086418425951811983 0.0006752207273853332 0 0.082484593523422522 0.0042120533642753637 0 0.081738474275484307 0.0042686289813598302 0 0.08562563536210184 0.00065863676266829623 0 0.085146259770323654 0.0011329892519635473 0 0.085393187695428113 0.00063332251718566709 0 0.086034256201379736 0.001154286841140758 0 0.086603109052353133 0.00060668913421046901 0 0.086418425951811983 0.0006752207273853332 0 0.079864490781985029 0.0054058552049553819 0 0.079241373583309738 0.00380005067758394 0 0.080376382648782288 0.0041325012083580828 0 0.081478018575187647 0.0040240448612913118 0 0.08161077460011236 0.0039316234540231962 0 0.081736147086713284 0.0041002587098795274 0 0.081738474275484307 0.0042686289813598302 0 0.077209457028598855 0.0050933113279624069 0 0.08161077460011236 0.0039316234540231962 0 0.081736147086713284 0.0041002587098795274 0 0.081711052716369442 0.0038634816171387188 0 0.081647840416312983 0.0042604999993801976 0 0.081809000223248385 0.004305404627192257 0 0.081884703588427962 0.0037471747230725951 0 0.075410746902847256 0.0046300446555026242 0 0.078654443642635005 0.0031111729125197366 0 0.077209457028598855 0.0050933113279624069 0 0.075410746902847256 0.0046300446555026242 0 0.070004606079888412 0.020413716856605479 0 0.071218260514475856 0.022244748150126833 0 0.06913031531013776 0.021693246337438552 0 0.066947582183995519 0.00036453355945932533 0 0.067511188229261193 0.0003758153382164576 0 0.067317362678871229 0.00011353682248163307 0 0.066947582183995519 0.00036453355945932533 0 0.067317362678871229 0.00011353682248163307 0 0.067244305746024483 -0.00038056957138365971 0 0.067511188229261193 0.0003758153382164576 0 0.067317362678871229 0.00011353682248163307 0 0.067557762280078232 6.597384036164926e-05 0 0.067317362678871229 0.00011353682248163307 0 0.067244305746024483 -0.00038056957138365971 0 0.067557762280078232 6.597384036164926e-05 0 0.067244305746024483 -0.00038056957138365971 0 0.067834058430540578 -0.00018095052537641385 0 0.067557762280078232 6.597384036164926e-05 0 0.077209457028598855 0.0050933113279624069 0 0.078578962942625355 0.0038411477687613602 0 0.081736147086713284 0.0041002587098795274 0 0.081711052716369442 0.0038634816171387188 0 0.081884703588427962 0.0037471747230725951 0 0.081809000223248385 0.004305404627192257 0 0.082057086193020726 0.0037442154965178849 0 0.081884703588427962 0.0037471747230725951 0 0.082057086193020726 0.0037442154965178849 0 0.081884703588427962 0.0037471747230725951 0 0.081882498976759796 0.0035912377748999109 0 0.081884703588427962 0.0037471747230725951 0 0.081731158023579609 0.0037233736641942004 0 0.081882498976759796 0.0035912377748999109 0 0.081711052716369442 0.0038634816171387188 0 0.081884703588427962 0.0037471747230725951 0 0.081731158023579609 0.0037233736641942004 0 0.081731158023579609 0.0037233736641942004 0 0.081882498976759796 0.0035912377748999109 0 0.081672935747790804 0.0036283255478183805 0 0.081882498976759796 0.0035912377748999109 0 0.08224586107360321 0.0032923690189068165 0 0.081743154497758 0.0034101323898908364 0 0.081882498976759796 0.0035912377748999109 0 0.081743154497758 0.0034101323898908364 0 0.081672935747790804 0.0036283255478183805 0 0.082057086193020726 0.0037442154965178849 0 0.081882498976759796 0.0035912377748999109 0 0.08224586107360321 0.0032923690189068165 0 0.067244305746024483 -0.00038056957138365971 0 0.067571095738052353 -0.0011254898762115104 0 0.067855532175927755 -0.00071703787828273876 0 0.078654443642635005 0.0031111729125197366 0 0.084878114537976473 0.0017443797743231352 0 0.084878114537976473 0.0017443797743231352 0 0.087798599200273039 0.0019861401664527053 0 0.094944849056290387 1.2935452659373789e-05 0 0.094948147658821577 1.4200996448609482e-05 0 0.094958701768395104 8.803861148622824e-06 0 0.094948147658821577 1.4200996448609482e-05 0 0.094952434485064796 1.1466726195359441e-05 0 0.094958701768395104 8.803861148622824e-06 0 0.094948147658821577 1.4200996448609482e-05 0 0.094952434485064796 1.1466726195359441e-05 0 0.094941607007735102 1.7838412112286846e-05 0 0.094952434485064796 1.1466726195359441e-05 0 0.094956690866239202 9.490467374865647e-06 0 0.094961405935190368 7.9787170444107728e-06 0 0.081743154497758 0.0034101323898908364 0 0.081504848726594692 0.0036295506840073833 0 0.081293687038680548 0.0035160329572832306 0 0.087798599200273039 0.0019861401664527053 0 0.087737734062309031 0.0029412542878470183 0 0.081743154497758 0.0034101323898908364 0 0.081504848726594692 0.0036295506840073833 0 0.081672935747790804 0.0036283255478183805 0 0.087835073624930038 -9.9597462359733157e-05 0 0.088239416868661436 -3.6553064224511357e-05 0 0.088170173543889188 -0.00017823828058767045 0 0.085845228677126129 0.0027639157257356791 0 0.087737734062309031 0.0029412542878470183 0 0.081504848726594692 0.0036295506840073833 0 0.081344476897292642 0.003655124855505348 0 0.081293687038680548 0.0035160329572832306 0 0.094948701687023865 1.2075366070948699e-05 0 0.094960690844719323 1.4491821868477153e-07 0 0.094947025687976208 9.9845009805795658e-06 0 0.094941607007735102 1.7838412112286846e-05 0 0.094948701687023865 1.2075366070948699e-05 0 0.094947025687976208 9.9845009805795658e-06 0 0.094952434485064796 1.1466726195359441e-05 0 0.094941607007735102 1.7838412112286846e-05 0 0.094948701687023865 1.2075366070948699e-05 0 0.087737734062309031 0.0029412542878470183 0 0.089463685884084432 0.0014605570892963025 0 0.094948701687023865 1.2075366070948699e-05 0 0.094956690866239202 9.490467374865647e-06 0 0.09496259495266525 7.5081947713904239e-06 0 0.094952434485064796 1.1466726195359441e-05 0 0.094948701687023865 1.2075366070948699e-05 0 0.094956690866239202 9.490467374865647e-06 0 0.094971734814965528 5.4624665225949061e-06 0 0.094976091131862034 2.8714135864459557e-06 0 0.094948701687023865 1.2075366070948699e-05 0 0.09496259495266525 7.5081947713904239e-06 0 0.094969200699823342 5.6311226377105777e-06 0 0.094956690866239202 9.490467374865647e-06 0 0.09496259495266525 7.5081947713904239e-06 0 0.094961405935190368 7.9787170444107728e-06 0 0.09496259495266525 7.5081947713904239e-06 0 0.094961405935190368 7.9787170444107728e-06 0 0.094969760436263304 5.6896911793085413e-06 0 0.09496259495266525 7.5081947713904239e-06 0 0.094969200699823342 5.6311226377105777e-06 0 0.094969760436263304 5.6896911793085413e-06 0 0.094961405935190368 7.9787170444107728e-06 0 0.09496857938361164 5.8824286639918884e-06 0 0.094958701768395104 8.803861148622824e-06 0 0.094952434485064796 1.1466726195359441e-05 0 0.094961405935190368 7.9787170444107728e-06 0 0.094958701768395104 8.803861148622824e-06 0 0.094961405935190368 7.9787170444107728e-06 0 0.09496857938361164 5.8824286639918884e-06 0 0.094969760436263304 5.6896911793085413e-06 0 0.09496857938361164 5.8824286639918884e-06 0 0.094977252438113599 4.167712838189766e-06 0 0.094972598923425924 4.3833873354636291e-06 0 0.09496857938361164 5.8824286639918884e-06 0 0.094977252438113599 4.167712838189766e-06 0 0.094969760436263304 5.6896911793085413e-06 0 0.094969200699823342 5.6311226377105777e-06 0 0.094978306634992057 4.111376734567722e-06 0 0.094986295751269989 2.8619085226863524e-06 0 0.094969200699823342 5.6311226377105777e-06 0 0.094969760436263304 5.6896911793085413e-06 0 0.094978306634992057 4.111376734567722e-06 0 0.094977252438113599 4.167712838189766e-06 0 0.094969760436263304 5.6896911793085413e-06 0 0.094978306634992057 4.111376734567722e-06 0 0.094977252438113599 4.167712838189766e-06 0 0.094978306634992057 4.111376734567722e-06 0 0.094989379854407974 2.2885361731926619e-06 0 0.094978306634992057 4.111376734567722e-06 0 0.094989379854407974 2.2885361731926619e-06 0 0.094986295751269989 2.8619085226863524e-06 0 0.094977252438113599 4.167712838189766e-06 0 0.094989379854407974 2.2885361731926619e-06 0 0.094986962289268007 2.2915447128523811e-06 0 0.094977252438113599 4.167712838189766e-06 0 0.094986962289268007 2.2915447128523811e-06 0 0.094972598923425924 4.3833873354636291e-06 0 0.094999979469134091 2.8305252549333543e-09 0 0.094999984785690855 -2.7789436209172986e-10 0 0.094986962289268007 2.2915447128523811e-06 0 0.094989379854407974 2.2885361731926619e-06 0 0.094999979469134091 2.8305252549333543e-09 0 0.094986962289268007 2.2915447128523811e-06 0 0.094989379854407974 2.2885361731926619e-06 0 0.094999979469134091 2.8305252549333543e-09 0 0.09499998882054822 1.5726394692025571e-09 0 0.094999984785690855 -2.7789436209172986e-10 0 0.094980426472283289 1.7652079719119136e-06 0 0.094999959515682145 1.0183768249547709e-08 0 0.094999984785690855 -2.7789436209172986e-10 0 0.094986962289268007 2.2915447128523811e-06 0 0.094980426472283289 1.7652079719119136e-06 0 0.094986962289268007 2.2915447128523811e-06 0 0.094980426472283289 1.7652079719119136e-06 0 0.094972598923425924 4.3833873354636291e-06 0 0.094980426472283289 1.7652079719119136e-06 0 0.094963537247347587 4.9214408394090174e-06 0 0.094961768538463595 1.2890668248189513e-06 0 0.094980426472283289 1.7652079719119136e-06 0 0.094972598923425924 4.3833873354636291e-06 0 0.094963537247347587 4.9214408394090174e-06 0 0.094972598923425924 4.3833873354636291e-06 0 0.094958701768395104 8.803861148622824e-06 0 0.094963537247347587 4.9214408394090174e-06 0 0.09496857938361164 5.8824286639918884e-06 0 0.094972598923425924 4.3833873354636291e-06 0 0.094958701768395104 8.803861148622824e-06 0 0.094944849056290387 1.2935452659373789e-05 0 0.094958701768395104 8.803861148622824e-06 0 0.094963537247347587 4.9214408394090174e-06 0 0.094763592263600913 0.00014613472693298095 0 0.094851063215601814 4.1692158302266017e-05 0 0.094882368219908919 0.0001067083324351938 0 0.094944849056290387 1.2935452659373789e-05 0 0.094963537247347587 4.9214408394090174e-06 0 0.094961768538463595 1.2890668248189513e-06 0 0.084878114537976473 0.0017443797743231352 0 0.090654052796781098 -0.00083926924202941638 0 0.094851063215601814 4.1692158302266017e-05 0 0.094934857009412343 2.877059385077131e-05 0 0.094882368219908919 0.0001067083324351938 0 0.090654052796781098 -0.00083926924202941638 0 0.091959842968979452 -0.00095644549159161366 0 0.094851063215601814 4.1692158302266017e-05 0 0.09496298860253817 -3.287653277871953e-07 0 0.094934857009412343 2.877059385077131e-05 0 0.094980426472283289 1.7652079719119136e-06 0 0.094961768538463595 1.2890668248189513e-06 0 0.09496298860253817 -3.287653277871953e-07 0 0.09496298860253817 -3.287653277871953e-07 0 0.094999959515682145 1.0183768249547709e-08 0 0.094999950475593342 -3.1296377565759445e-09 0 0.094980426472283289 1.7652079719119136e-06 0 0.09496298860253817 -3.287653277871953e-07 0 0.094999959515682145 1.0183768249547709e-08 0 0.094999950475593342 -3.1296377565759445e-09 0 0.094974657249142017 3.8830658404223119e-06 0 0.094999971782209161 3.3034250300624021e-09 0 0.09496298860253817 -3.287653277871953e-07 0 0.094999950475593342 -3.1296377565759445e-09 0 0.094974657249142017 3.8830658404223119e-06 0 0.094974657249142017 3.8830658404223119e-06 0 0.094965544798077076 1.4420186444922144e-05 0 0.094934857009412343 2.877059385077131e-05 0 0.09496298860253817 -3.287653277871953e-07 0 0.094974657249142017 3.8830658404223119e-06 0 0.094934857009412343 2.877059385077131e-05 0 0.094974657249142017 3.8830658404223119e-06 0 0.094965544798077076 1.4420186444922144e-05 0 0.094999971782209161 3.3034250300624021e-09 0 0.094965544798077076 1.4420186444922144e-05 0 0.094936507993639202 5.9600665563775363e-05 0 0.094961115763867524 2.3618092815598143e-05 0 0.094965544798077076 1.4420186444922144e-05 0 0.094934857009412343 2.877059385077131e-05 0 0.094936507993639202 5.9600665563775363e-05 0 0.094934857009412343 2.877059385077131e-05 0 0.094936507993639202 5.9600665563775363e-05 0 0.094882368219908919 0.0001067083324351938 0 0.069024821948761306 -0.0015142435595053801 0 0.068867173304235557 -0.00085905421605371565 0 0.06948530818192826 -0.0010940673257457546 0 0.069289187377729322 -0.00050754251075144302 0 0.069725435663812743 -0.00021348466412988867 0 0.068867173304235557 -0.00085905421605371565 0 0.068892827404327728 -0.00038368730093553389 0 0.069727540407304139 -0.00034374584158636083 0 0.068867173304235557 -0.00085905421605371565 0 0.068299468647723877 -0.00058871133457895483 0 0.068892827404327728 -0.00038368730093553389 0 0.068867173304235557 -0.00085905421605371565 0 0.068319320043198212 -0.0012970471145518142 0 0.068299468647723877 -0.00058871133457895483 0 0.069024821948761306 -0.0015142435595053801 0 0.068867173304235557 -0.00085905421605371565 0 0.068319320043198212 -0.0012970471145518142 0 0.082068305471563782 -0.00041151740806975238 0 0.082349362137146206 0.00047583750981599249 0 0.084878114537976473 0.0017443797743231352 0 0.082349362137146206 0.00047583750981599249 0 0.067571095738052353 -0.0011254898762115104 0 0.068319320043198212 -0.0012970471145518142 0 0.067855532175927755 -0.00071703787828273876 0 0.068319320043198212 -0.0012970471145518142 0 0.067855532175927755 -0.00071703787828273876 0 0.068299468647723877 -0.00058871133457895483 0 0.068299468647723877 -0.00058871133457895483 0 0.068207561098770145 -0.0001279784649277893 0 0.068570593048181569 -8.2017921256177394e-05 0 0.068299468647723877 -0.00058871133457895483 0 0.068207561098770145 -0.0001279784649277893 0 0.067834058430540578 -0.00018095052537641385 0 0.068207561098770145 -0.0001279784649277893 0 0.067834058430540578 -0.00018095052537641385 0 0.068019960561579343 0.00017962450912287409 0 0.068207561098770145 -0.0001279784649277893 0 0.068299265745739135 9.5944972819624649e-05 0 0.068570593048181569 -8.2017921256177394e-05 0 0.067855532175927755 -0.00071703787828273876 0 0.068299468647723877 -0.00058871133457895483 0 0.067834058430540578 -0.00018095052537641385 0 0.067244305746024483 -0.00038056957138365971 0 0.067855532175927755 -0.00071703787828273876 0 0.067834058430540578 -0.00018095052537641385 0 0.067834058430540578 -0.00018095052537641385 0 0.067557762280078232 6.597384036164926e-05 0 0.067777421098243557 0.00014577552250232342 0 0.067557762280078232 6.597384036164926e-05 0 0.067777421098243557 0.00014577552250232342 0 0.067664386275837207 0.00031346344575461751 0 0.067834058430540578 -0.00018095052537641385 0 0.067777421098243557 0.00014577552250232342 0 0.068019960561579343 0.00017962450912287409 0 0.067777421098243557 0.00014577552250232342 0 0.06782501990679729 0.00034001672028160699 0 0.068019960561579343 0.00017962450912287409 0 0.067975555700668336 0.00041964553115278046 0 0.06782501990679729 0.00034001672028160699 0 0.068019960561579343 0.00017962450912287409 0 0.067975555700668336 0.00041964553115278046 0 0.06788241283256706 0.00044069070565631933 0 0.06782501990679729 0.00034001672028160699 0 0.067715184645244772 0.00048147996576526788 0 0.06788241283256706 0.00044069070565631933 0 0.06782501990679729 0.00034001672028160699 0 0.067511188229261193 0.0003758153382164576 0 0.067557762280078232 6.597384036164926e-05 0 0.067664386275837207 0.00031346344575461751 0 0.067777421098243557 0.00014577552250232342 0 0.06782501990679729 0.00034001672028160699 0 0.067664386275837207 0.00031346344575461751 0 0.067715184645244772 0.00048147996576526788 0 0.06782501990679729 0.00034001672028160699 0 0.067664386275837207 0.00031346344575461751 0 0.067637277675315174 0.00043577056145804654 0 0.067715184645244772 0.00048147996576526788 0 0.067664386275837207 0.00031346344575461751 0 0.067637277675315174 0.00043577056145804654 0 0.067511188229261193 0.0003758153382164576 0 0.067664386275837207 0.00031346344575461751 0 0.068299265745739135 9.5944972819624649e-05 0 0.068226067781626432 0.00030413469011884137 0 0.068473121922654215 0.00020674285372223442 0 0.068207561098770145 -0.0001279784649277893 0 0.068299265745739135 9.5944972819624649e-05 0 0.068019960561579343 0.00017962450912287409 0 0.068299265745739135 9.5944972819624649e-05 0 0.068019960561579343 0.00017962450912287409 0 0.068226067781626432 0.00030413469011884137 0 0.067975555700668336 0.00041964553115278046 0 0.068019960561579343 0.00017962450912287409 0 0.068085276805738781 0.00033111701749982447 0 0.068019960561579343 0.00017962450912287409 0 0.068085276805738781 0.00033111701749982447 0 0.068226067781626432 0.00030413469011884137 0 0.067975555700668336 0.00041964553115278046 0 0.068085276805738781 0.00033111701749982447 0 0.068129467440705929 0.00043680381998006203 0 0.068085276805738781 0.00033111701749982447 0 0.068129467440705929 0.00043680381998006203 0 0.068226067781626432 0.00030413469011884137 0 0.068283204390184635 0.00048668715996872346 0 0.068226067781626432 0.00030413469011884137 0 0.068385323071555537 0.00039422254624692243 0 0.068226067781626432 0.00030413469011884137 0 0.068385323071555537 0.00039422254624692243 0 0.068473121922654215 0.00020674285372223442 0 0.068283204390184635 0.00048668715996872346 0 0.068129467440705929 0.00043680381998006203 0 0.068226067781626432 0.00030413469011884137 0 0.068781932442875185 0.00026590554587214169 0 0.069099896251587564 -2.6487410294576928e-05 0 0.068570593048181569 -8.2017921256177394e-05 0 0.068540955389408631 0.00045273988053803654 0 0.068385323071555537 0.00039422254624692243 0 0.068473121922654215 0.00020674285372223442 0 0.068540955389408631 0.00045273988053803654 0 0.068473121922654215 0.00020674285372223442 0 0.068781932442875185 0.00026590554587214169 0 0.068473121922654215 0.00020674285372223442 0 0.068781932442875185 0.00026590554587214169 0 0.068570593048181569 -8.2017921256177394e-05 0 0.068299265745739135 9.5944972819624649e-05 0 0.068473121922654215 0.00020674285372223442 0 0.068570593048181569 -8.2017921256177394e-05 0 0.068779345982797849 0.00053659593447871604 0 0.068540955389408631 0.00045273988053803654 0 0.068781932442875185 0.00026590554587214169 0 0.069224269882436767 0.00048699915814231012 0 0.068781932442875185 0.00026590554587214169 0 0.069099896251587564 -2.6487410294576928e-05 0 0.069224269882436767 0.00048699915814231012 0 0.069099896251587564 -2.6487410294576928e-05 0 0.069727540407304139 -0.00034374584158636083 0 0.069224269882436767 0.00048699915814231012 0 0.068779345982797849 0.00053659593447871604 0 0.068781932442875185 0.00026590554587214169 0 0.069099896251587564 -2.6487410294576928e-05 0 0.068892827404327728 -0.00038368730093553389 0 0.069727540407304139 -0.00034374584158636083 0 0.069099896251587564 -2.6487410294576928e-05 0 0.068892827404327728 -0.00038368730093553389 0 0.068570593048181569 -8.2017921256177394e-05 0 0.068299468647723877 -0.00058871133457895483 0 0.068892827404327728 -0.00038368730093553389 0 0.068570593048181569 -8.2017921256177394e-05 0 0.069725435663812743 -0.00021348466412988867 0 0.070452481213985244 0.00027869417914311615 0 0.06953178900517179 -0.00025368356109082239 0 0.070580963158701895 0.00056311889689340225 0 0.070212153533357871 -0.00076735349103209934 0 0.070003564417644118 0.00052712646735328448 0 0.069224269882436767 0.00048699915814231012 0 0.069727540407304139 -0.00034374584158636083 0 0.070003564417644118 0.00052712646735328448 0 0.069727540407304139 -0.00034374584158636083 0 0.070519257111014963 0.00019297950761428727 0 0.070853578092329353 0.00054641469607041686 0 0.070452481213985244 0.00027869417914311615 0 0.071271876239226262 0.0008696764295686891 0 0.070580963158701895 0.00056311889689340225 0 0.071278222228482291 0.00049763269609541234 0 0.071278222228482291 0.00049763269609541234 0 0.071010782522549901 -0.00012913741278724016 0 0.07163871718008194 0.00019934176604673171 0 0.071010782522549901 -0.00012913741278724016 0 0.071473202695788898 -0.00050025614444295264 0 0.07163871718008194 0.00019934176604673171 0 0.070580963158701895 0.00056311889689340225 0 0.071278222228482291 0.00049763269609541234 0 0.071010782522549901 -0.00012913741278724016 0 0.070580963158701895 0.00056311889689340225 0 0.071010782522549901 -0.00012913741278724016 0 0.070212153533357871 -0.00076735349103209934 0 0.071010782522549901 -0.00012913741278724016 0 0.070997568896419061 -0.0010781501366906314 0 0.070212153533357871 -0.00076735349103209934 0 0.071010782522549901 -0.00012913741278724016 0 0.071473202695788898 -0.00050025614444295264 0 0.070997568896419061 -0.0010781501366906314 0 0.071473202695788898 -0.00050025614444295264 0 0.070997568896419061 -0.0010781501366906314 0 0.071867990036116269 -0.0011427083103816656 0 0.070997568896419061 -0.0010781501366906314 0 0.071676642030974791 -0.0020748651871424707 0 0.071867990036116269 -0.0011427083103816656 0 0.070997568896419061 -0.0010781501366906314 0 0.071676642030974791 -0.0020748651871424707 0 0.070865755686126353 -0.0019216497624313076 0 0.070997568896419061 -0.0010781501366906314 0 0.070431106636001189 -0.0013840312785054194 0 0.070212153533357871 -0.00076735349103209934 0 0.070997568896419061 -0.0010781501366906314 0 0.070431106636001189 -0.0013840312785054194 0 0.070865755686126353 -0.0019216497624313076 0 0.070431106636001189 -0.0013840312785054194 0 0.070865755686126353 -0.0019216497624313076 0 0.070263192824433621 -0.0018761365091150377 0 0.070023362251634566 -0.0014020114011447855 0 0.06948530818192826 -0.0010940673257457546 0 0.069822877882794177 -0.0018821710027161309 0 0.070023362251634566 -0.0014020114011447855 0 0.070212153533357871 -0.00076735349103209934 0 0.06948530818192826 -0.0010940673257457546 0 0.070431106636001189 -0.0013840312785054194 0 0.070023362251634566 -0.0014020114011447855 0 0.070263192824433621 -0.0018761365091150377 0 0.070431106636001189 -0.0013840312785054194 0 0.070023362251634566 -0.0014020114011447855 0 0.070212153533357871 -0.00076735349103209934 0 0.068867173304235557 -0.00085905421605371565 0 0.06953178900517179 -0.00025368356109082239 0 0.06948530818192826 -0.0010940673257457546 0 0.06953178900517179 -0.00025368356109082239 0 0.070212153533357871 -0.00076735349103209934 0 0.06948530818192826 -0.0010940673257457546 0 0.069024821948761306 -0.0015142435595053801 0 0.06948530818192826 -0.0010940673257457546 0 0.069822877882794177 -0.0018821710027161309 0 0.082068305471563782 -0.00041151740806975238 0 0.081807966628143575 -0.0010743308546041696 0 0.094936507993639202 5.9600665563775363e-05 0 0.094946969019781655 2.8762022499887695e-05 0 0.094961115763867524 2.3618092815598143e-05 0 0.094946969019781655 2.8762022499887695e-05 0 0.094959495172036973 1.6308472888656788e-05 0 0.094943175151960782 1.1524360816745021e-05 0 0.081807966628143575 -0.0010743308546041696 0 0.079223039045801011 -0.0014645463524826979 0 0.070023362251634566 -0.0014020114011447855 0 0.069822877882794177 -0.0018821710027161309 0 0.070263192824433621 -0.0018761365091150377 0 0.094946969019781655 2.8762022499887695e-05 0 0.094959495172036973 1.6308472888656788e-05 0 0.094961115763867524 2.3618092815598143e-05 0 0.094959495172036973 1.6308472888656788e-05 0 0.094961115763867524 2.3618092815598143e-05 0 0.094978436386756959 9.8983012276298766e-06 0 0.094965544798077076 1.4420186444922144e-05 0 0.094961115763867524 2.3618092815598143e-05 0 0.094978436386756959 9.8983012276298766e-06 0 0.094965544798077076 1.4420186444922144e-05 0 0.094978436386756959 9.8983012276298766e-06 0 0.094999971782209161 3.3034250300624021e-09 0 0.094978436386756959 9.8983012276298766e-06 0 0.094999982300401881 4.5144799442352723e-09 0 0.094971804370441879 8.4564516687891449e-06 0 0.094959495172036973 1.6308472888656788e-05 0 0.094978436386756959 9.8983012276298766e-06 0 0.094971804370441879 8.4564516687891449e-06 0 0.094978436386756959 9.8983012276298766e-06 0 0.094999982300401881 4.5144799442352723e-09 0 0.094999971782209161 3.3034250300624021e-09 0 0.094981751126883396 5.0717852705307267e-06 0 0.094999932668157483 1.8505346209301587e-08 0 0.094964159584673774 5.9618725706531927e-06 0 0.094991949541746709 2.9914443846977632e-06 0 0.09138932811050357 0.00030431358727986131 0 0.094999982300401881 4.5144799442352723e-09 0 0.094981751126883396 5.0717852705307267e-06 0 0.094971804370441879 8.4564516687891449e-06 0 0.094999982300401881 4.5144799442352723e-09 0 0.094981751126883396 5.0717852705307267e-06 0 0.094999932668157483 1.8505346209301587e-08 0 0.094981751126883396 5.0717852705307267e-06 0 0.094963115202830503 3.5661760629626792e-06 0 0.094964159584673774 5.9618725706531927e-06 0 0.094971804370441879 8.4564516687891449e-06 0 0.094963115202830503 3.5661760629626792e-06 0 0.094947917537867979 1.9196810891667329e-06 0 0.094981751126883396 5.0717852705307267e-06 0 0.094971804370441879 8.4564516687891449e-06 0 0.094963115202830503 3.5661760629626792e-06 0 0.082927054503301234 -0.0014113814780274151 0 0.079223039045801011 -0.0014645463524826979 0 0.094971804370441879 8.4564516687891449e-06 0 0.094947917537867979 1.9196810891667329e-06 0 0.094943175151960782 1.1524360816745021e-05 0 0.071777434149192146 -0.0039230117780635265 0 0.070470352844523007 -0.0029851093913081318 0 0.071791699346633167 -0.0032641324034678038 0 0.094959495172036973 1.6308472888656788e-05 0 0.094971804370441879 8.4564516687891449e-06 0 0.094943175151960782 1.1524360816745021e-05 0 0.069822877882794177 -0.0018821710027161309 0 0.07071158003354476 -0.0022397374193633235 0 0.070263192824433621 -0.0018761365091150377 0 0.070865755686126353 -0.0019216497624313076 0 0.070800091014051297 -0.0026658161850948167 0 0.070263192824433621 -0.0018761365091150377 0 0.079223039045801011 -0.0014645463524826979 0 0.07711191027522088 -0.00067128377910856288 0 0.070800091014051297 -0.0026658161850948167 0 0.071791699346633167 -0.0032641324034678038 0 0.071370206241532466 -0.0025244613824571172 0 0.079223039045801011 -0.0014645463524826979 0 0.076715512765205565 -0.0013112601734693698 0 0.071791699346633167 -0.0032641324034678038 0 0.071370206241532466 -0.0025244613824571172 0 0.071907113928952007 -0.0027553155207543961 0 0.070865755686126353 -0.0019216497624313076 0 0.070800091014051297 -0.0026658161850948167 0 0.071370206241532466 -0.0025244613824571172 0 0.071676642030974791 -0.0020748651871424707 0 0.070865755686126353 -0.0019216497624313076 0 0.071370206241532466 -0.0025244613824571172 0 0.071676642030974791 -0.0020748651871424707 0 0.071370206241532466 -0.0025244613824571172 0 0.071907113928952007 -0.0027553155207543961 0 0.071676642030974791 -0.0020748651871424707 0 0.071907113928952007 -0.0027553155207543961 0 0.072454885730945495 -0.0027338799963364325 0 0.071676642030974791 -0.0020748651871424707 0 0.072454885730945495 -0.0027338799963364325 0 0.072584291054960684 -0.0019335609070069593 0 0.072454885730945495 -0.0027338799963364325 0 0.073223495434600397 -0.0026723940670960833 0 0.072584291054960684 -0.0019335609070069593 0 0.072454885730945495 -0.0027338799963364325 0 0.073009193861415869 -0.0035531803106695187 0 0.072332472011555349 -0.0033975634713735606 0 0.072454885730945495 -0.0027338799963364325 0 0.073009193861415869 -0.0035531803106695187 0 0.073223495434600397 -0.0026723940670960833 0 0.071907113928952007 -0.0027553155207543961 0 0.072454885730945495 -0.0027338799963364325 0 0.072332472011555349 -0.0033975634713735606 0 0.071791699346633167 -0.0032641324034678038 0 0.071907113928952007 -0.0027553155207543961 0 0.072332472011555349 -0.0033975634713735606 0 0.073009193861415869 -0.0035531803106695187 0 0.07442817182392801 -0.003306483179264874 0 0.073223495434600397 -0.0026723940670960833 0 0.07442817182392801 -0.003306483179264874 0 0.073223495434600397 -0.0026723940670960833 0 0.073798126020333588 -0.0017637776655898111 0 0.086910132717200411 -0.00069650218979273317 0 0.086836854103415989 -0.00047094861595348332 0 0.073009193861415869 -0.0035531803106695187 0 0.07442817182392801 -0.003306483179264874 0 0.072969987862420801 -0.0047550658564853663 0 0.082388011570907471 0.0028593810775858078 0 0.082031966887198091 0.0030983066150787083 0 0.080608495216332343 0.0022678615561097276 0 0.080897920773323334 0.0007470526487372937 0 0.082388011570907471 0.0028593810775858078 0 0.080608495216332343 0.0022678615561097276 0 0.080829170584418172 -0.001924491225581219 0 0.085836799040429276 -0.00074619824792642158 0 0.082927054503301234 -0.0014113814780274151 0 0.085836799040429276 -0.00074619824792642158 0 0.071777434149192146 -0.0039230117780635265 0 0.072553975755107539 -0.003973908004694892 0 0.072969987862420801 -0.0047550658564853663 0 0.094963115202830503 3.5661760629626792e-06 0 0.094947917537867979 1.9196810891667329e-06 0 0.094938866427158347 -1.6167225121725263e-06 0 0.073009193861415869 -0.0035531803106695187 0 0.072553975755107539 -0.003973908004694892 0 0.072969987862420801 -0.0047550658564853663 0 0.071777434149192146 -0.0039230117780635265 0 0.072332472011555349 -0.0033975634713735606 0 0.072553975755107539 -0.003973908004694892 0 0.071777434149192146 -0.0039230117780635265 0 0.071791699346633167 -0.0032641324034678038 0 0.072332472011555349 -0.0033975634713735606 0 0.073009193861415869 -0.0035531803106695187 0 0.072332472011555349 -0.0033975634713735606 0 0.072553975755107539 -0.003973908004694892 0 0.094963115202830503 3.5661760629626792e-06 0 0.094938866427158347 -1.6167225121725263e-06 0 0.094964159584673774 5.9618725706531927e-06 0 0.094982597886781539 -1.1026232468307836e-05 0 0.09497262049118696 -1.8115278124259383e-05 0 0.094990545247003288 -6.8532564475469903e-06 0 0.085836799040429276 -0.00074619824792642158 0 0.09138932811050357 0.00030431358727986131 0 0.094970262509884204 -2.3642428069213043e-05 0 0.09497262049118696 -1.8115278124259383e-05 0 0.094990545247003288 -6.8532564475469903e-06 0 0.089252805489333134 -2.6044915042358437e-05 0 0.088347716551782626 0.00057994720063324606 0 0.0879373217939875 -0.00080477191239583057 0 0.085836799040429276 -0.00074619824792642158 0 0.086910132717200411 -0.00069650218979273317 0 0.094970262509884204 -2.3642428069213043e-05 0 0.09497262049118696 -1.8115278124259383e-05 0 0.094962538428251156 -2.148462112639664e-05 0 0.09497262049118696 -1.8115278124259383e-05 0 0.094971851688646691 -1.9273952016343302e-05 0 0.094977369775576109 -1.389918286327232e-05 0 0.087022520299719158 -0.00064730812122044295 0 0.086910132717200411 -0.00069650218979273317 0 0.086910132717200411 -0.00069650218979273317 0 0.0901783032367688 -0.00081367697447235062 0 0.094971851688646691 -1.9273952016343302e-05 0 0.094969564014241156 -1.3770330160000507e-05 0 0.094977369775576109 -1.389918286327232e-05 0 0.094982597886781539 -1.1026232468307836e-05 0 0.094977369775576109 -1.389918286327232e-05 0 0.094988126514252438 -6.2308267349837884e-06 0 0.094969564014241156 -1.3770330160000507e-05 0 0.094977369775576109 -1.389918286327232e-05 0 0.094988126514252438 -6.2308267349837884e-06 0 0.094982597886781539 -1.1026232468307836e-05 0 0.09497262049118696 -1.8115278124259383e-05 0 0.094977369775576109 -1.389918286327232e-05 0 0.094969564014241156 -1.3770330160000507e-05 0 0.094988126514252438 -6.2308267349837884e-06 0 0.094999927406873616 -8.6499232818793762e-09 0 0.0901783032367688 -0.00081367697447235062 0 0.094989633974020229 8.7859724253789577e-07 0 0.095000018460633801 1.0901999698109457e-09 0 0.094988126514252438 -6.2308267349837884e-06 0 0.094999927406873616 -8.6499232818793762e-09 0 0.095000018460633801 1.0901999698109457e-09 0 0.094988126514252438 -6.2308267349837884e-06 0 0.094990545247003288 -6.8532564475469903e-06 0 0.094982597886781539 -1.1026232468307836e-05 0 0.094988126514252438 -6.2308267349837884e-06 0 0.094990545247003288 -6.8532564475469903e-06 0 0.095001858697684086 -5.0604422722099241e-07 0 0.094993691415786063 9.3874251905154331e-07 0 0.094690436598250854 -1.8614058521578207e-05 0 0.094993691415786063 9.3874251905154331e-07 0 0.090783322689903703 0.00038349105600793561 0 0.084922664106137177 -1.3762623129422068e-06 0 0.094993691415786063 9.3874251905154331e-07 0 0.094690436598250854 -1.8614058521578207e-05 0 0.090783322689903703 0.00038349105600793561 0 0.094690436598250854 -1.8614058521578207e-05 0 0.091495487815438259 -4.1207766846870725e-07 0 0.090783322689903703 0.00038349105600793561 0 0.091746758604675516 -0.00093864450227031581 0 0.09134786770774575 -0.0009174601078516092 0 0.094934990451606582 -0.00019172198718750273 0 0.095001858697684086 -5.0604422722099241e-07 0 0.094814239479439649 -0.00010689809555164774 0 0.095001858697684086 -5.0604422722099241e-07 0 0.094690436598250854 -1.8614058521578207e-05 0 0.094814239479439649 -0.00010689809555164774 0 0.0901783032367688 -0.00081367697447235062 0 0.09134786770774575 -0.0009174601078516092 0 0.0901783032367688 -0.00081367697447235062 0 0.086836854103415989 -0.00047094861595348332 0 0.091495487815438259 -4.1207766846870725e-07 0 0.090935453469301888 0.00026686787109284283 0 0.090783322689903703 0.00038349105600793561 0 0.09086382871675211 0.00023562695278344338 0 0.090935453469301888 0.00026686787109284283 0 0.09068549130448425 5.0523300995844952e-05 0 0.09086382871675211 0.00023562695278344338 0 0.091495487815438259 -4.1207766846870725e-07 0 0.090935453469301888 0.00026686787109284283 0 0.090935453469301888 0.00026686787109284283 0 0.090783322689903703 0.00038349105600793561 0 0.09068549130448425 5.0523300995844952e-05 0 0.090783322689903703 0.00038349105600793561 0 0.088951862919364175 -0.0003922859239469924 0 0.084922664106137177 -1.3762623129422068e-06 0 0.090783322689903703 0.00038349105600793561 0 0.088951862919364175 -0.0003922859239469924 0 0.09068549130448425 5.0523300995844952e-05 0 0.085654502886266207 -0.00042606805233269296 0 0.086836854103415989 -0.00047094861595348332 0 0.086836854103415989 -0.00047094861595348332 0 0.084754532296775639 -0.0010715703061550332 0 0.080897920773323334 0.0007470526487372937 0 0.080608495216332343 0.0022678615561097276 0 0.079478707557343056 0.00024549116215853825 0 0.08109456270138253 -0.0027946244934111291 0 0.078891565206401379 -0.0041346951980558225 0 0.079478707557343056 0.00024549116215853825 0 0.08109456270138253 -0.0027946244934111291 0 0.084902838513414874 -5.0022139501740705e-06 0 0.079478707557343056 0.00024549116215853825 0 0.085654502886266207 -0.00042606805233269296 0 0.084913960310735295 -1.6165316306766075e-06 0 0.077750680494089036 -0.00030357527661888854 0 0.079313090225728466 1.2278742594860674e-06 0 0.079478707557343056 0.00024549116215853825 0 0.084902838513414874 -5.0022139501740705e-06 0 0.079313090225728466 1.2278742594860674e-06 0 0.079478707557343056 0.00024549116215853825 0 0.077750680494089036 -0.00030357527661888854 0 0.079313090225728466 1.2278742594860674e-06 0 0.074984590154009642 0.00041607800352724367 0 0.077750680494089036 -0.00030357527661888854 0 0.074935231243607667 0.00019478824114041676 0 0.074984590154009642 0.00041607800352724367 0 0.077750680494089036 -0.00030357527661888854 0 0.074935231243607667 0.00019478824114041676 0 0.074170996818462259 -0.00044862632072114006 0 0.07442817182392801 -0.003306483179264874 0 0.077750680494089036 -0.00030357527661888854 0 0.073798126020333588 -0.0017637776655898111 0 0.080897920773323334 0.0007470526487372937 0 0.077750680494089036 -0.00030357527661888854 0 0.079478707557343056 0.00024549116215853825 0 0.080829170584418172 -0.001924491225581219 0 0.080025802296958493 -0.0014013392992786265 0 0.077750680494089036 -0.00030357527661888854 0 0.073798126020333588 -0.0017637776655898111 0 0.074170996818462259 -0.00044862632072114006 0 0.073223495434600397 -0.0026723940670960833 0 0.073798126020333588 -0.0017637776655898111 0 0.072584291054960684 -0.0019335609070069593 0 0.073798126020333588 -0.0017637776655898111 0 0.072584291054960684 -0.0019335609070069593 0 0.072821576683305508 -0.00087109648732492273 0 0.073798126020333588 -0.0017637776655898111 0 0.074170996818462259 -0.00044862632072114006 0 0.072821576683305508 -0.00087109648732492273 0 0.071676642030974791 -0.0020748651871424707 0 0.072584291054960684 -0.0019335609070069593 0 0.071867990036116269 -0.0011427083103816656 0 0.072584291054960684 -0.0019335609070069593 0 0.071867990036116269 -0.0011427083103816656 0 0.072821576683305508 -0.00087109648732492273 0 0.071473202695788898 -0.00050025614444295264 0 0.071867990036116269 -0.0011427083103816656 0 0.07209917972624931 -0.00039020974983139628 0 0.071867990036116269 -0.0011427083103816656 0 0.07209917972624931 -0.00039020974983139628 0 0.072821576683305508 -0.00087109648732492273 0 0.07209917972624931 -0.00039020974983139628 0 0.072821576683305508 -0.00087109648732492273 0 0.072874921058460787 0.00019317559010689951 0 0.071473202695788898 -0.00050025614444295264 0 0.07209917972624931 -0.00039020974983139628 0 0.07163871718008194 0.00019934176604673171 0 0.074935231243607667 0.00019478824114041676 0 0.074170996818462259 -0.00044862632072114006 0 0.072874921058460787 0.00019317559010689951 0 0.074170996818462259 -0.00044862632072114006 0 0.072821576683305508 -0.00087109648732492273 0 0.072874921058460787 0.00019317559010689951 0 0.074935231243607667 0.00019478824114041676 0 0.072874921058460787 0.00019317559010689951 0 0.073025122601690098 0.0007145003543636624 0 0.072874921058460787 0.00019317559010689951 0 0.071825585511629111 0.00071163880185169909 0 0.073025122601690098 0.0007145003543636624 0 0.072874921058460787 0.00019317559010689951 0 0.07163871718008194 0.00019934176604673171 0 0.071825585511629111 0.00071163880185169909 0 0.071278222228482291 0.00049763269609541234 0 0.07163871718008194 0.00019934176604673171 0 0.071825585511629111 0.00071163880185169909 0 0.07209917972624931 -0.00039020974983139628 0 0.072874921058460787 0.00019317559010689951 0 0.07163871718008194 0.00019934176604673171 0 0.071257911313350714 0.00084633415188292216 0 0.071271876239226262 0.0008696764295686891 0 0.071825585511629111 0.00071163880185169909 0 0.071271876239226262 0.0008696764295686891 0 0.071278222228482291 0.00049763269609541234 0 0.071825585511629111 0.00071163880185169909 0 0.071257911313350714 0.00084633415188292216 0 0.071825585511629111 0.00071163880185169909 0 0.073025122601690098 0.0007145003543636624 0 0.071257911313350714 0.00084633415188292216 0 0.071518789807439823 0.00068951855571786004 0 0.073025122601690098 0.0007145003543636624 0 0.071518789807439823 0.00068951855571786004 0 0.073713558061436701 1.3336465837341681e-06 0 0.074984590154009642 0.00041607800352724367 0 0.079313090225728466 1.2278742594860674e-06 0 0.073713558061436701 1.3336465837341681e-06 0 0.074984590154009642 0.00041607800352724367 0 0.074935231243607667 0.00019478824114041676 0 0.074984590154009642 0.00041607800352724367 0 0.073025122601690098 0.0007145003543636624 0 0.071518789807439823 0.00068951855571786004 0 0.074984590154009642 0.00041607800352724367 0 0.073025122601690098 0.0007145003543636624 0 0.088552742664472384 -0.0019512730183829179 0 0.088266810321002087 -0.00061213095067276361 0 0.090023537716963281 -0.0025453814917091159 0 0.083645540807241153 0.0017139573143734885 0 0.082874774760550093 0.0014603480499062471 0 0.088552742664472384 -0.0019512730183829179 0 0.090023537716963281 -0.0025453814917091159 0 0.088895789389139002 -0.0033012765913647654 0 0.088552742664472384 -0.0019512730183829179 0 0.087192464927944691 -0.0025620519524903831 0 0.088049848226230285 -0.0031165758905562844 0 0.088552742664472384 -0.0019512730183829179 0 0.087192464927944691 -0.0025620519524903831 0 0.087331018824220882 -0.0014031823290349577 0 0.088552742664472384 -0.0019512730183829179 0 0.087331018824220882 -0.0014031823290349577 0 0.088141556635027124 -0.00087029985587458913 0 0.086860326401521096 -0.00063363424108581104 0 0.087331018824220882 -0.0014031823290349577 0 0.088141556635027124 -0.00087029985587458913 0 0.074311803985077543 0.007062639968812969 0 0.074420092711346045 0.0070945034411040555 0 0.074136965998170615 0.0062074645495955932 0 0.074311803985077543 0.007062639968812969 0 0.074420092711346045 0.0070945034411040555 0 0.074546229121008653 0.0071343261806942979 0 0.084221586099934589 0.00058626214918452676 0 0.083645540807241153 0.0017139573143734885 0 0.074420092711346045 0.0070945034411040555 0 0.074584989556059231 0.0070477666075597616 0 0.074136965998170615 0.0062074645495955932 0 0.074420092711346045 0.0070945034411040555 0 0.074584989556059231 0.0070477666075597616 0 0.074548929054894034 0.0072152845434975618 0 0.074584989556059231 0.0070477666075597616 0 0.074760346832742977 0.0073194123195581941 0 0.074548929054894034 0.0072152845434975618 0 0.074989134669719418 0.0069237264606969735 0 0.074760346832742977 0.0073194123195581941 0 0.075451513338446255 0.0072857985717014531 0 0.074584989556059231 0.0070477666075597616 0 0.074989134669719418 0.0069237264606969735 0 0.074760346832742977 0.0073194123195581941 0 0.075310775117835835 0.0062746731276005774 0 0.074136965998170615 0.0062074645495955932 0 0.075818122451074152 0.0052715327995405499 0 0.074989134669719418 0.0069237264606969735 0 0.075310775117835835 0.0062746731276005774 0 0.074136965998170615 0.0062074645495955932 0 0.074989134669719418 0.0069237264606969735 0 0.075310775117835835 0.0062746731276005774 0 0.076090120514518675 0.0065947574999357375 0 0.075310775117835835 0.0062746731276005774 0 0.075818122451074152 0.0052715327995405499 0 0.076090120514518675 0.0065947574999357375 0 0.074584989556059231 0.0070477666075597616 0 0.074989134669719418 0.0069237264606969735 0 0.074136965998170615 0.0062074645495955932 0 0.090023537716963281 -0.0025453814917091159 0 0.089937620090970671 -0.0039368866340616163 0 0.09155235430212158 -0.0045809301270689634 0 0.082874774760550093 0.0014603480499062471 0 0.083747427441991221 -0.00024353127271909986 0 0.090023537716963281 -0.0025453814917091159 0 0.089937620090970671 -0.0039368866340616163 0 0.088895789389139002 -0.0033012765913647654 0 0.074136965998170615 0.0062074645495955932 0 0.075818122451074152 0.0052715327995405499 0 0.075244029716601754 0.0035840911951214452 0 0.09155235430212158 -0.0045809301270689634 0 0.089887657809872554 -0.0049929610387766258 0 0.09160250924347961 -0.0052928043306454467 0 0.089937620090970671 -0.0039368866340616163 0 0.09155235430212158 -0.0045809301270689634 0 0.089887657809872554 -0.0049929610387766258 0 0.089937620090970671 -0.0039368866340616163 0 0.089887657809872554 -0.0049929610387766258 0 0.089057086189643503 -0.0040488307968480925 0 0.092795481233482066 -0.0052282831552475442 0 0.092144556839338851 -0.0051125707965791797 0 0.092357991292452341 -0.005137959180909187 0 0.089887657809872554 -0.0049929610387766258 0 0.089057086189643503 -0.0040488307968480925 0 0.087685633147709413 -0.0040275060368543817 0 0.092795481233482066 -0.0052282831552475442 0 0.09208046711302835 -0.0046552769050971759 0 0.092144556839338851 -0.0051125707965791797 0 0.090792484736674922 -0.0048684097992019327 0 0.089581982773137975 -0.0043719653862228482 0 0.089937620090970671 -0.0039368866340616163 0 0.089057086189643503 -0.0040488307968480925 0 0.088895789389139002 -0.0033012765913647654 0 0.089057086189643503 -0.0040488307968480925 0 0.088469376407318848 -0.0036601069536794568 0 0.087685633147709413 -0.0040275060368543817 0 0.088552742664472384 -0.0019512730183829179 0 0.088895789389139002 -0.0033012765913647654 0 0.088049848226230285 -0.0031165758905562844 0 0.089057086189643503 -0.0040488307968480925 0 0.088469376407318848 -0.0036601069536794568 0 0.088895789389139002 -0.0033012765913647654 0 0.088469376407318848 -0.0036601069536794568 0 0.088895789389139002 -0.0033012765913647654 0 0.088049848226230285 -0.0031165758905562844 0 0.087192464927944691 -0.0025620519524903831 0 0.088049848226230285 -0.0031165758905562844 0 0.087685633147709413 -0.0040275060368543817 0 0.091415986622504636 -0.0052878323759266077 0 0.09208046711302835 -0.0046552769050971759 0 0.086199230082606756 -0.0032174173662529696 0 0.088469376407318848 -0.0036601069536794568 0 0.088049848226230285 -0.0031165758905562844 0 0.087685633147709413 -0.0040275060368543817 0 0.091415986622504636 -0.0052878323759266077 0 0.09208046711302835 -0.0046552769050971759 0 0.092144556839338851 -0.0051125707965791797 0 0.092144556839338851 -0.0051125707965791797 0 0.091950828034554996 -0.0052037921734082847 0 0.092357991292452341 -0.005137959180909187 0 0.091415986622504636 -0.0052878323759266077 0 0.092144556839338851 -0.0051125707965791797 0 0.091759693836095349 -0.0052142639198540707 0 0.092144556839338851 -0.0051125707965791797 0 0.091759693836095349 -0.0052142639198540707 0 0.091950828034554996 -0.0052037921734082847 0 0.091415986622504636 -0.0052878323759266077 0 0.091759693836095349 -0.0052142639198540707 0 0.091833583763681628 -0.005212498066250501 0 0.091759693836095349 -0.0052142639198540707 0 0.091833583763681628 -0.005212498066250501 0 0.091950828034554996 -0.0052037921734082847 0 0.091415986622504636 -0.0052878323759266077 0 0.091833583763681628 -0.005212498066250501 0 0.092295144148702643 -0.0052857767912583209 0 0.091415986622504636 -0.0052878323759266077 0 0.085180804689623066 -0.0064576352488530317 0 0.086199230082606756 -0.0032174173662529696 0 0.090065603887446027 -0.0052035933583557178 0 0.088870194616480103 -0.0053560577278613571 0 0.085180804689623066 -0.0064576352488530317 0 0.084213563813026221 -0.0040740338783650763 0 0.083030435588044335 -0.0050264287273473051 0 0.085180804689623066 -0.0064576352488530317 0 0.084213563813026221 -0.0040740338783650763 0 0.086199230082606756 -0.0032174173662529696 0 0.084213563813026221 -0.0040740338783650763 0 0.086199230082606756 -0.0032174173662529696 0 0.08364535158614031 -0.0017425843460554243 0 0.089581982773137975 -0.0043719653862228482 0 0.088353677165125682 -0.0039070329259533552 0 0.087192464927944691 -0.0025620519524903831 0 0.087685633147709413 -0.0040275060368543817 0 0.086199230082606756 -0.0032174173662529696 0 0.083030435588044335 -0.0050264287273473051 0 0.081512759420986181 -0.0045003851072301137 0 0.081851149722493396 -0.0066114691354791245 0 0.081512759420986181 -0.0045003851072301137 0 0.081851149722493396 -0.0066114691354791245 0 0.080335170144431131 -0.0051691363988876481 0 0.081512759420986181 -0.0045003851072301137 0 0.080335170144431131 -0.0051691363988876481 0 0.080201814684899578 -0.004024152689482227 0 0.085180804689623066 -0.0064576352488530317 0 0.083030435588044335 -0.0050264287273473051 0 0.081851149722493396 -0.0066114691354791245 0 0.088870194616480103 -0.0053560577278613571 0 0.087249984022118268 -0.0052896610953895628 0 0.084213563813026221 -0.0040740338783650763 0 0.082712116191151167 -0.0036095589268851204 0 0.08364535158614031 -0.0017425843460554243 0 0.084213563813026221 -0.0040740338783650763 0 0.083030435588044335 -0.0050264287273473051 0 0.082712116191151167 -0.0036095589268851204 0 0.083030435588044335 -0.0050264287273473051 0 0.082712116191151167 -0.0036095589268851204 0 0.081512759420986181 -0.0045003851072301137 0 0.081512759420986181 -0.0045003851072301137 0 0.081001939851712626 -0.0022744793970341935 0 0.080201814684899578 -0.004024152689482227 0 0.082712116191151167 -0.0036095589268851204 0 0.081512759420986181 -0.0045003851072301137 0 0.081001939851712626 -0.0022744793970341935 0 0.081001939851712626 -0.0022744793970341935 0 0.08364535158614031 -0.0017425843460554243 0 0.081019255084783803 0.00071186076623303539 0 0.082712116191151167 -0.0036095589268851204 0 0.081001939851712626 -0.0022744793970341935 0 0.08364535158614031 -0.0017425843460554243 0 0.08364535158614031 -0.0017425843460554243 0 0.086034302711356966 -0.0010602550467022961 0 0.084234493011358824 0.0011064698686764592 0 0.087192464927944691 -0.0025620519524903831 0 0.087331018824220882 -0.0014031823290349577 0 0.086034302711356966 -0.0010602550467022961 0 0.087192464927944691 -0.0025620519524903831 0 0.086199230082606756 -0.0032174173662529696 0 0.086034302711356966 -0.0010602550467022961 0 0.086199230082606756 -0.0032174173662529696 0 0.08364535158614031 -0.0017425843460554243 0 0.086034302711356966 -0.0010602550467022961 0 0.086860326401521096 -0.00063363424108581104 0 0.087331018824220882 -0.0014031823290349577 0 0.086034302711356966 -0.0010602550467022961 0 0.086860326401521096 -0.00063363424108581104 0 0.086034302711356966 -0.0010602550467022961 0 0.086406564270341352 0.00023696525713112215 0 0.086034302711356966 -0.0010602550467022961 0 0.086406564270341352 0.00023696525713112215 0 0.085338793137291133 8.5026762360593676e-05 0 0.084180295185718526 -0.0010116642051516281 0 0.083148819475006325 -0.00044123895613727476 0 0.085338793137291133 8.5026762360593676e-05 0 0.08561444650460294 0.00058521881288773974 0 0.085081900016617099 0.00068515056011066015 0 0.086406564270341352 0.00023696525713112215 0 0.085338793137291133 8.5026762360593676e-05 0 0.08561444650460294 0.00058521881288773974 0 0.086406564270341352 0.00023696525713112215 0 0.08561444650460294 0.00058521881288773974 0 0.086125425725420604 0.00059190481077548253 0 0.08364535158614031 -0.0017425843460554243 0 0.084234493011358824 0.0011064698686764592 0 0.081019255084783803 0.00071186076623303539 0 0.083148819475006325 -0.00044123895613727476 0 0.080456554795826724 8.3585413787946934e-05 0 0.084234493011358824 0.0011064698686764592 0 0.081019255084783803 0.00071186076623303539 0 0.082581486910954127 0.0033058264154524463 0 0.081019255084783803 0.00071186076623303539 0 0.082581486910954127 0.0033058264154524463 0 0.080364061354162131 0.0033092254728666675 0 0.080456554795826724 8.3585413787946934e-05 0 0.074543424342449927 0.00041938649195618792 0 0.082581486910954127 0.0033058264154524463 0 0.080407451461019255 0.0051502318941953097 0 0.080364061354162131 0.0033092254728666675 0 0.085081900016617099 0.00068515056011066015 0 0.085125103890520804 0.00093950102727874288 0 0.085440444280551434 0.0009018083873915104 0 0.085125103890520804 0.00093950102727874288 0 0.085440444280551434 0.0009018083873915104 0 0.085325493246438233 0.0010542384031063644 0 0.085081900016617099 0.00068515056011066015 0 0.085125103890520804 0.00093950102727874288 0 0.084900938544701474 0.0010087922410513294 0 0.082581486910954127 0.0033058264154524463 0 0.080915316947501231 0.00577504487722967 0 0.080407451461019255 0.0051502318941953097 0 0.074543424342449927 0.00041938649195618792 0 0.075003404090203757 0.00092648890574838563 0 0.086125425725420604 0.00059190481077548253 0 0.0857806504870888 0.00084070220048663459 0 0.085957172544705057 0.00090476633904777021 0 0.08561444650460294 0.00058521881288773974 0 0.086125425725420604 0.00059190481077548253 0 0.0857806504870888 0.00084070220048663459 0 0.08561444650460294 0.00058521881288773974 0 0.085081900016617099 0.00068515056011066015 0 0.085440444280551434 0.0009018083873915104 0 0.08561444650460294 0.00058521881288773974 0 0.0857806504870888 0.00084070220048663459 0 0.085440444280551434 0.0009018083873915104 0 0.085440444280551434 0.0009018083873915104 0 0.085492919746710194 0.0010449142312849496 0 0.085633960172876986 0.00099717546184738227 0 0.085440444280551434 0.0009018083873915104 0 0.085325493246438233 0.0010542384031063644 0 0.085492919746710194 0.0010449142312849496 0 0.085492919746710194 0.0010449142312849496 0 0.085591995132409809 0.0010551145555364933 0 0.085633960172876986 0.00099717546184738227 0 0.0857806504870888 0.00084070220048663459 0 0.085440444280551434 0.0009018083873915104 0 0.085633960172876986 0.00099717546184738227 0 0.0857806504870888 0.00084070220048663459 0 0.085633960172876986 0.00099717546184738227 0 0.085759794342913559 0.00098093464560220899 0 0.0857806504870888 0.00084070220048663459 0 0.085759794342913559 0.00098093464560220899 0 0.085957172544705057 0.00090476633904777021 0 0.085633960172876986 0.00099717546184738227 0 0.085759794342913559 0.00098093464560220899 0 0.085633540568879479 0.0011131303982375247 0 0.085591995132409809 0.0010551145555364933 0 0.085633960172876986 0.00099717546184738227 0 0.085633540568879479 0.0011131303982375247 0 0.085565816267326511 0.00099019667540063412 0 0.085591995132409809 0.0010551145555364933 0 0.085633540568879479 0.0011131303982375247 0 0.08536757340816091 0.00098740018374245467 0 0.085633540568879479 0.0011131303982375247 0 0.085166194452005226 0.0012034601286845554 0 0.080207463574068855 0.0013082828110349645 0 0.079736866158003697 0.0012990492412902641 0 0.085759794342913559 0.00098093464560220899 0 0.085633540568879479 0.0011131303982375247 0 0.085855460374555118 0.0011237432756862286 0 0.079736866158003697 0.0012990492412902641 0 0.077010109725090578 0.0013693851567300852 0 0.085071721145230178 0.00098388578148969619 0 0.085166194452005226 0.0012034601286845554 0 0.084717713825015487 0.001179779004925327 0 0.078227639964551551 0.0036558200487195637 0 0.08039680882872921 0.0037360431304070342 0 0.078866956272517885 0.00047734859690468849 0 0.07488563540985875 0.0064263288206870698 0 0.074978844612205123 0.0066247538654065552 0 0.074745663027953754 0.0065995204616425187 0 0.077010109725090578 0.0013693851567300852 0 0.079886689717655959 0.0024911454782539861 0 0.085759794342913559 0.00098093464560220899 0 0.085855460374555118 0.0011237432756862286 0 0.085957172544705057 0.00090476633904777021 0 0.079736866158003697 0.0012990492412902641 0 0.079886689717655959 0.0024911454782539861 0 0.07488563540985875 0.0064263288206870698 0 0.074745663027953754 0.0065995204616425187 0 0.074576716871374155 0.0063945383200777698 0 0.077010109725090578 0.0013693851567300852 0 0.071203328340481473 0.0009455243895412712 0 0.074745663027953754 0.0065995204616425187 0 0.074664836990066735 0.0067993840358618962 0 0.074591391088585327 0.0065883625150259329 0 0.074745663027953754 0.0065995204616425187 0 0.074766154660713208 0.0068198948422475598 0 0.074664836990066735 0.0067993840358618962 0 0.074978844612205123 0.0066247538654065552 0 0.074745663027953754 0.0065995204616425187 0 0.074766154660713208 0.0068198948422475598 0 0.074766154660713208 0.0068198948422475598 0 0.074664836990066735 0.0067993840358618962 0 0.074656542885350993 0.0070044169869476142 0 0.086125425725420604 0.00059190481077548253 0 0.086365412146658924 0.0011436641542787672 0 0.08656282378781556 0.00033455721329207181 0 0.074978844612205123 0.0066247538654065552 0 0.074766154660713208 0.0068198948422475598 0 0.074746429277592369 0.0070753083633341004 0 0.080927303682518548 0.002497179982876413 0 0.079886689717655959 0.0024911454782539861 0 0.079886689717655959 0.0024911454782539861 0 0.081329161775695963 0.003221636271555175 0 0.086406564270341352 0.00023696525713112215 0 0.086125425725420604 0.00059190481077548253 0 0.08656282378781556 0.00033455721329207181 0 0.074766154660713208 0.0068198948422475598 0 0.074746429277592369 0.0070753083633341004 0 0.074656542885350993 0.0070044169869476142 0 0.074664836990066735 0.0067993840358618962 0 0.074656542885350993 0.0070044169869476142 0 0.074580779057681429 0.007079926327941093 0 0.074656542885350993 0.0070044169869476142 0 0.074546229121008653 0.0071343261806942979 0 0.074580779057681429 0.007079926327941093 0 0.074746429277592369 0.0070753083633341004 0 0.074656542885350993 0.0070044169869476142 0 0.074546229121008653 0.0071343261806942979 0 0.074311803985077543 0.007062639968812969 0 0.074746429277592369 0.0070753083633341004 0 0.074546229121008653 0.0071343261806942979 0 0.083645540807241153 0.0017139573143734885 0 0.081329161775695963 0.003221636271555175 0 0.086603657432269124 8.2624227252616875e-06 0 0.086406564270341352 0.00023696525713112215 0 0.08656282378781556 0.00033455721329207181 0 0.083645540807241153 0.0017139573143734885 0 0.08543083117024193 0.00014279501248114657 0 0.086860326401521096 -0.00063363424108581104 0 0.088141556635027124 -0.00087029985587458913 0 0.086406564270341352 0.00023696525713112215 0 0.074549809266850661 0.0072425192115159603 0 0.074760346832742977 0.0073194123195581941 0 0.074392142422834331 0.0073046358173569281 0 0.074760346832742977 0.0073194123195581941 0 0.074392142422834331 0.0073046358173569281 0 0.074585201429164333 0.0074513296703550835 0 0.074549809266850661 0.0072425192115159603 0 0.074760346832742977 0.0073194123195581941 0 0.074548929054894034 0.0072152845434975618 0 0.074546229121008653 0.0071343261806942979 0 0.074548929054894034 0.0072152845434975618 0 0.074580779057681429 0.007079926327941093 0 0.074549809266850661 0.0072425192115159603 0 0.074548929054894034 0.0072152845434975618 0 0.074580779057681429 0.007079926327941093 0 0.074420092711346045 0.0070945034411040555 0 0.074546229121008653 0.0071343261806942979 0 0.074548929054894034 0.0072152845434975618 0 0.074549809266850661 0.0072425192115159603 0 0.074580779057681429 0.007079926327941093 0 0.074455317446435174 0.0070831933221065582 0 0.074580779057681429 0.007079926327941093 0 0.074455317446435174 0.0070831933221065582 0 0.074499198282452411 0.0067936635920266596 0 0.074549809266850661 0.0072425192115159603 0 0.074455317446435174 0.0070831933221065582 0 0.074392142422834331 0.0073046358173569281 0 0.074455317446435174 0.0070831933221065582 0 0.074392142422834331 0.0073046358173569281 0 0.074201373558883441 0.0069315518970518662 0 0.074201373558883441 0.0069315518970518662 0 0.07418074640527858 0.0065606400936984131 0 0.074499198282452411 0.0067936635920266596 0 0.074455317446435174 0.0070831933221065582 0 0.074201373558883441 0.0069315518970518662 0 0.074499198282452411 0.0067936635920266596 0 0.07418074640527858 0.0065606400936984131 0 0.074499198282452411 0.0067936635920266596 0 0.074423314184960773 0.006420698441741624 0 0.074664836990066735 0.0067993840358618962 0 0.074499198282452411 0.0067936635920266596 0 0.074591391088585327 0.0065883625150259329 0 0.074664836990066735 0.0067993840358618962 0 0.074580779057681429 0.007079926327941093 0 0.074499198282452411 0.0067936635920266596 0 0.074499198282452411 0.0067936635920266596 0 0.074591391088585327 0.0065883625150259329 0 0.074423314184960773 0.006420698441741624 0 0.071203328340481473 0.0009455243895412712 0 0.069661821854188469 0.0013020532226348778 0 0.074955894448119523 0.0059260222204534042 0 0.074423314184960773 0.006420698441741624 0 0.074234437657075561 0.0058967782497629084 0 0.074745663027953754 0.0065995204616425187 0 0.074591391088585327 0.0065883625150259329 0 0.074576716871374155 0.0063945383200777698 0 0.074591391088585327 0.0065883625150259329 0 0.074576716871374155 0.0063945383200777698 0 0.074423314184960773 0.006420698441741624 0 0.071203328340481473 0.0009455243895412712 0 0.071335596352103153 0.0016880554349582525 0 0.069661821854188469 0.0013020532226348778 0 0.068064455871952714 0.001774446384770433 0 0.073992338779915776 0.006200874937234117 0 0.074234437657075561 0.0058967782497629084 0 0.07363252486685859 0.0058312657603673927 0 0.07418074640527858 0.0065606400936984131 0 0.073992338779915776 0.006200874937234117 0 0.074423314184960773 0.006420698441741624 0 0.073992338779915776 0.006200874937234117 0 0.074423314184960773 0.006420698441741624 0 0.074234437657075561 0.0058967782497629084 0 0.07418074640527858 0.0065606400936984131 0 0.073992338779915776 0.006200874937234117 0 0.07340045792519144 0.0062981730039362045 0 0.073992338779915776 0.006200874937234117 0 0.07363252486685859 0.0058312657603673927 0 0.07340045792519144 0.0062981730039362045 0 0.068064455871952714 0.001774446384770433 0 0.068631764893432021 0.0047137473898226645 0 0.069320780577914978 0.0070771258997767775 0 0.070316709394811189 0.0072242110990820294 0 0.069525307837184566 0.0071869344221978182 0 0.069068863467457456 0.0070281956143225261 0 0.069320780577914978 0.0070771258997767775 0 0.069525307837184566 0.0071869344221978182 0 0.068154180126413166 0.0018813378525432906 0 0.068064455871952714 0.001774446384770433 0 0.068631764893432021 0.0047137473898226645 0 0.068865262921557577 0.0055601584030523189 0 0.07340045792519144 0.0062981730039362045 0 0.073813672575555558 0.0071874651269852414 0 0.072679609142225918 0.0071019000667379654 0 0.074201373558883441 0.0069315518970518662 0 0.07418074640527858 0.0065606400936984131 0 0.07340045792519144 0.0062981730039362045 0 0.074201373558883441 0.0069315518970518662 0 0.07340045792519144 0.0062981730039362045 0 0.073813672575555558 0.0071874651269852414 0 0.070316709394811189 0.0072242110990820294 0 0.071245492031532021 0.0071736620523071698 0 0.069802527960630023 0.007287266747678274 0 0.070316709394811189 0.0072242110990820294 0 0.071245492031532021 0.0071736620523071698 0 0.072679609142225918 0.0071019000667379654 0 0.070316709394811189 0.0072242110990820294 0 0.069802527960630023 0.007287266747678274 0 0.069525307837184566 0.0071869344221978182 0 0.068894574403675066 0.0071621814262589597 0 0.069068863467457456 0.0070281956143225261 0 0.069525307837184566 0.0071869344221978182 0 0.068277226610998026 0.0073556526965710498 0 0.068894574403675066 0.0071621814262589597 0 0.069802527960630023 0.007287266747678274 0 0.068894574403675066 0.0071621814262589597 0 0.069802527960630023 0.007287266747678274 0 0.069525307837184566 0.0071869344221978182 0 0.068277226610998026 0.0073556526965710498 0 0.068346814676164561 0.0079070107665205076 0 0.070021147098213291 0.0074409208756920356 0 0.068277226610998026 0.0073556526965710498 0 0.069802527960630023 0.007287266747678274 0 0.070021147098213291 0.0074409208756920356 0 0.066809401104395066 0.0089663536090313391 0 0.068346814676164561 0.0079070107665205076 0 0.069871596124580021 0.0074872942599631528 0 0.068346814676164561 0.0079070107665205076 0 0.069871596124580021 0.0074872942599631528 0 0.070021147098213291 0.0074409208756920356 0 0.071107605918332734 0.007205545045505894 0 0.070021147098213291 0.0074409208756920356 0 0.071841960064525021 0.0071608263648033537 0 0.069871596124580021 0.0074872942599631528 0 0.071107605918332734 0.007205545045505894 0 0.070021147098213291 0.0074409208756920356 0 0.071245492031532021 0.0071736620523071698 0 0.069802527960630023 0.007287266747678274 0 0.070021147098213291 0.0074409208756920356 0 0.071245492031532021 0.0071736620523071698 0 0.070021147098213291 0.0074409208756920356 0 0.071841960064525021 0.0071608263648033537 0 0.071245492031532021 0.0071736620523071698 0 0.071841960064525021 0.0071608263648033537 0 0.072848498694876765 0.0072531645041486606 0 0.071841960064525021 0.0071608263648033537 0 0.072870466261413844 0.007142611967164556 0 0.072848498694876765 0.0072531645041486606 0 0.072870466261413844 0.007142611967164556 0 0.072848498694876765 0.0072531645041486606 0 0.073768337324530364 0.0072953284866615741 0 0.071841960064525021 0.0071608263648033537 0 0.072279974550596635 0.0069357326490102206 0 0.0730990105479771 0.0069387070965393092 0 0.071107605918332734 0.007205545045505894 0 0.071841960064525021 0.0071608263648033537 0 0.072279974550596635 0.0069357326490102206 0 0.071841960064525021 0.0071608263648033537 0 0.072870466261413844 0.007142611967164556 0 0.0730990105479771 0.0069387070965393092 0 0.072279974550596635 0.0069357326490102206 0 0.0730990105479771 0.0069387070965393092 0 0.073536724947431659 0.0066772308899265545 0 0.0730990105479771 0.0069387070965393092 0 0.074221584146059436 0.0065592899079857459 0 0.073536724947431659 0.0066772308899265545 0 0.0730990105479771 0.0069387070965393092 0 0.074081060727013287 0.0067252975300230462 0 0.073768337324530364 0.0072953284866615741 0 0.0730990105479771 0.0069387070965393092 0 0.074081060727013287 0.0067252975300230462 0 0.074221584146059436 0.0065592899079857459 0 0.073768337324530364 0.0072953284866615741 0 0.074160060389133392 0.0074039364121207913 0 0.078603459503336304 0.0054666105876596477 0 0.072848498694876765 0.0072531645041486606 0 0.073768337324530364 0.0072953284866615741 0 0.074160060389133392 0.0074039364121207913 0 0.072870466261413844 0.007142611967164556 0 0.0730990105479771 0.0069387070965393092 0 0.073768337324530364 0.0072953284866615741 0 0.072848498694876765 0.0072531645041486606 0 0.074160060389133392 0.0074039364121207913 0 0.073773193394464406 0.007382993618340542 0 0.074160060389133392 0.0074039364121207913 0 0.07486305793272717 0.0074523775403274898 0 0.073773193394464406 0.007382993618340542 0 0.074160060389133392 0.0074039364121207913 0 0.07486305793272717 0.0074523775403274898 0 0.076005323363232527 0.0072803542270403476 0 0.07486305793272717 0.0074523775403274898 0 0.074585201429164333 0.0074513296703550835 0 0.075451513338446255 0.0072857985717014531 0 0.074760346832742977 0.0073194123195581941 0 0.074585201429164333 0.0074513296703550835 0 0.075451513338446255 0.0072857985717014531 0 0.07486305793272717 0.0074523775403274898 0 0.074585201429164333 0.0074513296703550835 0 0.073773193394464406 0.007382993618340542 0 0.074392142422834331 0.0073046358173569281 0 0.074585201429164333 0.0074513296703550835 0 0.073813672575555558 0.0071874651269852414 0 0.074585201429164333 0.0074513296703550835 0 0.073813672575555558 0.0071874651269852414 0 0.073773193394464406 0.007382993618340542 0 0.074392142422834331 0.0073046358173569281 0 0.074201373558883441 0.0069315518970518662 0 0.073813672575555558 0.0071874651269852414 0 0.073813672575555558 0.0071874651269852414 0 0.072679609142225918 0.0071019000667379654 0 0.073773193394464406 0.007382993618340542 0 0.071245492031532021 0.0071736620523071698 0 0.072848498694876765 0.0072531645041486606 0 0.072679609142225918 0.0071019000667379654 0 0.072848498694876765 0.0072531645041486606 0 0.072679609142225918 0.0071019000667379654 0 0.073773193394464406 0.007382993618340542 0 0.080405767837490386 -0.0034524256452140929 0 0.081520097411200462 -0.0070797304964010975 0 0.083851138345135148 -0.0024675808346570982 0 0.07512835993746958 0.0072777829351479304 0 0.074888028286335104 0.007171598307005137 0 0.074918379784171707 0.0068790794097008875 0 0.071727152207252676 0.0032224887268231116 0 0.076023693619019561 0.0034571125039202706 0 0.063171128323873948 0.0020159735013954923 0 0.063162797293247405 0.0020409430492434656 0 0.063210886921087409 0.0020420555538851956 0 0.07512835993746958 0.0072777829351479304 0 0.074713854255005138 0.007406270385239438 0 0.074888028286335104 0.007171598307005137 0 0.071727152207252676 0.0032224887268231116 0 0.067922366403865092 0.0058884924534545564 0 0.067922366403865092 0.0058884924534545564 0 0.066485562260002892 0.0066617671050892115 0 0.067922366403865092 0.0058884924534545564 0 0.070758883428155561 0.0070359368529877451 0 0.074713854255005138 0.007406270385239438 0 0.074888028286335104 0.007171598307005137 0 0.074554071534192634 0.0069950539589020361 0 0.074888028286335104 0.007171598307005137 0 0.074554071534192634 0.0069950539589020361 0 0.074918379784171707 0.0068790794097008875 0 0.072538661699315027 0.0079996439685395705 0 0.072281506534487061 0.0067662052729198577 0 0.07119818870564848 0.0072365132983051679 0 0.072281506534487061 0.0067662052729198577 0 0.07119818870564848 0.0072365132983051679 0 0.071651724527841007 0.0069815148021550987 0 0.066809401104395066 0.0089663536090313391 0 0.07119818870564848 0.0072365132983051679 0 0.072358267142626317 0.0090143958768173858 0 0.072538661699315027 0.0079996439685395705 0 0.07119818870564848 0.0072365132983051679 0 0.07192965874438173 0.0081695915346515647 0 0.067731253533278621 0.007583478872018979 0 0.066485562260002892 0.0066617671050892115 0 0.066809401104395066 0.0089663536090313391 0 0.069871596124580021 0.0074872942599631528 0 0.07119818870564848 0.0072365132983051679 0 0.069871596124580021 0.0074872942599631528 0 0.07119818870564848 0.0072365132983051679 0 0.071651724527841007 0.0069815148021550987 0 0.071107605918332734 0.007205545045505894 0 0.072279974550596635 0.0069357326490102206 0 0.071651724527841007 0.0069815148021550987 0 0.069871596124580021 0.0074872942599631528 0 0.071107605918332734 0.007205545045505894 0 0.071651724527841007 0.0069815148021550987 0 0.072279974550596635 0.0069357326490102206 0 0.071651724527841007 0.0069815148021550987 0 0.072819498706064412 0.0067713157954188141 0 0.072279974550596635 0.0069357326490102206 0 0.072819498706064412 0.0067713157954188141 0 0.073536724947431659 0.0066772308899265545 0 0.074221584146059436 0.0065592899079857459 0 0.073536724947431659 0.0066772308899265545 0 0.074709164739533568 0.0062719108934376966 0 0.073536724947431659 0.0066772308899265545 0 0.074709164739533568 0.0062719108934376966 0 0.074296710891979312 0.0064718344482267215 0 0.072819498706064412 0.0067713157954188141 0 0.073536724947431659 0.0066772308899265545 0 0.074296710891979312 0.0064718344482267215 0 0.070758883428155561 0.0070359368529877451 0 0.071474397132023776 0.0068949269867046728 0 0.074554071534192634 0.0069950539589020361 0 0.074296710891979312 0.0064718344482267215 0 0.074706978310087088 0.0063907803114704445 0 0.072281506534487061 0.0067662052729198577 0 0.071651724527841007 0.0069815148021550987 0 0.072819498706064412 0.0067713157954188141 0 0.072281506534487061 0.0067662052729198577 0 0.072819498706064412 0.0067713157954188141 0 0.074296710891979312 0.0064718344482267215 0 0.077938407712655255 0.0037322676506937194 0 0.076023693619019561 0.0034571125039202706 0 0.074554071534192634 0.0069950539589020361 0 0.074706978310087088 0.0063907803114704445 0 0.074918379784171707 0.0068790794097008875 0 0.084750174565214692 0.0016541319096260762 0 0.082435336890413213 0.00074024083793868315 0 0.083851138345135148 -0.0024675808346570982 0 0.084750174565214692 0.0016541319096260762 0 0.082435336890413213 0.00074024083793868315 0 0.083529834191255467 0.0024887613964985956 0 0.080405767837490386 -0.0034524256452140929 0 0.082435336890413213 0.00074024083793868315 0 0.083851138345135148 -0.0024675808346570982 0 0.083786618056093165 0.0027962580826161915 0 0.083775748359284183 0.0028959183563497782 0 0.083037568731780462 0.0032806070619688225 0 0.083775748359284183 0.0028959183563497782 0 0.083509555464988616 0.0031285303267226962 0 0.083037568731780462 0.0032806070619688225 0 0.083509555464988616 0.0031285303267226962 0 0.083037568731780462 0.0032806070619688225 0 0.082660769635957171 0.002813727834295269 0 0.080748403620267362 0.0035265169338288519 0 0.082435336890413213 0.00074024083793868315 0 0.082660769635957171 0.002813727834295269 0 0.082435336890413213 0.00074024083793868315 0 0.082660769635957171 0.002813727834295269 0 0.083529834191255467 0.0024887613964985956 0 0.083509555464988616 0.0031285303267226962 0 0.082660769635957171 0.002813727834295269 0 0.083529834191255467 0.0024887613964985956 0 0.083509555464988616 0.0031285303267226962 0 0.083529834191255467 0.0024887613964985956 0 0.083829087178316927 0.0030326671412134231 0 0.084750174565214692 0.0016541319096260762 0 0.083529834191255467 0.0024887613964985956 0 0.083829087178316927 0.0030326671412134231 0 0.083509555464988616 0.0031285303267226962 0 0.083829087178316927 0.0030326671412134231 0 0.083714941015387609 0.0030916175041467873 0 0.083775748359284183 0.0028959183563497782 0 0.083509555464988616 0.0031285303267226962 0 0.083714941015387609 0.0030916175041467873 0 0.083829087178316927 0.0030326671412134231 0 0.083714941015387609 0.0030916175041467873 0 0.083391013388658508 0.0036989780568438351 0 0.083714941015387609 0.0030916175041467873 0 0.083391013388658508 0.0036989780568438351 0 0.083207087831456888 0.0026086127132931777 0 0.083391013388658508 0.0036989780568438351 0 0.08001524761426726 0.0031077651478401106 0 0.083207087831456888 0.0026086127132931777 0 0.084750174565214692 0.0016541319096260762 0 0.083829087178316927 0.0030326671412134231 0 0.083391013388658508 0.0036989780568438351 0 0.074709164739533568 0.0062719108934376966 0 0.074296710891979312 0.0064718344482267215 0 0.076133088162686047 0.0057045043171633147 0 0.074296710891979312 0.0064718344482267215 0 0.074706978310087088 0.0063907803114704445 0 0.076133088162686047 0.0057045043171633147 0 0.077938407712655255 0.0037322676506937194 0 0.07848364861038705 0.0034036122875810049 0 0.076133088162686047 0.0057045043171633147 0 0.075361930124869497 0.0060372358842769027 0 0.076866862449013265 0.0051806675445875373 0 0.074709164739533568 0.0062719108934376966 0 0.076133088162686047 0.0057045043171633147 0 0.075361930124869497 0.0060372358842769027 0 0.074221584146059436 0.0065592899079857459 0 0.074709164739533568 0.0062719108934376966 0 0.075361930124869497 0.0060372358842769027 0 0.076133088162686047 0.0057045043171633147 0 0.076866862449013265 0.0051806675445875373 0 0.08001524761426726 0.0031077651478401106 0 0.07848364861038705 0.0034036122875810049 0 0.078444381565347304 0.002851888488049422 0 0.076866862449013265 0.0051806675445875373 0 0.08001524761426726 0.0031077651478401106 0 0.078360004304313294 0.0023517982656701361 0 0.08001524761426726 0.0031077651478401106 0 0.082310776918407297 0.0019061952213331517 0 0.083207087831456888 0.0026086127132931777 0 0.08001524761426726 0.0031077651478401106 0 0.081619933957237295 0.0014883427055776828 0 0.082310776918407297 0.0019061952213331517 0 0.08001524761426726 0.0031077651478401106 0 0.081619933957237295 0.0014883427055776828 0 0.078360004304313294 0.0023517982656701361 0 0.081619933957237295 0.0014883427055776828 0 0.078360004304313294 0.0023517982656701361 0 0.083515544791591984 -0.00014589275449963969 0 0.081619933957237295 0.0014883427055776828 0 0.083444410248691023 0.0010346584969160484 0 0.083515544791591984 -0.00014589275449963969 0 0.081619933957237295 0.0014883427055776828 0 0.083444410248691023 0.0010346584969160484 0 0.082310776918407297 0.0019061952213331517 0 0.083444410248691023 0.0010346584969160484 0 0.083784125612986773 0.0017471235606068688 0 0.082310776918407297 0.0019061952213331517 0 0.083444410248691023 0.0010346584969160484 0 0.083784125612986773 0.0017471235606068688 0 0.084621302325319225 0.00096428142240194848 0 0.083784125612986773 0.0017471235606068688 0 0.082310776918407297 0.0019061952213331517 0 0.083207087831456888 0.0026086127132931777 0 0.083775748359284183 0.0028959183563497782 0 0.083714941015387609 0.0030916175041467873 0 0.084080535015301994 0.0021937679485661572 0 0.083784125612986773 0.0017471235606068688 0 0.083207087831456888 0.0026086127132931777 0 0.084080535015301994 0.0021937679485661572 0 0.083714941015387609 0.0030916175041467873 0 0.083207087831456888 0.0026086127132931777 0 0.084080535015301994 0.0021937679485661572 0 0.083784125612986773 0.0017471235606068688 0 0.084080535015301994 0.0021937679485661572 0 0.084621302325319225 0.00096428142240194848 0 0.084080535015301994 0.0021937679485661572 0 0.084621302325319225 0.00096428142240194848 0 0.084659816059838786 0.0014790636776696514 0 0.084621302325319225 0.00096428142240194848 0 0.084659816059838786 0.0014790636776696514 0 0.085082092887143398 0.00089207765043153135 0 0.084659816059838786 0.0014790636776696514 0 0.085146259770323654 0.0011329892519635473 0 0.085082092887143398 0.00089207765043153135 0 0.084659816059838786 0.0014790636776696514 0 0.085146259770323654 0.0011329892519635473 0 0.084736247075363591 0.0016744415464992788 0 0.084659816059838786 0.0014790636776696514 0 0.084736247075363591 0.0016744415464992788 0 0.084242221098665859 0.0022410992626397158 0 0.084377293580873217 0.0022665077987507297 0 0.084736247075363591 0.0016744415464992788 0 0.084242221098665859 0.0022410992626397158 0 0.084080535015301994 0.0021937679485661572 0 0.084659816059838786 0.0014790636776696514 0 0.084242221098665859 0.0022410992626397158 0 0.083775748359284183 0.0028959183563497782 0 0.084080535015301994 0.0021937679485661572 0 0.084242221098665859 0.0022410992626397158 0 0.083786618056093165 0.0027962580826161915 0 0.083775748359284183 0.0028959183563497782 0 0.084242221098665859 0.0022410992626397158 0 0.083786618056093165 0.0027962580826161915 0 0.084377293580873217 0.0022665077987507297 0 0.084242221098665859 0.0022410992626397158 0 0.077059831886677824 0.0067203358883868788 0 0.076005323363232527 0.0072803542270403476 0 0.078306357007483465 0.0069081209874956384 0 0.077059831886677824 0.0067203358883868788 0 0.078306357007483465 0.0069081209874956384 0 0.078838873961459124 0.0054395125240997971 0 0.077059831886677824 0.0067203358883868788 0 0.078838873961459124 0.0054395125240997971 0 0.077191732250425152 0.0056231793064252878 0 0.077059831886677824 0.0067203358883868788 0 0.076090120514518675 0.0065947574999357375 0 0.077191732250425152 0.0056231793064252878 0 0.075818122451074152 0.0052715327995405499 0 0.076090120514518675 0.0065947574999357375 0 0.077191732250425152 0.0056231793064252878 0 0.077059831886677824 0.0067203358883868788 0 0.076090120514518675 0.0065947574999357375 0 0.075451513338446255 0.0072857985717014531 0 0.074989134669719418 0.0069237264606969735 0 0.076090120514518675 0.0065947574999357375 0 0.075451513338446255 0.0072857985717014531 0 0.07486305793272717 0.0074523775403274898 0 0.075451513338446255 0.0072857985717014531 0 0.076005323363232527 0.0072803542270403476 0 0.074160060389133392 0.0074039364121207913 0 0.076005323363232527 0.0072803542270403476 0 0.078306357007483465 0.0069081209874956384 0 0.077059831886677824 0.0067203358883868788 0 0.075451513338446255 0.0072857985717014531 0 0.076005323363232527 0.0072803542270403476 0 0.078047492439159039 0.0063347015401987155 0 0.07919846032361251 0.0050899820948594387 0 0.074160060389133392 0.0074039364121207913 0 0.078603459503336304 0.0054666105876596477 0 0.077154158028015757 0.0048023394931566475 0 0.076627095866908329 0.0058739885711943688 0 0.077548794076092678 0.0048735402126888015 0 0.074081060727013287 0.0067252975300230462 0 0.073768337324530364 0.0072953284866615741 0 0.07449538834177781 0.0056932668763297204 0 0.074081060727013287 0.0067252975300230462 0 0.074876452817645614 0.0062030848016670151 0 0.07449538834177781 0.0056932668763297204 0 0.076866862449013265 0.0051806675445875373 0 0.074876452817645614 0.0062030848016670151 0 0.07449538834177781 0.0056932668763297204 0 0.074081060727013287 0.0067252975300230462 0 0.074221584146059436 0.0065592899079857459 0 0.074876452817645614 0.0062030848016670151 0 0.074221584146059436 0.0065592899079857459 0 0.075361930124869497 0.0060372358842769027 0 0.074876452817645614 0.0062030848016670151 0 0.075361930124869497 0.0060372358842769027 0 0.076866862449013265 0.0051806675445875373 0 0.074876452817645614 0.0062030848016670151 0 0.078603459503336304 0.0054666105876596477 0 0.079508990847394601 0.0034134962277214262 0 0.082032983690014924 0.0019653076548807259 0 0.076866862449013265 0.0051806675445875373 0 0.07449538834177781 0.0056932668763297204 0 0.078360004304313294 0.0023517982656701361 0 0.077548794076092678 0.0048735402126888015 0 0.079337113928301645 0.0027661525304648561 0 0.078603459503336304 0.0054666105876596477 0 0.077154158028015757 0.0048023394931566475 0 0.079508990847394601 0.0034134962277214262 0 0.077154158028015757 0.0048023394931566475 0 0.079508990847394601 0.0034134962277214262 0 0.080108229090127367 0.0013174207709586547 0 0.079508990847394601 0.0034134962277214262 0 0.082032983690014924 0.0019653076548807259 0 0.080108229090127367 0.0013174207709586547 0 0.07919846032361251 0.0050899820948594387 0 0.081618317498825949 0.0022637919506173494 0 0.082032983690014924 0.0019653076548807259 0 0.082258083125747269 0.0005552749724012572 0 0.083515544791591984 -0.00014589275449963969 0 0.079337113928301645 0.0027661525304648561 0 0.080376806079867649 0.0014730450592004628 0 0.082032983690014924 0.0019653076548807259 0 0.082258083125747269 0.0005552749724012572 0 0.080108229090127367 0.0013174207709586547 0 0.082414565240699303 0.0036050194287551678 0 0.078593898950711422 0.0031078731760528894 0 0.081982375933032578 0.0010011918724253232 0 0.082414565240699303 0.0036050194287551678 0 0.078838873961459124 0.0054395125240997971 0 0.078593898950711422 0.0031078731760528894 0 0.078838873961459124 0.0054395125240997971 0 0.077191732250425152 0.0056231793064252878 0 0.078593898950711422 0.0031078731760528894 0 0.078306357007483465 0.0069081209874956384 0 0.082414565240699303 0.0036050194287551678 0 0.078838873961459124 0.0054395125240997971 0 0.075818122451074152 0.0052715327995405499 0 0.077191732250425152 0.0056231793064252878 0 0.078593898950711422 0.0031078731760528894 0 0.075818122451074152 0.0052715327995405499 0 0.075244029716601754 0.0035840911951214452 0 0.078593898950711422 0.0031078731760528894 0 0.075244029716601754 0.0035840911951214452 0 0.078593898950711422 0.0031078731760528894 0 0.079341100218934923 -0.00067888057786325701 0 0.083747427441991221 -0.00024353127271909986 0 0.084889108351284479 -0.0018030877702721101 0 0.09155235430212158 -0.0045809301270689634 0 0.091053209944009061 -0.0056083631449465416 0 0.09160250924347961 -0.0052928043306454467 0 0.091053209944009061 -0.0056083631449465416 0 0.091621781255312465 -0.0047305421617523935 0 0.09160250924347961 -0.0052928043306454467 0 0.091053209944009061 -0.0056083631449465416 0 0.091621781255312465 -0.0047305421617523935 0 0.090707416687841921 -0.0039161504481757198 0 0.091621781255312465 -0.0047305421617523935 0 0.090707416687841921 -0.0039161504481757198 0 0.091863930468197019 -0.003765969991785393 0 0.084889108351284479 -0.0018030877702721101 0 0.085512882729411294 -0.0023857797496279021 0 0.091053209944009061 -0.0056083631449465416 0 0.090707416687841921 -0.0039161504481757198 0 0.087506555172032915 -0.0035687487712056484 0 0.079341100218934923 -0.00067888057786325701 0 0.08673884347266464 -0.0021548765952698994 0 0.087506555172032915 -0.0035687487712056484 0 0.078593898950711422 0.0031078731760528894 0 0.079341100218934923 -0.00067888057786325701 0 0.081982375933032578 0.0010011918724253232 0 0.079341100218934923 -0.00067888057786325701 0 0.081982375933032578 0.0010011918724253232 0 0.08673884347266464 -0.0021548765952698994 0 0.081618317498825949 0.0022637919506173494 0 0.084256902341269369 -0.00041929624001504293 0 0.082414565240699303 0.0036050194287551678 0 0.081982375933032578 0.0010011918724253232 0 0.08673884347266464 -0.0021548765952698994 0 0.082258083125747269 0.0005552749724012572 0 0.080108229090127367 0.0013174207709586547 0 0.083334620813745097 -0.00038787425328061731 0 0.082258083125747269 0.0005552749724012572 0 0.083334620813745097 -0.00038787425328061731 0 0.083515544791591984 -0.00014589275449963969 0 0.0853188718448918 -0.00068386932059257292 0 0.083334620813745097 -0.00038787425328061731 0 0.083515544791591984 -0.00014589275449963969 0 0.08673884347266464 -0.0021548765952698994 0 0.088726970085675996 -0.0032533777472423149 0 0.087506555172032915 -0.0035687487712056484 0 0.0853188718448918 -0.00068386932059257292 0 0.083334620813745097 -0.00038787425328061731 0 0.086556334859967457 -0.00095531436727644891 0 0.088726970085675996 -0.0032533777472423149 0 0.087506555172032915 -0.0035687487712056484 0 0.089523700286162425 -0.0029763820785705174 0 0.084256902341269369 -0.00041929624001504293 0 0.08628824200622448 -0.0013247615429131557 0 0.0853188718448918 -0.00068386932059257292 0 0.086556334859967457 -0.00095531436727644891 0 0.087597993564171583 -0.00098178251746566564 0 0.0853188718448918 -0.00068386932059257292 0 0.087597993564171583 -0.00098178251746566564 0 0.086985487105305057 -0.00088716904445638534 0 0.086556334859967457 -0.00095531436727644891 0 0.087597993564171583 -0.00098178251746566564 0 0.090441165011203112 -0.00088328582010932467 0 0.087597993564171583 -0.00098178251746566564 0 0.086985487105305057 -0.00088716904445638534 0 0.088703748519869688 -0.00093675845324496564 0 0.08628824200622448 -0.0013247615429131557 0 0.087169967219692002 -0.0011520257559875572 0 0.088726970085675996 -0.0032533777472423149 0 0.090380011040746486 -0.0019027500505960691 0 0.090670402235219411 -0.0022847718861367934 0 0.088726970085675996 -0.0032533777472423149 0 0.090380011040746486 -0.0019027500505960691 0 0.090441165011203112 -0.00088328582010932467 0 0.090380011040746486 -0.0019027500505960691 0 0.090670402235219411 -0.0022847718861367934 0 0.091740382761374528 -0.0014451503117507041 0 0.090670402235219411 -0.0022847718861367934 0 0.092325100076474889 -0.0019971125817918474 0 0.091240823412030977 -0.0028446796337827734 0 0.090670402235219411 -0.0022847718861367934 0 0.092325100076474889 -0.0019971125817918474 0 0.091740382761374528 -0.0014451503117507041 0 0.092325100076474889 -0.0019971125817918474 0 0.091240823412030977 -0.0028446796337827734 0 0.09226738022534263 -0.0028993316155826922 0 0.091240823412030977 -0.0028446796337827734 0 0.09226738022534263 -0.0028993316155826922 0 0.091863930468197019 -0.003765969991785393 0 0.090707416687841921 -0.0039161504481757198 0 0.091240823412030977 -0.0028446796337827734 0 0.091863930468197019 -0.003765969991785393 0 0.090707416687841921 -0.0039161504481757198 0 0.091240823412030977 -0.0028446796337827734 0 0.089523700286162425 -0.0029763820785705174 0 0.088726970085675996 -0.0032533777472423149 0 0.090670402235219411 -0.0022847718861367934 0 0.089523700286162425 -0.0029763820785705174 0 0.090707416687841921 -0.0039161504481757198 0 0.087506555172032915 -0.0035687487712056484 0 0.089523700286162425 -0.0029763820785705174 0 0.090670402235219411 -0.0022847718861367934 0 0.091240823412030977 -0.0028446796337827734 0 0.089523700286162425 -0.0029763820785705174 0 0.085721577693856216 0.00010948177942707155 0 0.086037096806917332 -0.000424460554921102 0 0.086313342214443048 -0.00053570155302993681 0 0.08562563536210184 0.00065863676266829623 0 0.085721577693856216 0.00010948177942707155 0 0.086313342214443048 -0.00053570155302993681 0 0.08562563536210184 0.00065863676266829623 0 0.085721577693856216 0.00010948177942707155 0 0.085393187695428113 0.00063332251718566709 0 0.085146259770323654 0.0011329892519635473 0 0.085393187695428113 0.00063332251718566709 0 0.085082092887143398 0.00089207765043153135 0 0.084621302325319225 0.00096428142240194848 0 0.085082092887143398 0.00089207765043153135 0 0.085386198470011609 0.00041808542251731617 0 0.085393187695428113 0.00063332251718566709 0 0.085082092887143398 0.00089207765043153135 0 0.085386198470011609 0.00041808542251731617 0 0.085721577693856216 0.00010948177942707155 0 0.085393187695428113 0.00063332251718566709 0 0.085386198470011609 0.00041808542251731617 0 0.085721577693856216 0.00010948177942707155 0 0.085386198470011609 0.00041808542251731617 0 0.085332677768974324 0.00014962361166308071 0 0.084621302325319225 0.00096428142240194848 0 0.085386198470011609 0.00041808542251731617 0 0.085332677768974324 0.00014962361166308071 0 0.084621302325319225 0.00096428142240194848 0 0.085332677768974324 0.00014962361166308071 0 0.08455853400031467 0.00022891962648163212 0 0.085332677768974324 0.00014962361166308071 0 0.085531540834609412 -0.00027523456971232784 0 0.08455853400031467 0.00022891962648163212 0 0.085332677768974324 0.00014962361166308071 0 0.085531540834609412 -0.00027523456971232784 0 0.086037096806917332 -0.000424460554921102 0 0.085721577693856216 0.00010948177942707155 0 0.085332677768974324 0.00014962361166308071 0 0.086037096806917332 -0.000424460554921102 0 0.085531540834609412 -0.00027523456971232784 0 0.086037096806917332 -0.000424460554921102 0 0.086361746979053272 -0.00068676677213668988 0 0.085146362477902693 -0.00035288747208164523 0 0.085618851746372904 -0.00064120868241067863 0 0.086361746979053272 -0.00068676677213668988 0 0.085531540834609412 -0.00027523456971232784 0 0.085146362477902693 -0.00035288747208164523 0 0.086361746979053272 -0.00068676677213668988 0 0.085531540834609412 -0.00027523456971232784 0 0.085146362477902693 -0.00035288747208164523 0 0.08455853400031467 0.00022891962648163212 0 0.083444410248691023 0.0010346584969160484 0 0.084621302325319225 0.00096428142240194848 0 0.08455853400031467 0.00022891962648163212 0 0.083444410248691023 0.0010346584969160484 0 0.08455853400031467 0.00022891962648163212 0 0.083515544791591984 -0.00014589275449963969 0 0.085146362477902693 -0.00035288747208164523 0 0.08455853400031467 0.00022891962648163212 0 0.083515544791591984 -0.00014589275449963969 0 0.085146362477902693 -0.00035288747208164523 0 0.083515544791591984 -0.00014589275449963969 0 0.085618851746372904 -0.00064120868241067863 0 0.0853188718448918 -0.00068386932059257292 0 0.083515544791591984 -0.00014589275449963969 0 0.085618851746372904 -0.00064120868241067863 0 0.085618851746372904 -0.00064120868241067863 0 0.086985487105305057 -0.00088716904445638534 0 0.087364458046342977 -0.00090428298621039846 0 0.0853188718448918 -0.00068386932059257292 0 0.085618851746372904 -0.00064120868241067863 0 0.086985487105305057 -0.00088716904445638534 0 0.086985487105305057 -0.00088716904445638534 0 0.087364458046342977 -0.00090428298621039846 0 0.088703748519869688 -0.00093675845324496564 0 0.087364458046342977 -0.00090428298621039846 0 0.088838520137991053 -0.00083073087013874958 0 0.088703748519869688 -0.00093675845324496564 0 0.087364458046342977 -0.00090428298621039846 0 0.087639607292945856 -0.00089267786480546826 0 0.088838520137991053 -0.00083073087013874958 0 0.087364458046342977 -0.00090428298621039846 0 0.086361746979053272 -0.00068676677213668988 0 0.087639607292945856 -0.00089267786480546826 0 0.085618851746372904 -0.00064120868241067863 0 0.087364458046342977 -0.00090428298621039846 0 0.086361746979053272 -0.00068676677213668988 0 0.086361746979053272 -0.00068676677213668988 0 0.086767448260873445 -0.00074257950835490867 0 0.087639607292945856 -0.00089267786480546826 0 0.086037096806917332 -0.000424460554921102 0 0.086361746979053272 -0.00068676677213668988 0 0.086767448260873445 -0.00074257950835490867 0 0.087639607292945856 -0.00089267786480546826 0 0.087449661706666654 -0.00085030084211540769 0 0.088766979463061974 -0.00072971784104670305 0 0.086767448260873445 -0.00074257950835490867 0 0.087639607292945856 -0.00089267786480546826 0 0.087449661706666654 -0.00085030084211540769 0 0.090078217047054168 0.00017663565932177637 0 0.089158283421013895 0.00016303106005996373 0 0.088170173543889188 -0.00017823828058767045 0 0.088888892598268723 -0.00016773081632185383 0 0.087659962368223363 -3.7376481220586345e-05 0 0.086767448260873445 -0.00074257950835490867 0 0.087449661706666654 -0.00085030084211540769 0 0.086313342214443048 -0.00053570155302993681 0 0.088239416868661436 -3.6553064224511357e-05 0 0.089158283421013895 0.00016303106005996373 0 0.088170173543889188 -0.00017823828058767045 0 0.086037096806917332 -0.000424460554921102 0 0.086767448260873445 -0.00074257950835490867 0 0.086313342214443048 -0.00053570155302993681 0 0.094960690844719323 1.4491821868477153e-07 0 0.094962946017719679 -9.5478960184355336e-07 0 0.094978136871173444 -5.7918258184216168e-07 0 0.094976091131862034 2.8714135864459557e-06 0 0.094986547021735937 3.107756436060606e-07 0 0.091648475725992606 0.00043976430509633273 0 0.093347677296912804 4.6383785705103453e-06 0 0.094960690844719323 1.4491821868477153e-07 0 0.094947025687976208 9.9845009805795658e-06 0 0.094962946017719679 -9.5478960184355336e-07 0 0.090078217047054168 0.00017663565932177637 0 0.089158283421013895 0.00016303106005996373 0 0.090814090540243947 0.00049574084097629906 0 0.089463685884084432 0.0014605570892963025 0 0.091648475725992606 0.00043976430509633273 0 0.088888892598268723 -0.00016773081632185383 0 0.090236890653282734 3.7474588592070754e-05 0 0.087449661706666654 -0.00085030084211540769 0 0.088766979463061974 -0.00072971784104670305 0 0.089678383798776698 -0.00028131220555597722 0 0.090078217047054168 0.00017663565932177637 0 0.090814090540243947 0.00049574084097629906 0 0.091989104968765847 0.00051381575369223778 0 0.088766979463061974 -0.00072971784104670305 0 0.089678383798776698 -0.00028131220555597722 0 0.090196061570527758 -0.00052849256778991359 0 0.090814090540243947 0.00049574084097629906 0 0.091989104968765847 0.00051381575369223778 0 0.092593698672186212 0.00052999388152239336 0 0.089678383798776698 -0.00028131220555597722 0 0.090196061570527758 -0.00052849256778991359 0 0.091806141472884517 -9.4954654386093814e-05 0 0.090196061570527758 -0.00052849256778991359 0 0.091644253207324666 -0.00026058102992161425 0 0.091806141472884517 -9.4954654386093814e-05 0 0.088766979463061974 -0.00072971784104670305 0 0.090196061570527758 -0.00052849256778991359 0 0.088838520137991053 -0.00083073087013874958 0 0.087639607292945856 -0.00089267786480546826 0 0.088766979463061974 -0.00072971784104670305 0 0.088838520137991053 -0.00083073087013874958 0 0.090196061570527758 -0.00052849256778991359 0 0.088838520137991053 -0.00083073087013874958 0 0.089954835445339873 -0.00071014225090212729 0 0.088838520137991053 -0.00083073087013874958 0 0.088703748519869688 -0.00093675845324496564 0 0.089954835445339873 -0.00071014225090212729 0 0.090196061570527758 -0.00052849256778991359 0 0.089954835445339873 -0.00071014225090212729 0 0.091644253207324666 -0.00026058102992161425 0 0.089954835445339873 -0.00071014225090212729 0 0.091644253207324666 -0.00026058102992161425 0 0.090441165011203112 -0.00088328582010932467 0 0.091644253207324666 -0.00026058102992161425 0 0.093217796354170379 9.5380981499268838e-06 0 0.092995346500611878 -0.00010198529733904337 0 0.091644253207324666 -0.00026058102992161425 0 0.093217796354170379 9.5380981499268838e-06 0 0.091806141472884517 -9.4954654386093814e-05 0 0.093217796354170379 9.5380981499268838e-06 0 0.094997410826414039 1.140602845428806e-07 0 0.092995346500611878 -0.00010198529733904337 0 0.093217796354170379 9.5380981499268838e-06 0 0.094997410826414039 1.140602845428806e-07 0 0.093855800059047909 0.00021850227643629481 0 0.094997410826414039 1.140602845428806e-07 0 0.093855800059047909 0.00021850227643629481 0 0.09499502805679079 3.7568310663523414e-07 0 0.093217796354170379 9.5380981499268838e-06 0 0.093855800059047909 0.00021850227643629481 0 0.091806141472884517 -9.4954654386093814e-05 0 0.089678383798776698 -0.00028131220555597722 0 0.093855800059047909 0.00021850227643629481 0 0.091806141472884517 -9.4954654386093814e-05 0 0.090236890653282734 3.7474588592070754e-05 0 0.091007194795733881 0.00021953600801841709 0 0.091989104968765847 0.00051381575369223778 0 0.093855800059047909 0.00021850227643629481 0 0.092593698672186212 0.00052999388152239336 0 0.094984397424889122 -6.5919949654877279e-07 0 0.095000004672142827 -2.4973282430469166e-09 0 0.094999970542368237 4.7887990387258438e-09 0 0.093855800059047909 0.00021850227643629481 0 0.092593698672186212 0.00052999388152239336 0 0.09499502805679079 3.7568310663523414e-07 0 0.093347677296912804 4.6383785705103453e-06 0 0.094996770798603414 1.1174651140356169e-07 0 0.094999972568494406 1.8214825488774204e-09 0 0.094986547021735937 3.107756436060606e-07 0 0.094989379854407974 2.2885361731926619e-06 0 0.09499998882054822 1.5726394692025571e-09 0 0.094986295751269989 2.8619085226863524e-06 0 0.094984397424889122 -6.5919949654877279e-07 0 0.094999970542368237 4.7887990387258438e-09 0 0.094978136871173444 -5.7918258184216168e-07 0 0.094962946017719679 -9.5478960184355336e-07 0 0.094984397424889122 -6.5919949654877279e-07 0 0.094978136871173444 -5.7918258184216168e-07 0 0.092779795857928254 -0.00061419214897710827 0 0.090441165011203112 -0.00088328582010932467 0 0.093420825041581668 -0.00010969707043588324 0 0.092779795857928254 -0.00061419214897710827 0 0.094036864824361882 -0.00019213590226071418 0 0.093158737654677401 -0.0010493882114292602 0 0.092779795857928254 -0.00061419214897710827 0 0.091740382761374528 -0.0014451503117507041 0 0.093158737654677401 -0.0010493882114292602 0 0.092325100076474889 -0.0019971125817918474 0 0.091740382761374528 -0.0014451503117507041 0 0.093158737654677401 -0.0010493882114292602 0 0.092779795857928254 -0.00061419214897710827 0 0.091740382761374528 -0.0014451503117507041 0 0.090441165011203112 -0.00088328582010932467 0 0.090380011040746486 -0.0019027500505960691 0 0.091740382761374528 -0.0014451503117507041 0 0.090441165011203112 -0.00088328582010932467 0 0.087597993564171583 -0.00098178251746566564 0 0.088703748519869688 -0.00093675845324496564 0 0.090441165011203112 -0.00088328582010932467 0 0.088703748519869688 -0.00093675845324496564 0 0.089954835445339873 -0.00071014225090212729 0 0.090441165011203112 -0.00088328582010932467 0 0.091644253207324666 -0.00026058102992161425 0 0.090441165011203112 -0.00088328582010932467 0 0.092995346500611878 -0.00010198529733904337 0 0.090441165011203112 -0.00088328582010932467 0 0.092995346500611878 -0.00010198529733904337 0 0.093420825041581668 -0.00010969707043588324 0 0.094997410826414039 1.140602845428806e-07 0 0.092995346500611878 -0.00010198529733904337 0 0.094997616729516135 3.9452143536498497e-08 0 0.092995346500611878 -0.00010198529733904337 0 0.094997616729516135 3.9452143536498497e-08 0 0.093420825041581668 -0.00010969707043588324 0 0.094997616729516135 3.9452143536498497e-08 0 0.093420825041581668 -0.00010969707043588324 0 0.094998443300991109 1.3770063048528352e-07 0 0.092779795857928254 -0.00061419214897710827 0 0.093420825041581668 -0.00010969707043588324 0 0.094036864824361882 -0.00019213590226071418 0 0.094998443300991109 1.3770063048528352e-07 0 0.094999202412849065 -2.6745269543194737e-08 0 0.094036864824361882 -0.00019213590226071418 0 0.093420825041581668 -0.00010969707043588324 0 0.094998443300991109 1.3770063048528352e-07 0 0.094036864824361882 -0.00019213590226071418 0 0.094999202412849065 -2.6745269543194737e-08 0 0.094653247647927402 -0.00015382498303845272 0 0.094036864824361882 -0.00019213590226071418 0 0.094999202412849065 -2.6745269543194737e-08 0 0.094653247647927402 -0.00015382498303845272 0 0.094999698413097911 -3.7046722050148941e-08 0 0.094653247647927402 -0.00015382498303845272 0 0.094660592813939043 -0.00044394199682600493 0 0.094102122250209586 -0.00064784958208829871 0 0.094653247647927402 -0.00015382498303845272 0 0.094036864824361882 -0.00019213590226071418 0 0.094102122250209586 -0.00064784958208829871 0 0.094999698413097911 -3.7046722050148941e-08 0 0.094941615388495576 -0.00013469496025920072 0 0.095000085579428045 -7.8797984379695009e-08 0 0.094653247647927402 -0.00015382498303845272 0 0.094999698413097911 -3.7046722050148941e-08 0 0.094941615388495576 -0.00013469496025920072 0 0.094653247647927402 -0.00015382498303845272 0 0.094941615388495576 -0.00013469496025920072 0 0.094660592813939043 -0.00044394199682600493 0 0.094941615388495576 -0.00013469496025920072 0 0.09504489715526078 -0.00045946877474039883 0 0.094660592813939043 -0.00044394199682600493 0 0.094630976906242364 -0.0006227931892025247 0 0.094576495622866116 -0.00074056227652967909 0 0.09504489715526078 -0.00045946877474039883 0 0.094660592813939043 -0.00044394199682600493 0 0.094566279186873825 -0.0010402898445073818 0 0.094660592813939043 -0.00044394199682600493 0 0.094566279186873825 -0.0010402898445073818 0 0.094102122250209586 -0.00064784958208829871 0 0.094566279186873825 -0.0010402898445073818 0 0.094102122250209586 -0.00064784958208829871 0 0.094465089921496104 -0.0011125389194554629 0 0.094566279186873825 -0.0010402898445073818 0 0.094465089921496104 -0.0011125389194554629 0 0.094423293115097492 -0.0010573270236793587 0 0.094566279186873825 -0.0010402898445073818 0 0.094423293115097492 -0.0010573270236793587 0 0.094263656923289724 -0.001176585662713177 0 0.094177734131534213 -0.0011012097744289985 0 0.094566279186873825 -0.0010402898445073818 0 0.094263656923289724 -0.001176585662713177 0 0.094036864824361882 -0.00019213590226071418 0 0.094102122250209586 -0.00064784958208829871 0 0.093158737654677401 -0.0010493882114292602 0 0.093679986528267409 -0.001340541122544418 0 0.093746846676587003 -0.0018848389174547305 0 0.094102122250209586 -0.00064784958208829871 0 0.093347875988755644 -0.0017169733090993079 0 0.093718844266937287 -0.0020210719394358929 0 0.094102122250209586 -0.00064784958208829871 0 0.093718844266937287 -0.0020210719394358929 0 0.094217318371475886 -0.00186539793947265 0 0.092325100076474889 -0.0019971125817918474 0 0.093158737654677401 -0.0010493882114292602 0 0.093347875988755644 -0.0017169733090993079 0 0.094102122250209586 -0.00064784958208829871 0 0.093158737654677401 -0.0010493882114292602 0 0.093347875988755644 -0.0017169733090993079 0 0.092325100076474889 -0.0019971125817918474 0 0.093347875988755644 -0.0017169733090993079 0 0.093017882215881045 -0.0024880287350609563 0 0.092325100076474889 -0.0019971125817918474 0 0.093017882215881045 -0.0024880287350609563 0 0.09226738022534263 -0.0028993316155826922 0 0.093017882215881045 -0.0024880287350609563 0 0.09226738022534263 -0.0028993316155826922 0 0.092772231939276015 -0.0034032121209792944 0 0.09226738022534263 -0.0028993316155826922 0 0.092772231939276015 -0.0034032121209792944 0 0.091863930468197019 -0.003765969991785393 0 0.092772231939276015 -0.0034032121209792944 0 0.093525627190906166 -0.0029586955110765317 0 0.093174416314455624 -0.004051860239114329 0 0.093525627190906166 -0.0029586955110765317 0 0.094067432142758492 -0.003373204391882577 0 0.093174416314455624 -0.004051860239114329 0 0.093017882215881045 -0.0024880287350609563 0 0.092772231939276015 -0.0034032121209792944 0 0.093525627190906166 -0.0029586955110765317 0 0.093525627190906166 -0.0029586955110765317 0 0.093718844266937287 -0.0020210719394358929 0 0.094128316949200361 -0.0027031357816884585 0 0.093017882215881045 -0.0024880287350609563 0 0.093525627190906166 -0.0029586955110765317 0 0.093718844266937287 -0.0020210719394358929 0 0.093347875988755644 -0.0017169733090993079 0 0.093017882215881045 -0.0024880287350609563 0 0.093718844266937287 -0.0020210719394358929 0 0.094217318371475886 -0.00186539793947265 0 0.094128316949200361 -0.0027031357816884585 0 0.095166664559300465 -0.0033003982404918859 0 0.093746846676587003 -0.0018848389174547305 0 0.093511211482920131 -0.0030743872726544754 0 0.093718844266937287 -0.0020210719394358929 0 0.094217318371475886 -0.00186539793947265 0 0.094128316949200361 -0.0027031357816884585 0 0.094423293115097492 -0.0010573270236793587 0 0.094415794762447894 -0.00092830826570338928 0 0.094249466501013943 -0.0010402370724256389 0 0.094465089921496104 -0.0011125389194554629 0 0.094423293115097492 -0.0010573270236793587 0 0.094415794762447894 -0.00092830826570338928 0 0.094128316949200361 -0.0027031357816884585 0 0.095166664559300465 -0.0033003982404918859 0 0.094067432142758492 -0.003373204391882577 0 0.095166664559300465 -0.0033003982404918859 0 0.094067432142758492 -0.003373204391882577 0 0.094324490718910012 -0.004154466347310988 0 0.093525627190906166 -0.0029586955110765317 0 0.094128316949200361 -0.0027031357816884585 0 0.094067432142758492 -0.003373204391882577 0 0.094067432142758492 -0.003373204391882577 0 0.094324490718910012 -0.004154466347310988 0 0.093174416314455624 -0.004051860239114329 0 0.094324490718910012 -0.004154466347310988 0 0.092914867257420916 -0.00502185665352828 0 0.093174416314455624 -0.004051860239114329 0 0.093192593359770468 -0.0037616351255027624 0 0.093074019199139532 -0.0039928116944149064 0 0.092191247573400512 -0.0050916542072761686 0 0.09218805559921929 -0.0050121766890188881 0 0.092246526837917661 -0.0047694816191073686 0 0.093511211482920131 -0.0030743872726544754 0 0.093419871390743411 -0.0034100499553697044 0 0.093511211482920131 -0.0030743872726544754 0 0.093192593359770468 -0.0037616351255027624 0 0.092191247573400512 -0.0050916542072761686 0 0.09232605043090826 -0.0051668009507753751 0 0.09218805559921929 -0.0050121766890188881 0 0.09232605043090826 -0.0051668009507753751 0 0.09218805559921929 -0.0050121766890188881 0 0.092180497013121268 -0.0051320787021594738 0 0.09218805559921929 -0.0050121766890188881 0 0.092029322687370754 -0.0051727531605780027 0 0.092246526837917661 -0.0047694816191073686 0 0.09218805559921929 -0.0050121766890188881 0 0.092180497013121268 -0.0051320787021594738 0 0.092029322687370754 -0.0051727531605780027 0 0.092180497013121268 -0.0051320787021594738 0 0.091950828034554996 -0.0052037921734082847 0 0.092357991292452341 -0.005137959180909187 0 0.091833583763681628 -0.005212498066250501 0 0.091950828034554996 -0.0052037921734082847 0 0.092029322687370754 -0.0051727531605780027 0 0.092180497013121268 -0.0051320787021594738 0 0.091950828034554996 -0.0052037921734082847 0 0.092029322687370754 -0.0051727531605780027 0 0.09232605043090826 -0.0051668009507753751 0 0.0925440128250411 -0.0050799001350836336 0 0.092914867257420916 -0.00502185665352828 0 0.09232605043090826 -0.0051668009507753751 0 0.092180497013121268 -0.0051320787021594738 0 0.0925440128250411 -0.0050799001350836336 0 0.092795481233482066 -0.0052282831552475442 0 0.0925440128250411 -0.0050799001350836336 0 0.092914867257420916 -0.00502185665352828 0 0.092180497013121268 -0.0051320787021594738 0 0.0925440128250411 -0.0050799001350836336 0 0.092357991292452341 -0.005137959180909187 0 0.092795481233482066 -0.0052282831552475442 0 0.0925440128250411 -0.0050799001350836336 0 0.092357991292452341 -0.005137959180909187 0 0.090792484736674922 -0.0048684097992019327 0 0.091148366445427301 -0.0050264655360711457 0 0.092795481233482066 -0.0052282831552475442 0 0.092914867257420916 -0.00502185665352828 0 0.092431297003329277 -0.0048622271896427913 0 0.092795481233482066 -0.0052282831552475442 0 0.092431297003329277 -0.0048622271896427913 0 0.09160250924347961 -0.0052928043306454467 0 0.091621781255312465 -0.0047305421617523935 0 0.092431297003329277 -0.0048622271896427913 0 0.09160250924347961 -0.0052928043306454467 0 0.091621781255312465 -0.0047305421617523935 0 0.092431297003329277 -0.0048622271896427913 0 0.092380585309436061 -0.0042433992181775473 0 0.091621781255312465 -0.0047305421617523935 0 0.091863930468197019 -0.003765969991785393 0 0.092380585309436061 -0.0042433992181775473 0 0.092772231939276015 -0.0034032121209792944 0 0.091863930468197019 -0.003765969991785393 0 0.092380585309436061 -0.0042433992181775473 0 0.092772231939276015 -0.0034032121209792944 0 0.092380585309436061 -0.0042433992181775473 0 0.093174416314455624 -0.004051860239114329 0 0.092914867257420916 -0.00502185665352828 0 0.092431297003329277 -0.0048622271896427913 0 0.093174416314455624 -0.004051860239114329 0 0.092431297003329277 -0.0048622271896427913 0 0.092380585309436061 -0.0042433992181775473 0 0.093174416314455624 -0.004051860239114329 0 0.094370392684356583 -0.0047317753658879342 0 0.094504945252464875 -0.0039937917026398985 0 0.095088092046706166 -0.0044230802603207608 0 0.094370392684356583 -0.0047317753658879342 0 0.094504945252464875 -0.0039937917026398985 0 0.093966599856563041 -0.0043533307994082998 0 0.094504945252464875 -0.0039937917026398985 0 0.093966599856563041 -0.0043533307994082998 0 0.093837964076119801 -0.0038327495398754931 0 0.094504945252464875 -0.0039937917026398985 0 0.095088092046706166 -0.0044230802603207608 0 0.095115352752073085 -0.0037247293774572434 0 0.09560863662762048 -0.0040900522257338763 0 0.095088092046706166 -0.0044230802603207608 0 0.095115352752073085 -0.0037247293774572434 0 0.09560863662762048 -0.0040900522257338763 0 0.095640356239191468 -0.0035120048272018326 0 0.096086974179970253 -0.0038542138253630201 0 0.09560863662762048 -0.0040900522257338763 0 0.095640356239191468 -0.0035120048272018326 0 0.095115352752073085 -0.0037247293774572434 0 0.09560863662762048 -0.0040900522257338763 0 0.095635151204263621 -0.0046708077495707673 0 0.096044769684406464 -0.0043589559446161963 0 0.09560863662762048 -0.0040900522257338763 0 0.095088092046706166 -0.0044230802603207608 0 0.095635151204263621 -0.0046708077495707673 0 0.087249984022118268 -0.0052896610953895628 0 0.087331766651052647 -0.0049380545003246193 0 0.095149730977569888 -0.0054069090006984401 0 0.095635151204263621 -0.0046708077495707673 0 0.096229788250731141 -0.0049658106698378269 0 0.095088092046706166 -0.0044230802603207608 0 0.095149730977569888 -0.0054069090006984401 0 0.095635151204263621 -0.0046708077495707673 0 0.094370392684356583 -0.0047317753658879342 0 0.095149730977569888 -0.0054069090006984401 0 0.093678649854209997 -0.0054749229978942231 0 0.087249984022118268 -0.0052896610953895628 0 0.091529026162517221 -0.0054689386828039172 0 0.092295144148702643 -0.0052857767912583209 0 0.092447537835743707 -0.0052022677659216065 0 0.092320939750858796 -0.0052042421050462646 0 0.094370392684356583 -0.0047317753658879342 0 0.095088092046706166 -0.0044230802603207608 0 0.095149730977569888 -0.0054069090006984401 0 0.092295144148702643 -0.0052857767912583209 0 0.092320939750858796 -0.0052042421050462646 0 0.092029322687370754 -0.0051727531605780027 0 0.094370392684356583 -0.0047317753658879342 0 0.093678649854209997 -0.0054749229978942231 0 0.093725975955251686 -0.0048121538002093281 0 0.093678649854209997 -0.0054749229978942231 0 0.093130045155847177 -0.005019717204370177 0 0.093725975955251686 -0.0048121538002093281 0 0.093130045155847177 -0.005019717204370177 0 0.092029322687370754 -0.0051727531605780027 0 0.092685421283811228 -0.0048949057834449137 0 0.091833583763681628 -0.005212498066250501 0 0.092295144148702643 -0.0052857767912583209 0 0.092029322687370754 -0.0051727531605780027 0 0.093678649854209997 -0.0054749229978942231 0 0.093130045155847177 -0.005019717204370177 0 0.092029322687370754 -0.0051727531605780027 0 0.091529026162517221 -0.0054689386828039172 0 0.092011972401422268 -0.0054496457070944953 0 0.092029322687370754 -0.0051727531605780027 0 0.092246526837917661 -0.0047694816191073686 0 0.092685421283811228 -0.0048949057834449137 0 0.091433378373906457 -0.0035394574775171441 0 0.092246526837917661 -0.0047694816191073686 0 0.092879587886267198 -0.0037286161958477518 0 0.092246526837917661 -0.0047694816191073686 0 0.092685421283811228 -0.0048949057834449137 0 0.093252827523443452 -0.0045104817555956245 0 0.092246526837917661 -0.0047694816191073686 0 0.093252827523443452 -0.0045104817555956245 0 0.092879587886267198 -0.0037286161958477518 0 0.093725975955251686 -0.0048121538002093281 0 0.093966599856563041 -0.0043533307994082998 0 0.093252827523443452 -0.0045104817555956245 0 0.094370392684356583 -0.0047317753658879342 0 0.093725975955251686 -0.0048121538002093281 0 0.093966599856563041 -0.0043533307994082998 0 0.093130045155847177 -0.005019717204370177 0 0.093725975955251686 -0.0048121538002093281 0 0.093252827523443452 -0.0045104817555956245 0 0.093130045155847177 -0.005019717204370177 0 0.092685421283811228 -0.0048949057834449137 0 0.093252827523443452 -0.0045104817555956245 0 0.093252827523443452 -0.0045104817555956245 0 0.093837964076119801 -0.0038327495398754931 0 0.092879587886267198 -0.0037286161958477518 0 0.093966599856563041 -0.0043533307994082998 0 0.093252827523443452 -0.0045104817555956245 0 0.093837964076119801 -0.0038327495398754931 0 0.093837964076119801 -0.0038327495398754931 0 0.093581552368583107 -0.003172329616628603 0 0.094592217131559922 -0.0032259271861898517 0 0.093581552368583107 -0.003172329616628603 0 0.094213646838717649 -0.0024626074668267707 0 0.094592217131559922 -0.0032259271861898517 0 0.093837964076119801 -0.0038327495398754931 0 0.093581552368583107 -0.003172329616628603 0 0.092879587886267198 -0.0037286161958477518 0 0.091433378373906457 -0.0035394574775171441 0 0.092879587886267198 -0.0037286161958477518 0 0.092657621778084648 -0.0024469150882416072 0 0.093581552368583107 -0.003172329616628603 0 0.092879587886267198 -0.0037286161958477518 0 0.092657621778084648 -0.0024469150882416072 0 0.093511211482920131 -0.0030743872726544754 0 0.093758872241028204 -0.0023634747365092329 0 0.094423293115097492 -0.0010573270236793587 0 0.094249466501013943 -0.0010402370724256389 0 0.094263656923289724 -0.001176585662713177 0 0.093581552368583107 -0.003172329616628603 0 0.092657621778084648 -0.0024469150882416072 0 0.094213646838717649 -0.0024626074668267707 0 0.092657621778084648 -0.0024469150882416072 0 0.094213646838717649 -0.0024626074668267707 0 0.094091954532437405 -0.0014180712270539996 0 0.093758872241028204 -0.0023634747365092329 0 0.093927640519358882 -0.0020786276580808381 0 0.094213646838717649 -0.0024626074668267707 0 0.09468526774254124 -0.0020081583222303395 0 0.094091954532437405 -0.0014180712270539996 0 0.094213646838717649 -0.0024626074668267707 0 0.094592217131559922 -0.0032259271861898517 0 0.095110653774879469 -0.0025774547193051405 0 0.09468526774254124 -0.0020081583222303395 0 0.095110653774879469 -0.0025774547193051405 0 0.095036430542454975 -0.0016034140352318767 0 0.094213646838717649 -0.0024626074668267707 0 0.09468526774254124 -0.0020081583222303395 0 0.095110653774879469 -0.0025774547193051405 0 0.094592217131559922 -0.0032259271861898517 0 0.09524671706891015 -0.0031756722093440673 0 0.095110653774879469 -0.0025774547193051405 0 0.094592217131559922 -0.0032259271861898517 0 0.095115352752073085 -0.0037247293774572434 0 0.09524671706891015 -0.0031756722093440673 0 0.094504945252464875 -0.0039937917026398985 0 0.094592217131559922 -0.0032259271861898517 0 0.095115352752073085 -0.0037247293774572434 0 0.094504945252464875 -0.0039937917026398985 0 0.093837964076119801 -0.0038327495398754931 0 0.094592217131559922 -0.0032259271861898517 0 0.095640356239191468 -0.0035120048272018326 0 0.095115352752073085 -0.0037247293774572434 0 0.09524671706891015 -0.0031756722093440673 0 0.09524671706891015 -0.0031756722093440673 0 0.095736592943603024 -0.0028563398589092066 0 0.095110653774879469 -0.0025774547193051405 0 0.095640356239191468 -0.0035120048272018326 0 0.09524671706891015 -0.0031756722093440673 0 0.095736592943603024 -0.0028563398589092066 0 0.095736592943603024 -0.0028563398589092066 0 0.095110653774879469 -0.0025774547193051405 0 0.095847616899022686 -0.0020307835393632077 0 0.095110653774879469 -0.0025774547193051405 0 0.095036430542454975 -0.0016034140352318767 0 0.095847616899022686 -0.0020307835393632077 0 0.095533263879179445 -0.0014118714620861409 0 0.095036430542454975 -0.0016034140352318767 0 0.095847616899022686 -0.0020307835393632077 0 0.095533263879179445 -0.0014118714620861409 0 0.095036430542454975 -0.0016034140352318767 0 0.094951428542945568 -0.0011062074944944288 0 0.09468526774254124 -0.0020081583222303395 0 0.094566989510003835 -0.0012809981501354015 0 0.095036430542454975 -0.0016034140352318767 0 0.09468526774254124 -0.0020081583222303395 0 0.094566989510003835 -0.0012809981501354015 0 0.094091954532437405 -0.0014180712270539996 0 0.094566989510003835 -0.0012809981501354015 0 0.095036430542454975 -0.0016034140352318767 0 0.094951428542945568 -0.0011062074944944288 0 0.094566989510003835 -0.0012809981501354015 0 0.094951428542945568 -0.0011062074944944288 0 0.094717536992449336 -0.00089571792581733369 0 0.094951428542945568 -0.0011062074944944288 0 0.094717536992449336 -0.00089571792581733369 0 0.095048236142196915 -0.00069280323355859377 0 0.094951428542945568 -0.0011062074944944288 0 0.095361900058867383 -0.00098517262793871479 0 0.095048236142196915 -0.00069280323355859377 0 0.095361900058867383 -0.00098517262793871479 0 0.095338680262576414 -0.00064738952858908012 0 0.096074216405858795 -0.0012122952210359098 0 0.095361900058867383 -0.00098517262793871479 0 0.095338680262576414 -0.00064738952858908012 0 0.095048236142196915 -0.00069280323355859377 0 0.095533263879179445 -0.0014118714620861409 0 0.095361900058867383 -0.00098517262793871479 0 0.096074216405858795 -0.0012122952210359098 0 0.095533263879179445 -0.0014118714620861409 0 0.094951428542945568 -0.0011062074944944288 0 0.095361900058867383 -0.00098517262793871479 0 0.094249466501013943 -0.0010402370724256389 0 0.094263656923289724 -0.001176585662713177 0 0.094091954532437405 -0.0014180712270539996 0 0.094263656923289724 -0.001176585662713177 0 0.094091954532437405 -0.0014180712270539996 0 0.094285851203472729 -0.0010822579953201272 0 0.094566989510003835 -0.0012809981501354015 0 0.094091954532437405 -0.0014180712270539996 0 0.094285851203472729 -0.0010822579953201272 0 0.094566989510003835 -0.0012809981501354015 0 0.094717536992449336 -0.00089571792581733369 0 0.094285851203472729 -0.0010822579953201272 0 0.094717536992449336 -0.00089571792581733369 0 0.094285851203472729 -0.0010822579953201272 0 0.09459797744788366 -0.00062720293873979357 0 0.094177734131534213 -0.0011012097744289985 0 0.094263656923289724 -0.001176585662713177 0 0.094285851203472729 -0.0010822579953201272 0 0.094941615388495576 -0.00013469496025920072 0 0.09504489715526078 -0.00045946877474039883 0 0.095087692745430441 -0.00011863232937251796 0 0.094177734131534213 -0.0011012097744289985 0 0.094285851203472729 -0.0010822579953201272 0 0.094285187322299277 -0.00054810964436800228 0 0.094630976906242364 -0.0006227931892025247 0 0.094764723971693374 -0.00035828750437516549 0 0.094285851203472729 -0.0010822579953201272 0 0.094285187322299277 -0.00054810964436800228 0 0.09459797744788366 -0.00062720293873979357 0 0.094764723971693374 -0.00035828750437516549 0 0.094999726743971336 -4.7412177497959889e-07 0 0.095087692745430441 -0.00011863232937251796 0 0.09500012922291047 -1.7259358550899711e-08 0 0.095000085579428045 -7.8797984379695009e-08 0 0.094285187322299277 -0.00054810964436800228 0 0.09459797744788366 -0.00062720293873979357 0 0.094998565167227073 1.8666315038162625e-09 0 0.094941615388495576 -0.00013469496025920072 0 0.095087692745430441 -0.00011863232937251796 0 0.095000085579428045 -7.8797984379695009e-08 0 0.095487176823284031 -0.0003183043390736318 0 0.095338680262576414 -0.00064738952858908012 0 0.096074216405858795 -0.0012122952210359098 0 0.095102159587752866 -0.00040121336618975249 0 0.095320841463891096 -0.00036479290508501785 0 0.095338680262576414 -0.00064738952858908012 0 0.095320841463891096 -0.00036479290508501785 0 0.095406229037205442 -0.00033979623798125608 0 0.095057124723099518 -0.00018211781152069077 0 0.095102159587752866 -0.00040121336618975249 0 0.095320841463891096 -0.00036479290508501785 0 0.095057124723099518 -0.00018211781152069077 0 0.095320841463891096 -0.00036479290508501785 0 0.095487176823284031 -0.0003183043390736318 0 0.095338680262576414 -0.00064738952858908012 0 0.095162959694235424 -0.00021221907167034512 0 0.095157602441601291 -0.00021196929835167375 0 0.095102159587752866 -0.00040121336618975249 0 0.095338680262576414 -0.00064738952858908012 0 0.095048236142196915 -0.00069280323355859377 0 0.094717536992449336 -0.00089571792581733369 0 0.095048236142196915 -0.00069280323355859377 0 0.094915032813744568 -0.00042467937073833545 0 0.094717536992449336 -0.00089571792581733369 0 0.09459797744788366 -0.00062720293873979357 0 0.094915032813744568 -0.00042467937073833545 0 0.095102159587752866 -0.00040121336618975249 0 0.095048236142196915 -0.00069280323355859377 0 0.094915032813744568 -0.00042467937073833545 0 0.095102159587752866 -0.00040121336618975249 0 0.094915032813744568 -0.00042467937073833545 0 0.095057124723099518 -0.00018211781152069077 0 0.094998565167227073 1.8666315038162625e-09 0 0.095001246585688523 -1.9060014598408992e-07 0 0.095057124723099518 -0.00018211781152069077 0 0.09459797744788366 -0.00062720293873979357 0 0.094998565167227073 1.8666315038162625e-09 0 0.094915032813744568 -0.00042467937073833545 0 0.094998565167227073 1.8666315038162625e-09 0 0.094915032813744568 -0.00042467937073833545 0 0.095057124723099518 -0.00018211781152069077 0 0.095406229037205442 -0.00033979623798125608 0 0.095001246585688523 -1.9060014598408992e-07 0 0.095057124723099518 -0.00018211781152069077 0 0.095157602441601291 -0.00021196929835167375 0 0.095000310923625833 -2.8877286982731385e-07 0 0.095000289731677151 -3.4370530271164691e-07 0 0.094999999985606834 -1.9191316185587548e-10 0 0.095000001277430496 -1.9655060449675597e-10 0 0.095000289731677151 -3.4370530271164691e-07 0 0.095000001277430496 -1.9655060449675597e-10 0 0.095000141339639757 -1.1453070217466643e-07 0 0.095157602441601291 -0.00021196929835167375 0 0.095066655002977007 -0.00010290514680051495 0 0.095074283481071484 3.5128867785959448e-07 0 0.09507145896765716 2.6352161832774191e-06 0 0.095071692729494992 -8.7994396662035486e-09 0 0.095074283481071484 3.5128867785959448e-07 0 0.09507145896765716 2.6352161832774191e-06 0 0.095073086782156507 -9.2039965446111142e-07 0 0.09507145896765716 2.6352161832774191e-06 0 0.095073086782156507 -9.2039965446111142e-07 0 0.095066914284993698 7.246105736032928e-06 0 0.095000001277430496 -1.9655060449675597e-10 0 0.095000141339639757 -1.1453070217466643e-07 0 0.094999997043515069 3.9083539325653986e-12 0 0.095073086782156507 -9.2039965446111142e-07 0 0.095049185230145106 -8.3483880014919961e-06 0 0.095052967733747926 4.5443542573383944e-06 0 0.095066655002977007 -0.00010290514680051495 0 0.095037504158716493 -5.5593952945666897e-05 0 0.095000141339639757 -1.1453070217466643e-07 0 0.094999997043515069 3.9083539325653986e-12 0 0.094999688240371763 4.1809674839299156e-08 0 0.094999997043515069 3.9083539325653986e-12 0 0.094999688240371763 4.1809674839299156e-08 0 0.095000008082826062 -6.1147640930145701e-10 0 0.095049185230145106 -8.3483880014919961e-06 0 0.095032323131232152 4.6495814141693558e-06 0 0.095052967733747926 4.5443542573383944e-06 0 0.095052967733747926 4.5443542573383944e-06 0 0.095037607342800506 2.1832929204959407e-05 0 0.095066914284993698 7.246105736032928e-06 0 0.095874365611322981 -0.00028795702829036255 0 0.095482739876613432 -0.00020620474479829566 0 0.095032323131232152 4.6495814141693558e-06 0 0.095052967733747926 4.5443542573383944e-06 0 0.095037607342800506 2.1832929204959407e-05 0 0.095073086782156507 -9.2039965446111142e-07 0 0.095052967733747926 4.5443542573383944e-06 0 0.095066914284993698 7.246105736032928e-06 0 0.09507145896765716 2.6352161832774191e-06 0 0.095066914284993698 7.246105736032928e-06 0 0.095071345687425104 -4.1024740783447423e-07 0 0.095077797615027423 5.5528022236820764e-06 0 0.095066914284993698 7.246105736032928e-06 0 0.095071345687425104 -4.1024740783447423e-07 0 0.095874365611322981 -0.00028795702829036255 0 0.096060704739199865 -0.00083333796801779957 0 0.098470850848671534 -0.0011302659431979664 0 0.098276600550960075 -0.0023442760324245532 0 0.097635983750804331 -0.0019392737905793609 0 0.098276600550960075 -0.0023442760324245532 0 0.097635983750804331 -0.0019392737905793609 0 0.097774999597308024 -0.0029680194353234571 0 0.09507145896765716 2.6352161832774191e-06 0 0.095071345687425104 -4.1024740783447423e-07 0 0.095071692729494992 -8.7994396662035486e-09 0 0.096060704739199865 -0.00083333796801779957 0 0.09566261221584256 -0.0016147793319520277 0 0.095071345687425104 -4.1024740783447423e-07 0 0.095071692729494992 -8.7994396662035486e-09 0 0.095072492556032978 -5.7629129571608861e-06 0 0.095434511331539865 -0.0007904896616283926 0 0.09566261221584256 -0.0016147793319520277 0 0.095533263879179445 -0.0014118714620861409 0 0.095847616899022686 -0.0020307835393632077 0 0.096074216405858795 -0.0012122952210359098 0 0.095847616899022686 -0.0020307835393632077 0 0.096074216405858795 -0.0012122952210359098 0 0.096726221335301218 -0.0025220428687216345 0 0.095157602441601291 -0.00021196929835167375 0 0.095434511331539865 -0.0007904896616283926 0 0.09493773613521414 -1.3049976270843433e-05 0 0.09491139855411064 -2.3935818300286117e-05 0 0.094957951163916685 -5.1673092490089663e-06 0 0.09491139855411064 -2.3935818300286117e-05 0 0.094957951163916685 -5.1673092490089663e-06 0 0.094955564987807856 -1.7708923652629672e-05 0 0.094957951163916685 -5.1673092490089663e-06 0 0.094978005561350415 -5.7315660964456877e-06 0 0.094955564987807856 -1.7708923652629672e-05 0 0.094999961566507585 -1.0470328825195074e-08 0 0.094978005561350415 -5.7315660964456877e-06 0 0.094999976104848255 1.3454266930393552e-08 0 0.094957951163916685 -5.1673092490089663e-06 0 0.094978005561350415 -5.7315660964456877e-06 0 0.094999976104848255 1.3454266930393552e-08 0 0.094999961566507585 -1.0470328825195074e-08 0 0.094978005561350415 -5.7315660964456877e-06 0 0.094984965165399032 -1.0685267001676746e-05 0 0.094978005561350415 -5.7315660964456877e-06 0 0.094984965165399032 -1.0685267001676746e-05 0 0.094955564987807856 -1.7708923652629672e-05 0 0.094999961566507585 -1.0470328825195074e-08 0 0.094984965165399032 -1.0685267001676746e-05 0 0.0949999432525344 -2.3035761517717488e-08 0 0.094982506254294843 -1.2113634064753985e-05 0 0.094990202799683038 2.9376100297163289e-06 0 0.09495493438733027 3.649473259136319e-06 0 0.094984965165399032 -1.0685267001676746e-05 0 0.094955564987807856 -1.7708923652629672e-05 0 0.094982506254294843 -1.2113634064753985e-05 0 0.09491139855411064 -2.3935818300286117e-05 0 0.094955564987807856 -1.7708923652629672e-05 0 0.09495493438733027 3.649473259136319e-06 0 0.094955564987807856 -1.7708923652629672e-05 0 0.094982506254294843 -1.2113634064753985e-05 0 0.09495493438733027 3.649473259136319e-06 0 0.094984965165399032 -1.0685267001676746e-05 0 0.094982506254294843 -1.2113634064753985e-05 0 0.09498648780595835 -1.2078037507742943e-05 0 0.094982506254294843 -1.2113634064753985e-05 0 0.09498648780595835 -1.2078037507742943e-05 0 0.09498445884708985 -1.0428375571280028e-05 0 0.095273824238615148 -0.00071118465122028463 0 0.095252962831990556 -0.00081251093557323988 0 0.095000003266043798 -1.0908309296365992e-08 0 0.09500133057273473 -1.0906040969517976e-06 0 0.095000008082826062 -6.1147640930145701e-10 0 0.094984965165399032 -1.0685267001676746e-05 0 0.0949999432525344 -2.3035761517717488e-08 0 0.09498648780595835 -1.2078037507742943e-05 0 0.095000596543066071 -4.760166740548393e-07 0 0.095317059495623732 -0.000170042420896943 0 0.095000003266043798 -1.0908309296365992e-08 0 0.09500133057273473 -1.0906040969517976e-06 0 0.09500944867633597 6.0087780239418739e-06 0 0.095037504158716493 -5.5593952945666897e-05 0 0.095025795314200148 -4.2841851741248012e-05 0 0.095032323131232152 4.6495814141693558e-06 0 0.09500133057273473 -1.0906040969517976e-06 0 0.09500944867633597 6.0087780239418739e-06 0 0.095049185230145106 -8.3483880014919961e-06 0 0.095032323131232152 4.6495814141693558e-06 0 0.09500133057273473 -1.0906040969517976e-06 0 0.094999688240371763 4.1809674839299156e-08 0 0.09500133057273473 -1.0906040969517976e-06 0 0.095000008082826062 -6.1147640930145701e-10 0 0.095874365611322981 -0.00028795702829036255 0 0.095317059495623732 -0.000170042420896943 0 0.094991014572527219 -1.0731038717401414e-05 0 0.09498648780595835 -1.2078037507742943e-05 0 0.09498445884708985 -1.0428375571280028e-05 0 0.095032323131232152 4.6495814141693558e-06 0 0.095037607342800506 2.1832929204959407e-05 0 0.09500944867633597 6.0087780239418739e-06 0 0.095874365611322981 -0.00028795702829036255 0 0.095252962831990556 -0.00081251093557323988 0 0.098470850848671534 -0.0011302659431979664 0 0.099007395565835377 -0.0022284271364121843 0 0.099486185338091129 -0.0012705760539755144 0 0.098470850848671534 -0.0011302659431979664 0 0.098276600550960075 -0.0023442760324245532 0 0.099007395565835377 -0.0022284271364121843 0 0.093083356300343784 -0.00075227453329894346 0 0.093471368999588689 5.2032662433270116e-05 0 0.09371855986366362 -0.00055617126032606588 0 0.093083356300343784 -0.00075227453329894346 0 0.09371855986366362 -0.00055617126032606588 0 0.093873980665802242 -0.0011854019824634695 0 0.094644933756005439 -0.0010289562639581036 0 0.095252962831990556 -0.00081251093557323988 0 0.093471368999588689 5.2032662433270116e-05 0 0.09405457678588347 5.1179813314037875e-06 0 0.09371855986366362 -0.00055617126032606588 0 0.095252962831990556 -0.00081251093557323988 0 0.094829131609324366 -0.00057231610366970727 0 0.09405457678588347 5.1179813314037875e-06 0 0.09371855986366362 -0.00055617126032606588 0 0.094260108230402928 -0.00077954165634626274 0 0.09371855986366362 -0.00055617126032606588 0 0.094260108230402928 -0.00077954165634626274 0 0.093873980665802242 -0.0011854019824634695 0 0.094260108230402928 -0.00077954165634626274 0 0.094532103947671878 -0.00051776252325822078 0 0.094525465853428622 -0.00067626316621478355 0 0.094260108230402928 -0.00077954165634626274 0 0.094422881324513347 -0.0011416348453037147 0 0.094522980727623593 -0.00083366345242388395 0 0.094260108230402928 -0.00077954165634626274 0 0.094525465853428622 -0.00067626316621478355 0 0.094522980727623593 -0.00083366345242388395 0 0.094260108230402928 -0.00077954165634626274 0 0.09481133969305279 -5.9839219273697236e-05 0 0.094977744408529019 -5.069878268077501e-05 0 0.094829131609324366 -0.00057231610366970727 0 0.09478496595878913 -0.00051055763952830686 0 0.09405457678588347 5.1179813314037875e-06 0 0.094260108230402928 -0.00077954165634626274 0 0.09481133969305279 -5.9839219273697236e-05 0 0.094567318130423794 -0.00049507164398296681 0 0.094708240344917968 -0.00033123416955515726 0 0.09491139855411064 -2.3935818300286117e-05 0 0.09495493438733027 3.649473259136319e-06 0 0.09481133969305279 -5.9839219273697236e-05 0 0.09493773613521414 -1.3049976270843433e-05 0 0.09481133969305279 -5.9839219273697236e-05 0 0.094977744408529019 -5.069878268077501e-05 0 0.09493773613521414 -1.3049976270843433e-05 0 0.09491139855411064 -2.3935818300286117e-05 0 0.09481133969305279 -5.9839219273697236e-05 0 0.094260108230402928 -0.00077954165634626274 0 0.094422881324513347 -0.0011416348453037147 0 0.093873980665802242 -0.0011854019824634695 0 0.094377963693090566 -0.0015820213315519765 0 0.094422881324513347 -0.0011416348453037147 0 0.093873980665802242 -0.0011854019824634695 0 0.085250187853681075 -0.0020854806730044965 0 0.084334039815957967 -0.0030009523892001468 0 0.094377963693090566 -0.0015820213315519765 0 0.093873980665802242 -0.0011854019824634695 0 0.093744213961971648 -0.001834931041229296 0 0.093873980665802242 -0.0011854019824634695 0 0.093285868193688976 -0.0014647969433852449 0 0.093744213961971648 -0.001834931041229296 0 0.093285868193688976 -0.0014647969433852449 0 0.093017523158765728 -0.0020669924174400449 0 0.093744213961971648 -0.001834931041229296 0 0.093083356300343784 -0.00075227453329894346 0 0.093873980665802242 -0.0011854019824634695 0 0.093285868193688976 -0.0014647969433852449 0 0.094644933756005439 -0.0010289562639581036 0 0.092746495917440649 -0.0016231476843096867 0 0.098276600550960075 -0.0023442760324245532 0 0.099007395565835377 -0.0022284271364121843 0 0.098540409497178641 -0.0032200126756675696 0 0.093083356300343784 -0.00075227453329894346 0 0.093285868193688976 -0.0014647969433852449 0 0.092682243870606668 -0.0014869621432143203 0 0.093285868193688976 -0.0014647969433852449 0 0.093017523158765728 -0.0020669924174400449 0 0.092682243870606668 -0.0014869621432143203 0 0.07409459949702607 -0.0055552400264602588 0 0.075185700467823982 -0.0053377027950678333 0 0.074519209183462165 -0.0045832678379602127 0 0.07409459949702607 -0.0055552400264602588 0 0.073330415229608786 -0.004669264501522153 0 0.074519209183462165 -0.0045832678379602127 0 0.07409459949702607 -0.0055552400264602588 0 0.073330415229608786 -0.004669264501522153 0 0.072765145232495082 -0.0047805077843522314 0 0.084803363346346528 -0.0036098194250716122 0 0.084334039815957967 -0.0030009523892001468 0 0.072765145232495082 -0.0047805077843522314 0 0.072849081900242557 -0.0047104443481083723 0 0.073123190900782523 -0.0040722022304227386 0 0.073330415229608786 -0.004669264501522153 0 0.072765145232495082 -0.0047805077843522314 0 0.072849081900242557 -0.0047104443481083723 0 0.073330415229608786 -0.004669264501522153 0 0.072849081900242557 -0.0047104443481083723 0 0.072915767733534906 -0.0046701332498066492 0 0.072849081900242557 -0.0047104443481083723 0 0.072915767733534906 -0.0046701332498066492 0 0.07287864013712203 -0.0050490340144210329 0 0.072849081900242557 -0.0047104443481083723 0 0.07287864013712203 -0.0050490340144210329 0 0.073664425309418108 -0.0053009997801393548 0 0.072849081900242557 -0.0047104443481083723 0 0.073123190900782523 -0.0040722022304227386 0 0.073664425309418108 -0.0053009997801393548 0 0.073275757136148825 -0.0022103324062918658 0 0.073123190900782523 -0.0040722022304227386 0 0.075862660796235645 -0.0027903633779250447 0 0.073275757136148825 -0.0022103324062918658 0 0.072765145232495082 -0.0047805077843522314 0 0.073123190900782523 -0.0040722022304227386 0 0.096913964122145743 -0.0030928951859690267 0 0.09719372590085773 -0.0033900524292510476 0 0.096741221662601559 -0.003407030729317482 0 0.096913964122145743 -0.0030928951859690267 0 0.096741221662601559 -0.003407030729317482 0 0.09659787528004625 -0.0030974961715685982 0 0.096913964122145743 -0.0030928951859690267 0 0.09659787528004625 -0.0030974961715685982 0 0.096537752929485257 -0.0027436614857748762 0 0.096913964122145743 -0.0030928951859690267 0 0.09719372590085773 -0.0033900524292510476 0 0.097258060288897219 -0.0028244845623940753 0 0.09719372590085773 -0.0033900524292510476 0 0.096805751654264444 -0.0038132583840350411 0 0.097215480592956607 -0.0040315081325515709 0 0.09719372590085773 -0.0033900524292510476 0 0.096741221662601559 -0.003407030729317482 0 0.096805751654264444 -0.0038132583840350411 0 0.096741221662601559 -0.003407030729317482 0 0.096455108074814083 -0.0036728318281822243 0 0.096805751654264444 -0.0038132583840350411 0 0.096455108074814083 -0.0036728318281822243 0 0.096100276277083313 -0.0033747128124857759 0 0.096422949124681384 -0.0033117806952487091 0 0.096741221662601559 -0.003407030729317482 0 0.096455108074814083 -0.0036728318281822243 0 0.096422949124681384 -0.0033117806952487091 0 0.095640356239191468 -0.0035120048272018326 0 0.096100276277083313 -0.0033747128124857759 0 0.096086974179970253 -0.0038542138253630201 0 0.096455108074814083 -0.0036728318281822243 0 0.096100276277083313 -0.0033747128124857759 0 0.096086974179970253 -0.0038542138253630201 0 0.095640356239191468 -0.0035120048272018326 0 0.095736592943603024 -0.0028563398589092066 0 0.096100276277083313 -0.0033747128124857759 0 0.095736592943603024 -0.0028563398589092066 0 0.096100276277083313 -0.0033747128124857759 0 0.096229920758395551 -0.0029618729881217636 0 0.096741221662601559 -0.003407030729317482 0 0.096422949124681384 -0.0033117806952487091 0 0.09659787528004625 -0.0030974961715685982 0 0.096100276277083313 -0.0033747128124857759 0 0.096422949124681384 -0.0033117806952487091 0 0.096229920758395551 -0.0029618729881217636 0 0.096422949124681384 -0.0033117806952487091 0 0.096229920758395551 -0.0029618729881217636 0 0.09659787528004625 -0.0030974961715685982 0 0.096537752929485257 -0.0027436614857748762 0 0.096185294580614256 -0.0025740383043132403 0 0.096726221335301218 -0.0025220428687216345 0 0.095847616899022686 -0.0020307835393632077 0 0.096185294580614256 -0.0025740383043132403 0 0.096726221335301218 -0.0025220428687216345 0 0.096229920758395551 -0.0029618729881217636 0 0.09659787528004625 -0.0030974961715685982 0 0.096537752929485257 -0.0027436614857748762 0 0.095736592943603024 -0.0028563398589092066 0 0.095847616899022686 -0.0020307835393632077 0 0.096185294580614256 -0.0025740383043132403 0 0.096229920758395551 -0.0029618729881217636 0 0.096537752929485257 -0.0027436614857748762 0 0.096185294580614256 -0.0025740383043132403 0 0.095736592943603024 -0.0028563398589092066 0 0.096229920758395551 -0.0029618729881217636 0 0.096185294580614256 -0.0025740383043132403 0 0.097635983750804331 -0.0019392737905793609 0 0.096781967835601182 -0.0027538613524462729 0 0.097258060288897219 -0.0028244845623940753 0 0.096913964122145743 -0.0030928951859690267 0 0.096781967835601182 -0.0027538613524462729 0 0.097258060288897219 -0.0028244845623940753 0 0.096913964122145743 -0.0030928951859690267 0 0.096537752929485257 -0.0027436614857748762 0 0.096746211312505548 -0.0025405901019973521 0 0.095765023556400056 -0.0018133614433038941 0 0.09566261221584256 -0.0016147793319520277 0 0.095670386813420938 -0.0016286739189768982 0 0.09566261221584256 -0.0016147793319520277 0 0.097635983750804331 -0.0019392737905793609 0 0.097258060288897219 -0.0028244845623940753 0 0.097774999597308024 -0.0029680194353234571 0 0.09719372590085773 -0.0033900524292510476 0 0.097258060288897219 -0.0028244845623940753 0 0.097774999597308024 -0.0029680194353234571 0 0.098276600550960075 -0.0023442760324245532 0 0.097774999597308024 -0.0029680194353234571 0 0.098540409497178641 -0.0032200126756675696 0 0.098540409497178641 -0.0032200126756675696 0 0.097984975705335625 -0.003534564251814875 0 0.098050754464022519 -0.0042927186516568145 0 0.097774999597308024 -0.0029680194353234571 0 0.098540409497178641 -0.0032200126756675696 0 0.097984975705335625 -0.003534564251814875 0 0.09719372590085773 -0.0033900524292510476 0 0.097774999597308024 -0.0029680194353234571 0 0.097575366270858416 -0.0036640242119883098 0 0.097774999597308024 -0.0029680194353234571 0 0.097984975705335625 -0.003534564251814875 0 0.097575366270858416 -0.0036640242119883098 0 0.09719372590085773 -0.0033900524292510476 0 0.097575366270858416 -0.0036640242119883098 0 0.097215480592956607 -0.0040315081325515709 0 0.097984975705335625 -0.003534564251814875 0 0.097575366270858416 -0.0036640242119883098 0 0.098050754464022519 -0.0042927186516568145 0 0.097575366270858416 -0.0036640242119883098 0 0.098050754464022519 -0.0042927186516568145 0 0.097215480592956607 -0.0040315081325515709 0 0.087951094931018922 -0.0036227230355302853 0 0.087368869240407862 -0.0044751507789729129 0 0.098050754464022519 -0.0042927186516568145 0 0.097179971404844898 -0.0045871529517068181 0 0.097215480592956607 -0.0040315081325515709 0 0.07409459949702607 -0.0055552400264602588 0 0.075766046843460458 -0.0058738985289847707 0 0.075185700467823982 -0.0053377027950678333 0 0.092746495917440649 -0.0016231476843096867 0 0.087951094931018922 -0.0036227230355302853 0 0.084803363346346528 -0.0036098194250716122 0 0.087951094931018922 -0.0036227230355302853 0 0.093017523158765728 -0.0020669924174400449 0 0.092682243870606668 -0.0014869621432143203 0 0.092259201197060048 -0.0022693167550420141 0 0.087951094931018922 -0.0036227230355302853 0 0.087694762687937133 -0.003869156492772456 0 0.075185700467823982 -0.0053377027950678333 0 0.075712987250717165 -0.0050413349738121331 0 0.074519209183462165 -0.0045832678379602127 0 0.075185700467823982 -0.0053377027950678333 0 0.075712987250717165 -0.0050413349738121331 0 0.07598200873810336 -0.0056567597906978422 0 0.075766046843460458 -0.0058738985289847707 0 0.075185700467823982 -0.0053377027950678333 0 0.07598200873810336 -0.0056567597906978422 0 0.075814775462613726 -0.0059656883880017369 0 0.07598200873810336 -0.0056567597906978422 0 0.077224024060382909 -0.005790907048083137 0 0.076618331244237642 -0.0054349504943526509 0 0.07598200873810336 -0.0056567597906978422 0 0.077224024060382909 -0.005790907048083137 0 0.075712987250717165 -0.0050413349738121331 0 0.076618331244237642 -0.0054349504943526509 0 0.07598200873810336 -0.0056567597906978422 0 0.075712987250717165 -0.0050413349738121331 0 0.076618331244237642 -0.0054349504943526509 0 0.07644828238938578 -0.0049481026946734397 0 0.087368869240407862 -0.0044751507789729129 0 0.087331766651052647 -0.0049380545003246193 0 0.076618331244237642 -0.0054349504943526509 0 0.078179356964929544 -0.0049484272120789274 0 0.07644828238938578 -0.0049481026946734397 0 0.076618331244237642 -0.0054349504943526509 0 0.077224024060382909 -0.005790907048083137 0 0.078179356964929544 -0.0049484272120789274 0 0.077224024060382909 -0.005790907048083137 0 0.078179356964929544 -0.0049484272120789274 0 0.078658875475132714 -0.0055078388444897508 0 0.097179971404844898 -0.0045871529517068181 0 0.096547287022427986 -0.0042603162776517324 0 0.096229788250731141 -0.0049658106698378269 0 0.097179971404844898 -0.0045871529517068181 0 0.097215480592956607 -0.0040315081325515709 0 0.096547287022427986 -0.0042603162776517324 0 0.096805751654264444 -0.0038132583840350411 0 0.097215480592956607 -0.0040315081325515709 0 0.096547287022427986 -0.0042603162776517324 0 0.096455108074814083 -0.0036728318281822243 0 0.096805751654264444 -0.0038132583840350411 0 0.096547287022427986 -0.0042603162776517324 0 0.09560863662762048 -0.0040900522257338763 0 0.096086974179970253 -0.0038542138253630201 0 0.096044769684406464 -0.0043589559446161963 0 0.096455108074814083 -0.0036728318281822243 0 0.096086974179970253 -0.0038542138253630201 0 0.096547287022427986 -0.0042603162776517324 0 0.096086974179970253 -0.0038542138253630201 0 0.096547287022427986 -0.0042603162776517324 0 0.096044769684406464 -0.0043589559446161963 0 0.096547287022427986 -0.0042603162776517324 0 0.096044769684406464 -0.0043589559446161963 0 0.096229788250731141 -0.0049658106698378269 0 0.095635151204263621 -0.0046708077495707673 0 0.096044769684406464 -0.0043589559446161963 0 0.096229788250731141 -0.0049658106698378269 0 0.087249984022118268 -0.0052896610953895628 0 0.080245502669606686 -0.0050607302212865128 0 0.080274457859188825 -0.005109556789219114 0 0.078179356964929544 -0.0049484272120789274 0 0.078658875475132714 -0.0055078388444897508 0 0.079065426256680837 -0.0059524347282857134 0 0.080335170144431131 -0.0051691363988876481 0 0.079105175996103907 -0.0042231939428772113 0 0.081851149722493396 -0.0066114691354791245 0 0.079065426256680837 -0.0059524347282857134 0 0.080335170144431131 -0.0051691363988876481 0 0.080335170144431131 -0.0051691363988876481 0 0.080201814684899578 -0.004024152689482227 0 0.079105175996103907 -0.0042231939428772113 0 0.080245502669606686 -0.0050607302212865128 0 0.078397026499791647 -0.0049728629142369168 0 0.079065426256680837 -0.0059524347282857134 0 0.077825813963672205 -0.0045470238429844876 0 0.079105175996103907 -0.0042231939428772113 0 0.079065426256680837 -0.0059524347282857134 0 0.077825813963672205 -0.0045470238429844876 0 0.07644828238938578 -0.0049481026946734397 0 0.077841133984683161 -0.0031663054451918269 0 0.079105175996103907 -0.0042231939428772113 0 0.079387567127166825 -0.0028993782596771615 0 0.077825813963672205 -0.0045470238429844876 0 0.077841133984683161 -0.0031663054451918269 0 0.079105175996103907 -0.0042231939428772113 0 0.077825813963672205 -0.0045470238429844876 0 0.077841133984683161 -0.0031663054451918269 0 0.076699442960864034 -0.0040818059232222755 0 0.081001939851712626 -0.0022744793970341935 0 0.080201814684899578 -0.004024152689482227 0 0.079387567127166825 -0.0028993782596771615 0 0.080201814684899578 -0.004024152689482227 0 0.079105175996103907 -0.0042231939428772113 0 0.079387567127166825 -0.0028993782596771615 0 0.081001939851712626 -0.0022744793970341935 0 0.079387567127166825 -0.0028993782596771615 0 0.078631977412997364 -0.001255227682815735 0 0.081001939851712626 -0.0022744793970341935 0 0.081019255084783803 0.00071186076623303539 0 0.078631977412997364 -0.001255227682815735 0 0.077841133984683161 -0.0031663054451918269 0 0.079387567127166825 -0.0028993782596771615 0 0.078631977412997364 -0.001255227682815735 0 0.077841133984683161 -0.0031663054451918269 0 0.078631977412997364 -0.001255227682815735 0 0.076466925371524455 -0.0021094782704857516 0 0.075356173953395431 -0.0024531212878590855 0 0.071898387172002975 -0.0052126782398492083 0 0.072615549688268097 -0.0021415493932454089 0 0.075595248798704426 -0.0015817524833789216 0 0.073850416983691686 -0.0030174055218342029 0 0.076541298172308259 -0.00035335619825746089 0 0.076466925371524455 -0.0021094782704857516 0 0.074909309247640748 -0.0017418828808361639 0 0.078631977412997364 -0.001255227682815735 0 0.076541298172308259 -0.00035335619825746089 0 0.076466925371524455 -0.0021094782704857516 0 0.076466925371524455 -0.0021094782704857516 0 0.075090832653567141 -0.0027957894419489275 0 0.076012717272753036 -0.0033203576753812339 0 0.076466925371524455 -0.0021094782704857516 0 0.075090832653567141 -0.0027957894419489275 0 0.074909309247640748 -0.0017418828808361639 0 0.076012717272753036 -0.0033203576753812339 0 0.075568771517465827 -0.0042950994789704147 0 0.074707660572674098 -0.0036904684000436628 0 0.075090832653567141 -0.0027957894419489275 0 0.076012717272753036 -0.0033203576753812339 0 0.074707660572674098 -0.0036904684000436628 0 0.076012717272753036 -0.0033203576753812339 0 0.076699442960864034 -0.0040818059232222755 0 0.075568771517465827 -0.0042950994789704147 0 0.077841133984683161 -0.0031663054451918269 0 0.076466925371524455 -0.0021094782704857516 0 0.076012717272753036 -0.0033203576753812339 0 0.077841133984683161 -0.0031663054451918269 0 0.076012717272753036 -0.0033203576753812339 0 0.076699442960864034 -0.0040818059232222755 0 0.077825813963672205 -0.0045470238429844876 0 0.076699442960864034 -0.0040818059232222755 0 0.07644828238938578 -0.0049481026946734397 0 0.076699442960864034 -0.0040818059232222755 0 0.07644828238938578 -0.0049481026946734397 0 0.075568771517465827 -0.0042950994789704147 0 0.075712987250717165 -0.0050413349738121331 0 0.075568771517465827 -0.0042950994789704147 0 0.074519209183462165 -0.0045832678379602127 0 0.075712987250717165 -0.0050413349738121331 0 0.07644828238938578 -0.0049481026946734397 0 0.075568771517465827 -0.0042950994789704147 0 0.075568771517465827 -0.0042950994789704147 0 0.074519209183462165 -0.0045832678379602127 0 0.074707660572674098 -0.0036904684000436628 0 0.074519209183462165 -0.0045832678379602127 0 0.073738766538251843 -0.0040517664534042422 0 0.074707660572674098 -0.0036904684000436628 0 0.073330415229608786 -0.004669264501522153 0 0.074519209183462165 -0.0045832678379602127 0 0.073738766538251843 -0.0040517664534042422 0 0.073330415229608786 -0.004669264501522153 0 0.073738766538251843 -0.0040517664534042422 0 0.072870924953393035 -0.0041617977358164148 0 0.07264144021510939 -0.0040060077638765365 0 0.072226346625817284 -0.0044769628358768904 0 0.073738766538251843 -0.0040517664534042422 0 0.073636138147580896 -0.0030629694423927128 0 0.072870924953393035 -0.0041617977358164148 0 0.075090832653567141 -0.0027957894419489275 0 0.073636138147580896 -0.0030629694423927128 0 0.074707660572674098 -0.0036904684000436628 0 0.073738766538251843 -0.0040517664534042422 0 0.073636138147580896 -0.0030629694423927128 0 0.074707660572674098 -0.0036904684000436628 0 0.07287864013712203 -0.0050490340144210329 0 0.072113129830990039 -0.0049168888698661968 0 0.071067825604072182 -0.0048295504531986671 0 0.072915767733534906 -0.0046701332498066492 0 0.07287864013712203 -0.0050490340144210329 0 0.072870924953393035 -0.0041617977358164148 0 0.072240693852033785 -0.0046134652396149266 0 0.072226346625817284 -0.0044769628358768904 0 0.073330415229608786 -0.004669264501522153 0 0.072915767733534906 -0.0046701332498066492 0 0.072870924953393035 -0.0041617977358164148 0 0.070184846405032003 -0.0054654364422357859 0 0.071067825604072182 -0.0048295504531986671 0 0.070633231124240178 -0.0053899647389160444 0 0.071067825604072182 -0.0048295504531986671 0 0.071279952214385919 -0.0051791200523756808 0 0.070633231124240178 -0.0053899647389160444 0 0.071944032176294415 -0.0078521081677343091 0 0.071482423700511985 -0.0081619465110863397 0 0.072113129830990039 -0.0049168888698661968 0 0.071279952214385919 -0.0051791200523756808 0 0.071324163523299886 -0.0054700159931807355 0 0.072113129830990039 -0.0049168888698661968 0 0.071067825604072182 -0.0048295504531986671 0 0.071279952214385919 -0.0051791200523756808 0 0.071279952214385919 -0.0051791200523756808 0 0.071324163523299886 -0.0054700159931807355 0 0.070633231124240178 -0.0053899647389160444 0 0.071324163523299886 -0.0054700159931807355 0 0.070633231124240178 -0.0053899647389160444 0 0.070460985921351915 -0.0057070561607161282 0 0.070633231124240178 -0.0053899647389160444 0 0.070460985921351915 -0.0057070561607161282 0 0.069933964999871395 -0.0050032397750646891 0 0.071324163523299886 -0.0054700159931807355 0 0.070460985921351915 -0.0057070561607161282 0 0.071021773894231144 -0.0061647122931163473 0 0.071482423700511985 -0.0081619465110863397 0 0.071128026426902691 -0.0080101405035334951 0 0.070184846405032003 -0.0054654364422357859 0 0.071898387172002975 -0.0052126782398492083 0 0.069933964999871395 -0.0050032397750646891 0 0.07264144021510939 -0.0040060077638765365 0 0.073850416983691686 -0.0030174055218342029 0 0.075090832653567141 -0.0027957894419489275 0 0.073636138147580896 -0.0030629694423927128 0 0.074909309247640748 -0.0017418828808361639 0 0.070184846405032003 -0.0054654364422357859 0 0.070633231124240178 -0.0053899647389160444 0 0.069933964999871395 -0.0050032397750646891 0 0.070460985921351915 -0.0057070561607161282 0 0.069933964999871395 -0.0050032397750646891 0 0.06990366857548809 -0.0059287554038832558 0 0.069706185503037851 -0.004240668145108123 0 0.069728323643062196 -0.0039172756780288826 0 0.069933964999871395 -0.0050032397750646891 0 0.069078945705087227 -0.0064433421607532756 0 0.06990366857548809 -0.0059287554038832558 0 0.071898387172002975 -0.0052126782398492083 0 0.069933964999871395 -0.0050032397750646891 0 0.072615549688268097 -0.0021415493932454089 0 0.069933964999871395 -0.0050032397750646891 0 0.070290052946692688 -0.00085402245036663587 0 0.072615549688268097 -0.0021415493932454089 0 0.070290052946692688 -0.00085402245036663587 0 0.072615549688268097 -0.0021415493932454089 0 0.072691628736874639 0.00084728470934502739 0 0.06990366857548809 -0.0059287554038832558 0 0.069637420681864209 -0.0068151865520104356 0 0.070189568961289944 -0.0064265623707842837 0 0.069078945705087227 -0.0064433421607532756 0 0.06990366857548809 -0.0059287554038832558 0 0.069637420681864209 -0.0068151865520104356 0 0.069637420681864209 -0.0068151865520104356 0 0.069126269899722328 -0.0070302742320999074 0 0.069470722642237387 -0.0073607263570811864 0 0.069078945705087227 -0.0064433421607532756 0 0.069637420681864209 -0.0068151865520104356 0 0.069126269899722328 -0.0070302742320999074 0 0.070290052946692688 -0.00085402245036663587 0 0.071205416572727956 0.0028652854319482011 0 0.072691628736874639 0.00084728470934502739 0 0.069728323643062196 -0.0039172756780288826 0 0.069614811762050394 -0.0042277541286669801 0 0.069078945705087227 -0.0064433421607532756 0 0.069126269899722328 -0.0070302742320999074 0 0.068788028277827359 -0.0073197762297720391 0 0.069126269899722328 -0.0070302742320999074 0 0.068629673909133326 -0.0072736970759370882 0 0.069017944411320725 -0.0073389054072284321 0 0.069341036945196111 -0.0045930348089477475 0 0.069614811762050394 -0.0042277541286669801 0 0.071205416572727956 0.0028652854319482011 0 0.073542146122223026 0.0029291813379896869 0 0.072691628736874639 0.00084728470934502739 0 0.070460985921351915 -0.0057070561607161282 0 0.071021773894231144 -0.0061647122931163473 0 0.070189568961289944 -0.0064265623707842837 0 0.071021773894231144 -0.0061647122931163473 0 0.070189568961289944 -0.0064265623707842837 0 0.070046442205826842 -0.0072089339161299859 0 0.070460985921351915 -0.0057070561607161282 0 0.06990366857548809 -0.0059287554038832558 0 0.070189568961289944 -0.0064265623707842837 0 0.070046442205826842 -0.0072089339161299859 0 0.07033646436021887 -0.0077887923776909888 0 0.069963451219852438 -0.0075263537945993702 0 0.069637420681864209 -0.0068151865520104356 0 0.070046442205826842 -0.0072089339161299859 0 0.069470722642237387 -0.0073607263570811864 0 0.069637420681864209 -0.0068151865520104356 0 0.070189568961289944 -0.0064265623707842837 0 0.070046442205826842 -0.0072089339161299859 0 0.071128026426902691 -0.0080101405035334951 0 0.07098041368894685 -0.0078916710077755713 0 0.071021773894231144 -0.0061647122931163473 0 0.070046442205826842 -0.0072089339161299859 0 0.07033646436021887 -0.0077887923776909888 0 0.070548721107530285 -0.0096164555538182858 0 0.07033646436021887 -0.0077887923776909888 0 0.069308983584345979 -0.0085292186667037927 0 0.07033646436021887 -0.0077887923776909888 0 0.070164411276118013 -0.0072708677722172453 0 0.069308983584345979 -0.0085292186667037927 0 0.07033646436021887 -0.0077887923776909888 0 0.070164411276118013 -0.0072708677722172453 0 0.069963451219852438 -0.0075263537945993702 0 0.070164411276118013 -0.0072708677722172453 0 0.069963451219852438 -0.0075263537945993702 0 0.069947888938472966 -0.0076650901679133606 0 0.070046442205826842 -0.0072089339161299859 0 0.069963451219852438 -0.0075263537945993702 0 0.069470722642237387 -0.0073607263570811864 0 0.069963451219852438 -0.0075263537945993702 0 0.069470722642237387 -0.0073607263570811864 0 0.069343966476502927 -0.0077205317861619768 0 0.069548717504590393 -0.0078159126976387015 0 0.069947888938472966 -0.0076650901679133606 0 0.07021421564218619 -0.0083538219186716865 0 0.069963451219852438 -0.0075263537945993702 0 0.069548717504590393 -0.0078159126976387015 0 0.069343966476502927 -0.0077205317861619768 0 0.069548717504590393 -0.0078159126976387015 0 0.069119000986776369 -0.0080026045511377552 0 0.069324906911024595 -0.008435925152210819 0 0.069548717504590393 -0.0078159126976387015 0 0.069343966476502927 -0.0077205317861619768 0 0.069119000986776369 -0.0080026045511377552 0 0.069963451219852438 -0.0075263537945993702 0 0.069548717504590393 -0.0078159126976387015 0 0.069947888938472966 -0.0076650901679133606 0 0.070164411276118013 -0.0072708677722172453 0 0.068675976121119517 -0.0061891530982687137 0 0.070958771649849942 -0.003971105021622361 0 0.067661851080034488 -0.0073348517505446107 0 0.066704016765210886 -0.0085311143519356293 0 0.070164411276118013 -0.0072708677722172453 0 0.069947888938472966 -0.0076650901679133606 0 0.07021421564218619 -0.0083538219186716865 0 0.067787242546528667 -0.0063027184641457519 0 0.06749396510603109 -0.0076027714794252264 0 0.066732117233577457 -0.0072913284397533688 0 0.069614811762050394 -0.0042277541286669801 0 0.068463772865602249 -0.0072561741672919743 0 0.068820814253609364 -0.0077090759277804845 0 0.068629673909133326 -0.0072736970759370882 0 0.068179899391555845 -0.0081429218554677704 0 0.068820814253609364 -0.0077090759277804845 0 0.068629673909133326 -0.0072736970759370882 0 0.069017944411320725 -0.0073389054072284321 0 0.068820814253609364 -0.0077090759277804845 0 0.069017944411320725 -0.0073389054072284321 0 0.069470722642237387 -0.0073607263570811864 0 0.068820814253609364 -0.0077090759277804845 0 0.069470722642237387 -0.0073607263570811864 0 0.068741635047503621 -0.0084223500592731544 0 0.069126269899722328 -0.0070302742320999074 0 0.069017944411320725 -0.0073389054072284321 0 0.069470722642237387 -0.0073607263570811864 0 0.069470722642237387 -0.0073607263570811864 0 0.069343966476502927 -0.0077205317861619768 0 0.068480240754000027 -0.0079755168162275372 0 0.068731913069653566 -0.0078643832349450382 0 0.068379943634199011 -0.0083809308501532429 0 0.069343966476502927 -0.0077205317861619768 0 0.069119000986776369 -0.0080026045511377552 0 0.068480240754000027 -0.0079755168162275372 0 0.069119000986776369 -0.0080026045511377552 0 0.068480240754000027 -0.0079755168162275372 0 0.068845158384557487 -0.0082834419851136286 0 0.068820814253609364 -0.0077090759277804845 0 0.068741635047503621 -0.0084223500592731544 0 0.068179899391555845 -0.0081429218554677704 0 0.06749396510603109 -0.0076027714794252264 0 0.066732117233577457 -0.0072913284397533688 0 0.066702921779804886 -0.0081630238766582392 0 0.066732117233577457 -0.0072913284397533688 0 0.066702921779804886 -0.0081630238766582392 0 0.065746805670710798 -0.0082603125477523614 0 0.071205416572727956 0.0028652854319482011 0 0.074012771044595152 0.0050631653484638469 0 0.073542146122223026 0.0029291813379896869 0 0.069614811762050394 -0.0042277541286669801 0 0.070911108455526645 -0.0025553561203555731 0 0.074012771044595152 0.0050631653484638469 0 0.073542146122223026 0.0029291813379896869 0 0.075301093160312041 0.0036865580584162037 0 0.073542146122223026 0.0029291813379896869 0 0.075301093160312041 0.0036865580584162037 0 0.07438711549233655 0.0020002831153959856 0 0.074012771044595152 0.0050631653484638469 0 0.075301093160312041 0.0036865580584162037 0 0.076271018343859479 0.0049737054334971151 0 0.075301093160312041 0.0036865580584162037 0 0.077448027778848141 0.0038345611931898081 0 0.076660022442106637 0.0022135736555245985 0 0.075301093160312041 0.0036865580584162037 0 0.076271018343859479 0.0049737054334971151 0 0.077448027778848141 0.0038345611931898081 0 0.075301093160312041 0.0036865580584162037 0 0.07438711549233655 0.0020002831153959856 0 0.076660022442106637 0.0022135736555245985 0 0.076271018343859479 0.0049737054334971151 0 0.07808621055924124 0.0053591146226794782 0 0.076377247258286596 0.0068725989184910989 0 0.070911108455526645 -0.0025553561203555731 0 0.071787926355038306 -0.0022025200968885292 0 0.074012771044595152 0.0050631653484638469 0 0.076271018343859479 0.0049737054334971151 0 0.076377247258286596 0.0068725989184910989 0 0.07808621055924124 0.0053591146226794782 0 0.076377247258286596 0.0068725989184910989 0 0.078135239158762249 0.0066949217009774154 0 0.07808621055924124 0.0053591146226794782 0 0.079547094311661112 0.0058060314769509862 0 0.078135239158762249 0.0066949217009774154 0 0.076271018343859479 0.0049737054334971151 0 0.07808621055924124 0.0053591146226794782 0 0.077448027778848141 0.0038345611931898081 0 0.080206169503652322 0.0058571201642647558 0 0.079547094311661112 0.0058060314769509862 0 0.079916937625880341 0.00704723865248893 0 0.080206169503652322 0.0058571201642647558 0 0.079547094311661112 0.0058060314769509862 0 0.080407451461019255 0.0051502318941953097 0 0.08086318765165583 0.0058220824034334769 0 0.080206169503652322 0.0058571201642647558 0 0.080407451461019255 0.0051502318941953097 0 0.07808621055924124 0.0053591146226794782 0 0.079547094311661112 0.0058060314769509862 0 0.079522268075670005 0.0046898116990157718 0 0.07808621055924124 0.0053591146226794782 0 0.079522268075670005 0.0046898116990157718 0 0.07907808278963932 0.0038984541362823409 0 0.079547094311661112 0.0058060314769509862 0 0.079522268075670005 0.0046898116990157718 0 0.080407451461019255 0.0051502318941953097 0 0.079522268075670005 0.0046898116990157718 0 0.080407451461019255 0.0051502318941953097 0 0.080364061354162131 0.0033092254728666675 0 0.079522268075670005 0.0046898116990157718 0 0.07907808278963932 0.0038984541362823409 0 0.080364061354162131 0.0033092254728666675 0 0.07907808278963932 0.0038984541362823409 0 0.080364061354162131 0.0033092254728666675 0 0.07902784820888753 0.0023876142754213031 0 0.077448027778848141 0.0038345611931898081 0 0.07902784820888753 0.0023876142754213031 0 0.076660022442106637 0.0022135736555245985 0 0.07808621055924124 0.0053591146226794782 0 0.07907808278963932 0.0038984541362823409 0 0.077448027778848141 0.0038345611931898081 0 0.07907808278963932 0.0038984541362823409 0 0.077448027778848141 0.0038345611931898081 0 0.07902784820888753 0.0023876142754213031 0 0.07902784820888753 0.0023876142754213031 0 0.07818859151023122 0.00087899296646351836 0 0.076660022442106637 0.0022135736555245985 0 0.081019255084783803 0.00071186076623303539 0 0.07902784820888753 0.0023876142754213031 0 0.07818859151023122 0.00087899296646351836 0 0.081019255084783803 0.00071186076623303539 0 0.080364061354162131 0.0033092254728666675 0 0.07902784820888753 0.0023876142754213031 0 0.081019255084783803 0.00071186076623303539 0 0.078631977412997364 -0.001255227682815735 0 0.07818859151023122 0.00087899296646351836 0 0.078631977412997364 -0.001255227682815735 0 0.076541298172308259 -0.00035335619825746089 0 0.07818859151023122 0.00087899296646351836 0 0.075356173953395431 -0.0024531212878590855 0 0.07818859151023122 0.00087899296646351836 0 0.075017089703358256 0.00030594366266273841 0 0.075595248798704426 -0.0015817524833789216 0 0.076664536204099479 -0.00067311127885504962 0 0.075356173953395431 -0.0024531212878590855 0 0.075017089703358256 0.00030594366266273841 0 0.072615549688268097 -0.0021415493932454089 0 0.075017089703358256 0.00030594366266273841 0 0.072615549688268097 -0.0021415493932454089 0 0.072691628736874639 0.00084728470934502739 0 0.075017089703358256 0.00030594366266273841 0 0.072691628736874639 0.00084728470934502739 0 0.07438711549233655 0.0020002831153959856 0 0.073542146122223026 0.0029291813379896869 0 0.072691628736874639 0.00084728470934502739 0 0.07438711549233655 0.0020002831153959856 0 0.075017089703358256 0.00030594366266273841 0 0.07438711549233655 0.0020002831153959856 0 0.076660022442106637 0.0022135736555245985 0 0.07818859151023122 0.00087899296646351836 0 0.075017089703358256 0.00030594366266273841 0 0.076660022442106637 0.0022135736555245985 0 0.060674296641317724 -0.0097836679466541936 0 0.059997688313974125 -0.0099902297315712964 0 0.060089348503228494 -0.0093322673794121111 0 0.060674296641317724 -0.0097836679466541936 0 0.060089348503228494 -0.0093322673794121111 0 0.060633397285498387 -0.0092940565926831614 0 0.060674296641317724 -0.0097836679466541936 0 0.060633397285498387 -0.0092940565926831614 0 0.060980685723604509 -0.0094697472626846316 0 0.067980789258719532 -0.0091205335721167412 0 0.067685857220125739 -0.0096591851511286433 0 0.068521563545941661 -0.009578233991925313 0 0.064429438025651084 -0.0094659769653184234 0 0.063683548218029407 -0.0096580846060593233 0 0.067685857220125739 -0.0096591851511286433 0 0.066959586169191523 -0.0095213530163591482 0 0.06728830910803453 -0.010044752416302464 0 0.067980789258719532 -0.0091205335721167412 0 0.067685857220125739 -0.0096591851511286433 0 0.066959586169191523 -0.0095213530163591482 0 0.058600429167839405 -0.011725589726614014 0 0.058098359063995138 -0.012101822933910671 0 0.058029983084446388 -0.011785414516497722 0 0.059997688313974125 -0.0099902297315712964 0 0.059747050249696003 -0.009787464438084181 0 0.059419446618904671 -0.010178355599896736 0 0.063683548218029407 -0.0096580846060593233 0 0.06399276314775805 -0.0094504539184628866 0 0.060868472793146826 -0.0108386661810706 0 0.06399276314775805 -0.0094504539184628866 0 0.058600429167839405 -0.011725589726614014 0 0.058029983084446388 -0.011785414516497722 0 0.057910013700922032 -0.011395497229279442 0 0.058600429167839405 -0.011725589726614014 0 0.058531551624569036 -0.011101894946339673 0 0.057910013700922032 -0.011395497229279442 0 0.059997688313974125 -0.0099902297315712964 0 0.059747050249696003 -0.009787464438084181 0 0.060089348503228494 -0.0093322673794121111 0 0.058600429167839405 -0.011725589726614014 0 0.058531551624569036 -0.011101894946339673 0 0.059313483089719669 -0.01104910319374521 0 0.060868472793146826 -0.0108386661810706 0 0.060321311051150857 -0.010405280100673393 0 0.05867248282897071 -0.010600546905082359 0 0.058531551624569036 -0.011101894946339673 0 0.059313483089719669 -0.01104910319374521 0 0.05867248282897071 -0.010600546905082359 0 0.0591664998772157 -0.010197235067791213 0 0.059313483089719669 -0.01104910319374521 0 0.058531551624569036 -0.011101894946339673 0 0.057910013700922032 -0.011395497229279442 0 0.057963707389040511 -0.010653560763210937 0 0.05867248282897071 -0.010600546905082359 0 0.058531551624569036 -0.011101894946339673 0 0.057963707389040511 -0.010653560763210937 0 0.05867248282897071 -0.010600546905082359 0 0.058388826884429181 -0.010000325694068361 0 0.057963707389040511 -0.010653560763210937 0 0.058388826884429181 -0.010000325694068361 0 0.0591664998772157 -0.010197235067791213 0 0.058978050940900598 -0.0097430379039913969 0 0.05867248282897071 -0.010600546905082359 0 0.058388826884429181 -0.010000325694068361 0 0.0591664998772157 -0.010197235067791213 0 0.0591664998772157 -0.010197235067791213 0 0.059313483089719669 -0.01104910319374521 0 0.059962308352911844 -0.010194054623972852 0 0.0591664998772157 -0.010197235067791213 0 0.059962308352911844 -0.010194054623972852 0 0.059575227709885208 -0.0094853952765457505 0 0.060321311051150857 -0.010405280100673393 0 0.060455808363249444 -0.00972109986604704 0 0.060089348503228494 -0.0093322673794121111 0 0.060633397285498387 -0.0092940565926831614 0 0.060575359001033814 -0.0086982688485427086 0 0.060633397285498387 -0.0092940565926831614 0 0.060575359001033814 -0.0086982688485427086 0 0.061166575345131008 -0.0087888682820877022 0 0.060575359001033814 -0.0086982688485427086 0 0.061166575345131008 -0.0087888682820877022 0 0.061158139591305859 -0.008301487875699164 0 0.061166575345131008 -0.0087888682820877022 0 0.06175900323523708 -0.0084030242190648446 0 0.061158139591305859 -0.008301487875699164 0 0.061166575345131008 -0.0087888682820877022 0 0.06175900323523708 -0.0084030242190648446 0 0.061974506296595407 -0.0086689024904245821 0 0.06175900323523708 -0.0084030242190648446 0 0.061974506296595407 -0.0086689024904245821 0 0.062680005594368385 -0.0084588656158458043 0 0.061974506296595407 -0.0086689024904245821 0 0.060980685723604509 -0.0094697472626846316 0 0.061285126004741383 -0.010001479861422097 0 0.061974506296595407 -0.0086689024904245821 0 0.064520868391005723 -0.0088687673728563392 0 0.061285126004741383 -0.010001479861422097 0 0.061166575345131008 -0.0087888682820877022 0 0.061974506296595407 -0.0086689024904245821 0 0.060980685723604509 -0.0094697472626846316 0 0.060633397285498387 -0.0092940565926831614 0 0.061166575345131008 -0.0087888682820877022 0 0.060980685723604509 -0.0094697472626846316 0 0.06180009674445832 -0.0083400514300486939 0 0.061165752767390107 -0.0086425907257723453 0 0.061795471055868065 -0.0085530124091368655 0 0.065675152026144781 -0.0084921944506920338 0 0.066704016765210886 -0.0085311143519356293 0 0.06175900323523708 -0.0084030242190648446 0 0.062680005594368385 -0.0084588656158458043 0 0.061795471055868065 -0.0085530124091368655 0 0.06180009674445832 -0.0083400514300486939 0 0.062680005594368385 -0.0084588656158458043 0 0.061795471055868065 -0.0085530124091368655 0 0.061974506296595407 -0.0086689024904245821 0 0.062680005594368385 -0.0084588656158458043 0 0.064520868391005723 -0.0088687673728563392 0 0.066862603768489362 -0.0087040638492240866 0 0.065607489171568181 -0.0091266779621657738 0 0.068675976121119517 -0.0061891530982687137 0 0.064520868391005723 -0.0088687673728563392 0 0.0680358746973065 -0.0083341282356527557 0 0.064520868391005723 -0.0088687673728563392 0 0.0680358746973065 -0.0083341282356527557 0 0.061285126004741383 -0.010001479861422097 0 0.06180009674445832 -0.0083400514300486939 0 0.062680005594368385 -0.0084588656158458043 0 0.064520868391005723 -0.0088687673728563392 0 0.065675152026144781 -0.0084921944506920338 0 0.064977993040320509 -0.0089629599549627282 0 0.070164411276118013 -0.0072708677722172453 0 0.0680358746973065 -0.0083341282356527557 0 0.069308983584345979 -0.0085292186667037927 0 0.070164411276118013 -0.0072708677722172453 0 0.068675976121119517 -0.0061891530982687137 0 0.0680358746973065 -0.0083341282356527557 0 0.0680358746973065 -0.0083341282356527557 0 0.069308983584345979 -0.0085292186667037927 0 0.068704593028529035 -0.0087073546307504367 0 0.069308983584345979 -0.0085292186667037927 0 0.068704593028529035 -0.0087073546307504367 0 0.069349571514586122 -0.0091022585846013034 0 0.068704593028529035 -0.0087073546307504367 0 0.069349571514586122 -0.0091022585846013034 0 0.068885429164688428 -0.0090487067904974385 0 0.0680358746973065 -0.0083341282356527557 0 0.068704593028529035 -0.0087073546307504367 0 0.068829291573594881 -0.0088781878845136594 0 0.069385509198158016 -0.0095001113393584462 0 0.069349571514586122 -0.0091022585846013034 0 0.068885429164688428 -0.0090487067904974385 0 0.069385509198158016 -0.0095001113393584462 0 0.068885429164688428 -0.0090487067904974385 0 0.06903244495760312 -0.0096689799650563884 0 0.069385509198158016 -0.0095001113393584462 0 0.069349571514586122 -0.0091022585846013034 0 0.070276981420677884 -0.0099767391407434187 0 0.070548721107530285 -0.0096164555538182858 0 0.069308983584345979 -0.0085292186667037927 0 0.069349571514586122 -0.0091022585846013034 0 0.070548721107530285 -0.0096164555538182858 0 0.069349571514586122 -0.0091022585846013034 0 0.070276981420677884 -0.0099767391407434187 0 0.060674296641317724 -0.0097836679466541936 0 0.060980685723604509 -0.0094697472626846316 0 0.061285126004741383 -0.010001479861422097 0 0.064429438025651084 -0.0094659769653184234 0 0.065607489171568181 -0.0091266779621657738 0 0.067980789258719532 -0.0091205335721167412 0 0.068829291573594881 -0.0088781878845136594 0 0.068633222582506592 -0.0091668461442214154 0 0.068704593028529035 -0.0087073546307504367 0 0.068829291573594881 -0.0088781878845136594 0 0.068885429164688428 -0.0090487067904974385 0 0.068829291573594881 -0.0088781878845136594 0 0.068885429164688428 -0.0090487067904974385 0 0.068633222582506592 -0.0091668461442214154 0 0.068885429164688428 -0.0090487067904974385 0 0.068503150305876795 -0.0095923187482632195 0 0.06903244495760312 -0.0096689799650563884 0 0.068885429164688428 -0.0090487067904974385 0 0.068521563545941661 -0.009578233991925313 0 0.068633222582506592 -0.0091668461442214154 0 0.068607996525203677 -0.0095086281237796617 0 0.068357844266438331 -0.009716356901609758 0 0.067980789258719532 -0.0091205335721167412 0 0.068521563545941661 -0.009578233991925313 0 0.068633222582506592 -0.0091668461442214154 0 0.068503150305876795 -0.0095923187482632195 0 0.069006643702832396 -0.010437095010842242 0 0.068077173086732182 -0.01088244831129429 0 0.068357844266438331 -0.009716356901609758 0 0.067822515345309933 -0.010139857392067918 0 0.06903244495760312 -0.0096689799650563884 0 0.069006643702832396 -0.010437095010842242 0 0.069564176177728171 -0.010079042590535763 0 0.068503150305876795 -0.0095923187482632195 0 0.06903244495760312 -0.0096689799650563884 0 0.069006643702832396 -0.010437095010842242 0 0.069006643702832396 -0.010437095010842242 0 0.070156082811596202 -0.01102732195660293 0 0.068739235498471926 -0.011464743721887657 0 0.069006643702832396 -0.010437095010842242 0 0.068739235498471926 -0.011464743721887657 0 0.068077173086732182 -0.01088244831129429 0 0.071399828282965774 -0.010735428406850829 0 0.070548721107530285 -0.0096164555538182858 0 0.070276981420677884 -0.0099767391407434187 0 0.069385509198158016 -0.0095001113393584462 0 0.070276981420677884 -0.0099767391407434187 0 0.069564176177728171 -0.010079042590535763 0 0.069385509198158016 -0.0095001113393584462 0 0.06903244495760312 -0.0096689799650563884 0 0.069564176177728171 -0.010079042590535763 0 0.069006643702832396 -0.010437095010842242 0 0.069564176177728171 -0.010079042590535763 0 0.070156082811596202 -0.01102732195660293 0 0.070276981420677884 -0.0099767391407434187 0 0.069564176177728171 -0.010079042590535763 0 0.070156082811596202 -0.01102732195660293 0 0.071399828282965774 -0.010735428406850829 0 0.070276981420677884 -0.0099767391407434187 0 0.070156082811596202 -0.01102732195660293 0 0.071974552796962188 -0.012777505258430268 0 0.071399828282965774 -0.010735428406850829 0 0.071512628852804058 -0.011883226958794405 0 0.071399828282965774 -0.010735428406850829 0 0.070156082811596202 -0.01102732195660293 0 0.071512628852804058 -0.011883226958794405 0 0.070156082811596202 -0.01102732195660293 0 0.071512628852804058 -0.011883226958794405 0 0.069755579143568072 -0.012593947475742193 0 0.071512628852804058 -0.011883226958794405 0 0.072883577892993365 -0.012107875833084964 0 0.069755579143568072 -0.012593947475742193 0 0.074874716657560389 -0.011620434531007579 0 0.076447645221592322 -0.011335552341746637 0 0.072883577892993365 -0.012107875833084964 0 0.083265273166927681 -0.011942292369566569 0 0.078029423249955765 -0.0086290077979131914 0 0.072883577892993365 -0.012107875833084964 0 0.074129320214314898 -0.00862892815552521 0 0.078029423249955765 -0.0086290077979131914 0 0.071974552796962188 -0.012777505258430268 0 0.072883577892993365 -0.012107875833084964 0 0.074129320214314898 -0.00862892815552521 0 0.071974552796962188 -0.012777505258430268 0 0.071512628852804058 -0.011883226958794405 0 0.072883577892993365 -0.012107875833084964 0 0.068739235498471926 -0.011464743721887657 0 0.068257398663211011 -0.012304389446371564 0 0.067730272695081598 -0.011569657413388754 0 0.068739235498471926 -0.011464743721887657 0 0.067730272695081598 -0.011569657413388754 0 0.068077173086732182 -0.01088244831129429 0 0.070156082811596202 -0.01102732195660293 0 0.068739235498471926 -0.011464743721887657 0 0.069755579143568072 -0.012593947475742193 0 0.076447645221592322 -0.011335552341746637 0 0.07871353250986951 -0.010496372453233246 0 0.068739235498471926 -0.011464743721887657 0 0.069755579143568072 -0.012593947475742193 0 0.068257398663211011 -0.012304389446371564 0 0.083265273166927681 -0.011942292369566569 0 0.090636882226069332 -0.01006215775712453 0 0.089482487032325739 -0.0075398824747918815 0 0.090636882226069332 -0.01006215775712453 0 0.094378550988151552 -0.0082208711728999542 0 0.09334110262376516 -0.0074449683970465612 0 0.07871353250986951 -0.010496372453233246 0 0.080224986244383567 -0.0092018912416003355 0 0.068257398663211011 -0.012304389446371564 0 0.067214533522931594 -0.012111322343695817 0 0.067730272695081598 -0.011569657413388754 0 0.067214533522931594 -0.012111322343695817 0 0.067077380129731398 -0.011502029317419508 0 0.067730272695081598 -0.011569657413388754 0 0.067077380129731398 -0.011502029317419508 0 0.067730272695081598 -0.011569657413388754 0 0.067095983390348654 -0.0107658108808456 0 0.067730272695081598 -0.011569657413388754 0 0.068077173086732182 -0.01088244831129429 0 0.067095983390348654 -0.0107658108808456 0 0.068077173086732182 -0.01088244831129429 0 0.067095983390348654 -0.0107658108808456 0 0.067781642458382405 -0.010200565011696392 0 0.067263074769878681 -0.010566724907151182 0 0.067822515345309933 -0.010139857392067918 0 0.067239394200584598 -0.010653382733151046 0 0.06728830910803453 -0.010044752416302464 0 0.067906081567787269 -0.010118123203964073 0 0.067685857220125739 -0.0096591851511286433 0 0.06728830910803453 -0.010044752416302464 0 0.067906081567787269 -0.010118123203964073 0 0.068503150305876795 -0.0095923187482632195 0 0.068077173086732182 -0.01088244831129429 0 0.067781642458382405 -0.010200565011696392 0 0.067685857220125739 -0.0096591851511286433 0 0.068521563545941661 -0.009578233991925313 0 0.067906081567787269 -0.010118123203964073 0 0.066634118178070842 -0.010275274643604039 0 0.066066188190825104 -0.010662058858381637 0 0.065934241812176927 -0.0099475582566269927 0 0.066959586169191523 -0.0095213530163591482 0 0.066634118178070842 -0.010275274643604039 0 0.065934241812176927 -0.0099475582566269927 0 0.066959586169191523 -0.0095213530163591482 0 0.06728830910803453 -0.010044752416302464 0 0.066634118178070842 -0.010275274643604039 0 0.067239394200584598 -0.010653382733151046 0 0.06728830910803453 -0.010044752416302464 0 0.066634118178070842 -0.010275274643604039 0 0.067239394200584598 -0.010653382733151046 0 0.066634118178070842 -0.010275274643604039 0 0.066527762811897095 -0.011183345069956638 0 0.067263074769878681 -0.010566724907151182 0 0.066966142157049505 -0.010785979904862377 0 0.066634118178070842 -0.010275274643604039 0 0.066066188190825104 -0.010662058858381637 0 0.066527762811897095 -0.011183345069956638 0 0.066066188190825104 -0.010662058858381637 0 0.066527762811897095 -0.011183345069956638 0 0.065852231269751482 -0.011261549862958737 0 0.066527762811897095 -0.011183345069956638 0 0.066250958528181761 -0.011592332115666687 0 0.065852231269751482 -0.011261549862958737 0 0.066527762811897095 -0.011183345069956638 0 0.066692278979533823 -0.011703883682947662 0 0.066250958528181761 -0.011592332115666687 0 0.067077380129731398 -0.011502029317419508 0 0.066527762811897095 -0.011183345069956638 0 0.066692278979533823 -0.011703883682947662 0 0.067077380129731398 -0.011502029317419508 0 0.067095983390348654 -0.0107658108808456 0 0.066527762811897095 -0.011183345069956638 0 0.067214533522931594 -0.012111322343695817 0 0.067077380129731398 -0.011502029317419508 0 0.066692278979533823 -0.011703883682947662 0 0.094378550988151552 -0.0082208711728999542 0 0.095879946387382745 -0.00769581519686345 0 0.094944968307371522 -0.007860127702612997 0 0.080224986244383567 -0.0092018912416003355 0 0.081083581486905421 -0.0071784337154841308 0 0.067214533522931594 -0.012111322343695817 0 0.066692278979533823 -0.011703883682947662 0 0.066319507643589154 -0.012052924094966196 0 0.066250958528181761 -0.011592332115666687 0 0.066319507643589154 -0.012052924094966196 0 0.065860470378071537 -0.011731709185267144 0 0.066692278979533823 -0.011703883682947662 0 0.066250958528181761 -0.011592332115666687 0 0.066319507643589154 -0.012052924094966196 0 0.095879946387382745 -0.00769581519686345 0 0.095638274101001286 -0.0069326058761331674 0 0.09622130489234762 -0.007179562281712161 0 0.096159822543102305 -0.00563333689841074 0 0.096723344841687556 -0.0038167803608953202 0 0.095810479062623508 -0.0042250379930873633 0 0.09482937372334807 -0.0055486713840195347 0 0.09482699439178148 -0.0042564794709154235 0 0.095638274101001286 -0.0069326058761331674 0 0.09622130489234762 -0.007179562281712161 0 0.096194169922892397 -0.0068365771724842829 0 0.095638274101001286 -0.0069326058761331674 0 0.096112041655583472 -0.0063211240745500242 0 0.096194169922892397 -0.0068365771724842829 0 0.095011769766379719 -0.0044513086813670116 0 0.09500392635065287 -0.0056535188754435967 0 0.094265071899512928 -0.0045519951901263015 0 0.095011769766379719 -0.0044513086813670116 0 0.09500392635065287 -0.0056535188754435967 0 0.095810479062623508 -0.0042250379930873633 0 0.096159822543102305 -0.00563333689841074 0 0.09500392635065287 -0.0056535188754435967 0 0.095810479062623508 -0.0042250379930873633 0 0.095879946387382745 -0.00769581519686345 0 0.095638274101001286 -0.0069326058761331674 0 0.094944968307371522 -0.007860127702612997 0 0.09500392635065287 -0.0056535188754435967 0 0.094944968307371522 -0.007860127702612997 0 0.094381924642223697 -0.0070827149102263625 0 0.09482937372334807 -0.0055486713840195347 0 0.0946331392599956 -0.0062176865237463987 0 0.096159822543102305 -0.00563333689841074 0 0.09500392635065287 -0.0056535188754435967 0 0.094944968307371522 -0.007860127702612997 0 0.094378550988151552 -0.0082208711728999542 0 0.094944968307371522 -0.007860127702612997 0 0.094381924642223697 -0.0070827149102263625 0 0.094378550988151552 -0.0082208711728999542 0 0.09334110262376516 -0.0074449683970465612 0 0.094381924642223697 -0.0070827149102263625 0 0.09334110262376516 -0.0074449683970465612 0 0.092392074974278107 -0.0061456769558823491 0 0.094109457580887637 -0.0060836838556731975 0 0.09334110262376516 -0.0074449683970465612 0 0.094381924642223697 -0.0070827149102263625 0 0.094109457580887637 -0.0060836838556731975 0 0.09500392635065287 -0.0056535188754435967 0 0.094381924642223697 -0.0070827149102263625 0 0.094109457580887637 -0.0060836838556731975 0 0.090636882226069332 -0.01006215775712453 0 0.09334110262376516 -0.0074449683970465612 0 0.092392074974278107 -0.0061456769558823491 0 0.092392074974278107 -0.0061456769558823491 0 0.091818506572013542 -0.0043034268775509659 0 0.090543200667820053 -0.0054978478338181215 0 0.092392074974278107 -0.0061456769558823491 0 0.092967790901903755 -0.0044757478180403936 0 0.093456522207694293 -0.0052938002221640809 0 0.092392074974278107 -0.0061456769558823491 0 0.092967790901903755 -0.0044757478180403936 0 0.091818506572013542 -0.0043034268775509659 0 0.092392074974278107 -0.0061456769558823491 0 0.094109457580887637 -0.0060836838556731975 0 0.093456522207694293 -0.0052938002221640809 0 0.094109457580887637 -0.0060836838556731975 0 0.093456522207694293 -0.0052938002221640809 0 0.094265071899512928 -0.0045519951901263015 0 0.09500392635065287 -0.0056535188754435967 0 0.094109457580887637 -0.0060836838556731975 0 0.094265071899512928 -0.0045519951901263015 0 0.092967790901903755 -0.0044757478180403936 0 0.093456522207694293 -0.0052938002221640809 0 0.094265071899512928 -0.0045519951901263015 0 0.094265071899512928 -0.0045519951901263015 0 0.093791015253681623 -0.00326177078743304 0 0.09496084452216362 -0.0034536059744662089 0 0.092967790901903755 -0.0044757478180403936 0 0.094265071899512928 -0.0045519951901263015 0 0.093791015253681623 -0.00326177078743304 0 0.093791015253681623 -0.00326177078743304 0 0.094468289270132455 -0.0028363868630109862 0 0.09496084452216362 -0.0034536059744662089 0 0.091818506572013542 -0.0043034268775509659 0 0.09282290451357543 -0.0033542743095493618 0 0.091675254342386159 -0.0032215719843494564 0 0.092967790901903755 -0.0044757478180403936 0 0.093791015253681623 -0.00326177078743304 0 0.09282290451357543 -0.0033542743095493618 0 0.092967790901903755 -0.0044757478180403936 0 0.091818506572013542 -0.0043034268775509659 0 0.09282290451357543 -0.0033542743095493618 0 0.093791015253681623 -0.00326177078743304 0 0.09282290451357543 -0.0033542743095493618 0 0.092999500096381513 -0.0023492401772991392 0 0.09282290451357543 -0.0033542743095493618 0 0.092402608462764504 -0.0027916413964761584 0 0.092999500096381513 -0.0023492401772991392 0 0.092402608462764504 -0.0027916413964761584 0 0.091675254342386159 -0.0032215719843494564 0 0.092116165590529667 -0.0023248572573992092 0 0.09282290451357543 -0.0033542743095493618 0 0.092402608462764504 -0.0027916413964761584 0 0.091675254342386159 -0.0032215719843494564 0 0.092999500096381513 -0.0023492401772991392 0 0.092630888558457303 -0.0015855170067025071 0 0.093873182448377696 -0.0014341322125499729 0 0.092402608462764504 -0.0027916413964761584 0 0.092999500096381513 -0.0023492401772991392 0 0.092116165590529667 -0.0023248572573992092 0 0.092999500096381513 -0.0023492401772991392 0 0.092116165590529667 -0.0023248572573992092 0 0.092630888558457303 -0.0015855170067025071 0 0.092999500096381513 -0.0023492401772991392 0 0.094115112417833963 -0.0022925778968254998 0 0.093873182448377696 -0.0014341322125499729 0 0.093791015253681623 -0.00326177078743304 0 0.094468289270132455 -0.0028363868630109862 0 0.094115112417833963 -0.0022925778968254998 0 0.094468289270132455 -0.0028363868630109862 0 0.094115112417833963 -0.0022925778968254998 0 0.094982399438186274 -0.0023958176253184747 0 0.093791015253681623 -0.00326177078743304 0 0.092999500096381513 -0.0023492401772991392 0 0.094115112417833963 -0.0022925778968254998 0 0.094115112417833963 -0.0022925778968254998 0 0.094982399438186274 -0.0023958176253184747 0 0.094549449663749952 -0.0017202202713103294 0 0.094468289270132455 -0.0028363868630109862 0 0.094982399438186274 -0.0023958176253184747 0 0.09496084452216362 -0.0034536059744662089 0 0.094982399438186274 -0.0023958176253184747 0 0.095819984707876615 -0.0021602747170769809 0 0.095772911473440608 -0.003044864900785098 0 0.094982399438186274 -0.0023958176253184747 0 0.095772911473440608 -0.003044864900785098 0 0.09496084452216362 -0.0034536059744662089 0 0.094982399438186274 -0.0023958176253184747 0 0.095819984707876615 -0.0021602747170769809 0 0.095213690338625062 -0.001553960264545782 0 0.095819984707876615 -0.0021602747170769809 0 0.096404324446573583 -0.0027058627568758795 0 0.096427215793805546 -0.0020366189699591343 0 0.095819984707876615 -0.0021602747170769809 0 0.096404324446573583 -0.0027058627568758795 0 0.095772911473440608 -0.003044864900785098 0 0.096404324446573583 -0.0027058627568758795 0 0.095772911473440608 -0.003044864900785098 0 0.096723344841687556 -0.0038167803608953202 0 0.095772911473440608 -0.003044864900785098 0 0.096723344841687556 -0.0038167803608953202 0 0.095810479062623508 -0.0042250379930873633 0 0.095011769766379719 -0.0044513086813670116 0 0.095810479062623508 -0.0042250379930873633 0 0.09496084452216362 -0.0034536059744662089 0 0.095011769766379719 -0.0044513086813670116 0 0.094265071899512928 -0.0045519951901263015 0 0.09496084452216362 -0.0034536059744662089 0 0.095772911473440608 -0.003044864900785098 0 0.095810479062623508 -0.0042250379930873633 0 0.09496084452216362 -0.0034536059744662089 0 0.073123190900782523 -0.0040722022304227386 0 0.075862660796235645 -0.0027903633779250447 0 0.073664425309418108 -0.0053009997801393548 0 0.075862660796235645 -0.0027903633779250447 0 0.073664425309418108 -0.0053009997801393548 0 0.077236657349631102 -0.0054450716020414455 0 0.073664425309418108 -0.0053009997801393548 0 0.074129320214314898 -0.00862892815552521 0 0.077236657349631102 -0.0054450716020414455 0 0.07287864013712203 -0.0050490340144210329 0 0.072113129830990039 -0.0049168888698661968 0 0.073664425309418108 -0.0053009997801393548 0 0.071974552796962188 -0.012777505258430268 0 0.073664425309418108 -0.0053009997801393548 0 0.074129320214314898 -0.00862892815552521 0 0.071944032176294415 -0.0078521081677343091 0 0.072293680809251248 -0.0068307371606091136 0 0.074129320214314898 -0.00862892815552521 0 0.077236657349631102 -0.0054450716020414455 0 0.078029423249955765 -0.0086290077979131914 0 0.083265273166927681 -0.011942292369566569 0 0.078029423249955765 -0.0086290077979131914 0 0.081521567684816235 -0.0070475411989656973 0 0.077236657349631102 -0.0054450716020414455 0 0.078029423249955765 -0.0086290077979131914 0 0.081521567684816235 -0.0070475411989656973 0 0.075862660796235645 -0.0027903633779250447 0 0.080529086568660174 -0.0035685982148514384 0 0.078273155929901903 0.0012980817526090577 0 0.075862660796235645 -0.0027903633779250447 0 0.077236657349631102 -0.0054450716020414455 0 0.080529086568660174 -0.0035685982148514384 0 0.077236657349631102 -0.0054450716020414455 0 0.081521567684816235 -0.0070475411989656973 0 0.080529086568660174 -0.0035685982148514384 0 0.080529086568660174 -0.0035685982148514384 0 0.086888141487849166 -0.0057691416737490715 0 0.085879745985889391 -0.0010739568362605704 0 0.088871600694502145 -0.0035071690482637355 0 0.089008744032594775 -0.00248159236605534 0 0.081521567684816235 -0.0070475411989656973 0 0.080529086568660174 -0.0035685982148514384 0 0.086888141487849166 -0.0057691416737490715 0 0.086888141487849166 -0.0057691416737490715 0 0.090153159549385936 -0.0041636353952758647 0 0.088802688604419922 -0.0039264341430886073 0 0.083265273166927681 -0.011942292369566569 0 0.081521567684816235 -0.0070475411989656973 0 0.086888141487849166 -0.0057691416737490715 0 0.083265273166927681 -0.011942292369566569 0 0.086888141487849166 -0.0057691416737490715 0 0.089482487032325739 -0.0075398824747918815 0 0.086888141487849166 -0.0057691416737490715 0 0.089482487032325739 -0.0075398824747918815 0 0.090543200667820053 -0.0054978478338181215 0 0.092392074974278107 -0.0061456769558823491 0 0.089482487032325739 -0.0075398824747918815 0 0.090543200667820053 -0.0054978478338181215 0 0.090636882226069332 -0.01006215775712453 0 0.092392074974278107 -0.0061456769558823491 0 0.089482487032325739 -0.0075398824747918815 0 0.086888141487849166 -0.0057691416737490715 0 0.090543200667820053 -0.0054978478338181215 0 0.090153159549385936 -0.0041636353952758647 0 0.091818506572013542 -0.0043034268775509659 0 0.090543200667820053 -0.0054978478338181215 0 0.090153159549385936 -0.0041636353952758647 0 0.091818506572013542 -0.0043034268775509659 0 0.090153159549385936 -0.0041636353952758647 0 0.091675254342386159 -0.0032215719843494564 0 0.090153159549385936 -0.0041636353952758647 0 0.09049921969366892 -0.0031522985931388731 0 0.091675254342386159 -0.0032215719843494564 0 0.090153159549385936 -0.0041636353952758647 0 0.09049921969366892 -0.0031522985931388731 0 0.088802688604419922 -0.0039264341430886073 0 0.09049921969366892 -0.0031522985931388731 0 0.09122270150484052 -0.0021055806731592828 0 0.089713637073611269 -0.0022574213609602599 0 0.09049921969366892 -0.0031522985931388731 0 0.091387518476980095 -0.0025772681164044999 0 0.09122270150484052 -0.0021055806731592828 0 0.09049921969366892 -0.0031522985931388731 0 0.091387518476980095 -0.0025772681164044999 0 0.091675254342386159 -0.0032215719843494564 0 0.091387518476980095 -0.0025772681164044999 0 0.091675254342386159 -0.0032215719843494564 0 0.092116165590529667 -0.0023248572573992092 0 0.091938484481866076 -0.0018613525964582616 0 0.09122270150484052 -0.0021055806731592828 0 0.092311415771318225 -0.0011895790733452776 0 0.091387518476980095 -0.0025772681164044999 0 0.092116165590529667 -0.0023248572573992092 0 0.091938484481866076 -0.0018613525964582616 0 0.092116165590529667 -0.0023248572573992092 0 0.091938484481866076 -0.0018613525964582616 0 0.092630888558457303 -0.0015855170067025071 0 0.091387518476980095 -0.0025772681164044999 0 0.091938484481866076 -0.0018613525964582616 0 0.09122270150484052 -0.0021055806731592828 0 0.09122270150484052 -0.0021055806731592828 0 0.091150541837771534 -0.0021114538146560632 0 0.092311415771318225 -0.0011895790733452776 0 0.095242741349614496 -0.0012268381832704364 0 0.094980847880768535 -0.0010448447518745963 0 0.095198975035730868 -0.00075914902859361433 0 0.089467130697719097 -0.00078739005746575417 0 0.092116826356417214 -0.0011464748623227425 0 0.08958025656651894 -0.00080812179242084929 0 0.089467130697719097 -0.00078739005746575417 0 0.085493504829952244 0.0035313689523035195 0 0.085879745985889391 -0.0010739568362605704 0 0.078273155929901903 0.0012980817526090577 0 0.09049921969366892 -0.0031522985931388731 0 0.089713637073611269 -0.0022574213609602599 0 0.088802688604419922 -0.0039264341430886073 0 0.089467130697719097 -0.00078739005746575417 0 0.089008744032594775 -0.00248159236605534 0 0.089467130697719097 -0.00078739005746575417 0 0.087305282079377572 -0.0011558991629867709 0 0.080529086568660174 -0.0035685982148514384 0 0.085879745985889391 -0.0010739568362605704 0 0.078273155929901903 0.0012980817526090577 0 0.094839138162387288 -0.0013641066890819494 0 0.094980847880768535 -0.0010448447518745963 0 0.094709220293622623 -0.00096049035353096529 0 0.095242741349614496 -0.0012268381832704364 0 0.094839138162387288 -0.0013641066890819494 0 0.094980847880768535 -0.0010448447518745963 0 0.094422881324513347 -0.0011416348453037147 0 0.094839138162387288 -0.0013641066890819494 0 0.094709220293622623 -0.00096049035353096529 0 0.094422881324513347 -0.0011416348453037147 0 0.094522980727623593 -0.00083366345242388395 0 0.094709220293622623 -0.00096049035353096529 0 0.094377963693090566 -0.0015820213315519765 0 0.094422881324513347 -0.0011416348453037147 0 0.094839138162387288 -0.0013641066890819494 0 0.073275757136148825 -0.0022103324062918658 0 0.075862660796235645 -0.0027903633779250447 0 0.078273155929901903 0.0012980817526090577 0 0.085250187853681075 -0.0020854806730044965 0 0.087305282079377572 -0.0011558991629867709 0 0.094532103947671878 -0.00051776252325822078 0 0.094716268870615294 -0.00049918710254321156 0 0.094621256325652048 -0.00058228876052705424 0 0.094716268870615294 -0.00049918710254321156 0 0.094621256325652048 -0.00058228876052705424 0 0.094683760287762431 -0.00067973820769663142 0 0.094716268870615294 -0.00049918710254321156 0 0.094683760287762431 -0.00067973820769663142 0 0.09488537932704863 -0.00053579242891535386 0 0.094532103947671878 -0.00051776252325822078 0 0.094621256325652048 -0.00058228876052705424 0 0.094525465853428622 -0.00067626316621478355 0 0.094621256325652048 -0.00058228876052705424 0 0.094525465853428622 -0.00067626316621478355 0 0.094683760287762431 -0.00067973820769663142 0 0.094525465853428622 -0.00067626316621478355 0 0.094522980727623593 -0.00083366345242388395 0 0.094683760287762431 -0.00067973820769663142 0 0.094522980727623593 -0.00083366345242388395 0 0.094709220293622623 -0.00096049035353096529 0 0.094683760287762431 -0.00067973820769663142 0 0.094709220293622623 -0.00096049035353096529 0 0.094683760287762431 -0.00067973820769663142 0 0.094891796270541548 -0.00079424201743081928 0 0.094980847880768535 -0.0010448447518745963 0 0.094891796270541548 -0.00079424201743081928 0 0.095198975035730868 -0.00075914902859361433 0 0.094891796270541548 -0.00079424201743081928 0 0.09488537932704863 -0.00053579242891535386 0 0.095198975035730868 -0.00075914902859361433 0 0.094980847880768535 -0.0010448447518745963 0 0.094709220293622623 -0.00096049035353096529 0 0.094891796270541548 -0.00079424201743081928 0 0.094683760287762431 -0.00067973820769663142 0 0.094891796270541548 -0.00079424201743081928 0 0.09488537932704863 -0.00053579242891535386 0 0.09488537932704863 -0.00053579242891535386 0 0.095198975035730868 -0.00075914902859361433 0 0.095119838550479702 -0.000317562541351361 0 0.092311415771318225 -0.0011895790733452776 0 0.093696806700469842 -0.00048989029621931426 0 0.093656837583132174 -0.00032234809598594567 0 0.092116826356417214 -0.0011464748623227425 0 0.09375333323098986 -0.00069176017589313711 0 0.091938484481866076 -0.0018613525964582616 0 0.092311415771318225 -0.0011895790733452776 0 0.092630888558457303 -0.0015855170067025071 0 0.092311415771318225 -0.0011895790733452776 0 0.092630888558457303 -0.0015855170067025071 0 0.093532748993944662 -0.00091151276919642255 0 0.092311415771318225 -0.0011895790733452776 0 0.093696806700469842 -0.00048989029621931426 0 0.093532748993944662 -0.00091151276919642255 0 0.093696806700469842 -0.00048989029621931426 0 0.094336812027594849 -0.00014739364138595054 0 0.093656837583132174 -0.00032234809598594567 0 0.093696806700469842 -0.00048989029621931426 0 0.094336812027594849 -0.00014739364138595054 0 0.094452155328947227 -0.00021872164510101244 0 0.094336812027594849 -0.00014739364138595054 0 0.094998338207655603 -2.8708706617097623e-08 0 0.09499908091800717 -7.547888874143564e-08 0 0.095000556406364747 -1.3232930418106651e-07 0 0.095119838550479702 -0.000317562541351361 0 0.09499946813996589 1.1613120797971215e-07 0 0.094336812027594849 -0.00014739364138595054 0 0.094998338207655603 -2.8708706617097623e-08 0 0.093656837583132174 -0.00032234809598594567 0 0.094997665486983573 -1.0005464395489131e-06 0 0.09375333323098986 -0.00069176017589313711 0 0.09488537932704863 -0.00053579242891535386 0 0.095119838550479702 -0.000317562541351361 0 0.094789160620592727 -0.00022940771221847145 0 0.094716268870615294 -0.00049918710254321156 0 0.09488537932704863 -0.00053579242891535386 0 0.094789160620592727 -0.00022940771221847145 0 0.094999857404112723 -1.3944174217066176e-07 0 0.094869682022593452 -0.00014584731845234105 0 0.095000009332583568 -7.0851283927004552e-09 0 0.094999976104848255 1.3454266930393552e-08 0 0.094993323625390508 -1.6489267855668402e-06 0 0.095119838550479702 -0.000317562541351361 0 0.09499946813996589 1.1613120797971215e-07 0 0.094789160620592727 -0.00022940771221847145 0 0.094957951163916685 -5.1673092490089663e-06 0 0.094999976104848255 1.3454266930393552e-08 0 0.094993323625390508 -1.6489267855668402e-06 0 0.094708240344917968 -0.00033123416955515726 0 0.094869682022593452 -0.00014584731845234105 0 0.094532103947671878 -0.00051776252325822078 0 0.094716268870615294 -0.00049918710254321156 0 0.094789160620592727 -0.00022940771221847145 0 0.09493773613521414 -1.3049976270843433e-05 0 0.094957951163916685 -5.1673092490089663e-06 0 0.094993323625390508 -1.6489267855668402e-06 0 0.09493773613521414 -1.3049976270843433e-05 0 0.094977744408529019 -5.069878268077501e-05 0 0.094993323625390508 -1.6489267855668402e-06 0 0.095212104278616816 -0.00082421829002182713 0 0.094711419518511961 -0.0011772808878401351 0 0.094454208556679728 -0.00071312281742276105 0 0.095212104278616816 -0.00082421829002182713 0 0.094454208556679728 -0.00071312281742276105 0 0.094995308795667602 -0.00022677167075589724 0 0.095212104278616816 -0.00082421829002182713 0 0.095862739548882289 -0.001374486588314003 0 0.095815913697083102 -0.00037130722429745358 0 0.095212104278616816 -0.00082421829002182713 0 0.095862739548882289 -0.001374486588314003 0 0.095213690338625062 -0.001553960264545782 0 0.095819984707876615 -0.0021602747170769809 0 0.095862739548882289 -0.001374486588314003 0 0.096427215793805546 -0.0020366189699591343 0 0.095819984707876615 -0.0021602747170769809 0 0.095862739548882289 -0.001374486588314003 0 0.095213690338625062 -0.001553960264545782 0 0.095212104278616816 -0.00082421829002182713 0 0.095213690338625062 -0.001553960264545782 0 0.094711419518511961 -0.0011772808878401351 0 0.095213690338625062 -0.001553960264545782 0 0.094711419518511961 -0.0011772808878401351 0 0.094549449663749952 -0.0017202202713103294 0 0.094982399438186274 -0.0023958176253184747 0 0.095213690338625062 -0.001553960264545782 0 0.094549449663749952 -0.0017202202713103294 0 0.094711419518511961 -0.0011772808878401351 0 0.093873182448377696 -0.0014341322125499729 0 0.094454208556679728 -0.00071312281742276105 0 0.094115112417833963 -0.0022925778968254998 0 0.094549449663749952 -0.0017202202713103294 0 0.093873182448377696 -0.0014341322125499729 0 0.094711419518511961 -0.0011772808878401351 0 0.094549449663749952 -0.0017202202713103294 0 0.093873182448377696 -0.0014341322125499729 0 0.092630888558457303 -0.0015855170067025071 0 0.093873182448377696 -0.0014341322125499729 0 0.093532748993944662 -0.00091151276919642255 0 0.093696806700469842 -0.00048989029621931426 0 0.093532748993944662 -0.00091151276919642255 0 0.094452155328947227 -0.00021872164510101244 0 0.093873182448377696 -0.0014341322125499729 0 0.093532748993944662 -0.00091151276919642255 0 0.094454208556679728 -0.00071312281742276105 0 0.093532748993944662 -0.00091151276919642255 0 0.094454208556679728 -0.00071312281742276105 0 0.094452155328947227 -0.00021872164510101244 0 0.094454208556679728 -0.00071312281742276105 0 0.094452155328947227 -0.00021872164510101244 0 0.094995308795667602 -0.00022677167075589724 0 0.094336812027594849 -0.00014739364138595054 0 0.094452155328947227 -0.00021872164510101244 0 0.09499908091800717 -7.547888874143564e-08 0 0.094452155328947227 -0.00021872164510101244 0 0.09499908091800717 -7.547888874143564e-08 0 0.094999596339972431 -7.0247308357946766e-08 0 0.094452155328947227 -0.00021872164510101244 0 0.094999596339972431 -7.0247308357946766e-08 0 0.094995308795667602 -0.00022677167075589724 0 0.094999596339972431 -7.0247308357946766e-08 0 0.094995308795667602 -0.00022677167075589724 0 0.095001454047171946 2.1511726318335792e-07 0 0.095212104278616816 -0.00082421829002182713 0 0.094995308795667602 -0.00022677167075589724 0 0.095815913697083102 -0.00037130722429745358 0 0.094995308795667602 -0.00022677167075589724 0 0.095001454047171946 2.1511726318335792e-07 0 0.095815913697083102 -0.00037130722429745358 0 0.09499996370241201 1.3298335939922215e-08 0 0.094996206665665731 -1.1468758207136591e-05 0 0.094999989780717109 -1.9178284335100993e-08 0 0.09499996370241201 1.3298335939922215e-08 0 0.094996206665665731 -1.1468758207136591e-05 0 0.094982396878252787 -4.8248424168667004e-05 0 0.094999800844133758 -6.641839509700316e-07 0 0.094887033874868784 -0.00058571930348820197 0 0.094996206665665731 -1.1468758207136591e-05 0 0.094985033944265912 -1.0947108857462656e-05 0 0.094983224631827373 -1.3907317902475465e-05 0 0.094996206665665731 -1.1468758207136591e-05 0 0.094999989780717109 -1.9178284335100993e-08 0 0.094985033944265912 -1.0947108857462656e-05 0 0.094999989780717109 -1.9178284335100993e-08 0 0.094985033944265912 -1.0947108857462656e-05 0 0.094991288942068305 -5.1052463956673973e-06 0 0.094985033944265912 -1.0947108857462656e-05 0 0.094978422210128241 -1.2898676086905729e-05 0 0.094991288942068305 -5.1052463956673973e-06 0 0.094985033944265912 -1.0947108857462656e-05 0 0.094978030534637173 -1.5673890579168507e-05 0 0.094983224631827373 -1.3907317902475465e-05 0 0.094985033944265912 -1.0947108857462656e-05 0 0.094978030534637173 -1.5673890579168507e-05 0 0.094973977376311997 -1.7020196860563325e-05 0 0.094978030534637173 -1.5673890579168507e-05 0 0.094973977376311997 -1.7020196860563325e-05 0 0.094969454962992306 -2.0790314748123678e-05 0 0.094985033944265912 -1.0947108857462656e-05 0 0.094973977376311997 -1.7020196860563325e-05 0 0.094978422210128241 -1.2898676086905729e-05 0 0.094651257911546952 -0.00023689703361356096 0 0.094596159517340669 -0.00042837757295023128 0 0.094996206665665731 -1.1468758207136591e-05 0 0.094982396878252787 -4.8248424168667004e-05 0 0.094989046155263365 -6.0892649059178507e-05 0 0.094996206665665731 -1.1468758207136591e-05 0 0.094983224631827373 -1.3907317902475465e-05 0 0.094973854450995918 -1.7893088528236075e-05 0 0.094978030534637173 -1.5673890579168507e-05 0 0.094983224631827373 -1.3907317902475465e-05 0 0.094973854450995918 -1.7893088528236075e-05 0 0.094978030534637173 -1.5673890579168507e-05 0 0.094973854450995918 -1.7893088528236075e-05 0 0.094969454962992306 -2.0790314748123678e-05 0 0.094973854450995918 -1.7893088528236075e-05 0 0.094969454962992306 -2.0790314748123678e-05 0 0.094965692238410171 -2.3730602847456062e-05 0 0.095862739548882289 -0.001374486588314003 0 0.095815913697083102 -0.00037130722429745358 0 0.096716829320818945 -0.0014519611236463977 0 0.094887033874868784 -0.00058571930348820197 0 0.094441318442411964 -0.0013548811782820823 0 0.094596159517340669 -0.00042837757295023128 0 0.094441318442411964 -0.0013548811782820823 0 0.094982396878252787 -4.8248424168667004e-05 0 0.094989046155263365 -6.0892649059178507e-05 0 0.094980627510059715 -0.00013513947714172017 0 0.094973977376311997 -1.7020196860563325e-05 0 0.094953272020658841 -2.4181533011851931e-05 0 0.094978422210128241 -1.2898676086905729e-05 0 0.094973977376311997 -1.7020196860563325e-05 0 0.094969454962992306 -2.0790314748123678e-05 0 0.094953272020658841 -2.4181533011851931e-05 0 0.094969454962992306 -2.0790314748123678e-05 0 0.094965692238410171 -2.3730602847456062e-05 0 0.094953272020658841 -2.4181533011851931e-05 0 0.094856191501149725 -0.00083268177360150983 0 0.093987151784682685 -0.0022435532791779309 0 0.094953272020658841 -2.4181533011851931e-05 0 0.094884823444913724 -6.1859607901317099e-05 0 0.094927321541706522 -5.1785102604285961e-05 0 0.094965692238410171 -2.3730602847456062e-05 0 0.094953272020658841 -2.4181533011851931e-05 0 0.094962258235497449 -2.1577798131247318e-05 0 0.094441318442411964 -0.0013548811782820823 0 0.094080649835012589 -0.0027156067392544742 0 0.095862739548882289 -0.001374486588314003 0 0.096716829320818945 -0.0014519611236463977 0 0.096427215793805546 -0.0020366189699591343 0 0.096716829320818945 -0.0014519611236463977 0 0.097159159314291199 -0.0025494337791912131 0 0.096427215793805546 -0.0020366189699591343 0 0.094441318442411964 -0.0013548811782820823 0 0.093987151784682685 -0.0022435532791779309 0 0.09496117901216479 -3.4366522770216753e-05 0 0.094964085949878291 -4.1899037031733982e-05 0 0.094950985340566132 -5.6267549539135397e-05 0 0.09496117901216479 -3.4366522770216753e-05 0 0.094944884663739432 -4.5959038241806557e-05 0 0.094950985340566132 -5.6267549539135397e-05 0 0.094944884663739432 -4.5959038241806557e-05 0 0.094953272020658841 -2.4181533011851931e-05 0 0.094927321541706522 -5.1785102604285961e-05 0 0.09496117901216479 -3.4366522770216753e-05 0 0.094944884663739432 -4.5959038241806557e-05 0 0.094953272020658841 -2.4181533011851931e-05 0 0.094953272020658841 -2.4181533011851931e-05 0 0.094975994397254487 -1.6428718023502969e-05 0 0.094978422210128241 -1.2898676086905729e-05 0 0.09496117901216479 -3.4366522770216753e-05 0 0.094953272020658841 -2.4181533011851931e-05 0 0.094975994397254487 -1.6428718023502969e-05 0 0.094962178005638401 -4.0487169672939621e-06 0 0.09495194415463111 1.193076578176941e-06 0 0.09496117901216479 -3.4366522770216753e-05 0 0.094975994397254487 -1.6428718023502969e-05 0 0.094969721297896256 -2.9353034642201883e-05 0 0.094975994397254487 -1.6428718023502969e-05 0 0.094992163766491847 -4.5362271016993263e-06 0 0.094993383268232867 -6.4756242440017489e-06 0 0.094975994397254487 -1.6428718023502969e-05 0 0.094992163766491847 -4.5362271016993263e-06 0 0.094978422210128241 -1.2898676086905729e-05 0 0.094992163766491847 -4.5362271016993263e-06 0 0.094978422210128241 -1.2898676086905729e-05 0 0.094991288942068305 -5.1052463956673973e-06 0 0.094992163766491847 -4.5362271016993263e-06 0 0.094999984259329262 2.8345670329208338e-09 0 0.094991288942068305 -5.1052463956673973e-06 0 0.094999989780717109 -1.9178284335100993e-08 0 0.094999984259329262 2.8345670329208338e-09 0 0.094991288942068305 -5.1052463956673973e-06 0 0.094992163766491847 -4.5362271016993263e-06 0 0.094999984259329262 2.8345670329208338e-09 0 0.094999986072494283 -1.3583483385690338e-08 0 0.094992163766491847 -4.5362271016993263e-06 0 0.094999986072494283 -1.3583483385690338e-08 0 0.094995087249349699 -4.0731054090245636e-06 0 0.094999990033073273 -2.3787177342530102e-09 0 0.094993439710304994 -1.5588871033101416e-07 0 0.094999986072494283 -1.3583483385690338e-08 0 0.094995087249349699 -4.0731054090245636e-06 0 0.09499062073929404 -7.9926554313749039e-06 0 0.094999997996219263 -1.2557237770572652e-09 0 0.095000005435043083 3.0936672835549683e-09 0 0.095000242058334863 6.9160284751202425e-07 0 0.094995087249349699 -4.0731054090245636e-06 0 0.09499062073929404 -7.9926554313749039e-06 0 0.094991229220202922 -4.4000017309424406e-06 0 0.094995087249349699 -4.0731054090245636e-06 0 0.094991229220202922 -4.4000017309424406e-06 0 0.094993575013888859 -4.386409293531568e-06 0 0.094991229220202922 -4.4000017309424406e-06 0 0.094989007543116594 -9.289290420735193e-07 0 0.094993575013888859 -4.386409293531568e-06 0 0.094992163766491847 -4.5362271016993263e-06 0 0.094995087249349699 -4.0731054090245636e-06 0 0.094993575013888859 -4.386409293531568e-06 0 0.094992163766491847 -4.5362271016993263e-06 0 0.094993575013888859 -4.386409293531568e-06 0 0.094993383268232867 -6.4756242440017489e-06 0 0.094999983160532805 -5.6007476928512039e-09 0 0.094985235754822608 2.3616328837271413e-06 0 0.094998820224198602 3.793877330250479e-06 0 0.095000005435043083 3.0936672835549683e-09 0 0.095000242058334863 6.9160284751202425e-07 0 0.094998820224198602 3.793877330250479e-06 0 0.09499062073929404 -7.9926554313749039e-06 0 0.094991229220202922 -4.4000017309424406e-06 0 0.094977106410497128 -6.0763317040330533e-06 0 0.095000005435043083 3.0936672835549683e-09 0 0.094999983160532805 -5.6007476928512039e-09 0 0.094998820224198602 3.793877330250479e-06 0 0.094993439710304994 -1.5588871033101416e-07 0 0.094987146890697219 4.6688375759719082e-07 0 0.094991229220202922 -4.4000017309424406e-06 0 0.094989007543116594 -9.289290420735193e-07 0 0.094977106410497128 -6.0763317040330533e-06 0 0.094989007543116594 -9.289290420735193e-07 0 0.094977106410497128 -6.0763317040330533e-06 0 0.094977733819707963 5.2859308610604041e-06 0 0.094987146890697219 4.6688375759719082e-07 0 0.094981196777805851 1.9523797833231996e-06 0 0.094977106410497128 -6.0763317040330533e-06 0 0.094967004803783825 4.130609411988586e-06 0 0.094962553405697328 3.7392846913294102e-06 0 0.094985235754822608 2.3616328837271413e-06 0 0.094998820224198602 3.793877330250479e-06 0 0.094962553405697328 3.7392846913294102e-06 0 0.094977106410497128 -6.0763317040330533e-06 0 0.094967004803783825 4.130609411988586e-06 0 0.094977733819707963 5.2859308610604041e-06 0 0.094968177774947024 1.0844435729200329e-05 0 0.094977733819707963 5.2859308610604041e-06 0 0.094975027739663556 1.5517747271285284e-05 0 0.094968177774947024 1.0844435729200329e-05 0 0.094967004803783825 4.130609411988586e-06 0 0.094977733819707963 5.2859308610604041e-06 0 0.094989007543116594 -9.289290420735193e-07 0 0.094977733819707963 5.2859308610604041e-06 0 0.094987498312000984 6.9306012141184209e-06 0 0.094988324894401274 -4.7019606765621564e-05 0 0.095000314058146906 -4.2573888629798117e-05 0 0.094982739552838494 -3.6383841794571332e-05 0 0.094615853813457954 0.00013732093406029628 0 0.094887395180598869 2.9509026771643687e-05 0 0.094977733819707963 5.2859308610604041e-06 0 0.094975027739663556 1.5517747271285284e-05 0 0.094987498312000984 6.9306012141184209e-06 0 0.094699056403327292 -9.9891097031701463e-05 0 0.09473959201160459 -0.00014811513221179689 0 0.094839434280612755 -0.00011958200969397844 0 0.094850049411424012 -3.5338278634515931e-05 0 0.094785512013259521 -9.3924788470061476e-05 0 0.094876911995462707 -7.5594236810880552e-05 0 0.094615853813457954 0.00013732093406029628 0 0.094700642151778175 8.7411048638656749e-05 0 0.094785512013259521 -9.3924788470061476e-05 0 0.094839434280612755 -0.00011958200969397844 0 0.094876911995462707 -7.5594236810880552e-05 0 0.094704957431987841 0.00011448040766111167 0 0.094615853813457954 0.00013732093406029628 0 0.094989007543116594 -9.289290420735193e-07 0 0.094993383268232867 -6.4756242440017489e-06 0 0.094987498312000984 6.9306012141184209e-06 0 0.09495194415463111 1.193076578176941e-06 0 0.094887395180598869 2.9509026771643687e-05 0 0.094989007543116594 -9.289290420735193e-07 0 0.094993575013888859 -4.386409293531568e-06 0 0.094993383268232867 -6.4756242440017489e-06 0 0.094988324894401274 -4.7019606765621564e-05 0 0.094982739552838494 -3.6383841794571332e-05 0 0.094977847652184838 -5.0602224262919671e-05 0 0.094982739552838494 -3.6383841794571332e-05 0 0.094971715243107505 -4.1074721705452385e-05 0 0.094977847652184838 -5.0602224262919671e-05 0 0.094969721297896256 -2.9353034642201883e-05 0 0.094982739552838494 -3.6383841794571332e-05 0 0.094971715243107505 -4.1074721705452385e-05 0 0.094969721297896256 -2.9353034642201883e-05 0 0.094971715243107505 -4.1074721705452385e-05 0 0.094964085949878291 -4.1899037031733982e-05 0 0.094971715243107505 -4.1074721705452385e-05 0 0.094964085949878291 -4.1899037031733982e-05 0 0.094964351460504942 -5.6633583574950677e-05 0 0.09496117901216479 -3.4366522770216753e-05 0 0.094969721297896256 -2.9353034642201883e-05 0 0.094964085949878291 -4.1899037031733982e-05 0 0.094964085949878291 -4.1899037031733982e-05 0 0.094964351460504942 -5.6633583574950677e-05 0 0.094950985340566132 -5.6267549539135397e-05 0 0.094964351460504942 -5.6633583574950677e-05 0 0.094952762635908988 -7.2366118422818919e-05 0 0.094960795577414436 -7.4162539563918744e-05 0 0.094964351460504942 -5.6633583574950677e-05 0 0.094952762635908988 -7.2366118422818919e-05 0 0.094950985340566132 -5.6267549539135397e-05 0 0.094964351460504942 -5.6633583574950677e-05 0 0.094969787740385059 -6.9010045908295942e-05 0 0.094960795577414436 -7.4162539563918744e-05 0 0.094971715243107505 -4.1074721705452385e-05 0 0.094964351460504942 -5.6633583574950677e-05 0 0.094977847652184838 -5.0602224262919671e-05 0 0.094977847652184838 -5.0602224262919671e-05 0 0.094969787740385059 -6.9010045908295942e-05 0 0.094986790659177242 -6.1490649923790373e-05 0 0.094988324894401274 -4.7019606765621564e-05 0 0.094977847652184838 -5.0602224262919671e-05 0 0.094986790659177242 -6.1490649923790373e-05 0 0.094964351460504942 -5.6633583574950677e-05 0 0.094977847652184838 -5.0602224262919671e-05 0 0.094969787740385059 -6.9010045908295942e-05 0 0.094859971035342383 -7.1238116391679265e-05 0 0.094692418923810612 -0.00019412863112073137 0 0.094731126512215477 -0.0001052328600196405 0 0.094969787740385059 -6.9010045908295942e-05 0 0.09496655611768122 -8.84323094604715e-05 0 0.094986790659177242 -6.1490649923790373e-05 0 0.092061315501434163 0.00037383673135775463 0 0.093844931753967242 0.0003910477584075381 0 0.094969787740385059 -6.9010045908295942e-05 0 0.09496655611768122 -8.84323094604715e-05 0 0.094960923970779987 -8.7171136063965958e-05 0 0.092061315501434163 0.00037383673135775463 0 0.092162501539612349 0.00034138873459423042 0 0.094966790988051872 -8.9866337740260953e-05 0 0.094960923970779987 -8.7171136063965958e-05 0 0.094952835422133536 -9.2345200974900063e-05 0 0.094960923970779987 -8.7171136063965958e-05 0 0.094954393944359519 -8.2676147974228756e-05 0 0.094960795577414436 -7.4162539563918744e-05 0 0.094960923970779987 -8.7171136063965958e-05 0 0.094954393944359519 -8.2676147974228756e-05 0 0.094952835422133536 -9.2345200974900063e-05 0 0.094954393944359519 -8.2676147974228756e-05 0 0.094952762635908988 -7.2366118422818919e-05 0 0.094944683438742142 -8.8155549950608204e-05 0 0.094954393944359519 -8.2676147974228756e-05 0 0.094952835422133536 -9.2345200974900063e-05 0 0.094944683438742142 -8.8155549950608204e-05 0 0.094954393944359519 -8.2676147974228756e-05 0 0.094952762635908988 -7.2366118422818919e-05 0 0.094960795577414436 -7.4162539563918744e-05 0 0.094969787740385059 -6.9010045908295942e-05 0 0.094960923970779987 -8.7171136063965958e-05 0 0.094960795577414436 -7.4162539563918744e-05 0 0.094699056403327292 -9.9891097031701463e-05 0 0.09473959201160459 -0.00014811513221179689 0 0.094693359174567851 -0.0001731243234002436 0 0.094748645987512009 -0.00019390900539180661 0 0.09473959201160459 -0.00014811513221179689 0 0.094839434280612755 -0.00011958200969397844 0 0.094748645987512009 -0.00019390900539180661 0 0.09473959201160459 -0.00014811513221179689 0 0.094693359174567851 -0.0001731243234002436 0 0.094615853813457954 0.00013732093406029628 0 0.093844931753967242 0.0003910477584075381 0 0.094988324894401274 -4.7019606765621564e-05 0 0.095000314058146906 -4.2573888629798117e-05 0 0.094986790659177242 -6.1490649923790373e-05 0 0.094699056403327292 -9.9891097031701463e-05 0 0.094693359174567851 -0.0001731243234002436 0 0.094692418923810612 -0.00019412863112073137 0 0.094693359174567851 -0.0001731243234002436 0 0.094692418923810612 -0.00019412863112073137 0 0.094617973885197298 -0.00014992474508535879 0 0.094692418923810612 -0.00019412863112073137 0 0.094731126512215477 -0.0001052328600196405 0 0.094617973885197298 -0.00014992474508535879 0 0.094731126512215477 -0.0001052328600196405 0 0.094617973885197298 -0.00014992474508535879 0 0.094739266846455131 2.1960265853159575e-05 0 0.094748645987512009 -0.00019390900539180661 0 0.094693359174567851 -0.0001731243234002436 0 0.094617973885197298 -0.00014992474508535879 0 0.094227369462427976 -0.00055316773280402137 0 0.094617973885197298 -0.00014992474508535879 0 0.094221999643880949 -7.8658115347282498e-05 0 0.094373147996386658 -0.00026185088071563285 0 0.094451499479458231 -0.00020879603615749418 0 0.09418927262153097 0.00020655757392982763 0 0.094476580320973502 0.00025261571610009294 0 0.093902834181739545 0.00048906527244036932 0 0.094617973885197298 -0.00014992474508535879 0 0.094221999643880949 -7.8658115347282498e-05 0 0.094471373798421035 0.00021382698474450661 0 0.094221999643880949 -7.8658115347282498e-05 0 0.09418927262153097 0.00020655757392982763 0 0.094471373798421035 0.00021382698474450661 0 0.091043850537881971 0.0012113108038370279 0 0.090441339818851371 0.0011820320053511828 0 0.090718267051562926 0.00091655005351951567 0 0.090433688494435394 0.0010199502860272608 0 0.09027217831778217 0.00083297946084897505 0 0.090441339818851371 0.0011820320053511828 0 0.088429628199672358 0.00099233167677121562 0 0.090441339818851371 0.0011820320053511828 0 0.091700476077897025 0.00063518449259154872 0 0.094617973885197298 -0.00014992474508535879 0 0.094471373798421035 0.00021382698474450661 0 0.094739266846455131 2.1960265853159575e-05 0 0.08551572956433745 0.003759421652543097 0 0.084832802653728487 0.0037553312809108837 0 0.085181572415795381 0.0033237778900545756 0 0.090441339818851371 0.0011820320053511828 0 0.090022349482525521 0.0017686215048161693 0 0.08551572956433745 0.003759421652543097 0 0.086013669673841428 0.0034221913865235122 0 0.085803259345969815 0.0031390094652194857 0 0.08551572956433745 0.003759421652543097 0 0.085803259345969815 0.0031390094652194857 0 0.085181572415795381 0.0033237778900545756 0 0.094966790988051872 -8.9866337740260953e-05 0 0.094952835422133536 -9.2345200974900063e-05 0 0.094940009115548493 -0.0001064666957998411 0 0.090148001662749708 0.0011271588463428388 0 0.09027217831778217 0.00083297946084897505 0 0.089820946451030198 0.00075151960872765994 0 0.092061315501434163 0.00037383673135775463 0 0.088664313282548757 0.00036095340248615997 0 0.094966790988051872 -8.9866337740260953e-05 0 0.094933216709892271 -0.00012844693232694657 0 0.094940009115548493 -0.0001064666957998411 0 0.094952835422133536 -9.2345200974900063e-05 0 0.094940009115548493 -0.0001064666957998411 0 0.094944683438742142 -8.8155549950608204e-05 0 0.090148001662749708 0.0011271588463428388 0 0.090433688494435394 0.0010199502860272608 0 0.09027217831778217 0.00083297946084897505 0 0.092061315501434163 0.00037383673135775463 0 0.091700476077897025 0.00063518449259154872 0 0.094859971035342383 -7.1238116391679265e-05 0 0.094731126512215477 -0.0001052328600196405 0 0.094739266846455131 2.1960265853159575e-05 0 0.084832802653728487 0.0037553312809108837 0 0.084563114972370373 0.0032445591546897529 0 0.085181572415795381 0.0033237778900545756 0 0.084832802653728487 0.0037553312809108837 0 0.084113371745082002 0.0036748975105360859 0 0.084563114972370373 0.0032445591546897529 0 0.088429628199672358 0.00099233167677121562 0 0.088664313282548757 0.00036095340248615997 0 0.086565390916412729 -8.6331434783950254e-05 0 0.085330258693128547 -0.000301712688193639 0 0.085680933460942105 -0.0011008004083456111 0 0.088664313282548757 0.00036095340248615997 0 0.088634203910322257 -0.00097850525877724351 0 0.088664313282548757 0.00036095340248615997 0 0.085165284587502096 0.00011397054565230603 0 0.094933216709892271 -0.00012844693232694657 0 0.094910568084579761 -0.00011389001540513006 0 0.094903485958276954 -0.00013708153777051304 0 0.094940009115548493 -0.0001064666957998411 0 0.094929277214950869 -9.5816938998624643e-05 0 0.094910568084579761 -0.00011389001540513006 0 0.094933216709892271 -0.00012844693232694657 0 0.094940009115548493 -0.0001064666957998411 0 0.094910568084579761 -0.00011389001540513006 0 0.094940009115548493 -0.0001064666957998411 0 0.094929277214950869 -9.5816938998624643e-05 0 0.094944683438742142 -8.8155549950608204e-05 0 0.094910568084579761 -0.00011389001540513006 0 0.094879534579031657 -0.00010303937288429679 0 0.094915905550829141 -8.8621878386533544e-05 0 0.094929277214950869 -9.5816938998624643e-05 0 0.094910568084579761 -0.00011389001540513006 0 0.094915905550829141 -8.8621878386533544e-05 0 0.088634203910322257 -0.00097850525877724351 0 0.086706458251805507 -0.0027758441042497924 0 0.094910568084579761 -0.00011389001540513006 0 0.094903485958276954 -0.00013708153777051304 0 0.094869286822003671 -0.00014477879769987922 0 0.085330258693128547 -0.000301712688193639 0 0.084666575923681583 -0.0006197183174117746 0 0.084108943529490054 -0.00052077516314080708 0 0.08512500845920537 -0.00080948182462384319 0 0.085330258693128547 -0.000301712688193639 0 0.085680933460942105 -0.0011008004083456111 0 0.08512500845920537 -0.00080948182462384319 0 0.085330258693128547 -0.000301712688193639 0 0.084666575923681583 -0.0006197183174117746 0 0.084666575923681583 -0.0006197183174117746 0 0.084108943529490054 -0.00052077516314080708 0 0.084140695051066014 -0.00066358646610671786 0 0.082623177739747061 -0.0050361667216622741 0 0.084193560939090861 -0.0049206099475092571 0 0.08240755871914332 -0.0040649305883222152 0 0.084666575923681583 -0.0006197183174117746 0 0.084136487255477913 -0.00065908961635226563 0 0.084207924384636951 -0.00098344015743400195 0 0.096982963580135736 -0.007408758615802283 0 0.096703389583510282 -0.0071424987965449738 0 0.096824065527249453 -0.0068460241829060176 0 0.086706458251805507 -0.0027758441042497924 0 0.090732758895320828 -0.0045152951994116911 0 0.085354282220663519 -0.0024066961235845951 0 0.08542732651738412 -0.0024440962009384358 0 0.08542732651738412 -0.0024440962009384358 0 0.083572055508188289 -0.0022834458883376286 0 0.096982963580135736 -0.007408758615802283 0 0.096994411184417664 -0.0074703741808976199 0 0.096759315568089879 -0.007489705845339284 0 0.086706458251805507 -0.0027758441042497924 0 0.08542732651738412 -0.0024440962009384358 0 0.096982963580135736 -0.007408758615802283 0 0.09671877035852032 -0.0074422020696410162 0 0.096644980855868909 -0.0073085909260886626 0 0.096982963580135736 -0.007408758615802283 0 0.096759315568089879 -0.007489705845339284 0 0.09671877035852032 -0.0074422020696410162 0 0.08542732651738412 -0.0024440962009384358 0 0.08300798945393939 -0.0031744521060930787 0 0.08300798945393939 -0.0031744521060930787 0 0.083073122336959127 -0.0032304164245368452 0 0.096982963580135736 -0.007408758615802283 0 0.096703389583510282 -0.0071424987965449738 0 0.096644980855868909 -0.0073085909260886626 0 0.095879946387382745 -0.00769581519686345 0 0.096760472489484772 -0.0074851740456072088 0 0.096465569035915383 -0.0073857600892876093 0 0.081083581486905421 -0.0071784337154841308 0 0.08300798945393939 -0.0031744521060930787 0 0.095879946387382745 -0.00769581519686345 0 0.096465569035915383 -0.0073857600892876093 0 0.09622130489234762 -0.007179562281712161 0 0.09671877035852032 -0.0074422020696410162 0 0.096465569035915383 -0.0073857600892876093 0 0.096644980855868909 -0.0073085909260886626 0 0.096760472489484772 -0.0074851740456072088 0 0.09671877035852032 -0.0074422020696410162 0 0.096465569035915383 -0.0073857600892876093 0 0.096465569035915383 -0.0073857600892876093 0 0.09655213213072078 -0.0071971133548911354 0 0.096644980855868909 -0.0073085909260886626 0 0.096703389583510282 -0.0071424987965449738 0 0.09655213213072078 -0.0071971133548911354 0 0.096644980855868909 -0.0073085909260886626 0 0.096703389583510282 -0.0071424987965449738 0 0.0965855331262363 -0.0070835573936597765 0 0.096632993311473722 -0.0069649132215494755 0 0.096703389583510282 -0.0071424987965449738 0 0.09655213213072078 -0.0071971133548911354 0 0.0965855331262363 -0.0070835573936597765 0 0.09655213213072078 -0.0071971133548911354 0 0.0965855331262363 -0.0070835573936597765 0 0.096452416272391858 -0.0070295136560359099 0 0.09655213213072078 -0.0071971133548911354 0 0.09622130489234762 -0.007179562281712161 0 0.096452416272391858 -0.0070295136560359099 0 0.096465569035915383 -0.0073857600892876093 0 0.09655213213072078 -0.0071971133548911354 0 0.09622130489234762 -0.007179562281712161 0 0.096548745015509252 -0.0065998515612018631 0 0.09668695456615807 -0.0068173564699956172 0 0.096635983419803992 -0.0062294157983021946 0 0.093760306378236888 -0.0055019202564150849 0 0.093375324981745375 -0.0048282256849647457 0 0.09622130489234762 -0.007179562281712161 0 0.096194169922892397 -0.0068365771724842829 0 0.096452416272391858 -0.0070295136560359099 0 0.096194169922892397 -0.0068365771724842829 0 0.096487804352419826 -0.0068188458476285867 0 0.096452416272391858 -0.0070295136560359099 0 0.096487804352419826 -0.0068188458476285867 0 0.096452416272391858 -0.0070295136560359099 0 0.096632993311473722 -0.0069649132215494755 0 0.0965855331262363 -0.0070835573936597765 0 0.096452416272391858 -0.0070295136560359099 0 0.096632993311473722 -0.0069649132215494755 0 0.096487804352419826 -0.0068188458476285867 0 0.096632993311473722 -0.0069649132215494755 0 0.09668695456615807 -0.0068173564699956172 0 0.096487804352419826 -0.0068188458476285867 0 0.096548745015509252 -0.0065998515612018631 0 0.09668695456615807 -0.0068173564699956172 0 0.096548745015509252 -0.0065998515612018631 0 0.096378768923644442 -0.0066191512684244625 0 0.096446672509439835 -0.0063541355692783809 0 0.096487804352419826 -0.0068188458476285867 0 0.096548745015509252 -0.0065998515612018631 0 0.096378768923644442 -0.0066191512684244625 0 0.096194169922892397 -0.0068365771724842829 0 0.096487804352419826 -0.0068188458476285867 0 0.096378768923644442 -0.0066191512684244625 0 0.096112041655583472 -0.0063211240745500242 0 0.096194169922892397 -0.0068365771724842829 0 0.096378768923644442 -0.0066191512684244625 0 0.090962329791478488 -0.0032479693635473796 0 0.090954344069662726 -0.0030033981051519215 0 0.091143974048838505 -0.0034800333673252249 0 0.090738460909303889 -0.0025294728959810186 0 0.090962329791478488 -0.0032479693635473796 0 0.090954344069662726 -0.0030033981051519215 0 0.09668695456615807 -0.0068173564699956172 0 0.096824065527249453 -0.0068460241829060176 0 0.096610207384945704 -0.0061631010589671027 0 0.086706458251805507 -0.0027758441042497924 0 0.090924049229060763 -0.0022076283764419259 0 0.090732758895320828 -0.0045152951994116911 0 0.093375324981745375 -0.0048282256849647457 0 0.094910568084579761 -0.00011389001540513006 0 0.094869286822003671 -0.00014477879769987922 0 0.094879534579031657 -0.00010303937288429679 0 0.096703389583510282 -0.0071424987965449738 0 0.096632993311473722 -0.0069649132215494755 0 0.096824065527249453 -0.0068460241829060176 0 0.096632993311473722 -0.0069649132215494755 0 0.09668695456615807 -0.0068173564699956172 0 0.096824065527249453 -0.0068460241829060176 0 0.090962329791478488 -0.0032479693635473796 0 0.091143974048838505 -0.0034800333673252249 0 0.09116700097308171 -0.0039650417782181018 0 0.090924049229060763 -0.0022076283764419259 0 0.093987151784682685 -0.0022435532791779309 0 0.094879534579031657 -0.00010303937288429679 0 0.094908979142382402 -7.4832143362432431e-05 0 0.094915905550829141 -8.8621878386533544e-05 0 0.094879534579031657 -0.00010303937288429679 0 0.094908979142382402 -7.4832143362432431e-05 0 0.094884823444913724 -6.1859607901317099e-05 0 0.096112041655583472 -0.0063211240745500242 0 0.096557577430537306 -0.0059973687943340589 0 0.096570740948138251 -0.0056879289875053727 0 0.09482699439178148 -0.0042564794709154235 0 0.094080649835012589 -0.0027156067392544742 0 0.096112041655583472 -0.0063211240745500242 0 0.096378768923644442 -0.0066191512684244625 0 0.096446672509439835 -0.0063541355692783809 0 0.096112041655583472 -0.0063211240745500242 0 0.096446672509439835 -0.0063541355692783809 0 0.096557577430537306 -0.0059973687943340589 0 0.096548745015509252 -0.0065998515612018631 0 0.096446672509439835 -0.0063541355692783809 0 0.096635983419803992 -0.0062294157983021946 0 0.096629379242620828 -0.0062240729525742883 0 0.096557577430537306 -0.0059973687943340589 0 0.096570740948138251 -0.0056879289875053727 0 0.096446672509439835 -0.0063541355692783809 0 0.096635983419803992 -0.0062294157983021946 0 0.096557577430537306 -0.0059973687943340589 0 0.093375324981745375 -0.0048282256849647457 0 0.094080649835012589 -0.0027156067392544742 0 0.093375324981745375 -0.0048282256849647457 0 0.093466060074600316 -0.0049556944887014292 0 0.096404324446573583 -0.0027058627568758795 0 0.096723344841687556 -0.0038167803608953202 0 0.097159159314291199 -0.0025494337791912131 0 0.094345435426954505 -0.001616132002788847 0 0.094402238829734336 -0.0021835069923735193 0 0.094453134094059615 -0.0021160745984514619 0 0.091143974048838505 -0.0034800333673252249 0 0.091212394075623954 -0.0039012217386712833 0 0.09116700097308171 -0.0039650417782181018 0 0.094080649835012589 -0.0027156067392544742 0 0.093987151784682685 -0.0022435532791779309 0 0.096404324446573583 -0.0027058627568758795 0 0.097159159314291199 -0.0025494337791912131 0 0.096427215793805546 -0.0020366189699591343 0 0.094908979142382402 -7.4832143362432431e-05 0 0.094884823444913724 -6.1859607901317099e-05 0 0.094927321541706522 -5.1785102604285961e-05 0 0.094908979142382402 -7.4832143362432431e-05 0 0.094927321541706522 -5.1785102604285961e-05 0 0.094932279816874632 -6.6592500507195655e-05 0 0.094944884663739432 -4.5959038241806557e-05 0 0.094927321541706522 -5.1785102604285961e-05 0 0.094932279816874632 -6.6592500507195655e-05 0 0.094944884663739432 -4.5959038241806557e-05 0 0.094932279816874632 -6.6592500507195655e-05 0 0.094950985340566132 -5.6267549539135397e-05 0 0.094952762635908988 -7.2366118422818919e-05 0 0.094950985340566132 -5.6267549539135397e-05 0 0.094938024551383102 -7.748425197174492e-05 0 0.094932279816874632 -6.6592500507195655e-05 0 0.094950985340566132 -5.6267549539135397e-05 0 0.094938024551383102 -7.748425197174492e-05 0 0.094952762635908988 -7.2366118422818919e-05 0 0.094938024551383102 -7.748425197174492e-05 0 0.094944683438742142 -8.8155549950608204e-05 0 0.094929277214950869 -9.5816938998624643e-05 0 0.094938024551383102 -7.748425197174492e-05 0 0.094944683438742142 -8.8155549950608204e-05 0 0.094929277214950869 -9.5816938998624643e-05 0 0.094938024551383102 -7.748425197174492e-05 0 0.094915905550829141 -8.8621878386533544e-05 0 0.094908979142382402 -7.4832143362432431e-05 0 0.094932279816874632 -6.6592500507195655e-05 0 0.094915905550829141 -8.8621878386533544e-05 0 0.094932279816874632 -6.6592500507195655e-05 0 0.094938024551383102 -7.748425197174492e-05 0 0.094915905550829141 -8.8621878386533544e-05 0 0.094994684743859734 -3.9889391113760125e-06 0 0.092068664895878352 -0.00065310934599794701 0 0.085229534206408442 -9.7569488185522877e-05 0 0.094994684743859734 -3.9889391113760125e-06 0 0.079339977574998985 3.6652320334113786e-06 0 0.085229534206408442 -9.7569488185522877e-05 0 0.092068664895878352 -0.00065310934599794701 0 0.089573518411227168 -0.00057264374634757496 0 0.085229534206408442 -9.7569488185522877e-05 0 0.08539928643007319 -0.0020266612675344242 0 0.082998280241710146 -0.0013881819362194343 0 0.094994684743859734 -3.9889391113760125e-06 0 0.092068664895878352 -0.00065310934599794701 0 0.094987624275882754 2.3758062519322535e-06 0 0.092068664895878352 -0.00065310934599794701 0 0.091952074928762464 -0.00081556849367669839 0 0.090033651696320188 -0.0019543176739245552 0 0.092068664895878352 -0.00065310934599794701 0 0.094987624275882754 2.3758062519322535e-06 0 0.091952074928762464 -0.00081556849367669839 0 0.094996779677432502 -1.2716838079703652e-06 0 0.0930819763161677 -0.0011498127848140398 0 0.094987624275882754 2.3758062519322535e-06 0 0.091952074928762464 -0.00081556849367669839 0 0.08950575959486573 -0.00086420789268921864 0 0.091952074928762464 -0.00081556849367669839 0 0.090033651696320188 -0.0019543176739245552 0 0.08950575959486573 -0.00086420789268921864 0 0.090033651696320188 -0.0019543176739245552 0 0.087904180161739259 -0.0025386929150633692 0 0.088450472217544374 -0.0023420938101000534 0 0.086293576624249121 -0.0021838502882955994 0 0.08539928643007319 -0.0020266612675344242 0 0.092068664895878352 -0.00065310934599794701 0 0.090033651696320188 -0.0019543176739245552 0 0.089573518411227168 -0.00057264374634757496 0 0.085194881720837612 -0.0031426154638057673 0 0.087904180161739259 -0.0025386929150633692 0 0.084525656247353781 -0.0016051183636952905 0 0.090033651696320188 -0.0019543176739245552 0 0.085194881720837612 -0.0031426154638057673 0 0.087904180161739259 -0.0025386929150633692 0 0.087904180161739259 -0.0025386929150633692 0 0.087304760838000567 -0.0028885278340152975 0 0.088450472217544374 -0.0023420938101000534 0 0.087904180161739259 -0.0025386929150633692 0 0.087304760838000567 -0.0028885278340152975 0 0.087460791436607163 -0.001405780917984153 0 0.087304760838000567 -0.0028885278340152975 0 0.08727999969666822 -0.0024680438188131298 0 0.088450472217544374 -0.0023420938101000534 0 0.09235148286608913 -0.0015095314609006069 0 0.092918186956462728 -0.0011370155621697421 0 0.087304760838000567 -0.0028885278340152975 0 0.08727999969666822 -0.0024680438188131298 0 0.087463035933084105 -0.0027706808794941023 0 0.094994333713349435 -6.7481832890404987e-05 0 0.094980842420341799 -4.0878632703449695e-05 0 0.095005598502817146 -1.4270742243241107e-05 0 0.094994333713349435 -6.7481832890404987e-05 0 0.094980842420341799 -4.0878632703449695e-05 0 0.094910810859422559 -9.113586227333215e-05 0 0.090033651696320188 -0.0019543176739245552 0 0.088450472217544374 -0.0023420938101000534 0 0.08950575959486573 -0.00086420789268921864 0 0.08727999969666822 -0.0024680438188131298 0 0.088450472217544374 -0.0023420938101000534 0 0.08950575959486573 -0.00086420789268921864 0 0.09235148286608913 -0.0015095314609006069 0 0.0930819763161677 -0.0011498127848140398 0 0.095000008284904042 -9.5157075186209635e-10 0 0.095005598502817146 -1.4270742243241107e-05 0 0.095000003791139792 -6.7804953480648483e-09 0 0.095000003791139792 -6.7804953480648483e-09 0 0.094991368840423265 -1.2030887076927481e-05 0 0.094999956795875112 -3.1382881689648065e-09 0 0.095005598502817146 -1.4270742243241107e-05 0 0.095000003791139792 -6.7804953480648483e-09 0 0.094991368840423265 -1.2030887076927481e-05 0 0.094980842420341799 -4.0878632703449695e-05 0 0.095005598502817146 -1.4270742243241107e-05 0 0.094991368840423265 -1.2030887076927481e-05 0 0.094980842420341799 -4.0878632703449695e-05 0 0.094991368840423265 -1.2030887076927481e-05 0 0.094974999019328238 -2.242083258562801e-05 0 0.09497705892356216 9.6818806119411973e-06 0 0.094974010685842727 5.230391277278692e-06 0 0.094956861279680851 -1.0501678248578181e-06 0 0.09497705892356216 9.6818806119411973e-06 0 0.094999954417664609 9.3181588967039174e-09 0 0.094985877029025279 3.6802885988855675e-06 0 0.094991368840423265 -1.2030887076927481e-05 0 0.094974999019328238 -2.242083258562801e-05 0 0.094999956795875112 -3.1382881689648065e-09 0 0.094588419657743728 -8.6518759476831401e-05 0 0.094999178289609493 -9.4377174319878797e-08 0 0.094999983160532805 -5.6007476928512039e-09 0 0.094999954417664609 9.3181588967039174e-09 0 0.094985877029025279 3.6802885988855675e-06 0 0.094999983160532805 -5.6007476928512039e-09 0 0.094985235754822608 2.3616328837271413e-06 0 0.094985877029025279 3.6802885988855675e-06 0 0.094985235754822608 2.3616328837271413e-06 0 0.094974010685842727 5.230391277278692e-06 0 0.094962553405697328 3.7392846913294102e-06 0 0.094985235754822608 2.3616328837271413e-06 0 0.094985877029025279 3.6802885988855675e-06 0 0.094974010685842727 5.230391277278692e-06 0 0.09497705892356216 9.6818806119411973e-06 0 0.094985877029025279 3.6802885988855675e-06 0 0.094974010685842727 5.230391277278692e-06 0 0.094974010685842727 5.230391277278692e-06 0 0.094962553405697328 3.7392846913294102e-06 0 0.094956861279680851 -1.0501678248578181e-06 0 0.094951343699847576 4.6159126017272375e-06 0 0.094962553405697328 3.7392846913294102e-06 0 0.094956861279680851 -1.0501678248578181e-06 0 0.094967004803783825 4.130609411988586e-06 0 0.094951343699847576 4.6159126017272375e-06 0 0.094962553405697328 3.7392846913294102e-06 0 0.094968177774947024 1.0844435729200329e-05 0 0.094967004803783825 4.130609411988586e-06 0 0.094951343699847576 4.6159126017272375e-06 0 0.094704957431987841 0.00011448040766111167 0 0.094734515019735899 0.00010849849393123854 0 0.094850049411424012 -3.5338278634515931e-05 0 0.094925914048493751 -3.8193573765231444e-05 0 0.094876911995462707 -7.5594236810880552e-05 0 0.094850049411424012 -3.5338278634515931e-05 0 0.094951343699847576 4.6159126017272375e-06 0 0.094925914048493751 -3.8193573765231444e-05 0 0.094951343699847576 4.6159126017272375e-06 0 0.094925914048493751 -3.8193573765231444e-05 0 0.094956861279680851 -1.0501678248578181e-06 0 0.094980842420341799 -4.0878632703449695e-05 0 0.094974999019328238 -2.242083258562801e-05 0 0.094967407499031709 -5.3158540738383339e-05 0 0.094588419657743728 -8.6518759476831401e-05 0 0.093998365561586181 -0.00031033308613983234 0 0.09497705892356216 9.6818806119411973e-06 0 0.094956861279680851 -1.0501678248578181e-06 0 0.094980849206024134 -4.6413623389427994e-05 0 0.094234696504720744 -0.00014609354619084353 0 0.093998365561586181 -0.00031033308613983234 0 0.094925914048493751 -3.8193573765231444e-05 0 0.094956861279680851 -1.0501678248578181e-06 0 0.094980849206024134 -4.6413623389427994e-05 0 0.094994333713349435 -6.7481832890404987e-05 0 0.094910810859422559 -9.113586227333215e-05 0 0.094912878431994391 -0.00019350699365539944 0 0.093998365561586181 -0.00031033308613983234 0 0.092918186956462728 -0.0011370155621697421 0 0.093469115290427063 -0.0012847212333380207 0 0.093842566301165858 -0.00092235356140920222 0 0.093444485280941028 -0.00082681560337189992 0 0.093998365561586181 -0.00031033308613983234 0 0.094208561513201963 -0.00032490704353131504 0 0.094925914048493751 -3.8193573765231444e-05 0 0.094904088081838367 -0.00011851178097100434 0 0.094876911995462707 -7.5594236810880552e-05 0 0.094925914048493751 -3.8193573765231444e-05 0 0.094980849206024134 -4.6413623389427994e-05 0 0.094904088081838367 -0.00011851178097100434 0 0.094904088081838367 -0.00011851178097100434 0 0.094839434280612755 -0.00011958200969397844 0 0.094876911995462707 -7.5594236810880552e-05 0 0.093845340938029445 -0.00062943418947609617 0 0.093444485280941028 -0.00082681560337189992 0 0.093872737200790174 -0.00021468555873093738 0 0.094227369462427976 -0.00055316773280402137 0 0.093842566301165858 -0.00092235356140920222 0 0.093845340938029445 -0.00062943418947609617 0 0.094748645987512009 -0.00019390900539180661 0 0.094904088081838367 -0.00011851178097100434 0 0.094839434280612755 -0.00011958200969397844 0 0.094373147996386658 -0.00026185088071563285 0 0.094208561513201963 -0.00032490704353131504 0 0.093842566301165858 -0.00092235356140920222 0 0.093845340938029445 -0.00062943418947609617 0 0.093444485280941028 -0.00082681560337189992 0 0.092918186956462728 -0.0011370155621697421 0 0.093399875082681549 -0.00057389069650167792 0 0.092918186956462728 -0.0011370155621697421 0 0.091199058346325343 -0.00011047480625167333 0 0.093405375280727371 -0.00087303447163569281 0 0.093366182935111883 -7.4806456527369837e-05 0 0.093872737200790174 -0.00021468555873093738 0 0.094227369462427976 -0.00055316773280402137 0 0.093845340938029445 -0.00062943418947609617 0 0.093872737200790174 -0.00021468555873093738 0 0.094227369462427976 -0.00055316773280402137 0 0.094221999643880949 -7.8658115347282498e-05 0 0.093872737200790174 -0.00021468555873093738 0 0.094221999643880949 -7.8658115347282498e-05 0 0.09418927262153097 0.00020655757392982763 0 0.093845865006146931 0.00013682351964743516 0 0.093366182935111883 -7.4806456527369837e-05 0 0.093872737200790174 -0.00021468555873093738 0 0.093845865006146931 0.00013682351964743516 0 0.094221999643880949 -7.8658115347282498e-05 0 0.093872737200790174 -0.00021468555873093738 0 0.093845865006146931 0.00013682351964743516 0 0.09418927262153097 0.00020655757392982763 0 0.093845865006146931 0.00013682351964743516 0 0.093902834181739545 0.00048906527244036932 0 0.093845865006146931 0.00013682351964743516 0 0.093902834181739545 0.00048906527244036932 0 0.09331699868835848 0.00071721710244923229 0 0.090022349482525521 0.0017686215048161693 0 0.090019597586443387 0.0021362438863198586 0 0.086013669673841428 0.0034221913865235122 0 0.086362217755881959 0.0028699396704153128 0 0.086246465640698169 0.0029317150532469278 0 0.090019597586443387 0.0021362438863198586 0 0.089900738820800977 0.002172648100284016 0 0.08640665047039002 0.002681429449596187 0 0.086387328716718767 0.0027540273821199152 0 0.086465287175509525 0.0024203082183734972 0 0.090019597586443387 0.0021362438863198586 0 0.090006605156342456 0.0021457703739329015 0 0.093366182935111883 -7.4806456527369837e-05 0 0.093845865006146931 0.00013682351964743516 0 0.09331699868835848 0.00071721710244923229 0 0.091199058346325343 -0.00011047480625167333 0 0.090019597586443387 0.0021362438863198586 0 0.087538810989194138 -0.00088409741913746034 0 0.085766064278583395 0.0012965080257603965 0 0.085275310186041758 -0.0007638950551150989 0 0.087538810989194138 -0.00088409741913746034 0 0.087010922451557296 0.0021613089023425872 0 0.085766064278583395 0.0012965080257603965 0 0.085766064278583395 0.0012965080257603965 0 0.084828703417444765 0.0027439900435875177 0 0.085722623697808267 0.0025171685545417838 0 0.085766064278583395 0.0012965080257603965 0 0.086465287175509525 0.0024203082183734972 0 0.085722623697808267 0.0025171685545417838 0 0.087010922451557296 0.0021613089023425872 0 0.085766064278583395 0.0012965080257603965 0 0.086465287175509525 0.0024203082183734972 0 0.085766064278583395 0.0012965080257603965 0 0.08392798867672488 0.00089501116128211085 0 0.084828703417444765 0.0027439900435875177 0 0.085766064278583395 0.0012965080257603965 0 0.085275310186041758 -0.0007638950551150989 0 0.08392798867672488 0.00089501116128211085 0 0.085275310186041758 -0.0007638950551150989 0 0.086532786394687519 -0.002175650017280721 0 0.084124597110467589 -0.0027762994823901516 0 0.087463035933084105 -0.0027706808794941023 0 0.087538810989194138 -0.00088409741913746034 0 0.086532786394687519 -0.002175650017280721 0 0.087538810989194138 -0.00088409741913746034 0 0.085275310186041758 -0.0007638950551150989 0 0.086532786394687519 -0.002175650017280721 0 0.087304760838000567 -0.0028885278340152975 0 0.087463035933084105 -0.0027706808794941023 0 0.086532786394687519 -0.002175650017280721 0 0.085405774771665374 -0.0024142925410295798 0 0.084512469863047723 -0.0019998795565753617 0 0.087304760838000567 -0.0028885278340152975 0 0.086532786394687519 -0.002175650017280721 0 0.084124597110467589 -0.0027762994823901516 0 0.087904180161739259 -0.0025386929150633692 0 0.087460791436607163 -0.001405780917984153 0 0.084525656247353781 -0.0016051183636952905 0 0.087460791436607163 -0.001405780917984153 0 0.084525656247353781 -0.0016051183636952905 0 0.082573235877738724 0.0003803453943328057 0 0.084512469863047723 -0.0019998795565753617 0 0.082310905610009144 -0.0010004923490516502 0 0.084124597110467589 -0.0027762994823901516 0 0.080979130791837134 -0.0018020268734171632 0 0.083186530144335552 -0.00080428352118316275 0 0.085275310186041758 -0.0007638950551150989 0 0.084124597110467589 -0.0027762994823901516 0 0.083186530144335552 -0.00080428352118316275 0 0.085275310186041758 -0.0007638950551150989 0 0.083186530144335552 -0.00080428352118316275 0 0.08392798867672488 0.00089501116128211085 0 0.083186530144335552 -0.00080428352118316275 0 0.08392798867672488 0.00089501116128211085 0 0.081305233953506736 0.00070244098182121247 0 0.08392798867672488 0.00089501116128211085 0 0.082577658682271599 0.0023923279147914302 0 0.084828703417444765 0.0027439900435875177 0 0.08392798867672488 0.00089501116128211085 0 0.081305233953506736 0.00070244098182121247 0 0.082577658682271599 0.0023923279147914302 0 0.081305233953506736 0.00070244098182121247 0 0.078974133144663047 0.0035383693728271407 0 0.082577658682271599 0.0023923279147914302 0 0.080979130791837134 -0.0018020268734171632 0 0.083186530144335552 -0.00080428352118316275 0 0.081305233953506736 0.00070244098182121247 0 0.082310905610009144 -0.0010004923490516502 0 0.080786770067312191 -0.00031963437902370702 0 0.080979130791837134 -0.0018020268734171632 0 0.081305233953506736 0.00070244098182121247 0 0.077396779730440221 -0.0002423810178333334 0 0.081305233953506736 0.00070244098182121247 0 0.077396779730440221 -0.0002423810178333334 0 0.078974133144663047 0.0035383693728271407 0 0.071456608992743642 8.6931119724467578e-06 0 0.077396779730440221 -0.0002423810178333334 0 0.078974133144663047 0.0035383693728271407 0 0.071456608992743642 8.6931119724467578e-06 0 0.07538819732505439 -1.859308530898768e-06 0 0.077396779730440221 -0.0002423810178333334 0 0.07538819732505439 -1.859308530898768e-06 0 0.077396779730440221 -0.0002423810178333334 0 0.079315427813157591 -3.2907251532745405e-06 0 0.082573235877738724 0.0003803453943328057 0 0.079315427813157591 -3.2907251532745405e-06 0 0.081524237485736145 -0.0017030439575027746 0 0.082573235877738724 0.0003803453943328057 0 0.077396779730440221 -0.0002423810178333334 0 0.079315427813157591 -3.2907251532745405e-06 0 0.084525656247353781 -0.0016051183636952905 0 0.082573235877738724 0.0003803453943328057 0 0.081524237485736145 -0.0017030439575027746 0 0.085194881720837612 -0.0031426154638057673 0 0.084525656247353781 -0.0016051183636952905 0 0.081524237485736145 -0.0017030439575027746 0 0.079329319210176677 -9.0923489426514033e-07 0 0.082998280241710146 -0.0013881819362194343 0 0.061208031636160114 -8.8255961270805544e-07 0 0.060298398973586805 -0.0003081659202560626 0 0.057696043664685684 -0.00074277721552867414 0 0.060298398973586805 -0.0003081659202560626 0 0.057266391818926836 -0.00089064926961446344 0 0.057696043664685684 -0.00074277721552867414 0 0.061208031636160114 -8.8255961270805544e-07 0 0.060298398973586805 -0.0003081659202560626 0 0.066328358286535993 -2.0568300955771593e-06 0 0.071436808982319758 8.5115523375133563e-06 0 0.066328358286535993 -2.0568300955771593e-06 0 0.062389413551107449 0.002180952590307446 0 0.071445304163917034 2.1075910841480192e-06 0 0.070523002669436882 0.0011185505002824312 0 0.060298398973586805 -0.0003081659202560626 0 0.066328358286535993 -2.0568300955771593e-06 0 0.062389413551107449 0.002180952590307446 0 0.060298398973586805 -0.0003081659202560626 0 0.062389413551107449 0.002180952590307446 0 0.057494829657322284 0.001558027949545065 0 0.070523002669436882 0.0011185505002824312 0 0.0703303023302978 0.0017158874353294178 0 0.078974133144663047 0.0035383693728271407 0 0.082577658682271599 0.0023923279147914302 0 0.082874216301967382 0.0041989252774425855 0 0.082577658682271599 0.0023923279147914302 0 0.082874216301967382 0.0041989252774425855 0 0.084828703417444765 0.0027439900435875177 0 0.057494829657322284 0.001558027949545065 0 0.057064021644779105 -0.00015317480797704815 0 0.05533795338834617 0.00041175169954027962 0 0.060298398973586805 -0.0003081659202560626 0 0.057494829657322284 0.001558027949545065 0 0.057064021644779105 -0.00015317480797704815 0 0.060298398973586805 -0.0003081659202560626 0 0.057064021644779105 -0.00015317480797704815 0 0.057266391818926836 -0.00089064926961446344 0 0.057064021644779105 -0.00015317480797704815 0 0.057266391818926836 -0.00089064926961446344 0 0.055728204667924316 -0.00077573053035864738 0 0.057266391818926836 -0.00089064926961446344 0 0.055728204667924316 -0.00077573053035864738 0 0.05562718184706171 -0.0012248696246906041 0 0.055728204667924316 -0.00077573053035864738 0 0.05493221607710698 -0.00074589419628475991 0 0.054973397976162415 -0.0011948885625826734 0 0.05493221607710698 -0.00074589419628475991 0 0.05533795338834617 0.00041175169954027962 0 0.054652502140742777 -0.00019891554534198254 0 0.070287858998583433 0.0016562825247360157 0 0.070151222306370331 0.0012248826267800411 0 0.057064021644779105 -0.00015317480797704815 0 0.055728204667924316 -0.00077573053035864738 0 0.05533795338834617 0.00041175169954027962 0 0.055728204667924316 -0.00077573053035864738 0 0.05493221607710698 -0.00074589419628475991 0 0.05533795338834617 0.00041175169954027962 0 0.082874216301967382 0.0041989252774425855 0 0.085409304049684859 0.003958440914481773 0 0.084828703417444765 0.0027439900435875177 0 0.0703303023302978 0.0017158874353294178 0 0.070287858998583433 0.0016562825247360157 0 0.084828703417444765 0.0027439900435875177 0 0.085722623697808267 0.0025171685545417838 0 0.086040606069802017 0.0030503255624697973 0 0.086222587930830402 0.0027702886342963217 0 0.085722623697808267 0.0025171685545417838 0 0.086040606069802017 0.0030503255624697973 0 0.086465287175509525 0.0024203082183734972 0 0.086222587930830402 0.0027702886342963217 0 0.085722623697808267 0.0025171685545417838 0 0.086387328716718767 0.0027540273821199152 0 0.086465287175509525 0.0024203082183734972 0 0.086222587930830402 0.0027702886342963217 0 0.086222587930830402 0.0027702886342963217 0 0.086040606069802017 0.0030503255624697973 0 0.086229001776772757 0.0028598682114132031 0 0.085409304049684859 0.003958440914481773 0 0.086040606069802017 0.0030503255624697973 0 0.086148755677400768 0.0031288233297034913 0 0.085409304049684859 0.003958440914481773 0 0.084828703417444765 0.0027439900435875177 0 0.086040606069802017 0.0030503255624697973 0 0.085409304049684859 0.003958440914481773 0 0.086148755677400768 0.0031288233297034913 0 0.086163244573579781 0.0030449553065244163 0 0.086148755677400768 0.0031288233297034913 0 0.086080445180876985 0.0030008944440215574 0 0.086163244573579781 0.0030449553065244163 0 0.086148755677400768 0.0031288233297034913 0 0.086246465640698169 0.0029317150532469278 0 0.086080445180876985 0.0030008944440215574 0 0.086040606069802017 0.0030503255624697973 0 0.086246465640698169 0.0029317150532469278 0 0.086229001776772757 0.0028598682114132031 0 0.086040606069802017 0.0030503255624697973 0 0.086148755677400768 0.0031288233297034913 0 0.086246465640698169 0.0029317150532469278 0 0.086387328716718767 0.0027540273821199152 0 0.086246465640698169 0.0029317150532469278 0 0.086229001776772757 0.0028598682114132031 0 0.086362217755881959 0.0028699396704153128 0 0.086387328716718767 0.0027540273821199152 0 0.086246465640698169 0.0029317150532469278 0 0.086387328716718767 0.0027540273821199152 0 0.086222587930830402 0.0027702886342963217 0 0.086229001776772757 0.0028598682114132031 0 0.086013669673841428 0.0034221913865235122 0 0.086246465640698169 0.0029317150532469278 0 0.085803259345969815 0.0031390094652194857 0 0.086246465640698169 0.0029317150532469278 0 0.086080445180876985 0.0030008944440215574 0 0.085803259345969815 0.0031390094652194857 0 0.086080445180876985 0.0030008944440215574 0 0.086163244573579781 0.0030449553065244163 0 0.085782829357019932 0.0027951108070289467 0 0.086080445180876985 0.0030008944440215574 0 0.085803259345969815 0.0031390094652194857 0 0.085782829357019932 0.0027951108070289467 0 0.070151222306370331 0.0012248826267800411 0 0.069744363138365406 0.00056340222159238546 0 0.086163244573579781 0.0030449553065244163 0 0.085782829357019932 0.0027951108070289467 0 0.085738093661195863 0.0023279404610019642 0 0.05493221607710698 -0.00074589419628475991 0 0.054652502140742777 -0.00019891554534198254 0 0.054660322582791659 -0.0011463754634958537 0 0.054652502140742777 -0.00019891554534198254 0 0.054660322582791659 -0.0011463754634958537 0 0.053931433663457699 -0.00045886783176859054 0 0.054660322582791659 -0.0011463754634958537 0 0.053931433663457699 -0.00045886783176859054 0 0.053897969964579157 -0.0012426144486394261 0 0.054660322582791659 -0.0011463754634958537 0 0.054097214915792363 -0.0020495407990891719 0 0.053897969964579157 -0.0012426144486394261 0 0.05493221607710698 -0.00074589419628475991 0 0.054660322582791659 -0.0011463754634958537 0 0.054973397976162415 -0.0011948885625826734 0 0.054660322582791659 -0.0011463754634958537 0 0.054830441775727462 -0.0011150986358244987 0 0.054973397976162415 -0.0011948885625826734 0 0.054830441775727462 -0.0011150986358244987 0 0.054909208995921367 -0.00091291719688343801 0 0.054834086680201795 -0.001089332555197676 0 0.054830441775727462 -0.0011150986358244987 0 0.055116950892254754 -0.0010828173598117269 0 0.055012625276157495 -0.00095039084792541181 0 0.054660322582791659 -0.0011463754634958537 0 0.054830441775727462 -0.0011150986358244987 0 0.055116950892254754 -0.0010828173598117269 0 0.047482767012476952 0.00057476743011112348 0 0.044685282852878559 -0.00089302924214562695 0 0.055116950892254754 -0.0010828173598117269 0 0.05517355842173767 -0.00085847290053860114 0 0.055012625276157495 -0.00095039084792541181 0 0.05517355842173767 -0.00085847290053860114 0 0.055012625276157495 -0.00095039084792541181 0 0.055060083372654896 -0.00077304653565515792 0 0.05517355842173767 -0.00085847290053860114 0 0.055060083372654896 -0.00077304653565515792 0 0.055210411752550759 -0.00065173269916508339 0 0.055060083372654896 -0.00077304653565515792 0 0.055210411752550759 -0.00065173269916508339 0 0.055081785691415967 -0.00048603223346771072 0 0.055210411752550759 -0.00065173269916508339 0 0.055081785691415967 -0.00048603223346771072 0 0.055304315547474954 -0.00034356330246401858 0 0.054930139218084928 -0.00031272451900734574 0 0.054930066243432371 -0.00066734592727052324 0 0.054705258593605421 -0.00047003709628270845 0 0.055081785691415967 -0.00048603223346771072 0 0.054930139218084928 -0.00031272451900734574 0 0.055029944352219057 -0.00013787143116830391 0 0.055081785691415967 -0.00048603223346771072 0 0.054930139218084928 -0.00031272451900734574 0 0.054930066243432371 -0.00066734592727052324 0 0.055060083372654896 -0.00077304653565515792 0 0.055081785691415967 -0.00048603223346771072 0 0.054930066243432371 -0.00066734592727052324 0 0.054930066243432371 -0.00066734592727052324 0 0.054909208995921367 -0.00091291719688343801 0 0.054802753832066925 -0.000873969613152852 0 0.055060083372654896 -0.00077304653565515792 0 0.054930066243432371 -0.00066734592727052324 0 0.054909208995921367 -0.00091291719688343801 0 0.054830441775727462 -0.0011150986358244987 0 0.055012625276157495 -0.00095039084792541181 0 0.054909208995921367 -0.00091291719688343801 0 0.055012625276157495 -0.00095039084792541181 0 0.055060083372654896 -0.00077304653565515792 0 0.054909208995921367 -0.00091291719688343801 0 0.054909208995921367 -0.00091291719688343801 0 0.054802753832066925 -0.000873969613152852 0 0.054834086680201795 -0.001089332555197676 0 0.054802753832066925 -0.000873969613152852 0 0.054705258593605421 -0.00047003709628270845 0 0.054598948351462902 -0.001076011191166094 0 0.054802753832066925 -0.000873969613152852 0 0.054598948351462902 -0.001076011191166094 0 0.054834086680201795 -0.001089332555197676 0 0.054930066243432371 -0.00066734592727052324 0 0.054802753832066925 -0.000873969613152852 0 0.054705258593605421 -0.00047003709628270845 0 0.054930139218084928 -0.00031272451900734574 0 0.054705258593605421 -0.00047003709628270845 0 0.054785276256497505 -0.00011900822701083284 0 0.054705258593605421 -0.00047003709628270845 0 0.054090060819896243 -0.00049080712565956143 0 0.054471260253913904 -5.2188082287157883e-06 0 0.054705258593605421 -0.00047003709628270845 0 0.054090060819896243 -0.00049080712565956143 0 0.054598948351462902 -0.001076011191166094 0 0.054090060819896243 -0.00049080712565956143 0 0.054598948351462902 -0.001076011191166094 0 0.053667133685680997 -0.0010672619188976389 0 0.054598948351462902 -0.001076011191166094 0 0.054973397976162415 -0.0011948885625826734 0 0.054688952740459075 -0.0012530878584014063 0 0.054973397976162415 -0.0011948885625826734 0 0.05562718184706171 -0.0012248696246906041 0 0.054688952740459075 -0.0012530878584014063 0 0.054830441775727462 -0.0011150986358244987 0 0.054834086680201795 -0.001089332555197676 0 0.054973397976162415 -0.0011948885625826734 0 0.054598948351462902 -0.001076011191166094 0 0.054834086680201795 -0.001089332555197676 0 0.054973397976162415 -0.0011948885625826734 0 0.055728204667924316 -0.00077573053035864738 0 0.054973397976162415 -0.0011948885625826734 0 0.05562718184706171 -0.0012248696246906041 0 0.057266391818926836 -0.00089064926961446344 0 0.05562718184706171 -0.0012248696246906041 0 0.054642279132471945 -0.0012336619226844942 0 0.05562718184706171 -0.0012248696246906041 0 0.054642279132471945 -0.0012336619226844942 0 0.054688952740459075 -0.0012530878584014063 0 0.054598948351462902 -0.001076011191166094 0 0.054688952740459075 -0.0012530878584014063 0 0.053667133685680997 -0.0010672619188976389 0 0.054642279132471945 -0.0012336619226844942 0 0.054688952740459075 -0.0012530878584014063 0 0.053667133685680997 -0.0010672619188976389 0 0.054090060819896243 -0.00049080712565956143 0 0.053667133685680997 -0.0010672619188976389 0 0.052561745332779491 1.5372507390644167e-05 0 0.053667133685680997 -0.0010672619188976389 0 0.051662611971214835 -0.00081177646619375531 0 0.052561745332779491 1.5372507390644167e-05 0 0.054642279132471945 -0.0012336619226844942 0 0.053667133685680997 -0.0010672619188976389 0 0.051662611971214835 -0.00081177646619375531 0 0.054642279132471945 -0.0012336619226844942 0 0.051662611971214835 -0.00081177646619375531 0 0.052325885903977756 -0.00081663799212388255 0 0.051662611971214835 -0.00081177646619375531 0 0.052325885903977756 -0.00081663799212388255 0 0.048940342509957109 -0.00036886918732462822 0 0.051662611971214835 -0.00081177646619375531 0 0.048940342509957109 -0.00036886918732462822 0 0.048325703643517563 0.00012401260982041916 0 0.048940342509957109 -0.00036886918732462822 0 0.050972038074712046 -1.3143253178728798e-06 0 0.045852444336083452 3.1000679178960482e-07 0 0.052325885903977756 -0.00081663799212388255 0 0.048940342509957109 -0.00036886918732462822 0 0.050972038074712046 -1.3143253178728798e-06 0 0.052325885903977756 -0.00081663799212388255 0 0.050972038074712046 -1.3143253178728798e-06 0 0.056089734219683829 -1.7050013950392567e-06 0 0.054642279132471945 -0.0012336619226844942 0 0.052325885903977756 -0.00081663799212388255 0 0.056089734219683829 -1.7050013950392567e-06 0 0.054642279132471945 -0.0012336619226844942 0 0.056089734219683829 -1.7050013950392567e-06 0 0.057696043664685684 -0.00074277721552867414 0 0.057266391818926836 -0.00089064926961446344 0 0.054642279132471945 -0.0012336619226844942 0 0.057696043664685684 -0.00074277721552867414 0 0.061208031636160114 -8.8255961270805544e-07 0 0.056089734219683829 -1.7050013950392567e-06 0 0.057696043664685684 -0.00074277721552867414 0 0.081954598627070288 0.0029516447909787719 0 0.082830985371193364 0.0029952393032258579 0 0.081748089249065306 0.0041913536951776317 0 0.081954598627070288 0.0029516447909787719 0 0.081829763133974845 0.0026844765205554597 0 0.081619954358252547 0.0037158258002136443 0 0.071256431855147753 -0.0032623716250916425 0 0.078561868640961097 -0.0026242085548440716 0 0.071256431855147753 -0.0032623716250916425 0 0.07313601620222783 -0.0024950321434205167 0 0.081954598627070288 0.0029516447909787719 0 0.081829763133974845 0.0026844765205554597 0 0.082394020150445751 0.0028487380132721013 0 0.081714820089450094 0.0026210606259880836 0 0.082394020150445751 0.0028487380132721013 0 0.082387248032470134 0.0022405066778123698 0 0.083850799614899357 0.0023486260105062525 0 0.083828732910376361 0.0026926394818612186 0 0.084179863608857208 0.0026221455529292456 0 0.082830985371193364 0.0029952393032258579 0 0.082394020150445751 0.0028487380132721013 0 0.08290509622585425 0.0023271457134036418 0 0.081954598627070288 0.0029516447909787719 0 0.082830985371193364 0.0029952393032258579 0 0.082394020150445751 0.0028487380132721013 0 0.082387248032470134 0.0022405066778123698 0 0.08290509622585425 0.0023271457134036418 0 0.082984593153645286 0.0018648603581599332 0 0.08290509622585425 0.0023271457134036418 0 0.082984593153645286 0.0018648603581599332 0 0.084170548451134017 0.0016054459084507468 0 0.082830985371193364 0.0029952393032258579 0 0.08290509622585425 0.0023271457134036418 0 0.084170548451134017 0.0016054459084507468 0 0.082394020150445751 0.0028487380132721013 0 0.082387248032470134 0.0022405066778123698 0 0.08290509622585425 0.0023271457134036418 0 0.082984593153645286 0.0018648603581599332 0 0.081938039200137675 0.0015187973000581158 0 0.082928290866890741 0.0012810896786710534 0 0.082387248032470134 0.0022405066778123698 0 0.082984593153645286 0.0018648603581599332 0 0.081938039200137675 0.0015187973000581158 0 0.057457945908399907 -0.012236660373167268 0 0.057559499704765628 -0.012029873039622746 0 0.057374480970245355 -0.011952937008812878 0 0.081714820089450094 0.0026210606259880836 0 0.082387248032470134 0.0022405066778123698 0 0.081938039200137675 0.0015187973000581158 0 0.071256431855147753 -0.0032623716250916425 0 0.066552219394315812 -0.0055774660498099302 0 0.071256431855147753 -0.0032623716250916425 0 0.065915259521395847 -0.0073106962885592991 0 0.057457945908399907 -0.012236660373167268 0 0.057559499704765628 -0.012029873039622746 0 0.057752659139404645 -0.012154228212194151 0 0.057559499704765628 -0.012029873039622746 0 0.057752659139404645 -0.012154228212194151 0 0.057661861984409979 -0.011875815824778506 0 0.057752659139404645 -0.012154228212194151 0 0.057859590918872772 -0.011945683886030073 0 0.057661861984409979 -0.011875815824778506 0 0.065915259521395847 -0.0073106962885592991 0 0.06399276314775805 -0.0094504539184628866 0 0.057752659139404645 -0.012154228212194151 0 0.058098359063995138 -0.012101822933910671 0 0.057859590918872772 -0.011945683886030073 0 0.070533818352380637 -0.0081221281317916151 0 0.067045539345220229 -0.0093695568073534127 0 0.070052014505913002 -0.0059215309925318383 0 0.06399276314775805 -0.0094504539184628866 0 0.069618379259992938 -0.0075864784368462578 0 0.066066188190825104 -0.010662058858381637 0 0.065425425482044122 -0.01062246459517339 0 0.065852231269751482 -0.011261549862958737 0 0.066066188190825104 -0.010662058858381637 0 0.065934241812176927 -0.0099475582566269927 0 0.065425425482044122 -0.01062246459517339 0 0.074006146196278697 -0.006875079052649221 0 0.070533818352380637 -0.0081221281317916151 0 0.070052014505913002 -0.0059215309925318383 0 0.069618379259992938 -0.0075864784368462578 0 0.078561868640961097 -0.0026242085548440716 0 0.074006146196278697 -0.006875079052649221 0 0.070052014505913002 -0.0059215309925318383 0 0.073046689541145404 -0.0024869714598121828 0 0.065425425482044122 -0.01062246459517339 0 0.065368133781264631 -0.011235726049460746 0 0.064948700770659229 -0.011240472965570071 0 0.065368133781264631 -0.011235726049460746 0 0.065051900793753462 -0.011667809876987584 0 0.064948700770659229 -0.011240472965570071 0 0.081784635373677778 -0.0021745960446891222 0 0.078561868640961097 -0.0026242085548440716 0 0.065425425482044122 -0.01062246459517339 0 0.065368133781264631 -0.011235726049460746 0 0.065852231269751482 -0.011261549862958737 0 0.065368133781264631 -0.011235726049460746 0 0.065852231269751482 -0.011261549862958737 0 0.065467600888077446 -0.011671520047588898 0 0.066319507643589154 -0.012052924094966196 0 0.065409237191568409 -0.012080000883141708 0 0.065860470378071537 -0.011731709185267144 0 0.066250958528181761 -0.011592332115666687 0 0.065852231269751482 -0.011261549862958737 0 0.065860470378071537 -0.011731709185267144 0 0.065852231269751482 -0.011261549862958737 0 0.065860470378071537 -0.011731709185267144 0 0.065467600888077446 -0.011671520047588898 0 0.065409237191568409 -0.012080000883141708 0 0.065860470378071537 -0.011731709185267144 0 0.065467600888077446 -0.011671520047588898 0 0.080562731294859205 -0.0032496760847827949 0 0.080197650181865268 -0.0028208485693315718 0 0.079754919701296334 0.00035309260859045825 0 0.082790568918888682 -0.0019613099105902916 0 0.082739851433349887 -0.0019024109798014832 0 0.08286493517455161 -0.0022801687023655394 0 0.081784635373677778 -0.0021745960446891222 0 0.081757752981870366 -0.0019279780382435603 0 0.065368133781264631 -0.011235726049460746 0 0.065051900793753462 -0.011667809876987584 0 0.065467600888077446 -0.011671520047588898 0 0.065409237191568409 -0.012080000883141708 0 0.065051900793753462 -0.011667809876987584 0 0.065467600888077446 -0.011671520047588898 0 0.081784635373677778 -0.0021745960446891222 0 0.083572055508188289 -0.0022834458883376286 0 0.084193560939090861 -0.0049206099475092571 0 0.082031263667530344 -0.0023684241284836283 0 0.08240755871914332 -0.0040649305883222152 0 0.08300798945393939 -0.0031744521060930787 0 0.081784635373677778 -0.0021745960446891222 0 0.081757752981870366 -0.0019279780382435603 0 0.083572055508188289 -0.0022834458883376286 0 0.084666575923681583 -0.0006197183174117746 0 0.084207924384636951 -0.00098344015743400195 0 0.084824321631798094 -0.0012160111359744243 0 0.083418198226136525 0.0029021549591943391 0 0.083873732064626963 0.0028972477802814969 0 0.083749919187084326 0.003285381056885547 0 0.084418984219902821 -0.0016526708376215246 0 0.084207924384636951 -0.00098344015743400195 0 0.084824321631798094 -0.0012160111359744243 0 0.08512500845920537 -0.00080948182462384319 0 0.084666575923681583 -0.0006197183174117746 0 0.084824321631798094 -0.0012160111359744243 0 0.08512500845920537 -0.00080948182462384319 0 0.084824321631798094 -0.0012160111359744243 0 0.085680933460942105 -0.0011008004083456111 0 0.084824321631798094 -0.0012160111359744243 0 0.084800695383601424 -0.0021049759978614226 0 0.085680933460942105 -0.0011008004083456111 0 0.081469305045337684 -0.00081939480111417184 0 0.085165284587502096 0.00011397054565230603 0 0.084418984219902821 -0.0016526708376215246 0 0.084824321631798094 -0.0012160111359744243 0 0.084800695383601424 -0.0021049759978614226 0 0.081757752981870366 -0.0019279780382435603 0 0.081469305045337684 -0.00081939480111417184 0 0.081757752981870366 -0.0019279780382435603 0 0.08008797937238249 -0.0015345536199371042 0 0.079969115899971979 0.00032896451222475697 0 0.08008797937238249 -0.0015345536199371042 0 0.081954598627070288 0.0029516447909787719 0 0.081685470016712877 0.0037903965412359299 0 0.081619954358252547 0.0037158258002136443 0 0.080197650181865268 -0.0028208485693315718 0 0.079332839105253697 -0.00013467947258052949 0 0.079754919701296334 0.00035309260859045825 0 0.082182245434355955 0.0011660814467795084 0 0.081469305045337684 -0.00081939480111417184 0 0.08100599600418254 -0.0022413534627906016 0 0.08006877041150684 0.00068518168444216656 0 0.079287218654024647 -0.00021691122790318577 0 0.081954598627070288 0.0029516447909787719 0 0.08160563356933255 0.0040258877276786514 0 0.081748089249065306 0.0041913536951776317 0 0.08008797937238249 -0.0015345536199371042 0 0.081469305045337684 -0.00081939480111417184 0 0.08008797937238249 -0.0015345536199371042 0 0.078561868640961097 -0.0026242085548440716 0 0.083873732064626963 0.0028972477802814969 0 0.084161027872550753 0.0030985326057610856 0 0.084179863608857208 0.0026221455529292456 0 0.083418198226136525 0.0029021549591943391 0 0.083828732910376361 0.0026926394818612186 0 0.083873732064626963 0.0028972477802814969 0 0.083850799614899357 0.0023486260105062525 0 0.083418198226136525 0.0029021549591943391 0 0.083828732910376361 0.0026926394818612186 0 0.083828732910376361 0.0026926394818612186 0 0.083873732064626963 0.0028972477802814969 0 0.084179863608857208 0.0026221455529292456 0 0.084113371745082002 0.0036748975105360859 0 0.083749919187084326 0.003285381056885547 0 0.084161027872550753 0.0030985326057610856 0 0.083873732064626963 0.0028972477802814969 0 0.083749919187084326 0.003285381056885547 0 0.084161027872550753 0.0030985326057610856 0 0.084113371745082002 0.0036748975105360859 0 0.084161027872550753 0.0030985326057610856 0 0.084563114972370373 0.0032445591546897529 0 0.084161027872550753 0.0030985326057610856 0 0.084563114972370373 0.0032445591546897529 0 0.084474406464153454 0.0028898205648227931 0 0.084563114972370373 0.0032445591546897529 0 0.084936043695453003 0.0029260514156249848 0 0.084474406464153454 0.0028898205648227931 0 0.084563114972370373 0.0032445591546897529 0 0.084936043695453003 0.0029260514156249848 0 0.085181572415795381 0.0033237778900545756 0 0.084936043695453003 0.0029260514156249848 0 0.085204217229102319 0.0025186765229581087 0 0.084630966495620019 0.0025233932167299297 0 0.084936043695453003 0.0029260514156249848 0 0.084474406464153454 0.0028898205648227931 0 0.084630966495620019 0.0025233932167299297 0 0.084179863608857208 0.0026221455529292456 0 0.084474406464153454 0.0028898205648227931 0 0.084630966495620019 0.0025233932167299297 0 0.084161027872550753 0.0030985326057610856 0 0.084179863608857208 0.0026221455529292456 0 0.084474406464153454 0.0028898205648227931 0 0.085803259345969815 0.0031390094652194857 0 0.085181572415795381 0.0033237778900545756 0 0.085419621073376084 0.0029662844549650925 0 0.084936043695453003 0.0029260514156249848 0 0.085181572415795381 0.0033237778900545756 0 0.085419621073376084 0.0029662844549650925 0 0.084936043695453003 0.0029260514156249848 0 0.085419621073376084 0.0029662844549650925 0 0.085204217229102319 0.0025186765229581087 0 0.085419621073376084 0.0029662844549650925 0 0.085782829357019932 0.0027951108070289467 0 0.085204217229102319 0.0025186765229581087 0 0.085803259345969815 0.0031390094652194857 0 0.085419621073376084 0.0029662844549650925 0 0.085782829357019932 0.0027951108070289467 0 0.085782829357019932 0.0027951108070289467 0 0.085204217229102319 0.0025186765229581087 0 0.085738093661195863 0.0023279404610019642 0 0.052844516990305464 -0.00095654171417181326 0 0.053931433663457699 -0.00045886783176859054 0 0.053338054966213223 -0.0011211129433027797 0 0.069073209039943115 -0.00044050221770825442 0 0.069744363138365406 0.00056340222159238546 0 0.085204217229102319 0.0025186765229581087 0 0.085067358721486686 0.0018023133732217411 0 0.085738093661195863 0.0023279404610019642 0 0.053931433663457699 -0.00045886783176859054 0 0.053897969964579157 -0.0012426144486394261 0 0.053338054966213223 -0.0011211129433027797 0 0.084179863608857208 0.0026221455529292456 0 0.084285821950213835 0.0022359682405162003 0 0.084630966495620019 0.0025233932167299297 0 0.083850799614899357 0.0023486260105062525 0 0.084179863608857208 0.0026221455529292456 0 0.084285821950213835 0.0022359682405162003 0 0.085204217229102319 0.0025186765229581087 0 0.084630966495620019 0.0025233932167299297 0 0.084679560940357168 0.0021327141429138253 0 0.084285821950213835 0.0022359682405162003 0 0.084630966495620019 0.0025233932167299297 0 0.084679560940357168 0.0021327141429138253 0 0.085067358721486686 0.0018023133732217411 0 0.084679560940357168 0.0021327141429138253 0 0.084170548451134017 0.0016054459084507468 0 0.085204217229102319 0.0025186765229581087 0 0.085067358721486686 0.0018023133732217411 0 0.084679560940357168 0.0021327141429138253 0 0.084285821950213835 0.0022359682405162003 0 0.084679560940357168 0.0021327141429138253 0 0.084170548451134017 0.0016054459084507468 0 0.082182245434355955 0.0011660814467795084 0 0.082813280190772859 0.0011722708016095758 0 0.082984593153645286 0.0018648603581599332 0 0.084170548451134017 0.0016054459084507468 0 0.083531474866079564 0.0014769185959145584 0 0.083850799614899357 0.0023486260105062525 0 0.084285821950213835 0.0022359682405162003 0 0.084170548451134017 0.0016054459084507468 0 0.084170548451134017 0.0016054459084507468 0 0.084023922723173355 0.0011545499317758045 0 0.083531474866079564 0.0014769185959145584 0 0.084023922723173355 0.0011545499317758045 0 0.083531474866079564 0.0014769185959145584 0 0.082928290866890741 0.0012810896786710534 0 0.052844516990305464 -0.00095654171417181326 0 0.05281348564608699 -0.0012105254446938426 0 0.052804757338757037 -0.0011813934570316321 0 0.05281348564608699 -0.0012105254446938426 0 0.052817333504828673 -0.0011738031815646788 0 0.052804757338757037 -0.0011813934570316321 0 0.085067358721486686 0.0018023133732217411 0 0.084170548451134017 0.0016054459084507468 0 0.084023922723173355 0.0011545499317758045 0 0.053094919019450751 -0.0051942164079961254 0 0.05276677842609262 -0.0043100146959387667 0 0.069073209039943115 -0.00044050221770825442 0 0.067678295693035059 -0.0023373654496657553 0 0.048643805109621435 -0.001822819414985704 0 0.050726326120911269 -0.0024416071058977048 0 0.052804757338757037 -0.0011813934570316321 0 0.050726326120911269 -0.0024416071058977048 0 0.052028149068879335 -0.0022233103819609551 0 0.052804757338757037 -0.0011813934570316321 0 0.050726326120911269 -0.0024416071058977048 0 0.052028149068879335 -0.0022233103819609551 0 0.052151131039850265 -0.0033862721002820371 0 0.052028149068879335 -0.0022233103819609551 0 0.052151131039850265 -0.0033862721002820371 0 0.052750593256396486 -0.0017504047669647767 0 0.050726326120911269 -0.0024416071058977048 0 0.052151131039850265 -0.0033862721002820371 0 0.051166045133644478 -0.0048048242543920084 0 0.050726326120911269 -0.0024416071058977048 0 0.049269872867986758 -0.0035337055407366389 0 0.051166045133644478 -0.0048048242543920084 0 0.049269872867986758 -0.0035337055407366389 0 0.04789418005595638 -0.0030865986884194992 0 0.047102651091138668 -0.0045856389055424062 0 0.048643805109621435 -0.001822819414985704 0 0.04789418005595638 -0.0030865986884194992 0 0.049133421802042977 -0.0027207676605147625 0 0.050726326120911269 -0.0024416071058977048 0 0.049269872867986758 -0.0035337055407366389 0 0.049133421802042977 -0.0027207676605147625 0 0.048643805109621435 -0.001822819414985704 0 0.050726326120911269 -0.0024416071058977048 0 0.049133421802042977 -0.0027207676605147625 0 0.049269872867986758 -0.0035337055407366389 0 0.04789418005595638 -0.0030865986884194992 0 0.049133421802042977 -0.0027207676605147625 0 0.053897969964579157 -0.0012426144486394261 0 0.053421442075215049 -0.0014898202254272168 0 0.053338054966213223 -0.0011211129433027797 0 0.053897969964579157 -0.0012426144486394261 0 0.053421442075215049 -0.0014898202254272168 0 0.053698034824814146 -0.0017371454548801945 0 0.053144815057463858 -0.001457788425311588 0 0.053338054966213223 -0.0011211129433027797 0 0.052804757338757037 -0.0011813934570316321 0 0.053144815057463858 -0.001457788425311588 0 0.052750593256396486 -0.0017504047669647767 0 0.053222167558468189 -0.0018493124136991002 0 0.053421442075215049 -0.0014898202254272168 0 0.053144815057463858 -0.001457788425311588 0 0.053338054966213223 -0.0011211129433027797 0 0.053421442075215049 -0.0014898202254272168 0 0.053144815057463858 -0.001457788425311588 0 0.053222167558468189 -0.0018493124136991002 0 0.052844516990305464 -0.00095654171417181326 0 0.053338054966213223 -0.0011211129433027797 0 0.052804757338757037 -0.0011813934570316321 0 0.053144815057463858 -0.001457788425311588 0 0.052804757338757037 -0.0011813934570316321 0 0.052750593256396486 -0.0017504047669647767 0 0.052028149068879335 -0.0022233103819609551 0 0.052804757338757037 -0.0011813934570316321 0 0.052750593256396486 -0.0017504047669647767 0 0.052750593256396486 -0.0017504047669647767 0 0.053222167558468189 -0.0018493124136991002 0 0.053217753611579661 -0.0023344238152135663 0 0.052151131039850265 -0.0033862721002820371 0 0.052750593256396486 -0.0017504047669647767 0 0.05441633915329773 -0.004539647002828451 0 0.052151131039850265 -0.0033862721002820371 0 0.05441633915329773 -0.004539647002828451 0 0.051166045133644478 -0.0048048242543920084 0 0.037302687419829603 -0.008189549143903645 0 0.033625587711535752 -0.0074424910426400658 0 0.053222167558468189 -0.0018493124136991002 0 0.053378995803245004 -0.0021151810209846292 0 0.053217753611579661 -0.0023344238152135663 0 0.034511573144527519 -0.0066542256874771331 0 0.033625587711535752 -0.0074424910426400658 0 0.054097214915792363 -0.0020495407990891719 0 0.053897969964579157 -0.0012426144486394261 0 0.053698034824814146 -0.0017371454548801945 0 0.054097214915792363 -0.0020495407990891719 0 0.053378995803245004 -0.0021151810209846292 0 0.053459903470827352 -0.0028975865513676743 0 0.053427640125093087 -0.001816552933762184 0 0.053378995803245004 -0.0021151810209846292 0 0.053698034824814146 -0.0017371454548801945 0 0.053421442075215049 -0.0014898202254272168 0 0.053427640125093087 -0.001816552933762184 0 0.053698034824814146 -0.0017371454548801945 0 0.053421442075215049 -0.0014898202254272168 0 0.053222167558468189 -0.0018493124136991002 0 0.053427640125093087 -0.001816552933762184 0 0.053222167558468189 -0.0018493124136991002 0 0.053427640125093087 -0.001816552933762184 0 0.053378995803245004 -0.0021151810209846292 0 0.054097214915792363 -0.0020495407990891719 0 0.053378995803245004 -0.0021151810209846292 0 0.053698034824814146 -0.0017371454548801945 0 0.044685282852878559 -0.00089302924214562695 0 0.03271958971578743 -0.0091407103008131606 0 0.055116950892254754 -0.0010828173598117269 0 0.05517355842173767 -0.00085847290053860114 0 0.055451108784098917 -0.00079195061284730592 0 0.053378995803245004 -0.0021151810209846292 0 0.053459903470827352 -0.0028975865513676743 0 0.053161392404378532 -0.0023810804265809392 0 0.05517355842173767 -0.00085847290053860114 0 0.055210411752550759 -0.00065173269916508339 0 0.055451108784098917 -0.00079195061284730592 0 0.03271958971578743 -0.0091407103008131606 0 0.033625587711535752 -0.0074424910426400658 0 0.033625587711535752 -0.0074424910426400658 0 0.032094831142779515 -0.011768797939849002 0 0.013117204614785999 -0.018365448201366999 0 0.01302183445809512 -0.018156154350897152 0 0.01274121943171677 -0.018572033034267577 0 0.05441633915329773 -0.004539647002828451 0 0.051166045133644478 -0.0048048242543920084 0 0.051944356203666074 -0.0078459204641268803 0 0.03271958971578743 -0.0091407103008131606 0 0.019762279827144229 -0.019382112069688429 0 0.013117204614785999 -0.018365448201366999 0 0.01275846884477371 -0.018657870194856672 0 0.01274121943171677 -0.018572033034267577 0 0.0086759529130960109 -0.023737209423866899 0 0.010541855781939561 -0.021206349475454064 0 0.0087498583038428269 -0.020431601274788713 0 0.055210411752550759 -0.00065173269916508339 0 0.055451108784098917 -0.00079195061284730592 0 0.055304315547474954 -0.00034356330246401858 0 0.0086759529130960109 -0.023737209423866899 0 0.0087498583038428269 -0.020431601274788713 0 0.0069396214099750261 -0.02099892400602078 0 0.03271958971578743 -0.0091407103008131606 0 0.031940027323048903 -0.0095958257366086739 0 0.049269872867986758 -0.0035337055407366389 0 0.048634573529402217 -0.007007911304917948 0 0.051166045133644478 -0.0048048242543920084 0 0.049269872867986758 -0.0035337055407366389 0 0.048634573529402217 -0.007007911304917948 0 0.047102651091138668 -0.0045856389055424062 0 0.048634573529402217 -0.007007911304917948 0 0.051166045133644478 -0.0048048242543920084 0 0.051944356203666074 -0.0078459204641268803 0 0.032094831142779515 -0.011768797939849002 0 0.031845064301574855 -0.013358420988263668 0 0.048634573529402217 -0.007007911304917948 0 0.051944356203666074 -0.0078459204641268803 0 0.0494683463304499 -0.011144829728737263 0 0.01275846884477371 -0.018657870194856672 0 0.01274121943171677 -0.018572033034267577 0 0.012906799584443058 -0.018699074016630811 0 0.048634573529402217 -0.007007911304917948 0 0.046163507338523951 -0.010523956397768397 0 0.0494683463304499 -0.011144829728737263 0 0.051628333139909832 -0.0087292839442460694 0 0.044690042894314524 -0.01071220583754714 0 0.056272360542139681 -0.010122123862378466 0 0.055799108309260444 -0.010771107755651885 0 0.055523749122998664 -0.0097592932050122403 0 0.048634573529402217 -0.007007911304917948 0 0.045337466781921874 -0.0066104866479968355 0 0.046163507338523951 -0.010523956397768397 0 0.056272360542139681 -0.010122123862378466 0 0.056552033035625372 -0.010620663807523393 0 0.055799108309260444 -0.010771107755651885 0 0.056272360542139681 -0.010122123862378466 0 0.056552033035625372 -0.010620663807523393 0 0.056807411107116158 -0.010023352754292496 0 0.056552033035625372 -0.010620663807523393 0 0.056451445142133044 -0.01118137564481337 0 0.055799108309260444 -0.010771107755651885 0 0.056451445142133044 -0.01118137564481337 0 0.055799108309260444 -0.010771107755651885 0 0.056050312444956299 -0.011818354441042686 0 0.056552033035625372 -0.010620663807523393 0 0.056451445142133044 -0.01118137564481337 0 0.056940837938247148 -0.010970888388652031 0 0.048634573529402217 -0.007007911304917948 0 0.045337466781921874 -0.0066104866479968355 0 0.047102651091138668 -0.0045856389055424062 0 0.045337466781921874 -0.0066104866479968355 0 0.047102651091138668 -0.0045856389055424062 0 0.044492718404477487 -0.0026934720115006981 0 0.051628333139909832 -0.0087292839442460694 0 0.059275787411648517 -0.0073886223039991428 0 0.053094919019450751 -0.0051942164079961254 0 0.059275787411648517 -0.0073886223039991428 0 0.04789418005595638 -0.0030865986884194992 0 0.047102651091138668 -0.0045856389055424062 0 0.044492718404477487 -0.0026934720115006981 0 0.048643805109621435 -0.001822819414985704 0 0.04789418005595638 -0.0030865986884194992 0 0.044492718404477487 -0.0026934720115006981 0 0.052817333504828673 -0.0011738031815646788 0 0.053142508204876579 -0.0011821537847514277 0 0.053148544809833748 -0.0012118455837443281 0 0.056451445142133044 -0.01118137564481337 0 0.056576496376013433 -0.011717142518920805 0 0.056050312444956299 -0.011818354441042686 0 0.056451445142133044 -0.01118137564481337 0 0.056576496376013433 -0.011717142518920805 0 0.056941356807772153 -0.011643919144071112 0 0.059096526550953515 -0.0083234660584285605 0 0.061012789107450525 -0.0076890996761616566 0 0.057492578924603389 -0.011570186533820198 0 0.057302324595572364 -0.011655064665275886 0 0.057497741160367009 -0.011799188396491266 0 0.059415443240582039 -0.0094161281868181922 0 0.06148448756509118 -0.0089930417852730933 0 0.061387435635760983 -0.0085541423782428717 0 0.059096526550953515 -0.0083234660584285605 0 0.059275787411648517 -0.0073886223039991428 0 0.059275787411648517 -0.0073886223039991428 0 0.061012789107450525 -0.0076890996761616566 0 0.061012789107450525 -0.0076890996761616566 0 0.066552219394315812 -0.0055774660498099302 0 0.057302324595572364 -0.011655064665275886 0 0.057497741160367009 -0.011799188396491266 0 0.057374480970245355 -0.011952937008812878 0 0.082156381392365835 0.00031355780194910625 0 0.081938039200137675 0.0015187973000581158 0 0.082928290866890741 0.0012810896786710534 0 0.057559499704765628 -0.012029873039622746 0 0.057497741160367009 -0.011799188396491266 0 0.057374480970245355 -0.011952937008812878 0 0.084023922723173355 0.0011545499317758045 0 0.082156381392365835 0.00031355780194910625 0 0.082928290866890741 0.0012810896786710534 0 0.05281348564608699 -0.0012105254446938426 0 0.052817333504828673 -0.0011738031815646788 0 0.053148544809833748 -0.0012118455837443281 0 0.067678295693035059 -0.0023373654496657553 0 0.061012789107450525 -0.0076890996761616566 0 0.082984593153645286 0.0018648603581599332 0 0.083531474866079564 0.0014769185959145584 0 0.082928290866890741 0.0012810896786710534 0 0.057783538993500423 -0.011704908501206682 0 0.058029983084446388 -0.011785414516497722 0 0.057859590918872772 -0.011945683886030073 0 0.058098359063995138 -0.012101822933910671 0 0.058029983084446388 -0.011785414516497722 0 0.057859590918872772 -0.011945683886030073 0 0.057783538993500423 -0.011704908501206682 0 0.057859590918872772 -0.011945683886030073 0 0.057661861984409979 -0.011875815824778506 0 0.057559499704765628 -0.012029873039622746 0 0.057497741160367009 -0.011799188396491266 0 0.057661861984409979 -0.011875815824778506 0 0.057492578924603389 -0.011570186533820198 0 0.057497741160367009 -0.011799188396491266 0 0.057610885963426665 -0.011697875128820517 0 0.057497741160367009 -0.011799188396491266 0 0.057661861984409979 -0.011875815824778506 0 0.057610885963426665 -0.011697875128820517 0 0.057783538993500423 -0.011704908501206682 0 0.057661861984409979 -0.011875815824778506 0 0.057610885963426665 -0.011697875128820517 0 0.057783538993500423 -0.011704908501206682 0 0.057610885963426665 -0.011697875128820517 0 0.057619499557650417 -0.011539501144212046 0 0.059096526550953515 -0.0083234660584285605 0 0.058413630843396958 -0.0088415392534301456 0 0.057492578924603389 -0.011570186533820198 0 0.057610885963426665 -0.011697875128820517 0 0.057619499557650417 -0.011539501144212046 0 0.058413630843396958 -0.0088415392534301456 0 0.057938952373336051 -0.0093085168567539466 0 0.057783538993500423 -0.011704908501206682 0 0.057619499557650417 -0.011539501144212046 0 0.057910013700922032 -0.011395497229279442 0 0.057783538993500423 -0.011704908501206682 0 0.058029983084446388 -0.011785414516497722 0 0.057910013700922032 -0.011395497229279442 0 0.056941356807772153 -0.011643919144071112 0 0.057910013700922032 -0.011395497229279442 0 0.057515098166330506 -0.010898101440989743 0 0.057910013700922032 -0.011395497229279442 0 0.057515098166330506 -0.010898101440989743 0 0.057963707389040511 -0.010653560763210937 0 0.057515098166330506 -0.010898101440989743 0 0.057963707389040511 -0.010653560763210937 0 0.057274114447873857 -0.010523260634980252 0 0.056552033035625372 -0.010620663807523393 0 0.056940837938247148 -0.010970888388652031 0 0.057274114447873857 -0.010523260634980252 0 0.056941356807772153 -0.011643919144071112 0 0.057515098166330506 -0.010898101440989743 0 0.056940837938247148 -0.010970888388652031 0 0.056451445142133044 -0.01118137564481337 0 0.056941356807772153 -0.011643919144071112 0 0.056940837938247148 -0.010970888388652031 0 0.057515098166330506 -0.010898101440989743 0 0.056940837938247148 -0.010970888388652031 0 0.057274114447873857 -0.010523260634980252 0 0.056552033035625372 -0.010620663807523393 0 0.057274114447873857 -0.010523260634980252 0 0.056807411107116158 -0.010023352754292496 0 0.057274114447873857 -0.010523260634980252 0 0.056807411107116158 -0.010023352754292496 0 0.057566117786945099 -0.009858205303349481 0 0.058388826884429181 -0.010000325694068361 0 0.057963707389040511 -0.010653560763210937 0 0.057566117786945099 -0.009858205303349481 0 0.057963707389040511 -0.010653560763210937 0 0.057274114447873857 -0.010523260634980252 0 0.057566117786945099 -0.009858205303349481 0 0.058388826884429181 -0.010000325694068361 0 0.057566117786945099 -0.009858205303349481 0 0.058035809974283613 -0.0093307400940128762 0 0.057566117786945099 -0.009858205303349481 0 0.057399700533198039 -0.0090123717432200739 0 0.058035809974283613 -0.0093307400940128762 0 0.057566117786945099 -0.009858205303349481 0 0.056850360746427631 -0.0094405012263905387 0 0.057399700533198039 -0.0090123717432200739 0 0.056807411107116158 -0.010023352754292496 0 0.057566117786945099 -0.009858205303349481 0 0.056850360746427631 -0.0094405012263905387 0 0.056807411107116158 -0.010023352754292496 0 0.056850360746427631 -0.0094405012263905387 0 0.056340938715831061 -0.0095966097056788251 0 0.056716190902651308 -0.0088712193220934002 0 0.057332549134936996 -0.0084577468976390017 0 0.056097364683611914 -0.0083758687491657068 0 0.056850360746427631 -0.0094405012263905387 0 0.056716190902651308 -0.0088712193220934002 0 0.057399700533198039 -0.0090123717432200739 0 0.056716190902651308 -0.0088712193220934002 0 0.057399700533198039 -0.0090123717432200739 0 0.057332549134936996 -0.0084577468976390017 0 0.057399700533198039 -0.0090123717432200739 0 0.057853024652418622 -0.008852269081729227 0 0.058035809974283613 -0.0093307400940128762 0 0.057399700533198039 -0.0090123717432200739 0 0.057853024652418622 -0.008852269081729227 0 0.057332549134936996 -0.0084577468976390017 0 0.054560225435648549 -0.0068501321721615377 0 0.051627967943989501 -0.0090797195682246219 0 0.052011890887301175 -0.0037969875314958954 0 0.052718962692780071 -0.0091629871005576985 0 0.054876815832231161 -0.0090005804907518083 0 0.057853024652418622 -0.008852269081729227 0 0.057332549134936996 -0.0084577468976390017 0 0.058226832775124658 -0.008502747669959539 0 0.054560225435648549 -0.0068501321721615377 0 0.051627967943989501 -0.0090797195682246219 0 0.057005837714703307 -0.0082420824918345154 0 0.051627967943989501 -0.0090797195682246219 0 0.057005837714703307 -0.0082420824918345154 0 0.058226832775124658 -0.008502747669959539 0 0.054560225435648549 -0.0068501321721615377 0 0.052011890887301175 -0.0037969875314958954 0 0.058355101694546531 -0.0067179343095715499 0 0.04643426306867604 -0.013614879402343466 0 0.052499673022802562 -0.012779314949584333 0 0.052718962692780071 -0.0091629871005576985 0 0.047045543680155372 -0.0096247766720676323 0 0.051627967943989501 -0.0090797195682246219 0 0.046602744388474039 -0.0069744925914537771 0 0.044671226937059584 -0.0094434287176540978 0 0.051627967943989501 -0.0090797195682246219 0 0.046602744388474039 -0.0069744925914537771 0 0.047612136907801791 -0.0046756727741383399 0 0.051627967943989501 -0.0090797195682246219 0 0.047612136907801791 -0.0046756727741383399 0 0.052011890887301175 -0.0037969875314958954 0 0.04643426306867604 -0.013614879402343466 0 0.033330667155594816 -0.011807223721060368 0 0.047477945845225515 -0.023870639693436481 0 0.045205578420186653 -0.02281468614579114 0 0.047165571929432569 -0.022414731302129013 0 0.047612136907801791 -0.0046756727741383399 0 0.052011890887301175 -0.0037969875314958954 0 0.045416835565858085 -0.00077222609303966862 0 0.047477945845225515 -0.023870639693436481 0 0.04973580517560084 -0.024898869722887549 0 0.048966583868334163 -0.023270717059828971 0 0.047477945845225515 -0.023870639693436481 0 0.048114448907298872 -0.022689041154645956 0 0.047165571929432569 -0.022414731302129013 0 0.047477945845225515 -0.023870639693436481 0 0.048114448907298872 -0.022689041154645956 0 0.048966583868334163 -0.023270717059828971 0 0.048114448907298872 -0.022689041154645956 0 0.048966583868334163 -0.023270717059828971 0 0.048943539659422636 -0.022372739422918515 0 0.01575991541969033 -0.0061230648041613054 0 0.017164723857188303 -0.0068107418600291845 0 0.016252067185472098 -0.0072436391371218291 0 0.01575991541969033 -0.0061230648041613054 0 0.016252067185472098 -0.0072436391371218291 0 0.015411542141250033 -0.0073456208370399007 0 0.01575991541969033 -0.0061230648041613054 0 0.017164723857188303 -0.0068107418600291845 0 0.017211008526409392 -0.0053607743216740672 0 0.017164723857188303 -0.0068107418600291845 0 0.017211008526409392 -0.0053607743216740672 0 0.018187092105632904 -0.0060747679336184126 0 0.017164723857188303 -0.0068107418600291845 0 0.016932546269340959 -0.0078886761077301207 0 0.01865377558803305 -0.0081783894593768346 0 0.017164723857188303 -0.0068107418600291845 0 0.016932546269340959 -0.0078886761077301207 0 0.016252067185472098 -0.0072436391371218291 0 0.016932546269340959 -0.0078886761077301207 0 0.016252067185472098 -0.0072436391371218291 0 0.016030974823432007 -0.0081797964263212036 0 0.016252067185472098 -0.0072436391371218291 0 0.01548259588165697 -0.0077479734643931793 0 0.015411542141250033 -0.0073456208370399007 0 0.016030974823432007 -0.0081797964263212036 0 0.01548259588165697 -0.0077479734643931793 0 0.015306100133719452 -0.0082833316595176607 0 0.016252067185472098 -0.0072436391371218291 0 0.016030974823432007 -0.0081797964263212036 0 0.01548259588165697 -0.0077479734643931793 0 0.032659093656582316 -0.0097973479769593082 0 0.031718467044031827 -0.010930063298197614 0 0.01575991541969033 -0.0061230648041613054 0 0.015411542141250033 -0.0073456208370399007 0 0.014165000558601978 -0.0082676955687158576 0 0.01548259588165697 -0.0077479734643931793 0 0.015411542141250033 -0.0073456208370399007 0 0.014165000558601978 -0.0082676955687158576 0 0.01548259588165697 -0.0077479734643931793 0 0.014165000558601978 -0.0082676955687158576 0 0.015306100133719452 -0.0082833316595176607 0 0.033330667155594816 -0.011807223721060368 0 0.035029684739570563 -0.0098207921470162152 0 0.045416835565858085 -0.00077222609303966862 0 0.045373534926984718 -0.0035034150808269456 0 0.043207766368251833 -0.003699310961358514 0 0.045321006675271752 -0.0009029819762800959 0 0.043207766368251833 -0.003699310961358514 0 0.044646294666945717 -0.00058684876436984937 0 0.033330667155594816 -0.011807223721060368 0 0.031718467044031827 -0.010930063298197614 0 0.047612136907801791 -0.0046756727741383399 0 0.045416835565858085 -0.00077222609303966862 0 0.045373534926984718 -0.0035034150808269456 0 0.04525614945637655 -0.0048635315095175895 0 0.043207766368251833 -0.003699310961358514 0 0.043823290006819629 -0.0061946291065751924 0 0.045373534926984718 -0.0035034150808269456 0 0.04525614945637655 -0.0048635315095175895 0 0.043207766368251833 -0.003699310961358514 0 0.047612136907801791 -0.0046756727741383399 0 0.045373534926984718 -0.0035034150808269456 0 0.04525614945637655 -0.0048635315095175895 0 0.04126618060652705 -0.0050928722943261789 0 0.043207766368251833 -0.003699310961358514 0 0.044646294666945717 -0.00058684876436984937 0 0.04126618060652705 -0.0050928722943261789 0 0.043207766368251833 -0.003699310961358514 0 0.043823290006819629 -0.0061946291065751924 0 0.04126618060652705 -0.0050928722943261789 0 0.043823290006819629 -0.0061946291065751924 0 0.042515250955449529 -0.0071162916946341014 0 0.043823290006819629 -0.0061946291065751924 0 0.042515250955449529 -0.0071162916946341014 0 0.044671226937059584 -0.0094434287176540978 0 0.04126618060652705 -0.0050928722943261789 0 0.042515250955449529 -0.0071162916946341014 0 0.041210470808893979 -0.0081432705418791763 0 0.046602744388474039 -0.0069744925914537771 0 0.043823290006819629 -0.0061946291065751924 0 0.044671226937059584 -0.0094434287176540978 0 0.046602744388474039 -0.0069744925914537771 0 0.04525614945637655 -0.0048635315095175895 0 0.043823290006819629 -0.0061946291065751924 0 0.046602744388474039 -0.0069744925914537771 0 0.047612136907801791 -0.0046756727741383399 0 0.04525614945637655 -0.0048635315095175895 0 0.042515250955449529 -0.0071162916946341014 0 0.044671226937059584 -0.0094434287176540978 0 0.041210470808893979 -0.0081432705418791763 0 0.047045543680155372 -0.0096247766720676323 0 0.034268391524953028 -0.010640139801123497 0 0.044671226937059584 -0.0094434287176540978 0 0.041210470808893979 -0.0081432705418791763 0 0.037773302212373773 -0.0097360318673065591 0 0.04126618060652705 -0.0050928722943261789 0 0.041210470808893979 -0.0081432705418791763 0 0.037773302212373773 -0.0097360318673065591 0 0.032659093656582316 -0.0097973479769593082 0 0.034268391524953028 -0.010640139801123497 0 0.017211008526409392 -0.0053607743216740672 0 0.017743198052564749 -0.0039615278752960399 0 0.018187092105632904 -0.0060747679336184126 0 0.01575991541969033 -0.0061230648041613054 0 0.017211008526409392 -0.0053607743216740672 0 0.017393848916505389 -0.0039757173628932625 0 0.017211008526409392 -0.0053607743216740672 0 0.017393848916505389 -0.0039757173628932625 0 0.017743198052564749 -0.0039615278752960399 0 0.034268391524953028 -0.010640139801123497 0 0.032153532365449017 -0.010637860198932229 0 0.028721265322379272 -0.018512106089827961 0 0.040323878167833296 -0.017998800954907367 0 0.037710926024660023 -0.0066661091595743354 0 0.034058838530717159 -0.011229687772249447 0 0.044690042894314524 -0.01071220583754714 0 0.054546076324529062 -0.0084032232610328252 0 0.054410280646558756 -0.0085759879417289502 0 0.055708272705324385 -0.0091084458796060596 0 0.034058838530717159 -0.011229687772249447 0 0.047218724141464857 -0.013278282660082196 0 0.055227577135271273 -0.0087102124929725241 0 0.05606780785732364 -0.0090666024016890622 0 0.055523749122998664 -0.0097592932050122403 0 0.032153532365449017 -0.010637860198932229 0 0.034058838530717159 -0.011229687772249447 0 0.034268391524953028 -0.010640139801123497 0 0.034058838530717159 -0.011229687772249447 0 0.050413100528379613 -0.013552682234471227 0 0.047218724141464857 -0.013278282660082196 0 0.056716190902651308 -0.0088712193220934002 0 0.056097364683611914 -0.0083758687491657068 0 0.055708272705324385 -0.0091084458796060596 0 0.056850360746427631 -0.0094405012263905387 0 0.056716190902651308 -0.0088712193220934002 0 0.055708272705324385 -0.0091084458796060596 0 0.056097364683611914 -0.0083758687491657068 0 0.054546076324529062 -0.0084032232610328252 0 0.055708272705324385 -0.0091084458796060596 0 0.056850360746427631 -0.0094405012263905387 0 0.05606780785732364 -0.0090666024016890622 0 0.056340938715831061 -0.0095966097056788251 0 0.056272360542139681 -0.010122123862378466 0 0.056340938715831061 -0.0095966097056788251 0 0.055523749122998664 -0.0097592932050122403 0 0.05606780785732364 -0.0090666024016890622 0 0.056340938715831061 -0.0095966097056788251 0 0.055523749122998664 -0.0097592932050122403 0 0.056272360542139681 -0.010122123862378466 0 0.056807411107116158 -0.010023352754292496 0 0.056340938715831061 -0.0095966097056788251 0 0.046990884864476785 -0.014433410619502528 0 0.046163507338523951 -0.010523956397768397 0 0.0494683463304499 -0.011144829728737263 0 0.019762279827144229 -0.019382112069688429 0 0.017386072549106457 -0.020477693858750968 0 0.01275846884477371 -0.018657870194856672 0 0.012906799584443058 -0.018699074016630811 0 0.012524725773206348 -0.018411400284475115 0 0.012906799584443058 -0.018699074016630811 0 0.012524725773206348 -0.018411400284475115 0 0.01327665854786899 -0.017674916724577706 0 0.012524725773206348 -0.018411400284475115 0 0.011383150379828082 -0.017371385259303852 0 0.010753046124060455 -0.018188832744848272 0 0.012524725773206348 -0.018411400284475115 0 0.011383150379828082 -0.017371385259303852 0 0.012256191830736616 -0.017220285044044784 0 0.011383150379828082 -0.017371385259303852 0 0.012256191830736616 -0.017220285044044784 0 0.011121892081117133 -0.016462848909965497 0 0.012256191830736616 -0.017220285044044784 0 0.01327665854786899 -0.017674916724577706 0 0.013314975851700064 -0.01704490196351886 0 0.012524725773206348 -0.018411400284475115 0 0.012256191830736616 -0.017220285044044784 0 0.01327665854786899 -0.017674916724577706 0 0.014432764981652293 -0.017309417818016964 0 0.012906799584443058 -0.018699074016630811 0 0.01327665854786899 -0.017674916724577706 0 0.034058838530717159 -0.011229687772249447 0 0.031845064301574855 -0.013358420988263668 0 0.01327665854786899 -0.017674916724577706 0 0.01404147267183444 -0.017093712701959297 0 0.013314975851700064 -0.01704490196351886 0 0.014432764981652293 -0.017309417818016964 0 0.01327665854786899 -0.017674916724577706 0 0.01404147267183444 -0.017093712701959297 0 0.034058838530717159 -0.011229687772249447 0 0.029277771254438575 -0.010928262431264407 0 0.0075556678831168005 -0.019337795979257368 0 0.0087498583038428269 -0.020431601274788713 0 0.0069396214099750261 -0.02099892400602078 0 0.0075556678831168005 -0.019337795979257368 0 0.0087498583038428269 -0.020431601274788713 0 0.0091424041747532204 -0.018597308877361288 0 0.010541855781939561 -0.021206349475454064 0 0.012524725773206348 -0.018411400284475115 0 0.010326810852427433 -0.019369406070064061 0 0.0087498583038428269 -0.020431601274788713 0 0.010326810852427433 -0.019369406070064061 0 0.0091424041747532204 -0.018597308877361288 0 0.010541855781939561 -0.021206349475454064 0 0.0087498583038428269 -0.020431601274788713 0 0.010326810852427433 -0.019369406070064061 0 0.012524725773206348 -0.018411400284475115 0 0.010326810852427433 -0.019369406070064061 0 0.010753046124060455 -0.018188832744848272 0 0.011383150379828082 -0.017371385259303852 0 0.010079206026187289 -0.01723205001391934 0 0.011121892081117133 -0.016462848909965497 0 0.011383150379828082 -0.017371385259303852 0 0.010753046124060455 -0.018188832744848272 0 0.010079206026187289 -0.01723205001391934 0 0.010079206026187289 -0.01723205001391934 0 0.0085905691137650054 -0.017599635578453659 0 0.0089106839556833146 -0.016636422443253199 0 0.010079206026187289 -0.01723205001391934 0 0.0091424041747532204 -0.018597308877361288 0 0.0085905691137650054 -0.017599635578453659 0 0.010753046124060455 -0.018188832744848272 0 0.010079206026187289 -0.01723205001391934 0 0.0091424041747532204 -0.018597308877361288 0 0.010326810852427433 -0.019369406070064061 0 0.010753046124060455 -0.018188832744848272 0 0.0091424041747532204 -0.018597308877361288 0 0.0091424041747532204 -0.018597308877361288 0 0.0085905691137650054 -0.017599635578453659 0 0.0075631135265954476 -0.018083626187675072 0 0.0085905691137650054 -0.017599635578453659 0 0.0075631135265954476 -0.018083626187675072 0 0.0074149363746925569 -0.016733231456398306 0 0.0075631135265954476 -0.018083626187675072 0 0.0074149363746925569 -0.016733231456398306 0 0.0062188770417518271 -0.017433099910390808 0 0.0075556678831168005 -0.019337795979257368 0 0.0075631135265954476 -0.018083626187675072 0 0.0069193464613322197 -0.018499451110739917 0 0.0075556678831168005 -0.019337795979257368 0 0.0091424041747532204 -0.018597308877361288 0 0.0075631135265954476 -0.018083626187675072 0 0.0074149363746925569 -0.016733231456398306 0 0.0081946445924591018 -0.015404067282225724 0 0.0066875017147465677 -0.015285758748699595 0 0.0085905691137650054 -0.017599635578453659 0 0.0074149363746925569 -0.016733231456398306 0 0.0089106839556833146 -0.016636422443253199 0 0.0089106839556833146 -0.016636422443253199 0 0.0081946445924591018 -0.015404067282225724 0 0.0099711636782752779 -0.01594328246370675 0 0.0074149363746925569 -0.016733231456398306 0 0.0089106839556833146 -0.016636422443253199 0 0.0081946445924591018 -0.015404067282225724 0 0.0073626955108458073 -0.011454665566537478 0 0.011854302424721358 -0.011539992927471626 0 0.0099711636782752779 -0.01594328246370675 0 0.0094396579607412111 -0.014335571041969565 0 0.012081340096585368 -0.015503856898297079 0 0.0081946445924591018 -0.015404067282225724 0 0.0099711636782752779 -0.01594328246370675 0 0.0094396579607412111 -0.014335571041969565 0 0.010079206026187289 -0.01723205001391934 0 0.0089106839556833146 -0.016636422443253199 0 0.0099711636782752779 -0.01594328246370675 0 0.0099711636782752779 -0.01594328246370675 0 0.011121892081117133 -0.016462848909965497 0 0.012081340096585368 -0.015503856898297079 0 0.010079206026187289 -0.01723205001391934 0 0.0099711636782752779 -0.01594328246370675 0 0.011121892081117133 -0.016462848909965497 0 -0.00064117280867188582 -0.012218462186059325 0 0.00022147613166468753 -0.011983332976869375 0 -0.0011201308079239725 -0.011405584972595273 0 -0.00064117280867188582 -0.012218462186059325 0 -0.00018482944415416626 -0.012844022466432684 0 -0.001203540464080754 -0.012958826744184573 0 -0.00064117280867188582 -0.012218462186059325 0 -0.00018482944415416626 -0.012844022466432684 0 0.00022147613166468753 -0.011983332976869375 0 0.0081946445924591018 -0.015404067282225724 0 0.0066875017147465677 -0.015285758748699595 0 0.0066455511439149325 -0.013249035218131118 0 -0.00018482944415416626 -0.012844022466432684 0 0.00022147613166468753 -0.011983332976869375 0 0.0015967071416302867 -0.012270399028294462 0 0.0073626955108458073 -0.011454665566537478 0 0.0056534358773787218 -0.011626120943787352 0 0.0081946445924591018 -0.015404067282225724 0 0.0094396579607412111 -0.014335571041969565 0 0.0066455511439149325 -0.013249035218131118 0 0.029277771254438575 -0.010928262431264407 0 0.011854302424721358 -0.011539992927471626 0 0.019914714675641515 -0.0081670940576003773 0 0.021127115341278809 -0.0087234743913598891 0 0.019850048737214406 -0.0089996919947735055 0 0.014262686190572653 -0.017044079041770934 0 0.013314975851700064 -0.01704490196351886 0 0.011929730032860891 -0.015800583734828358 0 0.032153532365449017 -0.010637860198932229 0 0.022767036999533329 -0.0096664298835854451 0 0.019682118072743084 -0.0081780738020979047 0 0.019914714675641515 -0.0081670940576003773 0 0.019850048737214406 -0.0089996919947735055 0 0.032153532365449017 -0.010637860198932229 0 0.029277771254438575 -0.010928262431264407 0 0.029617795835691924 -0.011150794912558683 0 0.028540070042477567 -0.0064696710864271412 0 0.037980110687987352 -0.010779302005407004 0 0.029277771254438575 -0.010928262431264407 0 0.02742342422424849 -0.011178580991840997 0 0.012256191830736616 -0.017220285044044784 0 0.013314975851700064 -0.01704490196351886 0 0.011929730032860891 -0.015800583734828358 0 0.012256191830736616 -0.017220285044044784 0 0.011121892081117133 -0.016462848909965497 0 0.011929730032860891 -0.015800583734828358 0 0.011582487523467242 -0.011959998836453767 0 0.011854302424721358 -0.011539992927471626 0 -0.00064117280867188582 -0.012218462186059325 0 -0.0011201308079239725 -0.011405584972595273 0 -0.001203540464080754 -0.012958826744184573 0 0.011854302424721358 -0.011539992927471626 0 0.014495969508951569 -0.010927561845747259 0 -0.0011201308079239725 -0.011405584972595273 0 -0.001203540464080754 -0.012958826744184573 0 -0.0027264912720444171 -0.013037900424199052 0 0.021127115341278809 -0.0087234743913598891 0 0.019850048737214406 -0.0089996919947735055 0 0.020022805028311191 -0.0098225296860863145 0 0.022767036999533329 -0.0096664298835854451 0 0.014495969508951569 -0.010927561845747259 0 0.017164723857188303 -0.0068107418600291845 0 0.018187092105632904 -0.0060747679336184126 0 0.01865377558803305 -0.0081783894593768346 0 -0.0027264912720444171 -0.013037900424199052 0 -0.0016977204071185398 -0.013872824339689241 0 -0.0020514786487626341 -0.015127207836866906 0 -0.0018781688728046015 -0.015938160812868765 0 -0.0017665171890295075 -0.015526449875754741 0 -0.0020514786487626341 -0.015127207836866906 0 0.014495969508951569 -0.010927561845747259 0 0.011973494234968383 -0.011598251377124259 0 -0.001203540464080754 -0.012958826744184573 0 -0.0027264912720444171 -0.013037900424199052 0 -0.0016977204071185398 -0.013872824339689241 0 -0.0010483267932818658 -0.014242010998472644 0 -0.0016977204071185398 -0.013872824339689241 0 -0.0020514786487626341 -0.015127207836866906 0 -0.00018482944415416626 -0.012844022466432684 0 -0.001203540464080754 -0.012958826744184573 0 -0.0010483267932818658 -0.014242010998472644 0 -0.001203540464080754 -0.012958826744184573 0 -0.0010483267932818658 -0.014242010998472644 0 -0.0016977204071185398 -0.013872824339689241 0 -0.0010483267932818658 -0.014242010998472644 0 -0.0011203164744761434 -0.015158606467445533 0 -0.0019156138546324076 -0.01541039537348894 0 -0.0010483267932818658 -0.014242010998472644 0 -0.0020514786487626341 -0.015127207836866906 0 -0.0019156138546324076 -0.01541039537348894 0 -0.0020514786487626341 -0.015127207836866906 0 -0.0019156138546324076 -0.01541039537348894 0 -0.001760374887121386 -0.01557449617695948 0 -0.0017665171890295075 -0.015526449875754741 0 -0.0020514786487626341 -0.015127207836866906 0 -0.001760374887121386 -0.01557449617695948 0 -0.00018482944415416626 -0.012844022466432684 0 0.00020126027217894822 -0.013596640981817587 0 0.0015967071416302867 -0.012270399028294462 0 0.00020126027217894822 -0.013596640981817587 0 0.0010260402063643622 -0.013922275879808464 0 0.0015967071416302867 -0.012270399028294462 0 0.0010260402063643622 -0.013922275879808464 0 0.0015967071416302867 -0.012270399028294462 0 0.002041306904202473 -0.013572304226554107 0 -0.00018482944415416626 -0.012844022466432684 0 -0.0010483267932818658 -0.014242010998472644 0 0.00020126027217894822 -0.013596640981817587 0 -0.0010483267932818658 -0.014242010998472644 0 0.00020126027217894822 -0.013596640981817587 0 -0.00014348458907108887 -0.014577607207734832 0 -0.0010483267932818658 -0.014242010998472644 0 -0.00014348458907108887 -0.014577607207734832 0 -0.0011203164744761434 -0.015158606467445533 0 0.00020126027217894822 -0.013596640981817587 0 -0.00014348458907108887 -0.014577607207734832 0 0.0010260402063643622 -0.013922275879808464 0 -0.00014348458907108887 -0.014577607207734832 0 0.00090183031488172362 -0.014868963236891746 0 0.0010260402063643622 -0.013922275879808464 0 0.00090183031488172362 -0.014868963236891746 0 0.0010260402063643622 -0.013922275879808464 0 0.0017465045875437028 -0.014390730960719106 0 0.00083597876581777055 -0.015662806385663225 0 -0.0002429986344625258 -0.015784347886312368 0 0.0012768232390571121 -0.016455358764251138 0 -0.00014348458907108887 -0.014577607207734832 0 0.00090183031488172362 -0.014868963236891746 0 -0.0002429986344625258 -0.015784347886312368 0 0.00083597876581777055 -0.015662806385663225 0 0.0012768232390571121 -0.016455358764251138 0 0.0019998758163174055 -0.015375507653046192 0 0.00090183031488172362 -0.014868963236891746 0 0.00083597876581777055 -0.015662806385663225 0 0.0019998758163174055 -0.015375507653046192 0 0.00090183031488172362 -0.014868963236891746 0 0.00083597876581777055 -0.015662806385663225 0 -0.0002429986344625258 -0.015784347886312368 0 -0.0011203164744761434 -0.015158606467445533 0 -0.0002429986344625258 -0.015784347886312368 0 -0.001828051523118406 -0.015734381993181033 0 -0.00014348458907108887 -0.014577607207734832 0 -0.0011203164744761434 -0.015158606467445533 0 -0.0002429986344625258 -0.015784347886312368 0 -0.0011583057765400388 -0.016190166814088979 0 0.00037444507699618715 -0.016982628286702779 0 -0.00077435431301521964 -0.017207453440033611 0 -0.0002429986344625258 -0.015784347886312368 0 -0.0011583057765400388 -0.016190166814088979 0 -0.001828051523118406 -0.015734381993181033 0 -0.0002429986344625258 -0.015784347886312368 0 -0.0011583057765400388 -0.016190166814088979 0 0.00037444507699618715 -0.016982628286702779 0 -0.0011583057765400388 -0.016190166814088979 0 -0.0023964954525158228 -0.016123100077775933 0 -0.00077435431301521964 -0.017207453440033611 0 -0.0002429986344625258 -0.015784347886312368 0 0.00037444507699618715 -0.016982628286702779 0 0.0012768232390571121 -0.016455358764251138 0 0.00037444507699618715 -0.016982628286702779 0 0.0012768232390571121 -0.016455358764251138 0 0.0022431040071364907 -0.017230715182228306 0 -0.0018272530480933169 -0.01569136174317157 0 -0.0019156138546324076 -0.01541039537348894 0 -0.001760374887121386 -0.01557449617695948 0 -0.0020445290944252925 -0.015668465337862508 0 -0.0018272530480933169 -0.01569136174317157 0 -0.0018668919507626417 -0.015688794406674242 0 -0.0020445290944252925 -0.015668465337862508 0 -0.0018272530480933169 -0.01569136174317157 0 -0.0019156138546324076 -0.01541039537348894 0 -0.0011203164744761434 -0.015158606467445533 0 -0.0019156138546324076 -0.01541039537348894 0 -0.001828051523118406 -0.015734381993181033 0 -0.0020445290944252925 -0.015668465337862508 0 -0.0019156138546324076 -0.01541039537348894 0 -0.001828051523118406 -0.015734381993181033 0 -0.0020445290944252925 -0.015668465337862508 0 -0.001828051523118406 -0.015734381993181033 0 -0.0023875905817063786 -0.015753684024021428 0 -0.001828051523118406 -0.015734381993181033 0 -0.0023964954525158228 -0.016123100077775933 0 -0.0023875905817063786 -0.015753684024021428 0 -0.0011583057765400388 -0.016190166814088979 0 -0.001828051523118406 -0.015734381993181033 0 -0.0023964954525158228 -0.016123100077775933 0 -0.0023964954525158228 -0.016123100077775933 0 -0.0023875905817063786 -0.015753684024021428 0 -0.002931822807766406 -0.015380540722861694 0 -0.0020445290944252925 -0.015668465337862508 0 -0.0023875905817063786 -0.015753684024021428 0 -0.0018668919507626417 -0.015688794406674242 0 -0.0023875905817063786 -0.015753684024021428 0 -0.0019295151682576798 -0.015324595112637467 0 -0.002665316350229421 -0.014980523658913647 0 -0.0023875905817063786 -0.015753684024021428 0 -0.0018668919507626417 -0.015688794406674242 0 -0.0019295151682576798 -0.015324595112637467 0 -0.0019295151682576798 -0.015324595112637467 0 -0.0011886555591069795 -0.015583820792586007 0 -0.0012036431223445107 -0.01490231098282431 0 -0.0011886555591069795 -0.015583820792586007 0 -0.00046882992454812809 -0.01523972480508815 0 -0.0012036431223445107 -0.01490231098282431 0 -0.0018668919507626417 -0.015688794406674242 0 -0.0019295151682576798 -0.015324595112637467 0 -0.0011886555591069795 -0.015583820792586007 0 -0.0018668919507626417 -0.015688794406674242 0 -0.0011886555591069795 -0.015583820792586007 0 -0.00145285711202272 -0.015796382591763296 0 -0.0018272530480933169 -0.01569136174317157 0 -0.0018668919507626417 -0.015688794406674242 0 -0.00145285711202272 -0.015796382591763296 0 -0.00145285711202272 -0.015796382591763296 0 -0.0012281841644338288 -0.015851160585864506 0 -0.00091082417611668283 -0.015860066722293151 0 -0.0011886555591069795 -0.015583820792586007 0 -0.00145285711202272 -0.015796382591763296 0 -0.00091082417611668283 -0.015860066722293151 0 -0.00145285711202272 -0.015796382591763296 0 -0.0012281841644338288 -0.015851160585864506 0 -0.001760374887121386 -0.01557449617695948 0 -0.0018272530480933169 -0.01569136174317157 0 -0.00145285711202272 -0.015796382591763296 0 -0.001760374887121386 -0.01557449617695948 0 -0.0012281841644338288 -0.015851160585864506 0 -0.00048804941193532065 -0.016154937970988215 0 -0.00091082417611668283 -0.015860066722293151 0 -0.00048804941193532065 -0.016154937970988215 0 -0.00091082417611668283 -0.015860066722293151 0 -0.00024911856380530132 -0.015801756285507347 0 -0.0011886555591069795 -0.015583820792586007 0 -0.00091082417611668283 -0.015860066722293151 0 -0.00024911856380530132 -0.015801756285507347 0 -0.0011886555591069795 -0.015583820792586007 0 -0.00024911856380530132 -0.015801756285507347 0 -0.00046882992454812809 -0.01523972480508815 0 -0.00024911856380530132 -0.015801756285507347 0 0.0004349339625825133 -0.015350766405148777 0 -0.00046882992454812809 -0.01523972480508815 0 -0.00048804941193532065 -0.016154937970988215 0 -0.00024911856380530132 -0.015801756285507347 0 0.00091648507889755936 -0.015828875145756222 0 -0.00061025321575096511 -0.023469085390499238 0 0.0012714253288419102 -0.019545570529013182 0 0.0023144015405050533 -0.020594793307919534 0 -0.00024911856380530132 -0.015801756285507347 0 0.00091648507889755936 -0.015828875145756222 0 0.0004349339625825133 -0.015350766405148777 0 0.0012714253288419102 -0.019545570529013182 0 0.0023144015405050533 -0.020594793307919534 0 0.005524622752628678 -0.017574168236472249 0 0.011510547859725847 -0.014125699834235542 0 0.01032858061026817 -0.014356680454123624 0 0.0098996601586343255 -0.015102965921849976 0 0.0071862889767034055 -0.0162222007796166 0 0.0077399862904183082 -0.015896165724199027 0 0.011510547859725847 -0.014125699834235542 0 0.01032858061026817 -0.014356680454123624 0 0.010869706235933072 -0.013484981223230941 0 0.01032858061026817 -0.014356680454123624 0 0.0099934849060172321 -0.0135190077615545 0 0.010869706235933072 -0.013484981223230941 0 0.029498354491667232 -0.015321543643427579 0 0.030146866824979572 -0.015117375741078224 0 0.0099934849060172321 -0.0135190077615545 0 0.01128047842085197 -0.012598507026878758 0 0.011770664942879927 -0.011016897456299144 0 0.048875081938487573 -0.018047721451893827 0 0.047048189593871088 -0.020437468057188789 0 0.048768240380659258 -0.019847392712192029 0 0.0099934849060172321 -0.0135190077615545 0 0.010869706235933072 -0.013484981223230941 0 0.01128047842085197 -0.012598507026878758 0 0.011510547859725847 -0.014125699834235542 0 0.010869706235933072 -0.013484981223230941 0 0.01128047842085197 -0.012598507026878758 0 0.013408877742050277 -0.012588547435411922 0 0.011510547859725847 -0.014125699834235542 0 0.01128047842085197 -0.012598507026878758 0 0.013408877742050277 -0.012588547435411922 0 0.01128047842085197 -0.012598507026878758 0 0.012040350037893551 -0.011899972788713447 0 0.007615975595566927 -0.015231160671891623 0 0.0046470127104178797 -0.017219418277880216 0 0.007615975595566927 -0.015231160671891623 0 0.0071862889767034055 -0.0162222007796166 0 0.013408877742050277 -0.012588547435411922 0 0.012648784344983207 -0.011409339259375878 0 0.013659248353868125 -0.010952623927160562 0 0.013408877742050277 -0.012588547435411922 0 0.012648784344983207 -0.011409339259375878 0 0.012040350037893551 -0.011899972788713447 0 0.012648784344983207 -0.011409339259375878 0 0.012040350037893551 -0.011899972788713447 0 0.011770664942879927 -0.011016897456299144 0 0.01128047842085197 -0.012598507026878758 0 0.012040350037893551 -0.011899972788713447 0 0.011770664942879927 -0.011016897456299144 0 0.012648784344983207 -0.011409339259375878 0 0.011770664942879927 -0.011016897456299144 0 0.012564810998241244 -0.010558038059587677 0 0.012648784344983207 -0.011409339259375878 0 0.012564810998241244 -0.010558038059587677 0 0.013659248353868125 -0.010952623927160562 0 0.012564810998241244 -0.010558038059587677 0 0.013501069722144708 -0.01035402506458805 0 0.013659248353868125 -0.010952623927160562 0 0.047048189593871088 -0.020437468057188789 0 0.048768240380659258 -0.019847392712192029 0 0.047960178287288414 -0.020880571504840583 0 0.047048189593871088 -0.020437468057188789 0 0.047960178287288414 -0.020880571504840583 0 0.047117123014468326 -0.021546171935196312 0 0.048768240380659258 -0.019847392712192029 0 0.047960178287288414 -0.020880571504840583 0 0.048813728443572769 -0.020878131923193478 0 0.048139177705125095 -0.021603808458900406 0 0.049363996397593084 -0.021557232801520058 0 0.048943539659422636 -0.022372739422918515 0 0.048813728443572769 -0.020878131923193478 0 0.048139177705125095 -0.021603808458900406 0 0.049363996397593084 -0.021557232801520058 0 0.047960178287288414 -0.020880571504840583 0 0.048813728443572769 -0.020878131923193478 0 0.048139177705125095 -0.021603808458900406 0 0.047960178287288414 -0.020880571504840583 0 0.048139177705125095 -0.021603808458900406 0 0.047117123014468326 -0.021546171935196312 0 0.048139177705125095 -0.021603808458900406 0 0.047117123014468326 -0.021546171935196312 0 0.047165571929432569 -0.022414731302129013 0 0.048139177705125095 -0.021603808458900406 0 0.048114448907298872 -0.022689041154645956 0 0.047165571929432569 -0.022414731302129013 0 0.048139177705125095 -0.021603808458900406 0 0.048114448907298872 -0.022689041154645956 0 0.048943539659422636 -0.022372739422918515 0 0.045205578420186653 -0.02281468614579114 0 0.047117123014468326 -0.021546171935196312 0 0.047165571929432569 -0.022414731302129013 0 0.033330667155594816 -0.011807223721060368 0 0.030146866824979572 -0.015117375741078224 0 0.045205578420186653 -0.02281468614579114 0 0.047048189593871088 -0.020437468057188789 0 0.047117123014468326 -0.021546171935196312 0 0.012564810998241244 -0.010558038059587677 0 0.014210421603906944 -0.008386701033737242 0 0.013751668161935574 -0.0097603856079582219 0 0.014200603002069016 -0.0079643979460770498 0 0.011770664942879927 -0.011016897456299144 0 0.012564810998241244 -0.010558038059587677 0 0.026191163768608416 -0.013588131652488846 0 0.031718467044031827 -0.010930063298197614 0 0.012564810998241244 -0.010558038059587677 0 0.013501069722144708 -0.01035402506458805 0 0.013751668161935574 -0.0097603856079582219 0 0.014210421603906944 -0.008386701033737242 0 0.014388171875350584 -0.0092132065441833978 0 0.013751668161935574 -0.0097603856079582219 0 0.014200603002069016 -0.0079643979460770498 0 0.012564810998241244 -0.010558038059587677 0 0.014513949195398463 -0.0081079989296544523 0 0.014210421603906944 -0.008386701033737242 0 0.014388171875350584 -0.0092132065441833978 0 0.014756201900022053 -0.0089291338221905193 0 0.014038464242089949 -0.010141468296501935 0 0.01521967184666715 -0.0095016605259899151 0 0.013659248353868125 -0.010952623927160562 0 0.014388171875350584 -0.0092132065441833978 0 0.013751668161935574 -0.0097603856079582219 0 0.014393225750679106 -0.0096959033694957609 0 0.013751668161935574 -0.0097603856079582219 0 0.014393225750679106 -0.0096959033694957609 0 0.014038464242089949 -0.010141468296501935 0 0.013501069722144708 -0.01035402506458805 0 0.013751668161935574 -0.0097603856079582219 0 0.014038464242089949 -0.010141468296501935 0 0.014393225750679106 -0.0096959033694957609 0 0.014038464242089949 -0.010141468296501935 0 0.01521967184666715 -0.0095016605259899151 0 0.014393225750679106 -0.0096959033694957609 0 0.014708689371207773 -0.0094208866891051166 0 0.01521967184666715 -0.0095016605259899151 0 0.014388171875350584 -0.0092132065441833978 0 0.014393225750679106 -0.0096959033694957609 0 0.014708689371207773 -0.0094208866891051166 0 0.014708689371207773 -0.0094208866891051166 0 0.01521967184666715 -0.0095016605259899151 0 0.014885481285079175 -0.0091669413965549899 0 0.014165000558601978 -0.0082676955687158576 0 0.015306100133719452 -0.0082833316595176607 0 0.015561331646324091 -0.0089365216928210429 0 0.014210421603906944 -0.008386701033737242 0 0.014756201900022053 -0.0089291338221905193 0 0.015561331646324091 -0.0089365216928210429 0 0.014885481285079175 -0.0091669413965549899 0 0.014756201900022053 -0.0089291338221905193 0 0.015561331646324091 -0.0089365216928210429 0 0.01521967184666715 -0.0095016605259899151 0 0.014885481285079175 -0.0091669413965549899 0 0.015561331646324091 -0.0089365216928210429 0 0.031718467044031827 -0.010930063298197614 0 0.029038982403620288 -0.0099584363772400875 0 0.014388171875350584 -0.0092132065441833978 0 0.014885481285079175 -0.0091669413965549899 0 0.014756201900022053 -0.0089291338221905193 0 0.014388171875350584 -0.0092132065441833978 0 0.014708689371207773 -0.0094208866891051166 0 0.014885481285079175 -0.0091669413965549899 0 0.01865377558803305 -0.0081783894593768346 0 0.016654527905420682 -0.0090257831062731803 0 0.015984848682443608 -0.010854344445161351 0 0.016030974823432007 -0.0081797964263212036 0 0.015306100133719452 -0.0082833316595176607 0 0.015561331646324091 -0.0089365216928210429 0 0.016932546269340959 -0.0078886761077301207 0 0.016030974823432007 -0.0081797964263212036 0 0.016654527905420682 -0.0090257831062731803 0 -0.0018781688728046015 -0.015938160812868765 0 -0.0017665171890295075 -0.015526449875754741 0 -0.0014246926081976719 -0.015744263083870034 0 0.016030974823432007 -0.0081797964263212036 0 0.016654527905420682 -0.0090257831062731803 0 0.015561331646324091 -0.0089365216928210429 0 0.014495969508951569 -0.010927561845747259 0 0.0094575064735440608 -0.013884667706754734 0 0.01521967184666715 -0.0095016605259899151 0 0.015561331646324091 -0.0089365216928210429 0 0.01585294754252398 -0.0095722672143857667 0 0.016654527905420682 -0.0090257831062731803 0 0.015561331646324091 -0.0089365216928210429 0 0.01585294754252398 -0.0095722672143857667 0 0.016932546269340959 -0.0078886761077301207 0 0.01865377558803305 -0.0081783894593768346 0 0.016654527905420682 -0.0090257831062731803 0 0.016654527905420682 -0.0090257831062731803 0 0.01585294754252398 -0.0095722672143857667 0 0.015984848682443608 -0.010854344445161351 0 0.01521967184666715 -0.0095016605259899151 0 0.01585294754252398 -0.0095722672143857667 0 0.015984848682443608 -0.010854344445161351 0 -0.0017665171890295075 -0.015526449875754741 0 -0.0014246926081976719 -0.015744263083870034 0 -0.001760374887121386 -0.01557449617695948 0 -0.0012281841644338288 -0.015851160585864506 0 -0.0014246926081976719 -0.015744263083870034 0 -0.001760374887121386 -0.01557449617695948 0 0.013078529396898327 -0.013702216595893808 0 0.01521967184666715 -0.0095016605259899151 0 0.015984848682443608 -0.010854344445161351 0 0.007615975595566927 -0.015231160671891623 0 0.0094575064735440608 -0.013884667706754734 0 -0.0012281841644338288 -0.015851160585864506 0 -0.00048804941193532065 -0.016154937970988215 0 -0.0014246926081976719 -0.015744263083870034 0 0.007615975595566927 -0.015231160671891623 0 0.01105085717883521 -0.011054424022196105 0 0.013408877742050277 -0.012588547435411922 0 0.01521967184666715 -0.0095016605259899151 0 0.013659248353868125 -0.010952623927160562 0 0.013501069722144708 -0.01035402506458805 0 0.014038464242089949 -0.010141468296501935 0 0.013659248353868125 -0.010952623927160562 0 0.040734044643515065 2.837385459322986e-06 0 0.039149064825273278 -0.00027746686249680751 0 0.035613734293440377 -3.5203603493533706e-06 0 0.037297105492064421 -0.00050155452837192312 0 0.039149064825273278 -0.00027746686249680751 0 0.035613734293440377 -3.5203603493533706e-06 0 0.037297105492064421 -0.00050155452837192312 0 0.036979086527699517 -0.00035205561130167951 0 0.03511107746459128 -0.0012614153339058842 0 0.037297105492064421 -0.00050155452837192312 0 0.036979086527699517 -0.00035205561130167951 0 0.039149064825273278 -0.00027746686249680751 0 0.038172300422656458 0.0010154902326872418 0 0.039149064825273278 -0.00027746686249680751 0 0.042947772513854718 0.0016963258915006249 0 0.036979086527699517 -0.00035205561130167951 0 0.038172300422656458 0.0010154902326872418 0 0.039149064825273278 -0.00027746686249680751 0 0.040734044643515065 2.837385459322986e-06 0 0.039149064825273278 -0.00027746686249680751 0 0.042947772513854718 0.0016963258915006249 0 0.040734044643515065 2.837385459322986e-06 0 0.04556339221916833 0.00050991454808929735 0 0.045852444336083452 3.1000679178960482e-07 0 0.040734044643515065 2.837385459322986e-06 0 0.04556339221916833 0.00050991454808929735 0 0.042947772513854718 0.0016963258915006249 0 0.048940342509957109 -0.00036886918732462822 0 0.04556339221916833 0.00050991454808929735 0 0.045852444336083452 3.1000679178960482e-07 0 0.048940342509957109 -0.00036886918732462822 0 0.04556339221916833 0.00050991454808929735 0 0.048325703643517563 0.00012401260982041916 0 0.048325703643517563 0.00012401260982041916 0 0.042947772513854718 0.0016963258915006249 0 0.05110874514404827 0.0024999251627479823 0 0.038172300422656458 0.0010154902326872418 0 0.042947772513854718 0.0016963258915006249 0 0.034603793205074722 0.0036181399172961694 0 0.04556339221916833 0.00050991454808929735 0 0.048325703643517563 0.00012401260982041916 0 0.042947772513854718 0.0016963258915006249 0 0.042604075313009949 0.00098368399989149182 0 0.0421038230643647 0.00074226207788006637 0 0.038172300422656458 0.0010154902326872418 0 0.034603793205074722 0.0036181399172961694 0 0.030926562177655798 0.0015479724839802735 0 0.051662611971214835 -0.00081177646619375531 0 0.048325703643517563 0.00012401260982041916 0 0.050870226781297823 0.00028529381883786502 0 0.05110874514404827 0.0024999251627479823 0 0.050870226781297823 0.00028529381883786502 0 0.052561745332779491 1.5372507390644167e-05 0 0.051662611971214835 -0.00081177646619375531 0 0.050870226781297823 0.00028529381883786502 0 0.052561745332779491 1.5372507390644167e-05 0 0.048325703643517563 0.00012401260982041916 0 0.05110874514404827 0.0024999251627479823 0 0.050870226781297823 0.00028529381883786502 0 0.052561745332779491 1.5372507390644167e-05 0 0.05376748163502254 0.0014420714057512068 0 0.05394447265632548 0.0002740936371626642 0 0.054090060819896243 -0.00049080712565956143 0 0.052561745332779491 1.5372507390644167e-05 0 0.05394447265632548 0.0002740936371626642 0 0.0421038230643647 0.00074226207788006637 0 0.040909638132143343 -0.00045216069390855454 0 0.030926562177655798 0.0015479724839802735 0 0.02652233115525509 -0.0002336020430152463 0 0.027862122215587516 0.0040997825852652743 0 0.034603793205074722 0.0036181399172961694 0 0.030926562177655798 0.0015479724839802735 0 0.027862122215587516 0.0040997825852652743 0 0.05110874514404827 0.0024999251627479823 0 0.052561745332779491 1.5372507390644167e-05 0 0.05376748163502254 0.0014420714057512068 0 0.030294326190662448 -0.0025326336803840059 0 0.030926562177655798 0.0015479724839802735 0 0.02652233115525509 -0.0002336020430152463 0 0.035078242973602076 -0.00041149416060014163 0 0.032738311595276619 -0.0016400329404554505 0 0.038172300422656458 0.0010154902326872418 0 0.030294326190662448 -0.0025326336803840059 0 0.030926562177655798 0.0015479724839802735 0 0.036979086527699517 -0.00035205561130167951 0 0.038172300422656458 0.0010154902326872418 0 0.033402783931020981 -0.00028948682945052718 0 0.036979086527699517 -0.00035205561130167951 0 0.033402783931020981 -0.00028948682945052718 0 0.03511107746459128 -0.0012614153339058842 0 0.033402783931020981 -0.00028948682945052718 0 0.033124106274626745 -0.0011141870741420009 0 0.033349116351435143 -0.0011481867234676096 0 0.033402783931020981 -0.00028948682945052718 0 0.033778579466703609 -0.001227028252916528 0 0.033349116351435143 -0.0011481867234676096 0 0.033402783931020981 -0.00028948682945052718 0 0.03511107746459128 -0.0012614153339058842 0 0.033778579466703609 -0.001227028252916528 0 0.030294326190662448 -0.0025326336803840059 0 0.023086692474282727 -0.0060718423623433221 0 0.02552668343766016 -0.0023738636923951303 0 0.032738311595276619 -0.0016400329404554505 0 0.032006281654032791 -0.0024653538073910295 0 0.033402783931020981 -0.00028948682945052718 0 0.032883014762229899 -0.00097812712086171893 0 0.033124106274626745 -0.0011141870741420009 0 0.023086692474282727 -0.0060718423623433221 0 0.022233801354084173 -0.00066879329179343966 0 0.02552668343766016 -0.0023738636923951303 0 0.029772102666955649 -0.005267705676954647 0 0.030252951777103482 -0.0071192510190944613 0 0.032006281654032791 -0.0024653538073910295 0 0.03679009788855081 -0.0016948477882308699 0 0.054075873530988416 0.0013862627828381149 0 0.05425032517843302 0.0014743231934451833 0 0.054251371548490197 0.00073651274929218433 0 0.05425032517843302 0.0014743231934451833 0 0.054251371548490197 0.00073651274929218433 0 0.054736225415205016 0.00079271947835096441 0 0.032006281654032791 -0.0024653538073910295 0 0.029772102666955649 -0.005267705676954647 0 0.054251371548490197 0.00073651274929218433 0 0.054651692127455222 0.00041677205186693321 0 0.054736225415205016 0.00079271947835096441 0 0.022233801354084173 -0.00066879329179343966 0 0.02552668343766016 -0.0023738636923951303 0 0.02652233115525509 -0.0002336020430152463 0 0.022233801354084173 -0.00066879329179343966 0 0.02652233115525509 -0.0002336020430152463 0 0.024449190710889395 0.0017342103892195706 0 0.030294326190662448 -0.0025326336803840059 0 0.02552668343766016 -0.0023738636923951303 0 0.02652233115525509 -0.0002336020430152463 0 0.02652233115525509 -0.0002336020430152463 0 0.024449190710889395 0.0017342103892195706 0 0.027862122215587516 0.0040997825852652743 0 0.05376748163502254 0.0014420714057512068 0 0.054353735301968985 0.00053782911300339037 0 0.054838536934961671 0.00057280166034944587 0 0.040909638132143343 -0.00045216069390855454 0 0.041386686363604035 -0.0034179905929114214 0 0.024449190710889395 0.0017342103892195706 0 0.027862122215587516 0.0040997825852652743 0 0.021406866634552962 0.0047261734693719894 0 0.05376748163502254 0.0014420714057512068 0 0.05394447265632548 0.0002740936371626642 0 0.054353735301968985 0.00053782911300339037 0 0.05394447265632548 0.0002740936371626642 0 0.054353735301968985 0.00053782911300339037 0 0.054471260253913904 -5.2188082287157883e-06 0 0.054090060819896243 -0.00049080712565956143 0 0.05394447265632548 0.0002740936371626642 0 0.054471260253913904 -5.2188082287157883e-06 0 0.054705258593605421 -0.00047003709628270845 0 0.054471260253913904 -5.2188082287157883e-06 0 0.054785276256497505 -0.00011900822701083284 0 0.054471260253913904 -5.2188082287157883e-06 0 0.054785276256497505 -0.00011900822701083284 0 0.054807298922841474 0.00023042597757208787 0 0.054353735301968985 0.00053782911300339037 0 0.054807298922841474 0.00023042597757208787 0 0.054838536934961671 0.00057280166034944587 0 0.054353735301968985 0.00053782911300339037 0 0.054471260253913904 -5.2188082287157883e-06 0 0.054807298922841474 0.00023042597757208787 0 0.054785276256497505 -0.00011900822701083284 0 0.054807298922841474 0.00023042597757208787 0 0.054867541173457261 -4.6265605399102409e-05 0 0.03679009788855081 -0.0016948477882308699 0 0.041386686363604035 -0.0034179905929114214 0 0.054807298922841474 0.00023042597757208787 0 0.054814059804627627 0.00016237772063956344 0 0.054754440702540368 0.00014342432970951513 0 0.054426912906845086 0.00014502892789525933 0 0.054651692127455222 0.00041677205186693321 0 0.054754440702540368 0.00014342432970951513 0 0.041386686363604035 -0.0034179905929114214 0 0.042920024481413251 -0.003425890569423416 0 0.054251371548490197 0.00073651274929218433 0 0.054426912906845086 0.00014502892789525933 0 0.054651692127455222 0.00041677205186693321 0 0.022233801354084173 -0.00066879329179343966 0 0.024449190710889395 0.0017342103892195706 0 0.021406866634552962 0.0047261734693719894 0 0.041572637529796605 -0.0032938468170118093 0 0.041386686363604035 -0.0034179905929114214 0 0.054651692127455222 0.00041677205186693321 0 0.055109814976149099 0.00017321298787002025 0 0.054736225415205016 0.00079271947835096441 0 0.054651692127455222 0.00041677205186693321 0 0.054754440702540368 0.00014342432970951513 0 0.055109814976149099 0.00017321298787002025 0 0.031004386383208103 -0.008609932429843958 0 0.030252951777103482 -0.0071192510190944613 0 0.054754440702540368 0.00014342432970951513 0 0.055029944352219057 -0.00013787143116830391 0 0.054867541173457261 -4.6265605399102409e-05 0 0.054807298922841474 0.00023042597757208787 0 0.054754440702540368 0.00014342432970951513 0 0.054867541173457261 -4.6265605399102409e-05 0 0.054754440702540368 0.00014342432970951513 0 0.055029944352219057 -0.00013787143116830391 0 0.055109814976149099 0.00017321298787002025 0 0.054930139218084928 -0.00031272451900734574 0 0.054785276256497505 -0.00011900822701083284 0 0.054867541173457261 -4.6265605399102409e-05 0 0.054930139218084928 -0.00031272451900734574 0 0.055029944352219057 -0.00013787143116830391 0 0.054867541173457261 -4.6265605399102409e-05 0 0.031940027323048903 -0.0095958257366086739 0 0.031004386383208103 -0.008609932429843958 0 0.055029944352219057 -0.00013787143116830391 0 0.055304315547474954 -0.00034356330246401858 0 0.055109814976149099 0.00017321298787002025 0 0.0069396214099750261 -0.02099892400602078 0 0.0063131211401559091 -0.019099087225195776 0 0.005527727138932609 -0.018413807246041771 0 0.055081785691415967 -0.00048603223346771072 0 0.055029944352219057 -0.00013787143116830391 0 0.055304315547474954 -0.00034356330246401858 0 0.0075556678831168005 -0.019337795979257368 0 0.0069396214099750261 -0.02099892400602078 0 0.0063131211401559091 -0.019099087225195776 0 0.0063131211401559091 -0.019099087225195776 0 0.0069193464613322197 -0.018499451110739917 0 0.0062188770417518271 -0.017433099910390808 0 0.0063131211401559091 -0.019099087225195776 0 0.0062188770417518271 -0.017433099910390808 0 0.0042004113226278882 -0.015832092057822631 0 0.0063131211401559091 -0.019099087225195776 0 0.005527727138932609 -0.018413807246041771 0 0.0051941329617182057 -0.015966096518554334 0 0.0075556678831168005 -0.019337795979257368 0 0.0063131211401559091 -0.019099087225195776 0 0.0069193464613322197 -0.018499451110739917 0 0.011509788843191699 -0.014251803604053025 0 0.012990932858254279 -0.011867532972058104 0 0.0075631135265954476 -0.018083626187675072 0 0.0069193464613322197 -0.018499451110739917 0 0.0062188770417518271 -0.017433099910390808 0 0.0074149363746925569 -0.016733231456398306 0 0.0062188770417518271 -0.017433099910390808 0 0.0059332256132994367 -0.016026050221092953 0 0.0074149363746925569 -0.016733231456398306 0 0.0059332256132994367 -0.016026050221092953 0 0.0066875017147465677 -0.015285758748699595 0 0.0059332256132994367 -0.016026050221092953 0 0.0066875017147465677 -0.015285758748699595 0 0.0051465200920207321 -0.014854990393286544 0 0.0059332256132994367 -0.016026050221092953 0 0.0042004113226278882 -0.015832092057822631 0 0.0051465200920207321 -0.014854990393286544 0 0.0062188770417518271 -0.017433099910390808 0 0.0059332256132994367 -0.016026050221092953 0 0.0042004113226278882 -0.015832092057822631 0 0.005527727138932609 -0.018413807246041771 0 0.0043723834092730379 -0.015874358393508405 0 0.0051941329617182057 -0.015966096518554334 0 0.012990932858254279 -0.011867532972058104 0 0.020451649832554378 -0.0070803316236323537 0 0.0042004113226278882 -0.015832092057822631 0 0.0032749949771661122 -0.01361008587754413 0 0.0051465200920207321 -0.014854990393286544 0 0.0030940128039671335 -0.013562236863087109 0 0.0051941329617182057 -0.015966096518554334 0 0.0039658889247283129 -0.013121518444377306 0 0.0032749949771661122 -0.01361008587754413 0 0.0048109563055373549 -0.013688544016238202 0 0.0051465200920207321 -0.014854990393286544 0 0.0042004113226278882 -0.015832092057822631 0 0.0032749949771661122 -0.01361008587754413 0 0.0024476278103136113 -0.012540864721090198 0 0.0030940128039671335 -0.013562236863087109 0 0.0043723834092730379 -0.015874358393508405 0 0.0051941329617182057 -0.015966096518554334 0 0.0032749949771661122 -0.01361008587754413 0 0.0039364894187221312 -0.013304265140339572 0 0.0048109563055373549 -0.013688544016238202 0 0.0032749949771661122 -0.01361008587754413 0 0.0039364894187221312 -0.013304265140339572 0 0.0032368570558270449 -0.012661454635683729 0 0.0039364894187221312 -0.013304265140339572 0 0.0048109563055373549 -0.013688544016238202 0 0.0036132623766766303 -0.012672122268637022 0 0.0048109563055373549 -0.013688544016238202 0 0.0066455511439149325 -0.013249035218131118 0 0.0036132623766766303 -0.012672122268637022 0 0.0066875017147465677 -0.015285758748699595 0 0.0066455511439149325 -0.013249035218131118 0 0.0051465200920207321 -0.014854990393286544 0 0.0048109563055373549 -0.013688544016238202 0 0.0066455511439149325 -0.013249035218131118 0 0.0051465200920207321 -0.014854990393286544 0 0.0015967071416302867 -0.012270399028294462 0 0.0027452978307391331 -0.013136035092812916 0 0.002041306904202473 -0.013572304226554107 0 0.0056534358773787218 -0.011626120943787352 0 0.0051671553506957507 -0.011693938026127965 0 0.0015967071416302867 -0.012270399028294462 0 0.0027452978307391331 -0.013136035092812916 0 0.0036132623766766303 -0.012672122268637022 0 0.0027452978307391331 -0.013136035092812916 0 0.0035356469473366891 -0.012906973998355276 0 0.0027981727032853712 -0.014224151545626781 0 0.0027452978307391331 -0.013136035092812916 0 0.002041306904202473 -0.013572304226554107 0 0.0027981727032853712 -0.014224151545626781 0 0.0027452978307391331 -0.013136035092812916 0 0.0036132623766766303 -0.012672122268637022 0 0.0035356469473366891 -0.012906973998355276 0 0.004050384453475722 -0.012646698313071993 0 0.0035356469473366891 -0.012906973998355276 0 0.0040879303978499986 -0.014714239421835546 0 0.0039364894187221312 -0.013304265140339572 0 0.0036132623766766303 -0.012672122268637022 0 0.0032368570558270449 -0.012661454635683729 0 0.0036132623766766303 -0.012672122268637022 0 0.0032368570558270449 -0.012661454635683729 0 0.0035356469473366891 -0.012906973998355276 0 0.017259518115916153 -0.0070754170868084689 0 0.016269139187907063 -0.0075535745063482884 0 0.016724794132893503 -0.0078226412338168929 0 0.017259518115916153 -0.0070754170868084689 0 0.0032749949771661122 -0.01361008587754413 0 0.0024476278103136113 -0.012540864721090198 0 0.0030647386567976579 -0.012225690305300354 0 0.020451649832554378 -0.0070803316236323537 0 0.017259518115916153 -0.0070754170868084689 0 0.0035356469473366891 -0.012906973998355276 0 0.0040879303978499986 -0.014714239421835546 0 0.0027981727032853712 -0.014224151545626781 0 0.017259518115916153 -0.0070754170868084689 0 0.015629257584860355 -0.0076791727956438726 0 0.0040879303978499986 -0.014714239421835546 0 0.0027981727032853712 -0.014224151545626781 0 0.0031902874174449059 -0.015579026840855881 0 0.002041306904202473 -0.013572304226554107 0 0.0027981727032853712 -0.014224151545626781 0 0.0017465045875437028 -0.014390730960719106 0 0.0010260402063643622 -0.013922275879808464 0 0.002041306904202473 -0.013572304226554107 0 0.0017465045875437028 -0.014390730960719106 0 0.00090183031488172362 -0.014868963236891746 0 0.0017465045875437028 -0.014390730960719106 0 0.0019998758163174055 -0.015375507653046192 0 0.0027981727032853712 -0.014224151545626781 0 0.0017465045875437028 -0.014390730960719106 0 0.0019998758163174055 -0.015375507653046192 0 0.0027981727032853712 -0.014224151545626781 0 0.0019998758163174055 -0.015375507653046192 0 0.0031902874174449059 -0.015579026840855881 0 0.0019998758163174055 -0.015375507653046192 0 0.0023260641610446868 -0.016307185464028196 0 0.0031902874174449059 -0.015579026840855881 0 0.0012768232390571121 -0.016455358764251138 0 0.0019998758163174055 -0.015375507653046192 0 0.0023260641610446868 -0.016307185464028196 0 0.0012768232390571121 -0.016455358764251138 0 0.0023260641610446868 -0.016307185464028196 0 0.0022431040071364907 -0.017230715182228306 0 0.0023260641610446868 -0.016307185464028196 0 0.0022431040071364907 -0.017230715182228306 0 0.0032700092863067538 -0.016463913991288652 0 0.0033704376571500475 -0.017207803800193208 0 0.0032700092863067538 -0.016463913991288652 0 0.0042857094903596101 -0.016583941107504403 0 0.0033704376571500475 -0.017207803800193208 0 0.0042857094903596101 -0.016583941107504403 0 0.0043927663947204874 -0.0173173690280056 0 0.0022431040071364907 -0.017230715182228306 0 0.0033704376571500475 -0.017207803800193208 0 0.0032700092863067538 -0.016463913991288652 0 0.0023260641610446868 -0.016307185464028196 0 0.0032700092863067538 -0.016463913991288652 0 0.0031902874174449059 -0.015579026840855881 0 0.0032700092863067538 -0.016463913991288652 0 0.0031902874174449059 -0.015579026840855881 0 0.0042699568616208095 -0.016610677320694822 0 0.010672161981748767 -0.0077533811371842589 0 0.012260479722787421 -0.0073762305265397963 0 0.0040879303978499986 -0.014714239421835546 0 0.0031902874174449059 -0.015579026840855881 0 0.0042699568616208095 -0.016610677320694822 0 0.015629257584860355 -0.0076791727956438726 0 0.012260479722787421 -0.0073762305265397963 0 0.033393047557343132 -0.0006936180235049094 0 0.033252101197516017 -0.00062452232957756638 0 0.033261358441824401 -0.0004755310160068224 0 0.033393047557343132 -0.0006936180235049094 0 0.033261358441824401 -0.0004755310160068224 0 0.033325756029853444 -0.0003302873386993777 0 0.033252101197516017 -0.00062452232957756638 0 0.033188624117004871 -0.00055807338656718687 0 0.033261358441824401 -0.0004755310160068224 0 0.033188624117004871 -0.00055807338656718687 0 0.033012223962763848 -0.00079043035923828089 0 0.033172891890294723 -0.00067668198950829436 0 0.033252101197516017 -0.00062452232957756638 0 0.033188624117004871 -0.00055807338656718687 0 0.033172891890294723 -0.00067668198950829436 0 0.033188624117004871 -0.00055807338656718687 0 0.033261358441824401 -0.0004755310160068224 0 0.033158557490858651 -0.00039706740418489814 0 0.033261358441824401 -0.0004755310160068224 0 0.033325756029853444 -0.0003302873386993777 0 0.033208622096693549 -0.00031784034664129819 0 0.033261358441824401 -0.0004755310160068224 0 0.033208622096693549 -0.00031784034664129819 0 0.033158557490858651 -0.00039706740418489814 0 0.012260479722787421 -0.0073762305265397963 0 0.016487414261823576 -0.0041766755702115415 0 0.0012308238479963227 0.0064637290507798886 0 -0.0011532643292190999 0.0048585802499915894 0 0.00026737081522631859 0.0032862614610109811 0 0.016487414261823576 -0.0041766755702115415 0 0.0097721501095405488 -0.0063618359273685723 0 0.011382598210278002 -0.0052548248706719963 0 0.010091795107190797 -0.0050603790139684994 0 0.011247763971578489 -0.0043037034488841103 0 0.012260479722787421 -0.0073762305265397963 0 0.0097721501095405488 -0.0063618359273685723 0 0.033208622096693549 -0.00031784034664129819 0 0.033158557490858651 -0.00039706740418489814 0 0.032946073534717214 -0.000296018786303355 0 0.016487414261823576 -0.0041766755702115415 0 0.019268959958016668 -0.00064542113819478436 0 0.0012308238479963227 0.0064637290507798886 0 0.0073080125193640292 0.0056759969378390339 0 0.004466870562842948 0.0028486016983042695 0 0.016487414261823576 -0.0041766755702115415 0 0.025537340466480367 0.00020023701876871136 0 0.034619991392185051 0.00083674794232214717 0 0.032946073534717214 -0.000296018786303355 0 0.032563201780237923 0.0012215473051300732 0 0.033188624117004871 -0.00055807338656718687 0 0.033158557490858651 -0.00039706740418489814 0 0.033012223962763848 -0.00079043035923828089 0 0.031630257595629804 -0.0015947650580123492 0 0.03149818603421365 -0.0019676088575140407 0 0.033158557490858651 -0.00039706740418489814 0 0.033144112912577316 -0.00063568650563959898 0 0.032946073534717214 -0.000296018786303355 0 0.033158557490858651 -0.00039706740418489814 0 0.033144112912577316 -0.00063568650563959898 0 0.03334173992526393 -0.00081375208975437521 0 0.033144112912577316 -0.00063568650563959898 0 0.033184204547557057 -0.00084967074835162694 0 0.033042743757157177 -0.0010175802013816127 0 0.033234210444312788 -0.0011240608652998512 0 0.03334173992526393 -0.00081375208975437521 0 0.033270200560926673 -0.0012487030471533996 0 0.033144112912577316 -0.00063568650563959898 0 0.033184204547557057 -0.00084967074835162694 0 0.03334173992526393 -0.00081375208975437521 0 0.03149818603421365 -0.0019676088575140407 0 0.031088072053829671 -0.0032126793314027537 0 0.033195875441276182 -0.0010020347517273782 0 0.033180312788958624 -0.0011706450459295528 0 0.033042743757157177 -0.0010175802013816127 0 0.033184204547557057 -0.00084967074835162694 0 0.033195875441276182 -0.0010020347517273782 0 0.033042743757157177 -0.0010175802013816127 0 0.033195875441276182 -0.0010020347517273782 0 0.033234210444312788 -0.0011240608652998512 0 0.033180312788958624 -0.0011706450459295528 0 0.033195875441276182 -0.0010020347517273782 0 0.033234210444312788 -0.0011240608652998512 0 0.03334173992526393 -0.00081375208975437521 0 0.033184204547557057 -0.00084967074835162694 0 0.033195875441276182 -0.0010020347517273782 0 0.03334173992526393 -0.00081375208975437521 0 0.033172891890294723 -0.00067668198950829436 0 0.033255831066830187 -0.00077247207350829847 0 0.033229956061671506 -0.00093738380459035318 0 0.033426112480226602 -0.0011877527225471309 0 0.033393047557343132 -0.0006936180235049094 0 0.033229956061671506 -0.00093738380459035318 0 0.033012223962763848 -0.00079043035923828089 0 0.033172891890294723 -0.00067668198950829436 0 0.033491708688749983 -0.0012968791057036829 0 0.024312401888884571 -0.005307427325098129 0 0.023420603599763574 -0.0057860735637183464 0 0.033012223962763848 -0.00079043035923828089 0 0.033491708688749983 -0.0012968791057036829 0 0.033071339338845838 -0.0015731271749445813 0 0.033252101197516017 -0.00062452232957756638 0 0.033172891890294723 -0.00067668198950829436 0 0.033255831066830187 -0.00077247207350829847 0 0.033393047557343132 -0.0006936180235049094 0 0.033252101197516017 -0.00062452232957756638 0 0.033255831066830187 -0.00077247207350829847 0 0.033393047557343132 -0.0006936180235049094 0 0.033255831066830187 -0.00077247207350829847 0 0.033229956061671506 -0.00093738380459035318 0 0.033491708688749983 -0.0012968791057036829 0 0.033071339338845838 -0.0015731271749445813 0 0.033458865722851963 -0.0017779079557450996 0 0.020451649832554378 -0.0070803316236323537 0 0.023420603599763574 -0.0057860735637183464 0 0.033334501118010056 -0.0012351666667298584 0 0.033426112480226602 -0.0011877527225471309 0 0.033229956061671506 -0.00093738380459035318 0 0.033840400919288326 -0.0020214069661649648 0 0.033491708688749983 -0.0012968791057036829 0 0.033458865722851963 -0.0017779079557450996 0 0.029772102666955649 -0.005267705676954647 0 0.020451649832554378 -0.0070803316236323537 0 0.033436023777691261 -0.0022255098576705983 0 0.033840400919288326 -0.0020214069661649648 0 0.033458865722851963 -0.0017779079557450996 0 0.029772102666955649 -0.005267705676954647 0 0.031088072053829671 -0.0032126793314027537 0 0.032006281654032791 -0.0024653538073910295 0 0.031088072053829671 -0.0032126793314027537 0 0.033436023777691261 -0.0022255098576705983 0 0.033071339338845838 -0.0015731271749445813 0 0.033458865722851963 -0.0017779079557450996 0 0.030681730862045724 -0.0072743125947000199 0 0.032345328151926027 -0.0064345566558502145 0 0.029922399731881669 -0.0024921353662055649 0 0.032883014762229899 -0.00097812712086171893 0 0.033119321204572442 -0.0011670891563537464 0 0.033124106274626745 -0.0011141870741420009 0 0.033124106274626745 -0.0011141870741420009 0 0.033180312788958624 -0.0011706450459295528 0 0.033349116351435143 -0.0011481867234676096 0 0.033124106274626745 -0.0011141870741420009 0 0.033180312788958624 -0.0011706450459295528 0 0.033168208635690713 -0.0011592190964760955 0 0.033234210444312788 -0.0011240608652998512 0 0.033180312788958624 -0.0011706450459295528 0 0.033168208635690713 -0.0011592190964760955 0 0.033119321204572442 -0.0011670891563537464 0 0.033124106274626745 -0.0011141870741420009 0 0.033168208635690713 -0.0011592190964760955 0 0.033234210444312788 -0.0011240608652998512 0 0.033119321204572442 -0.0011670891563537464 0 0.033168208635690713 -0.0011592190964760955 0 0.03109932926635588 -0.0031659892635751796 0 0.031088072053829671 -0.0032126793314027537 0 0.033291034693636319 -0.0012100157936917183 0 0.033002039568287005 -0.0012135374458507472 0 0.033042743757157177 -0.0010175802013816127 0 0.033180312788958624 -0.0011706450459295528 0 0.033291034693636319 -0.0012100157936917183 0 0.033349116351435143 -0.0011481867234676096 0 0.033180312788958624 -0.0011706450459295528 0 0.033291034693636319 -0.0012100157936917183 0 0.033042743757157177 -0.0010175802013816127 0 0.033778579466703609 -0.001227028252916528 0 0.033291034693636319 -0.0012100157936917183 0 0.033349116351435143 -0.0011481867234676096 0 0.033778579466703609 -0.001227028252916528 0 0.033291034693636319 -0.0012100157936917183 0 0.033002039568287005 -0.0012135374458507472 0 0.03511107746459128 -0.0012614153339058842 0 0.033778579466703609 -0.001227028252916528 0 0.033002039568287005 -0.0012135374458507472 0 0.03511107746459128 -0.0012614153339058842 0 0.033002039568287005 -0.0012135374458507472 0 0.031270412038052225 -0.0012063612397632379 0 0.033002039568287005 -0.0012135374458507472 0 0.03254784357779103 -0.0006960105311766845 0 0.031322507249667057 -0.00053747275102085054 0 0.033002039568287005 -0.0012135374458507472 0 0.033042743757157177 -0.0010175802013816127 0 0.03254784357779103 -0.0006960105311766845 0 0.033144112912577316 -0.00063568650563959898 0 0.033042743757157177 -0.0010175802013816127 0 0.03254784357779103 -0.0006960105311766845 0 0.033144112912577316 -0.00063568650563959898 0 0.03254784357779103 -0.0006960105311766845 0 0.032946073534717214 -0.000296018786303355 0 0.03254784357779103 -0.0006960105311766845 0 0.032946073534717214 -0.000296018786303355 0 0.03181672029236788 0.00012827953838317723 0 0.032946073534717214 -0.000296018786303355 0 0.032563201780237923 0.0012215473051300732 0 0.03181672029236788 0.00012827953838317723 0 0.019268959958016668 -0.00064542113819478436 0 0.021319997414063981 0.00035135912623156213 0 0.032563201780237923 0.0012215473051300732 0 0.03181672029236788 0.00012827953838317723 0 0.029598939181689567 0.0013568601213363521 0 0.031322507249667057 -0.00053747275102085054 0 0.03181672029236788 0.00012827953838317723 0 0.029598939181689567 0.0013568601213363521 0 0.03254784357779103 -0.0006960105311766845 0 0.031322507249667057 -0.00053747275102085054 0 0.03181672029236788 0.00012827953838317723 0 0.031322507249667057 -0.00053747275102085054 0 0.029610510319916232 -0.00041352063565617327 0 0.029598939181689567 0.0013568601213363521 0 0.026686624287829485 -2.6428414538927366e-06 0 0.029610510319916232 -0.00041352063565617327 0 0.029598939181689567 0.0013568601213363521 0 0.026686624287829485 -2.6428414538927366e-06 0 0.022891756419280915 7.0216130901616e-06 0 0.029598939181689567 0.0013568601213363521 0 0.026686624287829485 -2.6428414538927366e-06 0 0.029610510319916232 -0.00041352063565617327 0 0.030490619258820739 -1.4930120125547457e-06 0 0.030498523692997666 -1.1728064018724772e-06 0 0.032542949328584744 -0.00091888813382847649 0 0.029610510319916232 -0.00041352063565617327 0 0.030490619258820739 -1.4930120125547457e-06 0 0.031270412038052225 -0.0012063612397632379 0 0.033002039568287005 -0.0012135374458507472 0 0.031322507249667057 -0.00053747275102085054 0 0.031270412038052225 -0.0012063612397632379 0 0.031322507249667057 -0.00053747275102085054 0 0.029610510319916232 -0.00041352063565617327 0 0.031270412038052225 -0.0012063612397632379 0 0.033029142077490817 -0.00098694574501858191 0 0.032542949328584744 -0.00091888813382847649 0 0.037297105492064421 -0.00050155452837192312 0 0.03511107746459128 -0.0012614153339058842 0 0.036446789529041526 -0.00037301853237139217 0 0.030501411827243575 3.527478659310944e-06 0 0.036446789529041526 -0.00037301853237139217 0 0.035613734293440377 -3.5203603493533706e-06 0 0.037297105492064421 -0.00050155452837192312 0 0.036446789529041526 -0.00037301853237139217 0 0.035613734293440377 -3.5203603493533706e-06 0 0.012790120783705847 -0.0009822027362871061 0 0.013134759061494534 -3.1449721530796478e-06 0 0.014364446556685475 -0.00034109169948988801 0 0.012790120783705847 -0.0009822027362871061 0 0.012196508896533545 -0.00057213766341271486 0 0.014364446556685475 -0.00034109169948988801 0 0.012790120783705847 -0.0009822027362871061 0 0.011740066719036383 -0.0010877582909761343 0 0.012046090183980123 -0.0017589059771300956 0 0.012790120783705847 -0.0009822027362871061 0 0.013134759061494534 -3.1449721530796478e-06 0 0.011740066719036383 -0.0010877582909761343 0 0.009729363252476116 -0.0013175258126407973 0 0.012196508896533545 -0.00057213766341271486 0 0.0072823992905892473 3.5540251549035184e-05 0 0.0054391937125471161 -0.0029276290577169126 0 0.012121571985900047 -0.0032809352823870417 0 0.011878051836658264 -0.0024512359978198553 0 0.012790120783705847 -0.0009822027362871061 0 0.012046090183980123 -0.0017589059771300956 0 0.011801212459925546 -0.0014320570410789289 0 0.012046090183980123 -0.0017589059771300956 0 0.011632963286572155 -0.0019365049355046192 0 0.011878051836658264 -0.0024512359978198553 0 0.012046090183980123 -0.0017589059771300956 0 0.011632963286572155 -0.0019365049355046192 0 0.011801212459925546 -0.0014320570410789289 0 0.011632963286572155 -0.0019365049355046192 0 0.010329230269395678 -0.0019421342270492543 0 0.011878051836658264 -0.0024512359978198553 0 0.011632963286572155 -0.0019365049355046192 0 0.010329230269395678 -0.0019421342270492543 0 0.011801212459925546 -0.0014320570410789289 0 0.010329230269395678 -0.0019421342270492543 0 0.009729363252476116 -0.0013175258126407973 0 0.011801212459925546 -0.0014320570410789289 0 0.009729363252476116 -0.0013175258126407973 0 0.011801212459925546 -0.0014320570410789289 0 0.012196508896533545 -0.00057213766341271486 0 0.012790120783705847 -0.0009822027362871061 0 0.011801212459925546 -0.0014320570410789289 0 0.012196508896533545 -0.00057213766341271486 0 0.015121949674855469 -0.0014523005486563312 0 0.0098166560198021582 -0.0025424568116973172 0 0.016285804871671142 -0.0026192363729296022 0 0.011528010268625519 -0.0022991663623069076 0 0.010498409347159109 -0.0050297154479785854 0 0.012196508896533545 -0.00057213766341271486 0 0.014364446556685475 -0.00034109169948988801 0 0.013927608974707626 0.001597492783645926 0 0.012196508896533545 -0.00057213766341271486 0 0.013927608974707626 0.001597492783645926 0 0.0072823992905892473 3.5540251549035184e-05 0 0.017242974975583948 4.7327928172010344e-08 0 0.014364446556685475 -0.00034109169948988801 0 0.013927608974707626 0.001597492783645926 0 0.013134759061494534 -3.1449721530796478e-06 0 0.017242974975583948 4.7327928172010344e-08 0 0.014364446556685475 -0.00034109169948988801 0 0.021355659029492113 -6.6027974914986517e-06 0 0.017628718412776558 0.00042070163255008951 0 0.016285804871671142 -0.0026192363729296022 0 0.017242974975583948 4.7327928172010344e-08 0 0.021341299044727726 4.0871484281266646e-06 0 0.013927608974707626 0.001597492783645926 0 0.021339114819258768 1.8014332397894817e-07 0 0.015121949674855469 -0.0014523005486563312 0 0.021355659029492113 -6.6027974914986517e-06 0 0.022871374785410077 9.304914906538287e-06 0 0.017628718412776558 0.00042070163255008951 0 0.022871374785410077 9.304914906538287e-06 0 0.017628718412776558 0.00042070163255008951 0 0.014395471747649336 0.0044196570031279159 0 0.022879406796365374 9.1594660247494318e-07 0 0.021319997414063981 0.00035135912623156213 0 0.017628718412776558 0.00042070163255008951 0 0.014395471747649336 0.0044196570031279159 0 0.011457835948629803 0.00051340728690972288 0 0.016285804871671142 -0.0026192363729296022 0 0.011528010268625519 -0.0022991663623069076 0 0.011457835948629803 0.00051340728690972288 0 0.017628718412776558 0.00042070163255008951 0 0.016285804871671142 -0.0026192363729296022 0 0.011457835948629803 0.00051340728690972288 0 0.011528010268625519 -0.0022991663623069076 0 0.011457835948629803 0.00051340728690972288 0 0.0080989979400288153 -0.0019943156049617482 0 0.0073080125193640292 0.0056759969378390339 0 0.014395471747649336 0.0044196570031279159 0 0.011457835948629803 0.00051340728690972288 0 0.0073080125193640292 0.0056759969378390339 0 0.0063423628782334086 0.00069280638332475553 0 0.004466870562842948 0.0028486016983042695 0 0.0073080125193640292 0.0056759969378390339 0 0.011457835948629803 0.00051340728690972288 0 0.0063423628782334086 0.00069280638332475553 0 0.011457835948629803 0.00051340728690972288 0 0.0063423628782334086 0.00069280638332475553 0 0.0080989979400288153 -0.0019943156049617482 0 0.0063423628782334086 0.00069280638332475553 0 0.0052071881986960732 -0.0022814152516956458 0 0.0038300859108233642 -0.00087123470940074629 0 0.0063423628782334086 0.00069280638332475553 0 0.0080989979400288153 -0.0019943156049617482 0 0.0052071881986960732 -0.0022814152516956458 0 0.0080989979400288153 -0.0019943156049617482 0 0.0052071881986960732 -0.0022814152516956458 0 0.0066507302925194562 -0.0041896790917466849 0 0.0080989979400288153 -0.0019943156049617482 0 0.0066507302925194562 -0.0041896790917466849 0 0.010498409347159109 -0.0050297154479785854 0 0.0052071881986960732 -0.0022814152516956458 0 0.0066507302925194562 -0.0041896790917466849 0 0.0039504472776742119 -0.0045408207557095827 0 0.011528010268625519 -0.0022991663623069076 0 0.0080989979400288153 -0.0019943156049617482 0 0.010498409347159109 -0.0050297154479785854 0 0.0054391937125471161 -0.0029276290577169126 0 0.004794395527303757 -0.0033218825154709641 0 0.0034485415199554358 -0.0026398327117034904 0 0.0050492869234864809 -0.00033378450297596535 0 0.0053476223168625698 1.6777639199614427e-05 0 0.010329230269395678 -0.0019421342270492543 0 0.0054391937125471161 -0.0029276290577169126 0 0.011878051836658264 -0.0024512359978198553 0 0.0072823992905892473 3.5540251549035184e-05 0 0.0054391937125471161 -0.0029276290577169126 0 0.004794395527303757 -0.0033218825154709641 0 0.009729363252476116 -0.0013175258126407973 0 0.0072823992905892473 3.5540251549035184e-05 0 0.0054391937125471161 -0.0029276290577169126 0 0.010329230269395678 -0.0019421342270492543 0 0.009729363252476116 -0.0013175258126407973 0 0.0054391937125471161 -0.0029276290577169126 0 0.0098166560198021582 -0.0025424568116973172 0 0.0051370100759502296 -0.003312572209774595 0 0.0066507302925194562 -0.0041896790917466849 0 0.010498409347159109 -0.0050297154479785854 0 0.0056579151897154633 -0.0068568598976801775 0 0.0066507302925194562 -0.0041896790917466849 0 0.0056579151897154633 -0.0068568598976801775 0 0.0039504472776742119 -0.0045408207557095827 0 0.0025765325544647544 -0.0063266141684398544 0 0.0010725260325944372 -0.0047171624207543597 0 0.0039504472776742119 -0.0045408207557095827 0 0.0056579151897154633 -0.0068568598976801775 0 0.0025765325544647544 -0.0063266141684398544 0 0.0039504472776742119 -0.0045408207557095827 0 0.0010725260325944372 -0.0047171624207543597 0 -0.0021214164856402673 -0.0046069938064886157 0 0.00042950579928676064 -0.0067661775675439146 0 0.0025765325544647544 -0.0063266141684398544 0 0.0010725260325944372 -0.0047171624207543597 0 0.00042950579928676064 -0.0067661775675439146 0 0.0010725260325944372 -0.0047171624207543597 0 -0.00065780965801648763 -0.0026076957013953161 0 -0.0021214164856402673 -0.0046069938064886157 0 0.0010725260325944372 -0.0047171624207543597 0 -0.00065780965801648763 -0.0026076957013953161 0 0.0022208114860931619 -0.0025457253747347515 0 -0.00065780965801648763 -0.0026076957013953161 0 0.00064122258624753109 -0.0015767076769079575 0 -0.00036022072526242685 -0.00062649390446606866 0 -0.00065780965801648763 -0.0026076957013953161 0 0.0022208114860931619 -0.0025457253747347515 0 0.00064122258624753109 -0.0015767076769079575 0 0.0022208114860931619 -0.0025457253747347515 0 0.0020706037091777207 -0.00092088908759341954 0 0.00064122258624753109 -0.0015767076769079575 0 0.0010725260325944372 -0.0047171624207543597 0 0.0022208114860931619 -0.0025457253747347515 0 0.0039504472776742119 -0.0045408207557095827 0 0.0052071881986960732 -0.0022814152516956458 0 0.0022208114860931619 -0.0025457253747347515 0 0.0039504472776742119 -0.0045408207557095827 0 0.0052071881986960732 -0.0022814152516956458 0 0.0022208114860931619 -0.0025457253747347515 0 0.0038300859108233642 -0.00087123470940074629 0 0.0038300859108233642 -0.00087123470940074629 0 0.0020706037091777207 -0.00092088908759341954 0 0.003362713374528765 0.00072264487458094547 0 0.0022208114860931619 -0.0025457253747347515 0 0.0038300859108233642 -0.00087123470940074629 0 0.0020706037091777207 -0.00092088908759341954 0 0.003362713374528765 0.00072264487458094547 0 0.0023593647811841773 0.0018901686025001535 0 0.0012789509771311883 0.00041773734949443589 0 0.0020706037091777207 -0.00092088908759341954 0 0.003362713374528765 0.00072264487458094547 0 0.0012789509771311883 0.00041773734949443589 0 0.0063423628782334086 0.00069280638332475553 0 0.0038300859108233642 -0.00087123470940074629 0 0.003362713374528765 0.00072264487458094547 0 0.003362713374528765 0.00072264487458094547 0 0.004466870562842948 0.0028486016983042695 0 0.0023593647811841773 0.0018901686025001535 0 0.0012308238479963227 0.0064637290507798886 0 0.004466870562842948 0.0028486016983042695 0 0.0017902754338220623 0.0034264239995348378 0 0.0063423628782334086 0.00069280638332475553 0 0.003362713374528765 0.00072264487458094547 0 0.004466870562842948 0.0028486016983042695 0 0.004466870562842948 0.0028486016983042695 0 0.0023593647811841773 0.0018901686025001535 0 0.0017902754338220623 0.0034264239995348378 0 0.0023593647811841773 0.0018901686025001535 0 0.0017902754338220623 0.0034264239995348378 0 0.00094003741744318723 0.0020807396494384256 0 -0.0011532643292190999 0.0048585802499915894 0 0.00026737081522631859 0.0032862614610109811 0 -0.00066111666724820016 0.0014858658071221049 0 0.0097721501095405488 -0.0063618359273685723 0 0.0053587887403170999 -0.0035942713771204907 0 0.0012308238479963227 0.0064637290507798886 0 0.0017902754338220623 0.0034264239995348378 0 0.00026737081522631859 0.0032862614610109811 0 0.00026737081522631859 0.0032862614610109811 0 0.00094003741744318723 0.0020807396494384256 0 -0.00066111666724820016 0.0014858658071221049 0 0.0017902754338220623 0.0034264239995348378 0 0.00026737081522631859 0.0032862614610109811 0 0.00094003741744318723 0.0020807396494384256 0 0.0023593647811841773 0.0018901686025001535 0 0.00094003741744318723 0.0020807396494384256 0 0.0012789509771311883 0.00041773734949443589 0 0.00094003741744318723 0.0020807396494384256 0 -0.00066111666724820016 0.0014858658071221049 0 0.00033576081530492974 0.00083495333473020161 0 -0.00066111666724820016 0.0014858658071221049 0 0.00033576081530492974 0.00083495333473020161 0 -0.00036022072526242685 -0.00062649390446606866 0 0.0053587887403170999 -0.0035942713771204907 0 0.005070321369608566 -0.0030212865569168379 0 -0.00072355228478886526 0.00064031806455322471 0 -0.00036022072526242685 -0.00062649390446606866 0 -0.0019097744364290426 -0.00018664959058134695 0 0.00094003741744318723 0.0020807396494384256 0 0.00033576081530492974 0.00083495333473020161 0 0.0012789509771311883 0.00041773734949443589 0 0.00033576081530492974 0.00083495333473020161 0 0.0012789509771311883 0.00041773734949443589 0 -0.00036022072526242685 -0.00062649390446606866 0 0.0012789509771311883 0.00041773734949443589 0 0.00064122258624753109 -0.0015767076769079575 0 -0.00036022072526242685 -0.00062649390446606866 0 0.0020706037091777207 -0.00092088908759341954 0 0.0012789509771311883 0.00041773734949443589 0 0.00064122258624753109 -0.0015767076769079575 0 -0.00065780965801648763 -0.0026076957013953161 0 -0.00036022072526242685 -0.00062649390446606866 0 -0.002552504426814645 -0.0013171787918050538 0 -0.002552504426814645 -0.0013171787918050538 0 -0.0019097744364290426 -0.00018664959058134695 0 -0.0038464661452650216 0.00044040127561725616 0 -0.00036022072526242685 -0.00062649390446606866 0 -0.002552504426814645 -0.0013171787918050538 0 -0.0019097744364290426 -0.00018664959058134695 0 -0.00072355228478886526 0.00064031806455322471 0 -0.0019097744364290426 -0.00018664959058134695 0 -0.0038464661452650216 0.00044040127561725616 0 0.0097721501095405488 -0.0063618359273685723 0 0.0013259153862114036 -0.0061692768359578624 0 0.0053587887403170999 -0.0035942713771204907 0 0.0013259153862114036 -0.0061692768359578624 0 0.0074854356224245966 -0.0049036258558224554 0 0.0077223433744929111 -0.0066229790951773324 0 0.0051655568812896697 -0.0064092973529329151 0 0.0033704376571500475 -0.017207803800193208 0 0.0043927663947204874 -0.0173173690280056 0 0.0026446331823661968 -0.018457887984074904 0 0.0022431040071364907 -0.017230715182228306 0 0.0026446331823661968 -0.018457887984074904 0 0.00042270581394694462 -0.018263418225405333 0 0.0013259153862114036 -0.0061692768359578624 0 -0.0017872597759111266 -0.0084730222622208355 0 0.0022431040071364907 -0.017230715182228306 0 0.0033704376571500475 -0.017207803800193208 0 0.0026446331823661968 -0.018457887984074904 0 0.0013259153862114036 -0.0061692768359578624 0 -0.0013620875186156438 -0.0055793548741697686 0 -0.0038464661452650216 0.00044040127561725616 0 -0.0044442199337077683 -0.0021395629170894029 0 -0.0058579560391568064 -0.0018820969149009644 0 -0.002552504426814645 -0.0013171787918050538 0 -0.0038464661452650216 0.00044040127561725616 0 -0.0044442199337077683 -0.0021395629170894029 0 -0.0044442199337077683 -0.0021395629170894029 0 -0.0029823642038244785 -0.0028563625964433919 0 -0.0045391087136718933 -0.0036949563280169323 0 -0.0044442199337077683 -0.0021395629170894029 0 -0.0045391087136718933 -0.0036949563280169323 0 -0.0054578258306933651 -0.0032379858585324527 0 -0.002552504426814645 -0.0013171787918050538 0 -0.0044442199337077683 -0.0021395629170894029 0 -0.0029823642038244785 -0.0028563625964433919 0 -0.00065780965801648763 -0.0026076957013953161 0 -0.0029823642038244785 -0.0028563625964433919 0 -0.0021214164856402673 -0.0046069938064886157 0 -0.00065780965801648763 -0.0026076957013953161 0 -0.002552504426814645 -0.0013171787918050538 0 -0.0029823642038244785 -0.0028563625964433919 0 -0.0021214164856402673 -0.0046069938064886157 0 -0.0045391087136718933 -0.0036949563280169323 0 -0.0050619066393066785 -0.0046735787844256653 0 -0.0029823642038244785 -0.0028563625964433919 0 -0.0021214164856402673 -0.0046069938064886157 0 -0.0045391087136718933 -0.0036949563280169323 0 -0.0045391087136718933 -0.0036949563280169323 0 -0.0054483360839661281 -0.0040133320713716392 0 -0.0050619066393066785 -0.0046735787844256653 0 -0.0045391087136718933 -0.0036949563280169323 0 -0.0054483360839661281 -0.0040133320713716392 0 -0.0054578258306933651 -0.0032379858585324527 0 -0.0054483360839661281 -0.0040133320713716392 0 -0.0058348533991951466 -0.0033728594892098339 0 -0.0059772121770853733 -0.0033205836580307195 0 -0.0054483360839661281 -0.0040133320713716392 0 -0.0050619066393066785 -0.0046735787844256653 0 -0.0058348533991951466 -0.0033728594892098339 0 -0.0050619066393066785 -0.0046735787844256653 0 -0.0061355382104658204 -0.0032659159226975996 0 -0.0066445899982194943 -0.0034357873723508932 0 -0.0021214164856402673 -0.0046069938064886157 0 -0.0050619066393066785 -0.0046735787844256653 0 -0.0016301184543850973 -0.0074063113908142512 0 -0.0024475750556778226 -0.0038788443522714449 0 -0.0018652705033706813 -0.003825301664606348 0 -0.0061355382104658204 -0.0032659159226975996 0 -0.0066298629766681069 -0.0027245893554014538 0 -0.0066445899982194943 -0.0034357873723508932 0 -0.0050619066393066785 -0.0046735787844256653 0 -0.0061355382104658204 -0.0032659159226975996 0 -0.0058348533991951466 -0.0033728594892098339 0 -0.0061355382104658204 -0.0032659159226975996 0 -0.0065368056477523489 -0.0026743955162497452 0 -0.0058348533991951466 -0.0033728594892098339 0 -0.0061355382104658204 -0.0032659159226975996 0 -0.0065368056477523489 -0.0026743955162497452 0 -0.0066298629766681069 -0.0027245893554014538 0 -0.0065368056477523489 -0.0026743955162497452 0 -0.0058348533991951466 -0.0033728594892098339 0 -0.0064675438289088843 -0.002730220428646912 0 -0.0058348533991951466 -0.0033728594892098339 0 -0.0064675438289088843 -0.002730220428646912 0 -0.0059772121770853733 -0.0033205836580307195 0 -0.0064675438289088843 -0.002730220428646912 0 -0.0070344103927752243 -0.002333723176113355 0 -0.0064290576088789951 -0.0025909533876709002 0 -0.007029156207135622 -0.0018375589898122879 0 -0.0070344103927752243 -0.002333723176113355 0 -0.0064290576088789951 -0.0025909533876709002 0 -0.0065368056477523489 -0.0026743955162497452 0 -0.0070344103927752243 -0.002333723176113355 0 -0.0067367714780800546 -0.0022947796363692943 0 -0.0065368056477523489 -0.0026743955162497452 0 -0.0064675438289088843 -0.002730220428646912 0 -0.0070344103927752243 -0.002333723176113355 0 -0.0070344103927752243 -0.002333723176113355 0 -0.0067367714780800546 -0.0022947796363692943 0 -0.0066475020211211929 -0.0024274849516732256 0 -0.0077695636847495341 -0.0017220983688611459 0 -0.0070344103927752243 -0.002333723176113355 0 -0.0082720234682222993 -0.0018339048165981102 0 -0.0070579759335605259 -0.0019660332734512263 0 -0.0071018765912065351 -0.0018602295370942074 0 -0.0071018765912065351 -0.0018602295370942074 0 -0.0067946179488054537 -0.0015893316722742263 0 -0.0067367714780800546 -0.0022947796363692943 0 -0.0066475020211211929 -0.0024274849516732256 0 -0.0061758798786515712 -0.001818260151874198 0 -0.0066475020211211929 -0.0024274849516732256 0 -0.0061758798786515712 -0.001818260151874198 0 -0.0054976226870716606 -0.0019508108530863792 0 -0.0067367714780800546 -0.0022947796363692943 0 -0.0061758798786515712 -0.001818260151874198 0 -0.0064845671037817324 -0.0019127614458946094 0 -0.0064845671037817324 -0.0019127614458946094 0 -0.006665347699612024 -0.0020069194092416265 0 -0.0057655704416749304 -0.00087790619239165168 0 -0.0064845671037817324 -0.0019127614458946094 0 -0.0068241505885728816 -0.0024081259317608921 0 -0.006665347699612024 -0.0020069194092416265 0 -0.0065368056477523489 -0.0026743955162497452 0 -0.0067367714780800546 -0.0022947796363692943 0 -0.0066298629766681069 -0.0027245893554014538 0 -0.0067367714780800546 -0.0022947796363692943 0 -0.0064845671037817324 -0.0019127614458946094 0 -0.0068241505885728816 -0.0024081259317608921 0 -0.0067367714780800546 -0.0022947796363692943 0 -0.0066298629766681069 -0.0027245893554014538 0 -0.0068241505885728816 -0.0024081259317608921 0 -0.0018652705033706813 -0.003825301664606348 0 -8.9992993205182379e-05 -0.0035647999722333828 0 -0.0068241505885728816 -0.0024081259317608921 0 -0.0066445899982194943 -0.0034357873723508932 0 -0.0070130836508836515 -0.0025269515344089584 0 -0.0016301184543850973 -0.0074063113908142512 0 0.00042950579928676064 -0.0067661775675439146 0 0.0016490763747755979 -0.0088416856145806764 0 -0.00034113821040137379 -0.0036646777858293732 0 -8.9992993205182379e-05 -0.0035647999722333828 0 -0.0066298629766681069 -0.0027245893554014538 0 -0.0068241505885728816 -0.0024081259317608921 0 -0.0066445899982194943 -0.0034357873723508932 0 -0.0021214164856402673 -0.0046069938064886157 0 -0.0016301184543850973 -0.0074063113908142512 0 0.00042950579928676064 -0.0067661775675439146 0 -8.9992993205182379e-05 -0.0035647999722333828 0 -0.00078068418711266241 -0.0021631566387769561 0 0.0051370100759502296 -0.003312572209774595 0 -8.9992993205182379e-05 -0.0035647999722333828 0 0.0056579151897154633 -0.0068568598976801775 0 0.0025765325544647544 -0.0063266141684398544 0 0.0016490763747755979 -0.0088416856145806764 0 0.0025765325544647544 -0.0063266141684398544 0 0.00042950579928676064 -0.0067661775675439146 0 0.0016490763747755979 -0.0088416856145806764 0 0.004794395527303757 -0.0033218825154709641 0 0.0069777096955439379 -0.001635159105241295 0 0.0045390826151054066 -0.00081036638018410271 0 0.004794395527303757 -0.0033218825154709641 0 0.0034485415199554358 -0.0026398327117034904 0 0.0045390826151054066 -0.00081036638018410271 0 0.0034485415199554358 -0.0026398327117034904 0 0.00071596377093512099 -0.0015688115298188236 0 0.0045390826151054066 -0.00081036638018410271 0 0.0054391937125471161 -0.0029276290577169126 0 0.0034485415199554358 -0.0026398327117034904 0 -0.00095073294677673647 -0.0035267743151000766 0 0.0034485415199554358 -0.0026398327117034904 0 0.00071596377093512099 -0.0015688115298188236 0 0.00010554066532150554 -0.0023650081928834879 0 -0.00078068418711266241 -0.0021631566387769561 0 -0.0015787957064647895 -0.0015978854109296682 0 0.00071596377093512099 -0.0015688115298188236 0 0.0045390826151054066 -0.00081036638018410271 0 -0.0031295661147915247 -8.2638259360771877e-05 0 -0.0057655704416749304 -0.00087790619239165168 0 -0.0052269113838310354 -0.0012656399439729355 0 -0.0031295661147915247 -8.2638259360771877e-05 0 -0.0061758798786515712 -0.001818260151874198 0 -0.0064845671037817324 -0.0019127614458946094 0 -0.0057655704416749304 -0.00087790619239165168 0 -0.0061758798786515712 -0.001818260151874198 0 -0.0057655704416749304 -0.00087790619239165168 0 -0.0052269113838310354 -0.0012656399439729355 0 -0.0061758798786515712 -0.001818260151874198 0 -0.0054976226870716606 -0.0019508108530863792 0 -0.0052269113838310354 -0.0012656399439729355 0 -0.0084223423694708092 -0.0014294280206132704 0 -0.0082720234682222993 -0.0018339048165981102 0 -0.008239681945385862 -0.00098130280168906201 0 -0.008239681945385862 -0.00098130280168906201 0 -0.0055440886694647579 -0.00074458576156447725 0 -0.0067131534991717893 -0.0010567587577517885 0 -0.0075848131247472361 -0.0012458573704318126 0 -0.008239681945385862 -0.00098130280168906201 0 -0.0067131534991717893 -0.0010567587577517885 0 -0.0084223423694708092 -0.0014294280206132704 0 -0.0075848131247472361 -0.0012458573704318126 0 -0.008239681945385862 -0.00098130280168906201 0 -0.0067946179488054537 -0.0015893316722742263 0 -0.0063843641704565014 -0.0014066566685365129 0 -0.0054976226870716606 -0.0019508108530863792 0 -0.0052269113838310354 -0.0012656399439729355 0 -0.0046875181595555006 -0.00074951309572279942 0 -0.0054976226870716606 -0.0019508108530863792 0 -0.0046875181595555006 -0.00074951309572279942 0 -0.0055440886694647579 -0.00074458576156447725 0 -0.0055440886694647579 -0.00074458576156447725 0 -0.0059845306634428537 -0.00093629867769400889 0 -0.003726359554826769 4.3176413610841494e-05 0 -0.00024770884563840139 -0.00057076704381375733 0 0.0021333840137820912 -3.4495290024129733e-05 0 -0.0046875181595555006 -0.00074951309572279942 0 -0.0055440886694647579 -0.00074458576156447725 0 -0.003726359554826769 4.3176413610841494e-05 0 -0.0055440886694647579 -0.00074458576156447725 0 -0.0067131534991717893 -0.0010567587577517885 0 -0.0059845306634428537 -0.00093629867769400889 0 -0.0070875269163307867 -0.0010468299881119022 0 -0.0067131534991717893 -0.0010567587577517885 0 -0.0059845306634428537 -0.00093629867769400889 0 -0.0075848131247472361 -0.0012458573704318126 0 -0.0070875269163307867 -0.0010468299881119022 0 -0.0067131534991717893 -0.0010567587577517885 0 -0.0077699122126962889 -0.00086232631491235104 0 -0.0070875269163307867 -0.0010468299881119022 0 -0.0059845306634428537 -0.00093629867769400889 0 -0.0020037181483241319 -0.001088321154567031 0 -0.00024770884563840139 -0.00057076704381375733 0 -0.002182570576444207 1.4403636886024371e-06 0 0.0030393260670164395 -0.00017077654636222728 0 0.0034260451022578918 -2.4281312573677786e-06 0 0.0034260451022578918 -2.4281312573677786e-06 0 0.0045017888334616318 -0.00037255428297737323 0 0.0090236532712394263 3.0599729192898954e-06 0 0.0030393260670164395 -0.00017077654636222728 0 0.0045017888334616318 -0.00037255428297737323 0 0.0052928692732189028 -0.00055172094595328121 0 0.0030393260670164395 -0.00017077654636222728 0 0.0034260451022578918 -2.4281312573677786e-06 0 0.0045017888334616318 -0.00037255428297737323 0 0.0045017888334616318 -0.00037255428297737323 0 0.0052928692732189028 -0.00055172094595328121 0 0.0090236532712394263 3.0599729192898954e-06 0 -0.0052269113838310354 -0.0012656399439729355 0 -0.0046875181595555006 -0.00074951309572279942 0 -0.0031295661147915247 -8.2638259360771877e-05 0 -0.0046875181595555006 -0.00074951309572279942 0 -0.0031295661147915247 -8.2638259360771877e-05 0 -0.003726359554826769 4.3176413610841494e-05 0 0.00071596377093512099 -0.0015688115298188236 0 -0.0031295661147915247 -8.2638259360771877e-05 0 -0.0015569794410822083 -0.0014592320708051636 0 -0.003726359554826769 4.3176413610841494e-05 0 -0.0015569794410822083 -0.0014592320708051636 0 -0.0014656930325576503 -0.002050636767778505 0 -0.0031295661147915247 -8.2638259360771877e-05 0 -0.003726359554826769 4.3176413610841494e-05 0 -0.0015569794410822083 -0.0014592320708051636 0 0.0034485415199554358 -0.0026398327117034904 0 0.00010554066532150554 -0.0023650081928834879 0 -0.00095073294677673647 -0.0035267743151000766 0 -0.003726359554826769 4.3176413610841494e-05 0 -0.0014656930325576503 -0.002050636767778505 0 -0.00095073294677673647 -0.0035267743151000766 0 0.0021333840137820912 -3.4495290024129733e-05 0 0.0053476223168625698 1.6777639199614427e-05 0 0.00071596377093512099 -0.0015688115298188236 0 -0.0015569794410822083 -0.0014592320708051636 0 0.00010554066532150554 -0.0023650081928834879 0 -0.0014656930325576503 -0.002050636767778505 0 0.00010554066532150554 -0.0023650081928834879 0 -0.00095073294677673647 -0.0035267743151000766 0 -0.0015569794410822083 -0.0014592320708051636 0 -0.0014656930325576503 -0.002050636767778505 0 0.00010554066532150554 -0.0023650081928834879 0 0.0053476223168625698 1.6777639199614427e-05 0 0.005383335052945859 -2.8753315791709406e-05 0 0.011740066719036383 -0.0010877582909761343 0 0.012046090183980123 -0.0017589059771300956 0 0.012242317551581687 -0.0017990692647297775 0 0.012046090183980123 -0.0017589059771300956 0 0.012242317551581687 -0.0017990692647297775 0 0.011878051836658264 -0.0024512359978198553 0 0.013134759061494534 -3.1449721530796478e-06 0 0.011740066719036383 -0.0010877582909761343 0 0.0090382708127346896 5.5119251969808112e-07 0 0.0053476223168625698 1.6777639199614427e-05 0 0.0090282741675039406 -1.3873843331877441e-06 0 0.0052928692732189028 -0.00055172094595328121 0 0.0049223703309797962 0.0024678669971322704 0 0.0090236532712394263 3.0599729192898954e-06 0 0.011740066719036383 -0.0010877582909761343 0 0.012242317551581687 -0.0017990692647297775 0 0.0090382708127346896 5.5119251969808112e-07 0 -0.0010234716447250218 -0.011734886547430955 0 -0.0022721976433460037 -0.0088697326761512773 0 -0.00024259452412501769 -0.0097873260388446244 0 -0.0010234716447250218 -0.011734886547430955 0 0.0012482757973112811 -0.011766701590726427 0 0.00033260227029656273 -0.013398131299856831 0 -0.0010234716447250218 -0.011734886547430955 0 -0.00024259452412501769 -0.0097873260388446244 0 0.0012482757973112811 -0.011766701590726427 0 -0.0010234716447250218 -0.011734886547430955 0 -0.002688691283542018 -0.011141016674315029 0 -0.0022721976433460037 -0.0088697326761512773 0 -0.0010234716447250218 -0.011734886547430955 0 -0.002688691283542018 -0.011141016674315029 0 -0.0022643744003331013 -0.012990195226290845 0 -0.0022721976433460037 -0.0088697326761512773 0 -0.00024259452412501769 -0.0097873260388446244 0 -0.00073416350828108771 -0.0073682094979732899 0 -0.00024259452412501769 -0.0097873260388446244 0 0.0017749064275857296 -0.0082640044571072411 0 -0.00073416350828108771 -0.0073682094979732899 0 0.0017749064275857296 -0.0082640044571072411 0 0.0014606739461832858 -0.010154072641962568 0 0.0031882080370440255 -0.010803056636838282 0 -0.00024259452412501769 -0.0097873260388446244 0 0.0017749064275857296 -0.0082640044571072411 0 0.0014606739461832858 -0.010154072641962568 0 0.0017749064275857296 -0.0082640044571072411 0 0.0040655840700022667 -0.0091926298026381477 0 0.0031882080370440255 -0.010803056636838282 0 0.0040655840700022667 -0.0091926298026381477 0 0.0049300496679556853 -0.0078327290290988363 0 0.006044177680606084 -0.0093054406138688497 0 0.0017749064275857296 -0.0082640044571072411 0 0.0040655840700022667 -0.0091926298026381477 0 0.0033551015600414499 -0.0076611484848928433 0 0.0040655840700022667 -0.0091926298026381477 0 0.0049300496679556853 -0.0078327290290988363 0 0.0033551015600414499 -0.0076611484848928433 0 0.0040655840700022667 -0.0091926298026381477 0 0.0054602621491577664 -0.010898747380047183 0 0.0031882080370440255 -0.010803056636838282 0 0.0040655840700022667 -0.0091926298026381477 0 0.0054602621491577664 -0.010898747380047183 0 0.006044177680606084 -0.0093054406138688497 0 0.0054602621491577664 -0.010898747380047183 0 0.0031882080370440255 -0.010803056636838282 0 0.0052752458150610408 -0.012494945974495249 0 0.0031882080370440255 -0.010803056636838282 0 0.0052752458150610408 -0.012494945974495249 0 0.0034573205924817293 -0.012919106694669232 0 -0.00024259452412501769 -0.0097873260388446244 0 0.0014606739461832858 -0.010154072641962568 0 0.0012482757973112811 -0.011766701590726427 0 0.0014606739461832858 -0.010154072641962568 0 0.0031882080370440255 -0.010803056636838282 0 0.0012482757973112811 -0.011766701590726427 0 0.0031882080370440255 -0.010803056636838282 0 0.0012482757973112811 -0.011766701590726427 0 0.0034573205924817293 -0.012919106694669232 0 0.0012482757973112811 -0.011766701590726427 0 0.0018314470974940859 -0.013618487071310713 0 0.00033260227029656273 -0.013398131299856831 0 0.0012482757973112811 -0.011766701590726427 0 0.0018314470974940859 -0.013618487071310713 0 0.0034573205924817293 -0.012919106694669232 0 0.0018314470974940859 -0.013618487071310713 0 0.0033121812313676841 -0.015170073480257817 0 0.0011329336855282006 -0.014685953551143306 0 0.0018314470974940859 -0.013618487071310713 0 0.0011329336855282006 -0.014685953551143306 0 0.00033260227029656273 -0.013398131299856831 0 0.0052752458150610408 -0.012494945974495249 0 0.0052167190072405544 -0.0137743091872398 0 0.0034573205924817293 -0.012919106694669232 0 0.0018314470974940859 -0.013618487071310713 0 0.0034573205924817293 -0.012919106694669232 0 0.0033121812313676841 -0.015170073480257817 0 0.0052167190072405544 -0.0137743091872398 0 0.0034573205924817293 -0.012919106694669232 0 0.0033121812313676841 -0.015170073480257817 0 0.0052167190072405544 -0.0137743091872398 0 0.0033121812313676841 -0.015170073480257817 0 0.0060620389928771343 -0.015163381148684292 0 0.0012714253288419102 -0.019545570529013182 0 0.0033121812313676841 -0.015170073480257817 0 0.005524622752628678 -0.017574168236472249 0 0.0033121812313676841 -0.015170073480257817 0 0.005524622752628678 -0.017574168236472249 0 0.0060620389928771343 -0.015163381148684292 0 0.0046470127104178797 -0.017219418277880216 0 0.004415731642194113 -0.016682583119603172 0 0.00091648507889755936 -0.015828875145756222 0 0.0033121812313676841 -0.015170073480257817 0 0.0014193619386816108 -0.015289957597532428 0 0.0033121812313676841 -0.015170073480257817 0 0.0011329336855282006 -0.014685953551143306 0 0.0014193619386816108 -0.015289957597532428 0 0.0011329336855282006 -0.014685953551143306 0 0.0014193619386816108 -0.015289957597532428 0 0.0004349339625825133 -0.015350766405148777 0 0.00091648507889755936 -0.015828875145756222 0 0.0014193619386816108 -0.015289957597532428 0 0.0004349339625825133 -0.015350766405148777 0 0.0004349339625825133 -0.015350766405148777 0 -0.00046882992454812809 -0.01523972480508815 0 -0.00016114162792326374 -0.014562662759289215 0 -0.00046882992454812809 -0.01523972480508815 0 -0.00016114162792326374 -0.014562662759289215 0 -0.0012036431223445107 -0.01490231098282431 0 -0.00016114162792326374 -0.014562662759289215 0 -0.00110620071223229 -0.013705184700938523 0 -0.0012036431223445107 -0.01490231098282431 0 0.0011329336855282006 -0.014685953551143306 0 0.0004349339625825133 -0.015350766405148777 0 -0.00016114162792326374 -0.014562662759289215 0 0.0011329336855282006 -0.014685953551143306 0 -0.00016114162792326374 -0.014562662759289215 0 0.00033260227029656273 -0.013398131299856831 0 -0.0010234716447250218 -0.011734886547430955 0 0.00033260227029656273 -0.013398131299856831 0 -0.00110620071223229 -0.013705184700938523 0 -0.00016114162792326374 -0.014562662759289215 0 0.00033260227029656273 -0.013398131299856831 0 -0.00110620071223229 -0.013705184700938523 0 -0.0010234716447250218 -0.011734886547430955 0 -0.0022643744003331013 -0.012990195226290845 0 -0.00110620071223229 -0.013705184700938523 0 -0.0022643744003331013 -0.012990195226290845 0 -0.00110620071223229 -0.013705184700938523 0 -0.0020167303353379176 -0.014371927358347263 0 -0.00110620071223229 -0.013705184700938523 0 -0.0020167303353379176 -0.014371927358347263 0 -0.0012036431223445107 -0.01490231098282431 0 -0.0019295151682576798 -0.015324595112637467 0 -0.0020167303353379176 -0.014371927358347263 0 -0.0012036431223445107 -0.01490231098282431 0 -0.0019295151682576798 -0.015324595112637467 0 -0.0020167303353379176 -0.014371927358347263 0 -0.002665316350229421 -0.014980523658913647 0 -0.0020167303353379176 -0.014371927358347263 0 -0.002665316350229421 -0.014980523658913647 0 -0.0028173767834428721 -0.01384865812948359 0 -0.002665316350229421 -0.014980523658913647 0 -0.0036756977394348405 -0.013995869023585393 0 -0.0028173767834428721 -0.01384865812948359 0 -0.002665316350229421 -0.014980523658913647 0 -0.0032587419488633246 -0.014800419621126205 0 -0.0036756977394348405 -0.013995869023585393 0 -0.002665316350229421 -0.014980523658913647 0 -0.002931822807766406 -0.015380540722861694 0 -0.0032587419488633246 -0.014800419621126205 0 -0.0023875905817063786 -0.015753684024021428 0 -0.002665316350229421 -0.014980523658913647 0 -0.002931822807766406 -0.015380540722861694 0 -0.0023964954525158228 -0.016123100077775933 0 -0.002931822807766406 -0.015380540722861694 0 -0.0040263348791693089 -0.014789958447427915 0 -0.002931822807766406 -0.015380540722861694 0 -0.0040263348791693089 -0.014789958447427915 0 -0.0038507370693853394 -0.014797702481157204 0 -0.002931822807766406 -0.015380540722861694 0 -0.0032587419488633246 -0.014800419621126205 0 -0.0038507370693853394 -0.014797702481157204 0 -0.0019841015185061628 -0.011679249215267234 0 -0.0019845996580479747 -0.010204056680446643 0 -0.0023964954525158228 -0.016123100077775933 0 -0.0022640416327346508 -0.018021266027199782 0 -0.00077435431301521964 -0.017207453440033611 0 -0.0019845996580479747 -0.010204056680446643 0 -0.0019989782904570328 -0.010213454485010372 0 -0.0032587419488633246 -0.014800419621126205 0 -0.0038507370693853394 -0.014797702481157204 0 -0.0036756977394348405 -0.013995869023585393 0 -0.0042054951104953863 -0.014760374275195607 0 -0.0038507370693853394 -0.014797702481157204 0 -0.0036756977394348405 -0.013995869023585393 0 -0.0019845996580479747 -0.010204056680446643 0 -0.0041002141361301233 -0.0072550144337397331 0 -0.0042054951104953863 -0.014760374275195607 0 -0.0036756977394348405 -0.013995869023585393 0 -0.0056105930296313647 -0.011895861887488732 0 -0.0036756977394348405 -0.013995869023585393 0 -0.0036884242866187769 -0.012442406617218493 0 -0.0056105930296313647 -0.011895861887488732 0 -0.0068288328820151857 -0.0012956446203643405 0 -0.0063314599882530707 -0.0018037523339587177 0 -0.0067954108395999234 -0.0022849992859294782 0 -0.002688691283542018 -0.011141016674315029 0 -0.0022643744003331013 -0.012990195226290845 0 -0.0036884242866187769 -0.012442406617218493 0 -0.0022643744003331013 -0.012990195226290845 0 -0.0020167303353379176 -0.014371927358347263 0 -0.0028173767834428721 -0.01384865812948359 0 -0.0022643744003331013 -0.012990195226290845 0 -0.0036884242866187769 -0.012442406617218493 0 -0.0028173767834428721 -0.01384865812948359 0 -0.0036756977394348405 -0.013995869023585393 0 -0.0036884242866187769 -0.012442406617218493 0 -0.0028173767834428721 -0.01384865812948359 0 0.00037444507699618715 -0.016982628286702779 0 0.0022431040071364907 -0.017230715182228306 0 0.00042270581394694462 -0.018263418225405333 0 -0.0022640416327346508 -0.018021266027199782 0 0.00042270581394694462 -0.018263418225405333 0 -0.00077435431301521964 -0.017207453440033611 0 -0.0019845996580479747 -0.010204056680446643 0 -0.0017872597759111266 -0.0084730222622208355 0 -0.0068288328820151857 -0.0012956446203643405 0 -0.0059069783315979377 -0.0013895433474584568 0 -0.0063314599882530707 -0.0018037523339587177 0 0.00037444507699618715 -0.016982628286702779 0 0.00042270581394694462 -0.018263418225405333 0 -0.00077435431301521964 -0.017207453440033611 0 -0.0051372620488218147 -0.0014638049794991623 0 -0.0059069783315979377 -0.0013895433474584568 0 -0.0058579560391568064 -0.0018820969149009644 0 -0.0059069783315979377 -0.0013895433474584568 0 -0.0063314599882530707 -0.0018037523339587177 0 -0.0058579560391568064 -0.0018820969149009644 0 -0.0044442199337077683 -0.0021395629170894029 0 -0.0058579560391568064 -0.0018820969149009644 0 -0.0054578258306933651 -0.0032379858585324527 0 -0.0058579560391568064 -0.0018820969149009644 0 -0.0061679094203752624 -0.0027676071006845111 0 -0.0054578258306933651 -0.0032379858585324527 0 -0.0063314599882530707 -0.0018037523339587177 0 -0.0058579560391568064 -0.0018820969149009644 0 -0.0061679094203752624 -0.0027676071006845111 0 -0.0061679094203752624 -0.0027676071006845111 0 -0.0067954108395999234 -0.0022849992859294782 0 -0.0064642836669692718 -0.0032847176588855524 0 -0.0063314599882530707 -0.0018037523339587177 0 -0.0061679094203752624 -0.0027676071006845111 0 -0.0067954108395999234 -0.0022849992859294782 0 -0.0061679094203752624 -0.0027676071006845111 0 -0.0064642836669692718 -0.0032847176588855524 0 -0.0059087995616154054 -0.0036733784106233081 0 -0.0061679094203752624 -0.0027676071006845111 0 -0.0054578258306933651 -0.0032379858585324527 0 -0.0059087995616154054 -0.0036733784106233081 0 -0.0054483360839661281 -0.0040133320713716392 0 -0.0054578258306933651 -0.0032379858585324527 0 -0.0059087995616154054 -0.0036733784106233081 0 -0.002688691283542018 -0.011141016674315029 0 -0.0036884242866187769 -0.012442406617218493 0 -0.0042200525567521272 -0.0099486322222316695 0 -0.0056105930296313647 -0.011895861887488732 0 -0.0064392972572827984 -0.0085769532482266667 0 -0.0042200525567521272 -0.0099486322222316695 0 -0.0041002141361301233 -0.0072550144337397331 0 -0.0051622957624109459 -0.0057666050875767481 0 -0.0036884242866187769 -0.012442406617218493 0 -0.0056105930296313647 -0.011895861887488732 0 -0.0042200525567521272 -0.0099486322222316695 0 -0.0064392972572827984 -0.0085769532482266667 0 -0.0042200525567521272 -0.0099486322222316695 0 -0.0045223729754001029 -0.0064817517033819785 0 -0.0022721976433460037 -0.0088697326761512773 0 -0.0042200525567521272 -0.0099486322222316695 0 -0.0045223729754001029 -0.0064817517033819785 0 -0.002688691283542018 -0.011141016674315029 0 -0.0022721976433460037 -0.0088697326761512773 0 -0.0042200525567521272 -0.0099486322222316695 0 -0.0051622957624109459 -0.0057666050875767481 0 -0.0056140848942420876 -0.0046200309207430684 0 -0.0064392972572827984 -0.0085769532482266667 0 -0.0045223729754001029 -0.0064817517033819785 0 -0.0066037563687342433 -0.0052991787136275718 0 -0.0045223729754001029 -0.0064817517033819785 0 -0.005312261416447357 -0.0040873525317270338 0 -0.0066037563687342433 -0.0052991787136275718 0 -0.005312261416447357 -0.0040873525317270338 0 -0.0066037563687342433 -0.0052991787136275718 0 -0.0059949505222577195 -0.0028564376272721703 0 -0.0056140848942420876 -0.0046200309207430684 0 -0.0057266759433617625 -0.0040201361622569983 0 -0.0045223729754001029 -0.0064817517033819785 0 -0.005312261416447357 -0.0040873525317270338 0 -0.0040918402620121093 -0.0041825143175873792 0 -0.0045223729754001029 -0.0064817517033819785 0 -0.0040918402620121093 -0.0041825143175873792 0 -0.0026670433883382609 -0.0057775395275557759 0 -0.0054483360839661281 -0.0040133320713716392 0 -0.0059087995616154054 -0.0036733784106233081 0 -0.0059772121770853733 -0.0033205836580307195 0 -0.0064642836669692718 -0.0032847176588855524 0 -0.0059755352071676725 -0.0035026734562241418 0 -0.0059087995616154054 -0.0036733784106233081 0 -0.0059755352071676725 -0.0035026734562241418 0 -0.0060504033713463566 -0.0032268454875531995 0 -0.0059949505222577195 -0.0028564376272721703 0 -0.0059755352071676725 -0.0035026734562241418 0 -0.0059087995616154054 -0.0036733784106233081 0 -0.0060504033713463566 -0.0032268454875531995 0 -0.0059087995616154054 -0.0036733784106233081 0 -0.0060504033713463566 -0.0032268454875531995 0 -0.0059772121770853733 -0.0033205836580307195 0 -0.0064675438289088843 -0.002730220428646912 0 -0.0059772121770853733 -0.0033205836580307195 0 -0.0064290576088789951 -0.0025909533876709002 0 -0.0060504033713463566 -0.0032268454875531995 0 -0.0059772121770853733 -0.0033205836580307195 0 -0.0064290576088789951 -0.0025909533876709002 0 -0.0060504033713463566 -0.0032268454875531995 0 -0.0064290576088789951 -0.0025909533876709002 0 -0.0059949505222577195 -0.0028564376272721703 0 -0.0065748441220374928 -0.0017929200507542417 0 -0.0064290576088789951 -0.0025909533876709002 0 -0.0059949505222577195 -0.0028564376272721703 0 -0.0054467936620089608 -0.0016336271093600268 0 -0.0065748441220374928 -0.0017929200507542417 0 -0.0059949505222577195 -0.0028564376272721703 0 -0.0065748441220374928 -0.0017929200507542417 0 -0.007029156207135622 -0.0018375589898122879 0 -0.0064290576088789951 -0.0025909533876709002 0 -0.0040918402620121093 -0.0041825143175873792 0 -0.004844140135508909 -0.0026874237434631808 0 -0.0030502832893515323 -0.0031587994856942126 0 -0.005312261416447357 -0.0040873525317270338 0 -0.0040918402620121093 -0.0041825143175873792 0 -0.004844140135508909 -0.0026874237434631808 0 -0.004844140135508909 -0.0026874237434631808 0 -0.0038339745146099449 -0.0016694836462583719 0 -0.0030502832893515323 -0.0031587994856942126 0 -0.005312261416447357 -0.0040873525317270338 0 -0.004844140135508909 -0.0026874237434631808 0 -0.0059949505222577195 -0.0028564376272721703 0 -0.0054467936620089608 -0.0016336271093600268 0 -0.004844140135508909 -0.0026874237434631808 0 -0.0059949505222577195 -0.0028564376272721703 0 -0.0054467936620089608 -0.0016336271093600268 0 -0.004844140135508909 -0.0026874237434631808 0 -0.0038339745146099449 -0.0016694836462583719 0 -0.0038122118707901863 -0.00098036198638296133 0 -0.0038339745146099449 -0.0016694836462583719 0 -0.0032389095315865399 -0.00089391697418680091 0 -0.0038339745146099449 -0.0016694836462583719 0 -0.0032389095315865399 -0.00089391697418680091 0 -0.002487287003776891 -0.0015961466685805643 0 -0.0032389095315865399 -0.00089391697418680091 0 -0.0024058377847241633 -0.00032510951988704451 0 -0.002487287003776891 -0.0015961466685805643 0 -0.0031526627048235516 -0.0005125632893666751 0 -0.0032389095315865399 -0.00089391697418680091 0 -0.0024058377847241633 -0.00032510951988704451 0 -0.0024058377847241633 -0.00032510951988704451 0 -0.002487287003776891 -0.0015961466685805643 0 -0.0013308224480772636 -0.0011506311739593114 0 -0.002487287003776891 -0.0015961466685805643 0 -0.0014425729522947212 -0.0028637759363844269 0 -0.0030502832893515323 -0.0031587994856942126 0 -0.002487287003776891 -0.0015961466685805643 0 -0.0014425729522947212 -0.0028637759363844269 0 -0.0013308224480772636 -0.0011506311739593114 0 -0.0038339745146099449 -0.0016694836462583719 0 -0.002487287003776891 -0.0015961466685805643 0 -0.0030502832893515323 -0.0031587994856942126 0 -0.0040918402620121093 -0.0041825143175873792 0 -0.0030502832893515323 -0.0031587994856942126 0 -0.0026670433883382609 -0.0057775395275557759 0 -0.0030502832893515323 -0.0031587994856942126 0 -0.0012318533171007608 -0.0048833480302185863 0 -0.0026670433883382609 -0.0057775395275557759 0 -0.0014425729522947212 -0.0028637759363844269 0 -0.0030502832893515323 -0.0031587994856942126 0 -0.0012318533171007608 -0.0048833480302185863 0 -0.0014425729522947212 -0.0028637759363844269 0 -0.0012318533171007608 -0.0048833480302185863 0 -9.7879830079705468e-05 -0.0041228586762375825 0 -0.0012318533171007608 -0.0048833480302185863 0 0.00057549965452887775 -0.0062131564091162227 0 -9.7879830079705468e-05 -0.0041228586762375825 0 -0.0012318533171007608 -0.0048833480302185863 0 -0.00073416350828108771 -0.0073682094979732899 0 0.00057549965452887775 -0.0062131564091162227 0 -0.0012318533171007608 -0.0048833480302185863 0 -0.00073416350828108771 -0.0073682094979732899 0 -0.0026670433883382609 -0.0057775395275557759 0 -0.0022721976433460037 -0.0088697326761512773 0 -0.00073416350828108771 -0.0073682094979732899 0 -0.0026670433883382609 -0.0057775395275557759 0 -0.0022721976433460037 -0.0088697326761512773 0 -0.0045223729754001029 -0.0064817517033819785 0 -0.0026670433883382609 -0.0057775395275557759 0 0.0039198107442928532 -0.0064644351396977457 0 0.0029756611226114007 -0.0049455810964371396 0 0.0046870196620074963 -0.00506944904412853 0 0.0039198107442928532 -0.0064644351396977457 0 0.002283316525249639 -0.006438604473028714 0 0.0029756611226114007 -0.0049455810964371396 0 0.0039198107442928532 -0.0064644351396977457 0 0.0046870196620074963 -0.00506944904412853 0 0.0057952295165875434 -0.0063200088037238403 0 0.0039198107442928532 -0.0064644351396977457 0 0.0049300496679556853 -0.0078327290290988363 0 0.0057952295165875434 -0.0063200088037238403 0 0.0039198107442928532 -0.0064644351396977457 0 0.0033551015600414499 -0.0076611484848928433 0 0.002283316525249639 -0.006438604473028714 0 0.0039198107442928532 -0.0064644351396977457 0 0.0049300496679556853 -0.0078327290290988363 0 0.0033551015600414499 -0.0076611484848928433 0 0.0017749064275857296 -0.0082640044571072411 0 0.0033551015600414499 -0.0076611484848928433 0 0.002283316525249639 -0.006438604473028714 0 0.0017749064275857296 -0.0082640044571072411 0 -0.00073416350828108771 -0.0073682094979732899 0 0.00057549965452887775 -0.0062131564091162227 0 0.0017749064275857296 -0.0082640044571072411 0 0.00057549965452887775 -0.0062131564091162227 0 0.002283316525249639 -0.006438604473028714 0 0.002283316525249639 -0.006438604473028714 0 0.0013011563653009953 -0.0050083325910792731 0 0.0029756611226114007 -0.0049455810964371396 0 0.00057549965452887775 -0.0062131564091162227 0 0.002283316525249639 -0.006438604473028714 0 0.0013011563653009953 -0.0050083325910792731 0 0.0013011563653009953 -0.0050083325910792731 0 0.0022013400000024988 -0.0028750086235295276 0 0.0029756611226114007 -0.0049455810964371396 0 0.00057549965452887775 -0.0062131564091162227 0 0.0013011563653009953 -0.0050083325910792731 0 -9.7879830079705468e-05 -0.0041228586762375825 0 0.0013011563653009953 -0.0050083325910792731 0 -9.7879830079705468e-05 -0.0041228586762375825 0 0.00022232831755716038 -0.002684122516218555 0 -0.0014425729522947212 -0.0028637759363844269 0 -9.7879830079705468e-05 -0.0041228586762375825 0 0.00022232831755716038 -0.002684122516218555 0 0.0013011563653009953 -0.0050083325910792731 0 0.0022013400000024988 -0.0028750086235295276 0 0.00022232831755716038 -0.002684122516218555 0 0.003642565765046213 -0.0036938843853577259 0 0.0022013400000024988 -0.0028750086235295276 0 0.0029756611226114007 -0.0049455810964371396 0 0.003642565765046213 -0.0036938843853577259 0 0.0022013400000024988 -0.0028750086235295276 0 0.0049709512309943056 -0.0023349594633858078 0 0.003642565765046213 -0.0036938843853577259 0 0.0029756611226114007 -0.0049455810964371396 0 0.0046870196620074963 -0.00506944904412853 0 0.0046870196620074963 -0.00506944904412853 0 0.0049709512309943056 -0.0023349594633858078 0 0.006591801096818479 -0.0044479494318228141 0 0.003642565765046213 -0.0036938843853577259 0 0.0046870196620074963 -0.00506944904412853 0 0.0049709512309943056 -0.0023349594633858078 0 0.0022013400000024988 -0.0028750086235295276 0 0.0026761100152668553 -0.00078033259192013835 0 0.00037158829920524723 -0.00098526377466299077 0 0.0022013400000024988 -0.0028750086235295276 0 0.0049709512309943056 -0.0023349594633858078 0 0.0026761100152668553 -0.00078033259192013835 0 0.0049709512309943056 -0.0023349594633858078 0 0.0026761100152668553 -0.00078033259192013835 0 0.0047555013968821318 0.0006981768523113349 0 -0.0014425729522947212 -0.0028637759363844269 0 0.00022232831755716038 -0.002684122516218555 0 -0.0013308224480772636 -0.0011506311739593114 0 0.0022013400000024988 -0.0028750086235295276 0 0.00022232831755716038 -0.002684122516218555 0 0.00037158829920524723 -0.00098526377466299077 0 0.00037158829920524723 -0.00098526377466299077 0 -0.0013308224480772636 -0.0011506311739593114 0 -0.0012873896907798573 0.00048580093562287366 0 0.00022232831755716038 -0.002684122516218555 0 0.00037158829920524723 -0.00098526377466299077 0 -0.0013308224480772636 -0.0011506311739593114 0 0.0010510452698038642 0.0072023144505431189 0 -0.0012873896907798573 0.00048580093562287366 0 0.0017904122557815211 0.0026277054210775328 0 -0.0024058377847241633 -0.00032510951988704451 0 -0.0013308224480772636 -0.0011506311739593114 0 -0.0012873896907798573 0.00048580093562287366 0 0.00037158829920524723 -0.00098526377466299077 0 -0.0012873896907798573 0.00048580093562287366 0 0.0017904122557815211 0.0026277054210775328 0 -0.0030439424861380842 -1.8840692153212904e-05 0 -0.0024058377847241633 -0.00032510951988704451 0 -0.0012873896907798573 0.00048580093562287366 0 0.0047555013968821318 0.0006981768523113349 0 0.0017904122557815211 0.0026277054210775328 0 0.0050608138099613531 0.0033407747582228239 0 0.0026761100152668553 -0.00078033259192013835 0 0.00037158829920524723 -0.00098526377466299077 0 0.0017904122557815211 0.0026277054210775328 0 0.0026761100152668553 -0.00078033259192013835 0 0.0047555013968821318 0.0006981768523113349 0 0.0017904122557815211 0.0026277054210775328 0 0.0039338276348240648 0.0049273165074341027 0 0.0017904122557815211 0.0026277054210775328 0 0.0050608138099613531 0.0033407747582228239 0 0.0039338276348240648 0.0049273165074341027 0 0.0055621145819269718 0.0056566971374390779 0 0.0050608138099613531 0.0033407747582228239 0 0.0050608138099613531 0.0033407747582228239 0 0.0069360580937356635 0.0043351056049909277 0 0.0073559869381263961 0.0021682116322028688 0 0.0055621145819269718 0.0056566971374390779 0 0.0050608138099613531 0.0033407747582228239 0 0.0069360580937356635 0.0043351056049909277 0 0.0047555013968821318 0.0006981768523113349 0 0.0050608138099613531 0.0033407747582228239 0 0.0073559869381263961 0.0021682116322028688 0 0.0073559869381263961 0.0021682116322028688 0 0.010722172414953069 0.0027801569202342944 0 0.0087899526605155712 0.00027214850251573686 0 0.0069360580937356635 0.0043351056049909277 0 0.0073559869381263961 0.0021682116322028688 0 0.0092068985755229728 0.0047977611032817028 0 0.012577027757315926 0.0057253044105814123 0 0.010722172414953069 0.0027801569202342944 0 0.015087000221890324 0.0032835181818274359 0 0.012577027757315926 0.0057253044105814123 0 0.0092068985755229728 0.0047977611032817028 0 0.010722172414953069 0.0027801569202342944 0 0.010722172414953069 0.0027801569202342944 0 0.012030761725574738 0.0003288480115673369 0 0.015087000221890324 0.0032835181818274359 0 0.0073559869381263961 0.0021682116322028688 0 0.0092068985755229728 0.0047977611032817028 0 0.010722172414953069 0.0027801569202342944 0 0.010722172414953069 0.0027801569202342944 0 0.012030761725574738 0.0003288480115673369 0 0.0087899526605155712 0.00027214850251573686 0 0.012030761725574738 0.0003288480115673369 0 0.010054183467468485 -0.0013710521237422265 0 0.011500782629346382 -0.0029223337252008109 0 0.012030761725574738 0.0003288480115673369 0 0.010054183467468485 -0.0013710521237422265 0 0.0087899526605155712 0.00027214850251573686 0 0.010054183467468485 -0.0013710521237422265 0 0.0087899526605155712 0.00027214850251573686 0 0.0075126338720106012 -0.0023250976759928536 0 0.0065983715394347395 -0.00034841540112209976 0 0.0087899526605155712 0.00027214850251573686 0 0.0075126338720106012 -0.0023250976759928536 0 0.0049709512309943056 -0.0023349594633858078 0 0.0065983715394347395 -0.00034841540112209976 0 0.0075126338720106012 -0.0023250976759928536 0 0.0049709512309943056 -0.0023349594633858078 0 0.0047555013968821318 0.0006981768523113349 0 0.0065983715394347395 -0.00034841540112209976 0 0.0047555013968821318 0.0006981768523113349 0 0.0073559869381263961 0.0021682116322028688 0 0.0065983715394347395 -0.00034841540112209976 0 0.0073559869381263961 0.0021682116322028688 0 0.0065983715394347395 -0.00034841540112209976 0 0.0087899526605155712 0.00027214850251573686 0 0.019557255148255983 0.0069506200756336428 0 0.019256884306385003 0.0035452369600538765 0 0.015087000221890324 0.0032835181818274359 0 0.019256884306385003 0.0035452369600538765 0 0.015087000221890324 0.0032835181818274359 0 0.01716217962081619 0.001417024345800518 0 0.012030761725574738 0.0003288480115673369 0 0.015087000221890324 0.0032835181818274359 0 0.015233116223348032 -0.00097246674071008621 0 0.015087000221890324 0.0032835181818274359 0 0.015233116223348032 -0.00097246674071008621 0 0.01716217962081619 0.001417024345800518 0 0.012030761725574738 0.0003288480115673369 0 0.015233116223348032 -0.00097246674071008621 0 0.011500782629346382 -0.0029223337252008109 0 0.015233116223348032 -0.00097246674071008621 0 0.01716217962081619 0.001417024345800518 0 0.019146952558470209 -0.00016756574120535561 0 0.019256884306385003 0.0035452369600538765 0 0.01716217962081619 0.001417024345800518 0 0.019146952558470209 -0.00016756574120535561 0 0.019256884306385003 0.0035452369600538765 0 0.019146952558470209 -0.00016756574120535561 0 0.022245996865511122 0.0025148025252144392 0 0.019146952558470209 -0.00016756574120535561 0 0.017950303911124045 -0.0039079163006704633 0 0.022999069123257672 -0.0015270841253602634 0 0.015233116223348032 -0.00097246674071008621 0 0.019146952558470209 -0.00016756574120535561 0 0.017950303911124045 -0.0039079163006704633 0 0.017950303911124045 -0.0039079163006704633 0 0.013609380950995901 -0.0040907720271685013 0 0.014770170006373082 -0.0067662683549864983 0 0.015233116223348032 -0.00097246674071008621 0 0.017950303911124045 -0.0039079163006704633 0 0.013609380950995901 -0.0040907720271685013 0 0.015233116223348032 -0.00097246674071008621 0 0.013609380950995901 -0.0040907720271685013 0 0.011500782629346382 -0.0029223337252008109 0 0.013609380950995901 -0.0040907720271685013 0 0.014770170006373082 -0.0067662683549864983 0 0.012176691612097798 -0.0062583618498670722 0 0.012539783874937182 -0.0080761577875639399 0 0.014770170006373082 -0.0067662683549864983 0 0.012176691612097798 -0.0062583618498670722 0 0.012539783874937182 -0.0080761577875639399 0 0.014770170006373082 -0.0067662683549864983 0 0.015476889781480346 -0.0092113703807306605 0 0.014770170006373082 -0.0067662683549864983 0 0.017769302580593286 -0.0069358895537127794 0 0.015476889781480346 -0.0092113703807306605 0 0.017950303911124045 -0.0039079163006704633 0 0.017769302580593286 -0.0069358895537127794 0 0.022292997635722834 -0.0060168275484130092 0 0.017950303911124045 -0.0039079163006704633 0 0.014770170006373082 -0.0067662683549864983 0 0.017769302580593286 -0.0069358895537127794 0 0.0086379886366877295 -0.003926028497280176 0 0.006591801096818479 -0.0044479494318228141 0 0.0079223657787894086 -0.0062033726159875157 0 0.0086379886366877295 -0.003926028497280176 0 0.010097322414832965 -0.0049117680150147251 0 0.0079223657787894086 -0.0062033726159875157 0 0.0049709512309943056 -0.0023349594633858078 0 0.006591801096818479 -0.0044479494318228141 0 0.0075126338720106012 -0.0023250976759928536 0 0.0086379886366877295 -0.003926028497280176 0 0.006591801096818479 -0.0044479494318228141 0 0.0075126338720106012 -0.0023250976759928536 0 0.010054183467468485 -0.0013710521237422265 0 0.0086379886366877295 -0.003926028497280176 0 0.0075126338720106012 -0.0023250976759928536 0 0.010054183467468485 -0.0013710521237422265 0 0.0086379886366877295 -0.003926028497280176 0 0.011500782629346382 -0.0029223337252008109 0 0.013609380950995901 -0.0040907720271685013 0 0.011500782629346382 -0.0029223337252008109 0 0.010097322414832965 -0.0049117680150147251 0 0.0086379886366877295 -0.003926028497280176 0 0.011500782629346382 -0.0029223337252008109 0 0.010097322414832965 -0.0049117680150147251 0 0.010097322414832965 -0.0049117680150147251 0 0.0099542110331254947 -0.0073820628882080141 0 0.0079223657787894086 -0.0062033726159875157 0 0.010097322414832965 -0.0049117680150147251 0 0.012176691612097798 -0.0062583618498670722 0 0.0099542110331254947 -0.0073820628882080141 0 0.013609380950995901 -0.0040907720271685013 0 0.010097322414832965 -0.0049117680150147251 0 0.012176691612097798 -0.0062583618498670722 0 0.012539783874937182 -0.0080761577875639399 0 0.0099542110331254947 -0.0073820628882080141 0 0.010932063711492971 -0.0086906996220645887 0 0.012539783874937182 -0.0080761577875639399 0 0.012176691612097798 -0.0062583618498670722 0 0.0099542110331254947 -0.0073820628882080141 0 0.0099542110331254947 -0.0073820628882080141 0 0.0083430640452372851 -0.0079957288219527755 0 0.0079223657787894086 -0.0062033726159875157 0 0.0083430640452372851 -0.0079957288219527755 0 0.0079223657787894086 -0.0062033726159875157 0 0.006750955911882588 -0.0078141731463026408 0 0.0046870196620074963 -0.00506944904412853 0 0.006591801096818479 -0.0044479494318228141 0 0.0057952295165875434 -0.0063200088037238403 0 0.006591801096818479 -0.0044479494318228141 0 0.0079223657787894086 -0.0062033726159875157 0 0.0057952295165875434 -0.0063200088037238403 0 0.0049300496679556853 -0.0078327290290988363 0 0.0057952295165875434 -0.0063200088037238403 0 0.006750955911882588 -0.0078141731463026408 0 0.0079223657787894086 -0.0062033726159875157 0 0.0057952295165875434 -0.0063200088037238403 0 0.006750955911882588 -0.0078141731463026408 0 0.0049300496679556853 -0.0078327290290988363 0 0.006750955911882588 -0.0078141731463026408 0 0.006044177680606084 -0.0093054406138688497 0 0.006750955911882588 -0.0078141731463026408 0 0.006044177680606084 -0.0093054406138688497 0 0.0078566088952674029 -0.0093504118215339549 0 0.0083430640452372851 -0.0079957288219527755 0 0.006750955911882588 -0.0078141731463026408 0 0.0078566088952674029 -0.0093504118215339549 0 0.0083430640452372851 -0.0079957288219527755 0 0.0078566088952674029 -0.0093504118215339549 0 0.0094949106842116288 -0.0089223348470606808 0 0.0078566088952674029 -0.0093504118215339549 0 0.0072728749688226414 -0.010684448035916821 0 0.0093242624386084237 -0.010659430354302259 0 0.0054602621491577664 -0.010898747380047183 0 0.006044177680606084 -0.0093054406138688497 0 0.0072728749688226414 -0.010684448035916821 0 0.006044177680606084 -0.0093054406138688497 0 0.0078566088952674029 -0.0093504118215339549 0 0.0072728749688226414 -0.010684448035916821 0 0.0054602621491577664 -0.010898747380047183 0 0.0052752458150610408 -0.012494945974495249 0 0.0069088232399823488 -0.01197874727637253 0 0.0054602621491577664 -0.010898747380047183 0 0.0072728749688226414 -0.010684448035916821 0 0.0069088232399823488 -0.01197874727637253 0 0.0072728749688226414 -0.010684448035916821 0 0.0069088232399823488 -0.01197874727637253 0 0.0084005709734636547 -0.011730047064316207 0 0.0072728749688226414 -0.010684448035916821 0 0.0084005709734636547 -0.011730047064316207 0 0.0093242624386084237 -0.010659430354302259 0 0.0069088232399823488 -0.01197874727637253 0 0.0081652398909140764 -0.012779458047447264 0 0.0068870616235019852 -0.013226752536120004 0 0.0069088232399823488 -0.01197874727637253 0 0.0084005709734636547 -0.011730047064316207 0 0.0081652398909140764 -0.012779458047447264 0 0.0084005709734636547 -0.011730047064316207 0 0.0081652398909140764 -0.012779458047447264 0 0.0094020847097747821 -0.013022019404123545 0 0.0081652398909140764 -0.012779458047447264 0 0.0094020847097747821 -0.013022019404123545 0 0.0082359049675878315 -0.013829396749951366 0 0.0081652398909140764 -0.012779458047447264 0 0.0068870616235019852 -0.013226752536120004 0 0.0082359049675878315 -0.013829396749951366 0 0.0052752458150610408 -0.012494945974495249 0 0.0069088232399823488 -0.01197874727637253 0 0.0068870616235019852 -0.013226752536120004 0 0.010868274974416425 -0.012575800737227092 0 0.010975173263037218 -0.01352481574062981 0 0.0094020847097747821 -0.013022019404123545 0 0.010868274974416425 -0.012575800737227092 0 0.010975173263037218 -0.01352481574062981 0 0.012166276704238558 -0.012784844809701615 0 0.010975173263037218 -0.01352481574062981 0 0.012166276704238558 -0.012784844809701615 0 0.012131890049859319 -0.013581760996191742 0 0.010975173263037218 -0.01352481574062981 0 0.012131890049859319 -0.013581760996191742 0 0.011550101796210339 -0.014270497833737164 0 0.010975173263037218 -0.01352481574062981 0 0.0094020847097747821 -0.013022019404123545 0 0.0093126299166274417 -0.014619483384382435 0 0.010868274974416425 -0.012575800737227092 0 0.0094020847097747821 -0.013022019404123545 0 0.010092624898765942 -0.011856633470459147 0 0.0084005709734636547 -0.011730047064316207 0 0.010092624898765942 -0.011856633470459147 0 0.0093242624386084237 -0.010659430354302259 0 0.0084005709734636547 -0.011730047064316207 0 0.0094020847097747821 -0.013022019404123545 0 0.010092624898765942 -0.011856633470459147 0 0.010092624898765942 -0.011856633470459147 0 0.01075237709104677 -0.010960864198914759 0 0.0093242624386084237 -0.010659430354302259 0 0.010092624898765942 -0.011856633470459147 0 0.01178142104047406 -0.011667265542128822 0 0.01075237709104677 -0.010960864198914759 0 0.010868274974416425 -0.012575800737227092 0 0.010092624898765942 -0.011856633470459147 0 0.01178142104047406 -0.011667265542128822 0 0.010868274974416425 -0.012575800737227092 0 0.01178142104047406 -0.011667265542128822 0 0.012166276704238558 -0.012784844809701615 0 0.01178142104047406 -0.011667265542128822 0 0.01075237709104677 -0.010960864198914759 0 0.0124257109102164 -0.010247839774304672 0 0.010687911258497336 -0.0098996965936855256 0 0.010932063711492971 -0.0086906996220645887 0 0.0124257109102164 -0.010247839774304672 0 0.01075237709104677 -0.010960864198914759 0 0.010687911258497336 -0.0098996965936855256 0 0.0124257109102164 -0.010247839774304672 0 0.0078566088952674029 -0.0093504118215339549 0 0.0093242624386084237 -0.010659430354302259 0 0.0094949106842116288 -0.0089223348470606808 0 0.010687911258497336 -0.0098996965936855256 0 0.0093242624386084237 -0.010659430354302259 0 0.0094949106842116288 -0.0089223348470606808 0 0.01075237709104677 -0.010960864198914759 0 0.010687911258497336 -0.0098996965936855256 0 0.0093242624386084237 -0.010659430354302259 0 0.0099542110331254947 -0.0073820628882080141 0 0.0083430640452372851 -0.0079957288219527755 0 0.0094949106842116288 -0.0089223348470606808 0 0.0099542110331254947 -0.0073820628882080141 0 0.0094949106842116288 -0.0089223348470606808 0 0.010932063711492971 -0.0086906996220645887 0 0.010687911258497336 -0.0098996965936855256 0 0.0094949106842116288 -0.0089223348470606808 0 0.010932063711492971 -0.0086906996220645887 0 0.012539783874937182 -0.0080761577875639399 0 0.010932063711492971 -0.0086906996220645887 0 0.0124257109102164 -0.010247839774304672 0 0.012539783874937182 -0.0080761577875639399 0 0.015476889781480346 -0.0092113703807306605 0 0.0124257109102164 -0.010247839774304672 0 0.015476889781480346 -0.0092113703807306605 0 0.0124257109102164 -0.010247839774304672 0 0.0144395480234762 -0.011400301345004025 0 0.015476889781480346 -0.0092113703807306605 0 0.017636930428423868 -0.012034526928256148 0 0.0144395480234762 -0.011400301345004025 0 0.017769302580593286 -0.0069358895537127794 0 0.015476889781480346 -0.0092113703807306605 0 0.019037522722870015 -0.0089279905899250327 0 0.015476889781480346 -0.0092113703807306605 0 0.019037522722870015 -0.0089279905899250327 0 0.017636930428423868 -0.012034526928256148 0 0.017636930428423868 -0.012034526928256148 0 0.017801538143039891 -0.015061082938073926 0 0.022507636504827233 -0.014703953857322814 0 0.017636930428423868 -0.012034526928256148 0 0.014105604797752651 -0.013266694542423629 0 0.017801538143039891 -0.015061082938073926 0 0.014105604797752651 -0.013266694542423629 0 0.012800902862317588 -0.015167029092742607 0 0.017801538143039891 -0.015061082938073926 0 0.01178142104047406 -0.011667265542128822 0 0.0124257109102164 -0.010247839774304672 0 0.013053360378615316 -0.012080457110278803 0 0.013053360378615316 -0.012080457110278803 0 0.0144395480234762 -0.011400301345004025 0 0.014105604797752651 -0.013266694542423629 0 0.0124257109102164 -0.010247839774304672 0 0.013053360378615316 -0.012080457110278803 0 0.0144395480234762 -0.011400301345004025 0 0.01178142104047406 -0.011667265542128822 0 0.013053360378615316 -0.012080457110278803 0 0.012166276704238558 -0.012784844809701615 0 0.017636930428423868 -0.012034526928256148 0 0.0144395480234762 -0.011400301345004025 0 0.014105604797752651 -0.013266694542423629 0 0.013053360378615316 -0.012080457110278803 0 0.014105604797752651 -0.013266694542423629 0 0.012166276704238558 -0.012784844809701615 0 0.014105604797752651 -0.013266694542423629 0 0.012166276704238558 -0.012784844809701615 0 0.012131890049859319 -0.013581760996191742 0 0.014105604797752651 -0.013266694542423629 0 0.012131890049859319 -0.013581760996191742 0 0.012918681770553459 -0.013993483380055464 0 0.014105604797752651 -0.013266694542423629 0 0.012918681770553459 -0.013993483380055464 0 0.012800902862317588 -0.015167029092742607 0 0.012131890049859319 -0.013581760996191742 0 0.012555893778097762 -0.014453131199632572 0 0.011550101796210339 -0.014270497833737164 0 0.012131890049859319 -0.013581760996191742 0 0.012918681770553459 -0.013993483380055464 0 0.012555893778097762 -0.014453131199632572 0 0.012555893778097762 -0.014453131199632572 0 0.012800902862317588 -0.015167029092742607 0 0.011550101796210339 -0.014270497833737164 0 0.012918681770553459 -0.013993483380055464 0 0.012555893778097762 -0.014453131199632572 0 0.012800902862317588 -0.015167029092742607 0 0.029865256000045907 -0.011880278909594479 0 0.035561131459720632 -0.014326520281186259 0 0.052595652060738733 -0.013129104132010931 0 0.053885869875974636 -0.014074610625549908 0 0.054949832528622983 -0.012911752784442737 0 0.052595652060738733 -0.013129104132010931 0 0.052930921553273121 -0.014387895693249541 0 0.052180573727760075 -0.015003179852736186 0 0.052595652060738733 -0.013129104132010931 0 0.053885869875974636 -0.014074610625549908 0 0.052930921553273121 -0.014387895693249541 0 0.054949832528622983 -0.012911752784442737 0 0.055277712879429917 -0.01486384502337121 0 0.056664151944990415 -0.014364712912527217 0 0.053885869875974636 -0.014074610625549908 0 0.054949832528622983 -0.012911752784442737 0 0.055277712879429917 -0.01486384502337121 0 0.055277712879429917 -0.01486384502337121 0 0.054854973759961581 -0.015993951827980388 0 0.053454336154401295 -0.015358405778775702 0 0.053885869875974636 -0.014074610625549908 0 0.055277712879429917 -0.01486384502337121 0 0.053454336154401295 -0.015358405778775702 0 0.055277712879429917 -0.01486384502337121 0 0.054854973759961581 -0.015993951827980388 0 0.056507953080061048 -0.015932754534614187 0 0.052930921553273121 -0.014387895693249541 0 0.053454336154401295 -0.015358405778775702 0 0.052180573727760075 -0.015003179852736186 0 0.053885869875974636 -0.014074610625549908 0 0.052930921553273121 -0.014387895693249541 0 0.053454336154401295 -0.015358405778775702 0 0.053454336154401295 -0.015358405778775702 0 0.052180573727760075 -0.015003179852736186 0 0.051985718723837067 -0.01655249287590313 0 0.052180573727760075 -0.015003179852736186 0 0.05072681322488938 -0.01560659670526662 0 0.051985718723837067 -0.01655249287590313 0 0.052595652060738733 -0.013129104132010931 0 0.052180573727760075 -0.015003179852736186 0 0.05072681322488938 -0.01560659670526662 0 0.0098996601586343255 -0.015102965921849976 0 0.0089249252306254703 -0.015173634977083184 0 0.0088521399914967321 -0.015037696543026099 0 0.01032858061026817 -0.014356680454123624 0 0.0098996601586343255 -0.015102965921849976 0 0.0089249252306254703 -0.015173634977083184 0 0.005524622752628678 -0.017574168236472249 0 0.0088521399914967321 -0.015037696543026099 0 0.0060620389928771343 -0.015163381148684292 0 0.0077399862904183082 -0.015896165724199027 0 0.0081933547921464508 -0.015498173207612192 0 0.0052167190072405544 -0.0137743091872398 0 0.0060620389928771343 -0.015163381148684292 0 0.0071766945412440816 -0.014242299874852007 0 0.0088521399914967321 -0.015037696543026099 0 0.0060620389928771343 -0.015163381148684292 0 0.0071766945412440816 -0.014242299874852007 0 0.0052167190072405544 -0.0137743091872398 0 0.0071766945412440816 -0.014242299874852007 0 0.0068870616235019852 -0.013226752536120004 0 0.0052752458150610408 -0.012494945974495249 0 0.0052167190072405544 -0.0137743091872398 0 0.0068870616235019852 -0.013226752536120004 0 0.0088521399914967321 -0.015037696543026099 0 0.0071766945412440816 -0.014242299874852007 0 0.0082359049675878315 -0.013829396749951366 0 0.0071766945412440816 -0.014242299874852007 0 0.0068870616235019852 -0.013226752536120004 0 0.0082359049675878315 -0.013829396749951366 0 0.0088521399914967321 -0.015037696543026099 0 0.0082359049675878315 -0.013829396749951366 0 0.0093126299166274417 -0.014619483384382435 0 0.0094020847097747821 -0.013022019404123545 0 0.0082359049675878315 -0.013829396749951366 0 0.0093126299166274417 -0.014619483384382435 0 0.029865256000045907 -0.011880278909594479 0 0.029514299464462351 -0.014365775907655058 0 0.0099326187575610337 -0.014671421373455222 0 0.0089249252306254703 -0.015173634977083184 0 0.0088521399914967321 -0.015037696543026099 0 0.0099326187575610337 -0.014671421373455222 0 0.0088521399914967321 -0.015037696543026099 0 0.0093126299166274417 -0.014619483384382435 0 0.010975173263037218 -0.01352481574062981 0 0.0093126299166274417 -0.014619483384382435 0 0.011550101796210339 -0.014270497833737164 0 0.012800902862317588 -0.015167029092742607 0 0.0093126299166274417 -0.014619483384382435 0 0.011550101796210339 -0.014270497833737164 0 0.029865256000045907 -0.011880278909594479 0 0.024835290298299645 -0.012415250171056449 0 0.052044079178020008 -0.018079045681905329 0 0.054654169658519436 -0.019136230055568103 0 0.05026291157303249 -0.020463543543035256 0 0.052044079178020008 -0.018079045681905329 0 0.054654169658519436 -0.019136230055568103 0 0.053955859834201279 -0.016557341284200815 0 0.054654169658519436 -0.019136230055568103 0 0.05026291157303249 -0.020463543543035256 0 0.054182027655174922 -0.022455545743625613 0 0.05026291157303249 -0.020463543543035256 0 0.047694476014772516 -0.020463785055433621 0 0.046055871106597666 -0.023196147275102216 0 0.047694476014772516 -0.020463785055433621 0 0.04571347625145121 -0.020642789362032826 0 0.046055871106597666 -0.023196147275102216 0 0.04571347625145121 -0.020642789362032826 0 0.048744246465851473 -0.017511789483232759 0 0.045017546236039506 -0.017038380795137933 0 0.047694476014772516 -0.020463785055433621 0 0.04571347625145121 -0.020642789362032826 0 0.048744246465851473 -0.017511789483232759 0 0.05026291157303249 -0.020463543543035256 0 0.047694476014772516 -0.020463785055433621 0 0.048744246465851473 -0.017511789483232759 0 0.052044079178020008 -0.018079045681905329 0 0.05026291157303249 -0.020463543543035256 0 0.048744246465851473 -0.017511789483232759 0 0.048744246465851473 -0.017511789483232759 0 0.052488993417937418 -0.015660492445387905 0 0.050291077904042601 -0.012774651812882148 0 0.048744246465851473 -0.017511789483232759 0 0.047063032791440612 -0.014490979420179807 0 0.050291077904042601 -0.012774651812882148 0 0.048744246465851473 -0.017511789483232759 0 0.047063032791440612 -0.014490979420179807 0 0.045017546236039506 -0.017038380795137933 0 0.053964402618049495 -0.013841409396740174 0 0.052488993417937418 -0.015660492445387905 0 0.050291077904042601 -0.012774651812882148 0 0.053964402618049495 -0.013841409396740174 0 0.052488993417937418 -0.015660492445387905 0 0.054498321216574663 -0.014888770180366702 0 0.052044079178020008 -0.018079045681905329 0 0.052488993417937418 -0.015660492445387905 0 0.053955859834201279 -0.016557341284200815 0 0.052044079178020008 -0.018079045681905329 0 0.048744246465851473 -0.017511789483232759 0 0.052488993417937418 -0.015660492445387905 0 0.054654169658519436 -0.019136230055568103 0 0.053955859834201279 -0.016557341284200815 0 0.055569429679295471 -0.015142508836800852 0 0.052488993417937418 -0.015660492445387905 0 0.053955859834201279 -0.016557341284200815 0 0.054498321216574663 -0.014888770180366702 0 0.053955859834201279 -0.016557341284200815 0 0.055569429679295471 -0.015142508836800852 0 0.054498321216574663 -0.014888770180366702 0 0.055569429679295471 -0.015142508836800852 0 0.054498321216574663 -0.014888770180366702 0 0.055590485333121623 -0.01334271767386531 0 0.053964402618049495 -0.013841409396740174 0 0.054498321216574663 -0.014888770180366702 0 0.055590485333121623 -0.01334271767386531 0 0.053964402618049495 -0.013841409396740174 0 0.055590485333121623 -0.01334271767386531 0 0.054920478649068537 -0.011926220995719407 0 0.055924900168443661 -0.016664183381147776 0 0.056965717127891793 -0.015181652776891831 0 0.056363821024686116 -0.013501895536841257 0 0.056954678295223049 -0.013919959470763705 0 0.056968046608006549 -0.012097204456124569 0 0.054654169658519436 -0.019136230055568103 0 0.057658741299956677 -0.015738977317644981 0 0.057646526866724598 -0.016103985990968725 0 0.054654169658519436 -0.019136230055568103 0 0.056954678295223049 -0.013919959470763705 0 0.058961176411050309 -0.012777916582063099 0 0.054654169658519436 -0.019136230055568103 0 0.055569429679295471 -0.015142508836800852 0 0.056954678295223049 -0.013919959470763705 0 0.055569429679295471 -0.015142508836800852 0 0.056363821024686116 -0.013501895536841257 0 0.056954678295223049 -0.013919959470763705 0 0.055569429679295471 -0.015142508836800852 0 0.055590485333121623 -0.01334271767386531 0 0.056363821024686116 -0.013501895536841257 0 0.056954678295223049 -0.013919959470763705 0 0.058961176411050309 -0.012777916582063099 0 0.057891946486231076 -0.012435903089216329 0 0.055277712879429917 -0.01486384502337121 0 0.056507953080061048 -0.015932754534614187 0 0.056618661230039009 -0.01528428832492767 0 0.057646526866724598 -0.016103985990968725 0 0.056507953080061048 -0.015932754534614187 0 0.056618661230039009 -0.01528428832492767 0 0.057658741299956677 -0.015738977317644981 0 0.057646526866724598 -0.016103985990968725 0 0.056507953080061048 -0.015932754534614187 0 0.057646526866724598 -0.016103985990968725 0 0.056618661230039009 -0.01528428832492767 0 0.056664151944990415 -0.014364712912527217 0 0.055277712879429917 -0.01486384502337121 0 0.056618661230039009 -0.01528428832492767 0 0.056664151944990415 -0.014364712912527217 0 0.054949832528622983 -0.012911752784442737 0 0.056664151944990415 -0.014364712912527217 0 0.057449744827200326 -0.012620212309183764 0 0.044115561889505814 -0.01725529470621873 0 0.039517720834529743 -0.017046658812048192 0 0.035561131459720632 -0.014326520281186259 0 0.039517720834529743 -0.017046658812048192 0 0.057646526866724598 -0.016103985990968725 0 0.056664151944990415 -0.014364712912527217 0 0.057449744827200326 -0.012620212309183764 0 0.054654169658519436 -0.019136230055568103 0 0.058636697403801709 -0.021337564477612002 0 0.054182027655174922 -0.022455545743625613 0 0.054654169658519436 -0.019136230055568103 0 0.057646526866724598 -0.016103985990968725 0 0.058636697403801709 -0.021337564477612002 0 0.033065526275255608 -0.020612592111551781 0 0.026022952805220802 -0.027432085432367269 0 0.035611562640112122 -0.02656255686239738 0 0.033065526275255608 -0.020612592111551781 0 0.026022952805220802 -0.027432085432367269 0 0.025288538816985364 -0.018245630806714201 0 0.039517720834529743 -0.017046658812048192 0 0.042705319264463096 -0.019434450034759868 0 0.017636930428423868 -0.012034526928256148 0 0.022507636504827233 -0.014703953857322814 0 0.022196479533033369 -0.010235353770817262 0 0.039517720834529743 -0.017046658812048192 0 0.03269343211124659 -0.013155228248074528 0 0.019037522722870015 -0.0089279905899250327 0 0.022196479533033369 -0.010235353770817262 0 0.022292997635722834 -0.0060168275484130092 0 0.019037522722870015 -0.0089279905899250327 0 0.017636930428423868 -0.012034526928256148 0 0.022196479533033369 -0.010235353770817262 0 0.033065526275255608 -0.020612592111551781 0 0.025288538816985364 -0.018245630806714201 0 0.029730669422310462 -0.014694932605829027 0 0.025288538816985364 -0.018245630806714201 0 0.029730669422310462 -0.014694932605829027 0 0.024326896480888788 -0.0096578154155697732 0 0.033065526275255608 -0.020612592111551781 0 0.029730669422310462 -0.014694932605829027 0 0.034574223738480382 -0.015260409179158415 0 0.034574223738480382 -0.015260409179158415 0 0.039756351287689978 -0.017059228791230618 0 0.038064022147257778 -0.019407396766238937 0 0.034574223738480382 -0.015260409179158415 0 0.039756351287689978 -0.017059228791230618 0 0.036249037950230378 -0.012089370691888342 0 0.039756351287689978 -0.017059228791230618 0 0.038064022147257778 -0.019407396766238937 0 0.04196173467045914 -0.021239932840487745 0 0.033065526275255608 -0.020612592111551781 0 0.034574223738480382 -0.015260409179158415 0 0.038064022147257778 -0.019407396766238937 0 0.05026291157303249 -0.020463543543035256 0 0.054182027655174922 -0.022455545743625613 0 0.046055871106597666 -0.023196147275102216 0 0.033065526275255608 -0.020612592111551781 0 0.039115614678260219 -0.022624499402239678 0 0.035611562640112122 -0.02656255686239738 0 0.042705319264463096 -0.019434450034759868 0 0.04368538762404723 -0.020072960195488078 0 0.033065526275255608 -0.020612592111551781 0 0.038064022147257778 -0.019407396766238937 0 0.039115614678260219 -0.022624499402239678 0 0.039115614678260219 -0.022624499402239678 0 0.035611562640112122 -0.02656255686239738 0 0.046055871106597666 -0.023196147275102216 0 0.038064022147257778 -0.019407396766238937 0 0.039115614678260219 -0.022624499402239678 0 0.04196173467045914 -0.021239932840487745 0 0.04571347625145121 -0.020642789362032826 0 0.046055871106597666 -0.023196147275102216 0 0.046199848699011753 -0.022994408894153096 0 0.039115614678260219 -0.022624499402239678 0 0.046055871106597666 -0.023196147275102216 0 0.04196173467045914 -0.021239932840487745 0 0.046055871106597666 -0.023196147275102216 0 0.04196173467045914 -0.021239932840487745 0 0.046199848699011753 -0.022994408894153096 0 -0.0017752984368638394 0.0091900272446087412 0 -0.0025761188411675697 0.01293908789514869 0 -0.004319719204069798 0.014760361816275019 0 0.023213571246589054 -0.0035227681348494154 0 0.018852512594129012 0.0016207509909056358 0 0.039756351287689978 -0.017059228791230618 0 0.046199848699011753 -0.022994408894153096 0 0.040513617393104676 -0.01213729380066552 0 -0.0017752984368638394 0.0091900272446087412 0 -0.0015740366579484431 0.01229432048721355 0 -0.0025761188411675697 0.01293908789514869 0 0.039756351287689978 -0.017059228791230618 0 0.04196173467045914 -0.021239932840487745 0 0.046199848699011753 -0.022994408894153096 0 -0.0015740366579484431 0.01229432048721355 0 -0.0025761188411675697 0.01293908789514869 0 -0.0026144045637280862 0.015528537813704515 0 -0.0026144045637280862 0.015528537813704515 0 -0.004319719204069798 0.014760361816275019 0 -0.0057760631322517327 0.020816548894719757 0 -0.0051385784783179768 0.017592825985088149 0 -0.0040886776176978926 0.019178760507594261 0 -0.0017263991873200052 0.017489259478956399 0 -0.0025761188411675697 0.01293908789514869 0 -0.0026144045637280862 0.015528537813704515 0 -0.004319719204069798 0.014760361816275019 0 0.039756351287689978 -0.017059228791230618 0 0.040513617393104676 -0.01213729380066552 0 0.036249037950230378 -0.012089370691888342 0 0.034574223738480382 -0.015260409179158415 0 0.036249037950230378 -0.012089370691888342 0 0.031564087175779083 -0.0099040778596235727 0 0.035128922264973488 -0.0077602427450823687 0 0.031564087175779083 -0.0099040778596235727 0 0.03190726126660591 -0.0062957280758954848 0 0.036249037950230378 -0.012089370691888342 0 0.035128922264973488 -0.0077602427450823687 0 0.031564087175779083 -0.0099040778596235727 0 0.040513617393104676 -0.01213729380066552 0 0.036249037950230378 -0.012089370691888342 0 0.035128922264973488 -0.0077602427450823687 0 0.040513617393104676 -0.01213729380066552 0 0.035128922264973488 -0.0077602427450823687 0 0.033067043247497589 -0.0026335090049792831 0 -0.004319719204069798 0.014760361816275019 0 -0.0057760631322517327 0.020816548894719757 0 -0.0061917854841895088 0.021086615063787256 0 -0.0051385784783179768 0.017592825985088149 0 -0.0057760631322517327 0.020816548894719757 0 -0.0052470355799845263 0.02022620260040504 0 -0.0031492243857511844 0.015818421757943939 0 -0.0047210405085548399 0.01782283524008688 0 0.018852512594129012 0.0016207509909056358 0 0.014468523267969716 0.0080561658838049655 0 0.035128922264973488 -0.0077602427450823687 0 0.03280819435406683 -0.0051646573022798969 0 0.033067043247497589 -0.0026335090049792831 0 0.035128922264973488 -0.0077602427450823687 0 0.03280819435406683 -0.0051646573022798969 0 0.03190726126660591 -0.0062957280758954848 0 0.03280819435406683 -0.0051646573022798969 0 0.033067043247497589 -0.0026335090049792831 0 0.031189323664554701 -0.0040051963259412826 0 -0.0057760631322517327 0.020816548894719757 0 -0.0054482116200001152 0.021065853545487533 0 -0.005750583038330849 0.021244612795518973 0 -0.0057760631322517327 0.020816548894719757 0 -0.0061917854841895088 0.021086615063787256 0 -0.005750583038330849 0.021244612795518973 0 -0.0057760631322517327 0.020816548894719757 0 -0.0054482116200001152 0.021065853545487533 0 -0.0052470355799845263 0.02022620260040504 0 -0.0054482116200001152 0.021065853545487533 0 -0.0052470355799845263 0.02022620260040504 0 -0.0050187719377784391 0.021219678662566861 0 -0.0051385784783179768 0.017592825985088149 0 -0.0052470355799845263 0.02022620260040504 0 -0.0048671899995487095 0.020014638080860882 0 -0.0052470355799845263 0.02022620260040504 0 -0.0048671899995487095 0.020014638080860882 0 -0.0050187719377784391 0.021219678662566861 0 -0.0041850437359907114 0.021390029933893228 0 -0.0048671899995487095 0.020014638080860882 0 -0.0050187719377784391 0.021219678662566861 0 -0.0041850437359907114 0.021390029933893228 0 -0.0040886776176978926 0.019178760507594261 0 -0.0048671899995487095 0.020014638080860882 0 -0.0051385784783179768 0.017592825985088149 0 -0.0040886776176978926 0.019178760507594261 0 -0.0048671899995487095 0.020014638080860882 0 0.03269343211124659 -0.013155228248074528 0 0.029209935528796593 -0.0083162147829601418 0 0.017769302580593286 -0.0069358895537127794 0 0.019037522722870015 -0.0089279905899250327 0 0.022292997635722834 -0.0060168275484130092 0 0.029730669422310462 -0.014694932605829027 0 0.024326896480888788 -0.0096578154155697732 0 0.031564087175779083 -0.0099040778596235727 0 0.024326896480888788 -0.0096578154155697732 0 0.031564087175779083 -0.0099040778596235727 0 0.028011714217598682 -0.0053822768343175795 0 0.029730669422310462 -0.014694932605829027 0 0.034574223738480382 -0.015260409179158415 0 0.031564087175779083 -0.0099040778596235727 0 0.03190726126660591 -0.0062957280758954848 0 0.031189323664554701 -0.0040051963259412826 0 0.028011714217598682 -0.0053822768343175795 0 0.031564087175779083 -0.0099040778596235727 0 0.03190726126660591 -0.0062957280758954848 0 0.028011714217598682 -0.0053822768343175795 0 0.03280819435406683 -0.0051646573022798969 0 0.03190726126660591 -0.0062957280758954848 0 0.031189323664554701 -0.0040051963259412826 0 0.033067043247497589 -0.0026335090049792831 0 0.030837524059584568 -0.0026694390998999221 0 0.028897198457844393 -0.00072569935295554088 0 0.031189323664554701 -0.0040051963259412826 0 0.029381646175805038 -0.0029338848561859011 0 0.028011714217598682 -0.0053822768343175795 0 0.033067043247497589 -0.0026335090049792831 0 0.031189323664554701 -0.0040051963259412826 0 0.030837524059584568 -0.0026694390998999221 0 0.031189323664554701 -0.0040051963259412826 0 0.030837524059584568 -0.0026694390998999221 0 0.029381646175805038 -0.0029338848561859011 0 0.030837524059584568 -0.0026694390998999221 0 0.029381646175805038 -0.0029338848561859011 0 0.028897198457844393 -0.00072569935295554088 0 0.026549710583618057 -0.0020595543846706615 0 0.028011714217598682 -0.0053822768343175795 0 0.022999069123257672 -0.0015270841253602634 0 0.029381646175805038 -0.0029338848561859011 0 0.026549710583618057 -0.0020595543846706615 0 0.028011714217598682 -0.0053822768343175795 0 0.024326896480888788 -0.0096578154155697732 0 0.028011714217598682 -0.0053822768343175795 0 0.022999069123257672 -0.0015270841253602634 0 0.017950303911124045 -0.0039079163006704633 0 0.022292997635722834 -0.0060168275484130092 0 0.022999069123257672 -0.0015270841253602634 0 0.029209935528796593 -0.0083162147829601418 0 0.028098307253028528 -0.0056672618865417235 0 0.019146952558470209 -0.00016756574120535561 0 0.022245996865511122 0.0025148025252144392 0 0.022999069123257672 -0.0015270841253602634 0 0.026549710583618057 -0.0020595543846706615 0 0.022999069123257672 -0.0015270841253602634 0 0.02462728616921234 0.0010903728919851466 0 0.022245996865511122 0.0025148025252144392 0 0.02462728616921234 0.0010903728919851466 0 0.025704828893905424 0.0037103319710162586 0 0.022245996865511122 0.0025148025252144392 0 0.022999069123257672 -0.0015270841253602634 0 0.02462728616921234 0.0010903728919851466 0 -0.0061917854841895088 0.021086615063787256 0 -0.0054481416219404532 0.022049416471275469 0 -0.0056642332028182503 0.021559559766270799 0 0.033067043247497589 -0.0026335090049792831 0 0.028897198457844393 -0.00072569935295554088 0 0.026456633598100247 0.004726943679613742 0 0.026726331022113105 0.0016876729576750546 0 0.028897198457844393 -0.00072569935295554088 0 0.026456633598100247 0.004726943679613742 0 0.014468523267969716 0.0080561658838049655 0 0.010522673768334474 0.014238164068771592 0 0.02462728616921234 0.0010903728919851466 0 0.026726331022113105 0.0016876729576750546 0 0.025704828893905424 0.0037103319710162586 0 0.02462728616921234 0.0010903728919851466 0 0.026726331022113105 0.0016876729576750546 0 0.026886055331040826 -0.00013876995182867462 0 0.026549710583618057 -0.0020595543846706615 0 0.02462728616921234 0.0010903728919851466 0 0.026886055331040826 -0.00013876995182867462 0 0.026726331022113105 0.0016876729576750546 0 0.026886055331040826 -0.00013876995182867462 0 0.028897198457844393 -0.00072569935295554088 0 0.029381646175805038 -0.0029338848561859011 0 0.026549710583618057 -0.0020595543846706615 0 0.028897198457844393 -0.00072569935295554088 0 0.026549710583618057 -0.0020595543846706615 0 0.026886055331040826 -0.00013876995182867462 0 0.028897198457844393 -0.00072569935295554088 0 -0.0054481416219404532 0.022049416471275469 0 -0.0053789978138099803 0.021815101308827248 0 -0.0056642332028182503 0.021559559766270799 0 -0.0054481416219404532 0.022049416471275469 0 -0.0053789978138099803 0.021815101308827248 0 -0.00499790669522649 0.022035548712550944 0 0.026726331022113105 0.0016876729576750546 0 0.026456633598100247 0.004726943679613742 0 0.025704828893905424 0.0037103319710162586 0 0.026125878636739094 0.0042607444625015652 0 0.025704828893905424 0.0037103319710162586 0 0.023362669668618757 0.0055525950696745955 0 0.010522673768334474 0.014238164068771592 0 0.010630126696789683 0.014213597889663115 0 0.01164592163527922 0.013360230493357109 0 0.010522673768334474 0.014238164068771592 0 0.023050825638721604 0.0082137366693315495 0 0.026125878636739094 0.0042607444625015652 0 0.023362669668618757 0.0055525950696745955 0 0.022245996865511122 0.0025148025252144392 0 0.025704828893905424 0.0037103319710162586 0 0.023362669668618757 0.0055525950696745955 0 0.019557255148255983 0.0069506200756336428 0 0.019256884306385003 0.0035452369600538765 0 0.023362669668618757 0.0055525950696745955 0 0.019256884306385003 0.0035452369600538765 0 0.022245996865511122 0.0025148025252144392 0 0.023362669668618757 0.0055525950696745955 0 -0.0049592851907884544 0.021727674498003426 0 -0.0045548095276342453 0.021985845857041223 0 -0.0049102989352252093 0.022012316495854348 0 -0.0041850437359907114 0.021390029933893228 0 -0.0045548095276342453 0.021985845857041223 0 -0.0050187719377784391 0.021219678662566861 0 -0.0049592851907884544 0.021727674498003426 0 -0.0045548095276342453 0.021985845857041223 0 -0.0050187719377784391 0.021219678662566861 0 -0.0054482116200001152 0.021065853545487533 0 -0.0050187719377784391 0.021219678662566861 0 -0.0053747014697184499 0.02155532522938728 0 -0.0049592851907884544 0.021727674498003426 0 -0.0050187719377784391 0.021219678662566861 0 -0.0053747014697184499 0.02155532522938728 0 -0.0054482116200001152 0.021065853545487533 0 -0.0053747014697184499 0.02155532522938728 0 -0.005750583038330849 0.021244612795518973 0 -0.0061917854841895088 0.021086615063787256 0 -0.005750583038330849 0.021244612795518973 0 -0.0056642332028182503 0.021559559766270799 0 -0.0053747014697184499 0.02155532522938728 0 -0.005750583038330849 0.021244612795518973 0 -0.0056642332028182503 0.021559559766270799 0 -0.0053747014697184499 0.02155532522938728 0 -0.0053789978138099803 0.021815101308827248 0 -0.0049102989352252093 0.022012316495854348 0 -0.0053747014697184499 0.02155532522938728 0 -0.0053789978138099803 0.021815101308827248 0 -0.0056642332028182503 0.021559559766270799 0 -0.0049592851907884544 0.021727674498003426 0 -0.0053747014697184499 0.02155532522938728 0 -0.0049102989352252093 0.022012316495854348 0 -0.004255294282860706 0.022143041113140832 0 -0.0049102989352252093 0.022012316495854348 0 -0.00499790669522649 0.022035548712550944 0 -0.004255294282860706 0.022143041113140832 0 -0.0054481416219404532 0.022049416471275469 0 -0.00499790669522649 0.022035548712550944 0 -0.004255294282860706 0.022143041113140832 0 -0.0049102989352252093 0.022012316495854348 0 -0.0044088123498494365 0.022220730622017747 0 -0.0053789978138099803 0.021815101308827248 0 -0.0049102989352252093 0.022012316495854348 0 -0.00499790669522649 0.022035548712550944 0 -0.0045548095276342453 0.021985845857041223 0 -0.0049102989352252093 0.022012316495854348 0 -0.0044088123498494365 0.022220730622017747 0 -0.0045548095276342453 0.021985845857041223 0 -0.0044088123498494365 0.022220730622017747 0 -0.0046637567685850513 0.02263072875776817 0 -0.0045548095276342453 0.021985845857041223 0 -0.0046637567685850513 0.02263072875776817 0 -0.0046527654923260477 0.022126599044020655 0 -0.0041850437359907114 0.021390029933893228 0 -0.0045548095276342453 0.021985845857041223 0 -0.0046527654923260477 0.022126599044020655 0 -0.0046527654923260477 0.022126599044020655 0 -0.0043784459379040764 0.023214611785230183 0 -0.0035067819155345844 0.022311090264333422 0 -0.0049879466310995659 0.022970263359271187 0 -0.0046637567685850513 0.02263072875776817 0 -0.0043784459379040764 0.023214611785230183 0 -0.0046637567685850513 0.02263072875776817 0 -0.0046527654923260477 0.022126599044020655 0 -0.0043784459379040764 0.023214611785230183 0 -0.0043784459379040764 0.023214611785230183 0 -0.004230340494500536 0.023596059050722627 0 -0.0018326730562585828 0.025046661812440821 0 -0.0049879466310995659 0.022970263359271187 0 -0.0043784459379040764 0.023214611785230183 0 -0.004230340494500536 0.023596059050722627 0 -0.004230340494500536 0.023596059050722627 0 -0.0046565334888393015 0.02364733015100887 0 -0.0018326730562585828 0.025046661812440821 0 -0.0049309595698020904 0.02324753956549239 0 -0.004230340494500536 0.023596059050722627 0 -0.0046565334888393015 0.02364733015100887 0 -0.00046792112690969401 0.027426677945376156 0 -0.00086319976727737687 0.026775879843482654 0 0.0017998442003187883 0.033121602033831091 0 -0.0018326730562585828 0.025046661812440821 0 0.0044136713284473588 0.027426639095196527 0 -0.0018326730562585828 0.025046661812440821 0 0.0044136713284473588 0.027426639095196527 0 0.003641559040331763 0.021707023950466947 0 -0.0018326730562585828 0.025046661812440821 0 -0.0035067819155345844 0.022311090264333422 0 0.003641559040331763 0.021707023950466947 0 -0.0043784459379040764 0.023214611785230183 0 -0.0018326730562585828 0.025046661812440821 0 -0.0035067819155345844 0.022311090264333422 0 -0.0035067819155345844 0.022311090264333422 0 -0.00079293449993399407 0.017398488616665257 0 -0.0048523060757835849 0.02098916428690465 0 0.0050596660847964572 0.017427438641812804 0 0.00023070074478377477 0.019332817734032802 0 -0.0035067819155345844 0.022311090264333422 0 -0.00079293449993399407 0.017398488616665257 0 0.003641559040331763 0.021707023950466947 0 0.0090310859381232417 0.017306994934817303 0 0.014925985343865827 0.014854076018620105 0 0.010985944646103295 0.011829062749756952 0 0.0090310859381232417 0.017306994934817303 0 0.0025494860276453271 0.019744664218683761 0 0.0054246302966614304 0.012647225961441754 0 0.0013801493512281815 0.015437592828858912 0 -0.0017263991873200052 0.017489259478956399 0 0.0025494860276453271 0.019744664218683761 0 0.0013801493512281815 0.015437592828858912 0 0.0025494860276453271 0.019744664218683761 0 0.0054246302966614304 0.012647225961441754 0 -0.0051385784783179768 0.017592825985088149 0 -0.0017263991873200052 0.017489259478956399 0 -0.00075729691915361007 0.011809773109782594 0 0.0013801493512281815 0.015437592828858912 0 -0.0017263991873200052 0.017489259478956399 0 -0.00075729691915361007 0.011809773109782594 0 -0.0041850437359907114 0.021390029933893228 0 -0.0040886776176978926 0.019178760507594261 0 -0.0017263991873200052 0.017489259478956399 0 -0.0041850437359907114 0.021390029933893228 0 -0.0017263991873200052 0.017489259478956399 0 0.0025494860276453271 0.019744664218683761 0 -0.0041850437359907114 0.021390029933893228 0 -0.0046527654923260477 0.022126599044020655 0 -0.0048523060757835849 0.02098916428690465 0 -0.0018654673028947368 0.020143290567179124 0 0.00023070074478377477 0.019332817734032802 0 -0.0046527654923260477 0.022126599044020655 0 -0.0035067819155345844 0.022311090264333422 0 -0.0048523060757835849 0.02098916428690465 0 0.029027012111920398 0.023071729709661353 0 0.02371696365752023 0.030216725629391802 0 0.023275249094862317 0.020373838421838441 0 0.022947505922525334 0.034091378698362602 0 0.026630061686851329 0.033434055491435889 0 0.02371696365752023 0.030216725629391802 0 0.02371696365752023 0.030216725629391802 0 0.017475612035415606 0.026257176052394793 0 0.014898383673234478 0.034670253021893686 0 0.016427700387977622 0.027955198281718063 0 0.011628015975610778 0.028548814256694092 0 0.022947505922525334 0.034091378698362602 0 0.02371696365752023 0.030216725629391802 0 0.017467955494509649 0.033373894486702353 0 0.02371696365752023 0.030216725629391802 0 0.017475612035415606 0.026257176052394793 0 0.023275249094862317 0.020373838421838441 0 0.017475612035415606 0.026257176052394793 0 0.010434716279046168 0.026755527581856016 0 0.014542034796850388 0.020164170141090336 0 0.017475612035415606 0.026257176052394793 0 0.010434716279046168 0.026755527581856016 0 0.014898383673234478 0.034670253021893686 0 0.010434716279046168 0.026755527581856016 0 0.014898383673234478 0.034670253021893686 0 0.0074710509922888959 0.032273700389418639 0 0.0052201173057872868 0.039400469336319424 0 0.0017998442003187883 0.033121602033831091 0 0.0074710509922888959 0.032273700389418639 0 0.0017998442003187883 0.033121602033831091 0 0.0074710509922888959 0.032273700389418639 0 0.0044136713284473588 0.027426639095196527 0 0.010434716279046168 0.026755527581856016 0 0.0044136713284473588 0.027426639095196527 0 0.003641559040331763 0.021707023950466947 0 0.010434716279046168 0.026755527581856016 0 0.0074710509922888959 0.032273700389418639 0 0.0044136713284473588 0.027426639095196527 0 0.003641559040331763 0.021707023950466947 0 0.008613506650776875 0.014027846302853331 0 0.014542034796850388 0.020164170141090336 0 0.0050596660847964572 0.017427438641812804 0 0.010955702767372077 0.015326119475322874 0 -0.00079293449993399407 0.017398488616665257 0 0.003641559040331763 0.021707023950466947 0 0.008613506650776875 0.014027846302853331 0 0.010955702767372077 0.015326119475322874 0 0.014534286100233247 0.014194534816051848 0 0.008613506650776875 0.014027846302853331 0 0.014542034796850388 0.020164170141090336 0 0.019871178342540187 0.012799312773130284 0 0.010434716279046168 0.026755527581856016 0 0.003641559040331763 0.021707023950466947 0 0.014542034796850388 0.020164170141090336 0 0.017475612035415606 0.026257176052394793 0 0.014542034796850388 0.020164170141090336 0 0.023275249094862317 0.020373838421838441 0 0.014542034796850388 0.020164170141090336 0 0.023275249094862317 0.020373838421838441 0 0.019871178342540187 0.012799312773130284 0 0.030002140088417728 0.017689478785435732 0 0.023275249094862317 0.020373838421838441 0 0.026744320089567265 0.013293921354143293 0 0.023275249094862317 0.020373838421838441 0 0.026744320089567265 0.013293921354143293 0 0.019871178342540187 0.012799312773130284 0 0.024809573144121064 0.0082077106089605625 0 0.019871178342540187 0.012799312773130284 0 0.020163011888949658 0.0055989820499264204 0 0.029329971471453969 0.0092220580036094062 0 0.024809573144121064 0.0082077106089605625 0 0.026744320089567265 0.013293921354143293 0 0.029329971471453969 0.0092220580036094062 0 0.028625176048360582 0.0054593263521845094 0 0.024809573144121064 0.0082077106089605625 0 0.024809573144121064 0.0082077106089605625 0 0.026744320089567265 0.013293921354143293 0 0.019871178342540187 0.012799312773130284 0 0.019871178342540187 0.012799312773130284 0 0.016466887543331123 0.0097514766134223635 0 0.020163011888949658 0.0055989820499264204 0 0.016466887543331123 0.0097514766134223635 0 0.01605815466932339 0.0053171321401532332 0 0.020163011888949658 0.0055989820499264204 0 0.014925985343865827 0.014854076018620105 0 0.019871178342540187 0.012799312773130284 0 0.016466887543331123 0.0097514766134223635 0 0.014925985343865827 0.014854076018620105 0 0.016466887543331123 0.0097514766134223635 0 0.010985944646103295 0.011829062749756952 0 0.016466887543331123 0.0097514766134223635 0 0.012622865914165253 0.0070478126227045421 0 0.010985944646103295 0.011829062749756952 0 0.016466887543331123 0.0097514766134223635 0 0.012622865914165253 0.0070478126227045421 0 0.01605815466932339 0.0053171321401532332 0 0.012622865914165253 0.0070478126227045421 0 0.013245034692262861 0.002808074299924045 0 0.01605815466932339 0.0053171321401532332 0 0.013245034692262861 0.002808074299924045 0 0.010371581520815626 0.00089205688809643636 0 0.01356568060025189 -0.0015340165681646182 0 0.013245034692262861 0.002808074299924045 0 0.017879277697543151 0.0012098153213940621 0 0.01356568060025189 -0.0015340165681646182 0 0.017879277697543151 0.0012098153213940621 0 0.01706337936074892 -0.0023714252502123282 0 0.01356568060025189 -0.0015340165681646182 0 0.017879277697543151 0.0012098153213940621 0 0.021891062821439902 -0.0024265640666761902 0 0.01706337936074892 -0.0023714252502123282 0 0.013245034692262861 0.002808074299924045 0 0.017879277697543151 0.0012098153213940621 0 0.01605815466932339 0.0053171321401532332 0 0.017879277697543151 0.0012098153213940621 0 0.01605815466932339 0.0053171321401532332 0 0.020163011888949658 0.0055989820499264204 0 0.017879277697543151 0.0012098153213940621 0 0.020163011888949658 0.0055989820499264204 0 0.02459211935459581 0.0022152804182125063 0 0.024809573144121064 0.0082077106089605625 0 0.020163011888949658 0.0055989820499264204 0 0.02459211935459581 0.0022152804182125063 0 0.017879277697543151 0.0012098153213940621 0 0.02459211935459581 0.0022152804182125063 0 0.021891062821439902 -0.0024265640666761902 0 0.02982418092733357 0.0010292458905553136 0 0.028370963249804121 -0.0038510768765451574 0 0.02459211935459581 0.0022152804182125063 0 0.028625176048360582 0.0054593263521845094 0 0.024809573144121064 0.0082077106089605625 0 0.02459211935459581 0.0022152804182125063 0 0.02982418092733357 0.0010292458905553136 0 0.028625176048360582 0.0054593263521845094 0 0.02459211935459581 0.0022152804182125063 0 0.0044105913451450819 0.0066681836979749949 0 0.0010820782806553646 0.0076405310262254609 0 0.00089043831898720201 0.010901391178306193 0 0.0044105913451450819 0.0066681836979749949 0 -0.00075729691915361007 0.011809773109782594 0 0.0054246302966614304 0.012647225961441754 0 0.0020311161633057287 0.0097558635053944659 0 1.5298437161832002e-06 0.012050859209103482 0 -0.0017752984368638394 0.0091900272446087412 0 0.0010820782806553646 0.0076405310262254609 0 0.00062399192976209095 0.0065317729550422665 0 -0.0017752984368638394 0.0091900272446087412 0 -0.00013121891464127182 0.0096032159877580334 0 -0.00075016679912856381 0.010684137517262084 0 -0.0017752984368638394 0.0091900272446087412 0 0.0010820782806553646 0.0076405310262254609 0 -0.00013121891464127182 0.0096032159877580334 0 0.0010820782806553646 0.0076405310262254609 0 -0.00013121891464127182 0.0096032159877580334 0 0.00089043831898720201 0.010901391178306193 0 -0.0015740366579484431 0.01229432048721355 0 -0.0026144045637280862 0.015528537813704515 0 0.00089043831898720201 0.010901391178306193 0 -0.0031492243857511844 0.015818421757943939 0 1.5298437161832002e-06 0.012050859209103482 0 -0.0015740366579484431 0.01229432048721355 0 0.00089043831898720201 0.010901391178306193 0 -0.00075016679912856381 0.010684137517262084 0 -0.00013121891464127182 0.0096032159877580334 0 0.00089043831898720201 0.010901391178306193 0 -0.00075016679912856381 0.010684137517262084 0 -0.0017752984368638394 0.0091900272446087412 0 -0.0015740366579484431 0.01229432048721355 0 -0.00075016679912856381 0.010684137517262084 0 0.0013801493512281815 0.015437592828858912 0 -0.00075729691915361007 0.011809773109782594 0 0.0054246302966614304 0.012647225961441754 0 0.0090310859381232417 0.017306994934817303 0 0.0054246302966614304 0.012647225961441754 0 0.010985944646103295 0.011829062749756952 0 0.0054246302966614304 0.012647225961441754 0 0.010985944646103295 0.011829062749756952 0 0.0082217953312616159 0.0075638163358864004 0 0.012622865914165253 0.0070478126227045421 0 0.010985944646103295 0.011829062749756952 0 0.0082217953312616159 0.0075638163358864004 0 0.0044105913451450819 0.0066681836979749949 0 0.0054246302966614304 0.012647225961441754 0 0.0082217953312616159 0.0075638163358864004 0 0.0044105913451450819 0.0066681836979749949 0 0.0082217953312616159 0.0075638163358864004 0 0.0056096978079167017 0.0039467705626586198 0 0.0082217953312616159 0.0075638163358864004 0 0.0056096978079167017 0.0039467705626586198 0 0.0095190383172460528 0.0037344403184401439 0 0.0056096978079167017 0.0039467705626586198 0 0.0095190383172460528 0.0037344403184401439 0 0.0076643970914562426 0.0014042015679683506 0 0.012622865914165253 0.0070478126227045421 0 0.0082217953312616159 0.0075638163358864004 0 0.0095190383172460528 0.0037344403184401439 0 0.012622865914165253 0.0070478126227045421 0 0.013245034692262861 0.002808074299924045 0 0.0095190383172460528 0.0037344403184401439 0 0.010371581520815626 0.00089205688809643636 0 0.0080638249540397819 -0.0016215776474284873 0 0.01356568060025189 -0.0015340165681646182 0 0.013245034692262861 0.002808074299924045 0 0.0095190383172460528 0.0037344403184401439 0 0.010371581520815626 0.00089205688809643636 0 0.0095190383172460528 0.0037344403184401439 0 0.010371581520815626 0.00089205688809643636 0 0.0076643970914562426 0.0014042015679683506 0 0.010371581520815626 0.00089205688809643636 0 0.0076643970914562426 0.0014042015679683506 0 0.0080638249540397819 -0.0016215776474284873 0 0.0056096978079167017 0.0039467705626586198 0 0.0076643970914562426 0.0014042015679683506 0 0.0050094874864822251 0.00069672160948526421 0 0.015464631912988374 0.00019372700345173644 0 0.026226580560334084 -0.0050909531152979748 0 0.0076643970914562426 0.0014042015679683506 0 0.0050094874864822251 0.00069672160948526421 0 0.0080638249540397819 -0.0016215776474284873 0 0.042392003049385715 -0.019162250588567745 0 0.041755326354913413 -0.014458965237099971 0 0.037551115899561088 -0.011281936574087994 0 0.02735341333470518 -0.0046850078250286848 0 0.036567147766366097 -0.0059809052865186204 0 0.0056096978079167017 0.0039467705626586198 0 0.0050094874864822251 0.00069672160948526421 0 0.0022473881779059468 0.0028178249013676251 0 0.0022473881779059468 0.0028178249013676251 0 0.00064679870591737227 0.0039211282844059513 0 0.0043375966564680778 -0.0027990060752479768 0 0.0060887069434944615 0.00024000524058473928 0 0.0022473881779059468 0.0028178249013676251 0 0.0043375966564680778 -0.0027990060752479768 0 0.015464631912988374 0.00019372700345173644 0 0.012153091311709783 0.0018184620579488006 0 0.0044105913451450819 0.0066681836979749949 0 0.0010820782806553646 0.0076405310262254609 0 0.0026279732865778257 0.0053597034303142603 0 0.0056096978079167017 0.0039467705626586198 0 0.0022473881779059468 0.0028178249013676251 0 0.0026279732865778257 0.0053597034303142603 0 0.0022473881779059468 0.0028178249013676251 0 0.0026279732865778257 0.0053597034303142603 0 0.00064679870591737227 0.0039211282844059513 0 0.0010820782806553646 0.0076405310262254609 0 0.0026279732865778257 0.0053597034303142603 0 0.00062399192976209095 0.0065317729550422665 0 0.0044105913451450819 0.0066681836979749949 0 0.0056096978079167017 0.0039467705626586198 0 0.0026279732865778257 0.0053597034303142603 0 0.023213571246589054 -0.0035227681348494154 0 0.02735341333470518 -0.0046850078250286848 0 0.04571347625145121 -0.020642789362032826 0 0.046199848699011753 -0.022994408894153096 0 0.042392003049385715 -0.019162250588567745 0 -0.0017752984368638394 0.0091900272446087412 0 0.00062399192976209095 0.0065317729550422665 0 0.00064679870591737227 0.0039211282844059513 0 0.0026279732865778257 0.0053597034303142603 0 0.00062399192976209095 0.0065317729550422665 0 0.00064679870591737227 0.0039211282844059513 0 0.04571347625145121 -0.020642789362032826 0 0.042392003049385715 -0.019162250588567745 0 0.045017546236039506 -0.017038380795137933 0 0.042392003049385715 -0.019162250588567745 0 0.045017546236039506 -0.017038380795137933 0 0.041755326354913413 -0.014458965237099971 0 0.047063032791440612 -0.014490979420179807 0 0.045061258049870261 -0.014127615717336967 0 0.046425731911844258 -0.010463584761407527 0 0.041755326354913413 -0.014458965237099971 0 0.045061258049870261 -0.014127615717336967 0 0.046425731911844258 -0.010463584761407527 0 0.047063032791440612 -0.014490979420179807 0 0.045017546236039506 -0.017038380795137933 0 0.045061258049870261 -0.014127615717336967 0 0.045017546236039506 -0.017038380795137933 0 0.041755326354913413 -0.014458965237099971 0 0.045061258049870261 -0.014127615717336967 0 0.041755326354913413 -0.014458965237099971 0 0.037551115899561088 -0.011281936574087994 0 0.046425731911844258 -0.010463584761407527 0 0.036567147766366097 -0.0059809052865186204 0 0.049465601861770805 -0.0075988777805475636 0 0.057971891783755058 -0.0096806694422270582 0 0.058208303943881982 -0.0093056809535878582 0 0.057599533486693451 -0.0093938605720813532 0 0.057667110923221569 -0.0098044733014183462 0 0.057971891783755058 -0.0096806694422270582 0 0.057599533486693451 -0.0093938605720813532 0 0.057971891783755058 -0.0096806694422270582 0 0.057803460516319988 -0.0097712484627701258 0 0.057922825552816103 -0.0097489597158977037 0 0.057667110923221569 -0.0098044733014183462 0 0.057803460516319988 -0.0097712484627701258 0 0.057700057249667841 -0.0098208095797349716 0 0.057667110923221569 -0.0098044733014183462 0 0.057971891783755058 -0.0096806694422270582 0 0.057803460516319988 -0.0097712484627701258 0 0.057971891783755058 -0.0096806694422270582 0 0.058935980337960887 -0.0095729834045124237 0 0.05812898254364713 -0.0098246836970900635 0 0.060117701047175405 -0.010248523405095024 0 0.060302566662337541 -0.010429588569622004 0 0.057971891783755058 -0.0096806694422270582 0 0.058208303943881982 -0.0093056809535878582 0 0.058935980337960887 -0.0095729834045124237 0 0.058208303943881982 -0.0093056809535878582 0 0.058278966008036795 -0.0087183493676357172 0 0.057599533486693451 -0.0093938605720813532 0 0.058208303943881982 -0.0093056809535878582 0 0.058278966008036795 -0.0087183493676357172 0 0.058935980337960887 -0.0095729834045124237 0 0.057214167998410378 -0.0057266072420686211 0 0.060931559306764402 -0.0054643646605398652 0 0.061385015435181677 -0.0081810997718212049 0 0.0060887069434944615 0.00024000524058473928 0 0.0043375966564680778 -0.0027990060752479768 0 0.010042982586192996 -0.0024629270177327876 0 0.036567147766366097 -0.0059809052865186204 0 0.026226580560334084 -0.0050909531152979748 0 0.026226580560334084 -0.0050909531152979748 0 0.018335118370623474 -0.0048109390912592798 0 0.0076004382943778729 -0.0019941393225627034 0 0.01356568060025189 -0.0015340165681646182 0 0.013623156305802755 -0.0062758068859443241 0 0.060931559306764402 -0.0054643646605398652 0 0.061385015435181677 -0.0081810997718212049 0 0.065213521728523169 -0.0088484542510901803 0 0.026226580560334084 -0.0050909531152979748 0 0.036996801560043244 -0.0085491946923828086 0 0.061385015435181677 -0.0081810997718212049 0 0.063364676867417355 -0.010461722056822031 0 0.065213521728523169 -0.0088484542510901803 0 0.061385015435181677 -0.0081810997718212049 0 0.059910720298254255 -0.010302900659012211 0 0.063364676867417355 -0.010461722056822031 0 0.036567147766366097 -0.0059809052865186204 0 0.045583689867526811 -0.012155537445824085 0 0.058278966008036795 -0.0087183493676357172 0 0.058935980337960887 -0.0095729834045124237 0 0.059910720298254255 -0.010302900659012211 0 0.058935980337960887 -0.0095729834045124237 0 0.059910720298254255 -0.010302900659012211 0 0.058342880061873895 -0.011346793919919813 0 0.057214167998410378 -0.0057266072420686211 0 0.061385015435181677 -0.0081810997718212049 0 0.059910720298254255 -0.010302900659012211 0 0.059910720298254255 -0.010302900659012211 0 0.059498009210869042 -0.012188248981698794 0 0.058342880061873895 -0.011346793919919813 0 0.059910720298254255 -0.010302900659012211 0 0.059498009210869042 -0.012188248981698794 0 0.061470225690655085 -0.011696070136099128 0 0.059498009210869042 -0.012188248981698794 0 0.061470225690655085 -0.011696070136099128 0 0.060209616792775013 -0.01357478845134035 0 0.059910720298254255 -0.010302900659012211 0 0.063364676867417355 -0.010461722056822031 0 0.061470225690655085 -0.011696070136099128 0 0.061470225690655085 -0.011696070136099128 0 0.063169078213358029 -0.012942012894595133 0 0.060209616792775013 -0.01357478845134035 0 0.063364676867417355 -0.010461722056822031 0 0.061470225690655085 -0.011696070136099128 0 0.063169078213358029 -0.012942012894595133 0 0.063364676867417355 -0.010461722056822031 0 0.063169078213358029 -0.012942012894595133 0 0.065607742371532843 -0.011399198759559095 0 0.063284143886628896 -0.010248744247359312 0 0.061860545121456487 -0.010414494568105215 0 0.066459478882729142 -0.011520434842122724 0 0.066516602495497498 -0.011181031372179413 0 0.067101039684125494 -0.011205458525326782 0 0.066516602495497498 -0.011181031372179413 0 0.067101039684125494 -0.011205458525326782 0 0.066858037694455447 -0.010934349523565243 0 0.063284143886628896 -0.010248744247359312 0 0.063514943903195106 -0.0097710264169822078 0 0.066459478882729142 -0.011520434842122724 0 0.066516602495497498 -0.011181031372179413 0 0.065967816640849289 -0.011376365641391361 0 0.062547904719316441 -0.010220424274230561 0 0.062579515614250111 -0.010089242104863658 0 0.06214172139991618 -0.010196414666507548 0 0.061860545121456487 -0.010414494568105215 0 0.061233586163849746 -0.010030932093277295 0 0.059498009210869042 -0.012188248981698794 0 0.060209616792775013 -0.01357478845134035 0 0.057599139074618548 -0.014162475136047863 0 0.063020914844847051 -0.009985456816254611 0 0.062547904719316441 -0.010220424274230561 0 0.062579515614250111 -0.010089242104863658 0 0.063514943903195106 -0.0097710264169822078 0 0.062372134538284073 -0.0094071659299766498 0 0.062547904719316441 -0.010220424274230561 0 0.06214172139991618 -0.010196414666507548 0 0.062078750136741703 -0.01045778452984765 0 0.057755937131334346 -0.0095171215701384659 0 0.05788656219719826 -0.0094567125236197837 0 0.057891417893234876 -0.0096660807522650927 0 0.061233586163849746 -0.010030932093277295 0 0.062372134538284073 -0.0094071659299766498 0 0.057755937131334346 -0.0095171215701384659 0 0.057975332268859189 -0.0089769193678683416 0 0.05788656219719826 -0.0094567125236197837 0 0.061091320055177617 -0.0080435843529064882 0 0.060525431337654798 -0.0081721931334880326 0 0.06102806988339337 -0.0083061070424225378 0 0.061233586163849746 -0.010030932093277295 0 0.060061645767368159 -0.0095739732147993289 0 0.057975332268859189 -0.0089769193678683416 0 0.05788656219719826 -0.0094567125236197837 0 0.058166797661962984 -0.0094048379783802163 0 0.05788656219719826 -0.0094567125236197837 0 0.057869305572438405 -0.0096786329207200796 0 0.057891417893234876 -0.0096660807522650927 0 0.057869305572438405 -0.0096786329207200796 0 0.057922825552816103 -0.0097489597158977037 0 0.057891417893234876 -0.0096660807522650927 0 0.05788656219719826 -0.0094567125236197837 0 0.057869305572438405 -0.0096786329207200796 0 0.058166797661962984 -0.0094048379783802163 0 0.057803460516319988 -0.0097712484627701258 0 0.057869305572438405 -0.0096786329207200796 0 0.057700057249667841 -0.0098208095797349716 0 0.057803460516319988 -0.0097712484627701258 0 0.057869305572438405 -0.0096786329207200796 0 0.057922825552816103 -0.0097489597158977037 0 0.061233586163849746 -0.010030932093277295 0 0.060302566662337541 -0.010429588569622004 0 0.059498009210869042 -0.012188248981698794 0 0.057599139074618548 -0.014162475136047863 0 0.058342880061873895 -0.011346793919919813 0 0.057971891783755058 -0.0096806694422270582 0 0.057922825552816103 -0.0097489597158977037 0 0.05812898254364713 -0.0098246836970900635 0 0.057922825552816103 -0.0097489597158977037 0 0.05812898254364713 -0.0098246836970900635 0 0.057891417893234876 -0.0096660807522650927 0 0.057755937131334346 -0.0095171215701384659 0 0.05812898254364713 -0.0098246836970900635 0 0.057891417893234876 -0.0096660807522650927 0 0.028370963249804121 -0.0038510768765451574 0 0.027963976287474743 -0.0091738163896735864 0 0.023360311544179471 -0.0075767938203077775 0 0.028370963249804121 -0.0038510768765451574 0 0.021891062821439902 -0.0024265640666761902 0 0.023360311544179471 -0.0075767938203077775 0 0.028370963249804121 -0.0038510768765451574 0 0.02459211935459581 0.0022152804182125063 0 0.021891062821439902 -0.0024265640666761902 0 0.021891062821439902 -0.0024265640666761902 0 0.023360311544179471 -0.0075767938203077775 0 0.018457983680461847 -0.0058614431674197508 0 0.023360311544179471 -0.0075767938203077775 0 0.018457983680461847 -0.0058614431674197508 0 0.019764939891348008 -0.010751201367660944 0 0.018457983680461847 -0.0058614431674197508 0 0.013623156305802755 -0.0062758068859443241 0 0.019764939891348008 -0.010751201367660944 0 0.065213521728523169 -0.0088484542510901803 0 0.065555986944297873 -0.010282162301313676 0 0.066538567389833964 -0.011164857694217335 0 0.036996801560043244 -0.0085491946923828086 0 0.042719802495352455 -0.010440045032799546 0 0.018457983680461847 -0.0058614431674197508 0 0.01706337936074892 -0.0023714252502123282 0 0.013623156305802755 -0.0062758068859443241 0 0.021891062821439902 -0.0024265640666761902 0 0.018457983680461847 -0.0058614431674197508 0 0.01706337936074892 -0.0023714252502123282 0 0.01706337936074892 -0.0023714252502123282 0 0.01356568060025189 -0.0015340165681646182 0 0.013623156305802755 -0.0062758068859443241 0 0.063364676867417355 -0.010461722056822031 0 0.065213521728523169 -0.0088484542510901803 0 0.065555986944297873 -0.010282162301313676 0 0.063364676867417355 -0.010461722056822031 0 0.065555986944297873 -0.010282162301313676 0 0.065607742371532843 -0.011399198759559095 0 0.065555986944297873 -0.010282162301313676 0 0.065607742371532843 -0.011399198759559095 0 0.066024638624158083 -0.01109598063943015 0 0.065607742371532843 -0.011399198759559095 0 0.065967816640849289 -0.011376365641391361 0 0.066024638624158083 -0.01109598063943015 0 0.063284143886628896 -0.010248744247359312 0 0.063659536543649864 -0.010242393056864352 0 0.066459478882729142 -0.011520434842122724 0 0.065607742371532843 -0.011399198759559095 0 0.065967816640849289 -0.011376365641391361 0 0.065967816640849289 -0.011376365641391361 0 0.066044879044970167 -0.011235391509019213 0 0.066024638624158083 -0.01109598063943015 0 0.066516602495497498 -0.011181031372179413 0 0.065967816640849289 -0.011376365641391361 0 0.066044879044970167 -0.011235391509019213 0 0.066516602495497498 -0.011181031372179413 0 0.066044879044970167 -0.011235391509019213 0 0.066385358099856087 -0.010992355151074369 0 0.068272730825210459 -0.0099503646171782024 0 0.068972493304439039 -0.0092768221588154665 0 0.066044879044970167 -0.011235391509019213 0 0.066024638624158083 -0.01109598063943015 0 0.065815637345845987 -0.011155225666139327 0 0.065555986944297873 -0.010282162301313676 0 0.066538567389833964 -0.011164857694217335 0 0.066024638624158083 -0.01109598063943015 0 0.066538567389833964 -0.011164857694217335 0 0.066024638624158083 -0.01109598063943015 0 0.066540193415804902 -0.01100146587322047 0 0.042719802495352455 -0.010440045032799546 0 0.047266378387286256 -0.011440502950257276 0 0.023360311544179471 -0.0075767938203077775 0 0.019764939891348008 -0.010751201367660944 0 0.026141301685793573 -0.015216188837928527 0 0.066538567389833964 -0.011164857694217335 0 0.066089565935006464 -0.011121346095758277 0 0.066540193415804902 -0.01100146587322047 0 0.030611661939807321 -0.012113585529179204 0 0.027963976287474743 -0.0091738163896735864 0 0.026141301685793573 -0.015216188837928527 0 0.027963976287474743 -0.0091738163896735864 0 0.023360311544179471 -0.0075767938203077775 0 0.026141301685793573 -0.015216188837928527 0 0.065914258712245294 -0.010294441156370293 0 0.066171112191225817 -0.010371551445341418 0 0.066112463956923051 -0.01004623452753595 0 0.066171112191225817 -0.010371551445341418 0 0.066253356987746717 -0.010155949534890287 0 0.066112463956923051 -0.01004623452753595 0 0.065914258712245294 -0.010294441156370293 0 0.066171112191225817 -0.010371551445341418 0 0.066098433806847504 -0.010692734681038952 0 0.065772680978667328 -0.010644889408850508 0 0.065914258712245294 -0.010294441156370293 0 0.066098433806847504 -0.010692734681038952 0 0.065772680978667328 -0.010644889408850508 0 0.066089565935006464 -0.011121346095758277 0 0.066098433806847504 -0.010692734681038952 0 0.066089565935006464 -0.011121346095758277 0 0.066098433806847504 -0.010692734681038952 0 0.066540193415804902 -0.01100146587322047 0 0.066171112191225817 -0.010371551445341418 0 0.066098433806847504 -0.010692734681038952 0 0.066540193415804902 -0.01100146587322047 0 0.071184850679933062 -0.0058148609785778878 0 0.068972493304439039 -0.0092768221588154665 0 0.066171112191225817 -0.010371551445341418 0 0.066445527494224277 -0.010265848692585254 0 0.066540193415804902 -0.01100146587322047 0 0.065183408512179658 -0.010061850096806541 0 0.065567430171445243 -0.01033807162948462 0 0.065815637345845987 -0.011155225666139327 0 0.066171112191225817 -0.010371551445341418 0 0.066445527494224277 -0.010265848692585254 0 0.066253356987746717 -0.010155949534890287 0 0.065183408512179658 -0.010061850096806541 0 0.06533519282452413 -0.01002357391409224 0 0.065406376898349022 -0.010126599841872396 0 0.065183408512179658 -0.010061850096806541 0 0.06533519282452413 -0.01002357391409224 0 0.065427608361922324 -0.0097994330713294733 0 0.06533519282452413 -0.01002357391409224 0 0.065516740554650441 -0.010055901021304891 0 0.065427608361922324 -0.0097994330713294733 0 0.06533519282452413 -0.01002357391409224 0 0.065516740554650441 -0.010055901021304891 0 0.065406376898349022 -0.010126599841872396 0 0.065183408512179658 -0.010061850096806541 0 0.065406376898349022 -0.010126599841872396 0 0.065567430171445243 -0.01033807162948462 0 0.065516740554650441 -0.010055901021304891 0 0.065406376898349022 -0.010126599841872396 0 0.065567430171445243 -0.01033807162948462 0 0.065716526443952525 -0.010161707403955455 0 0.065720219030801857 -0.0098999105102399801 0 0.066138167504656176 -0.0099751464932312933 0 0.065516740554650441 -0.010055901021304891 0 0.065716526443952525 -0.010161707403955455 0 0.065567430171445243 -0.01033807162948462 0 0.065516740554650441 -0.010055901021304891 0 0.065716526443952525 -0.010161707403955455 0 0.065720219030801857 -0.0098999105102399801 0 0.065516740554650441 -0.010055901021304891 0 0.065720219030801857 -0.0098999105102399801 0 0.065427608361922324 -0.0097994330713294733 0 0.066138167504656176 -0.0099751464932312933 0 0.065962940983009505 -0.010349141316913524 0 0.066387353296443907 -0.01037338842187951 0 0.065716526443952525 -0.010161707403955455 0 0.066138167504656176 -0.0099751464932312933 0 0.065962940983009505 -0.010349141316913524 0 0.065962940983009505 -0.010349141316913524 0 0.066058267233263468 -0.010879618143024466 0 0.066387353296443907 -0.01037338842187951 0 0.065716526443952525 -0.010161707403955455 0 0.065962940983009505 -0.010349141316913524 0 0.065567430171445243 -0.01033807162948462 0 0.065962940983009505 -0.010349141316913524 0 0.065567430171445243 -0.01033807162948462 0 0.066058267233263468 -0.010879618143024466 0 0.066044879044970167 -0.011235391509019213 0 0.065815637345845987 -0.011155225666139327 0 0.066058267233263468 -0.010879618143024466 0 0.065567430171445243 -0.01033807162948462 0 0.065815637345845987 -0.011155225666139327 0 0.066058267233263468 -0.010879618143024466 0 0.066058267233263468 -0.010879618143024466 0 0.0664811350690971 -0.010700612758205753 0 0.066387353296443907 -0.01037338842187951 0 0.066058267233263468 -0.010879618143024466 0 0.066385358099856087 -0.010992355151074369 0 0.0664811350690971 -0.010700612758205753 0 0.066044879044970167 -0.011235391509019213 0 0.066058267233263468 -0.010879618143024466 0 0.066385358099856087 -0.010992355151074369 0 0.066385358099856087 -0.010992355151074369 0 0.0664811350690971 -0.010700612758205753 0 0.066858037694455447 -0.010934349523565243 0 0.06732140470702315 -0.0099829688701421875 0 0.067724123764691752 -0.0093550203511818582 0 0.0664811350690971 -0.010700612758205753 0 0.066855346922804579 -0.010041931661861417 0 0.067761674267836566 -0.0095618890403308746 0 0.0664811350690971 -0.010700612758205753 0 0.066387353296443907 -0.01037338842187951 0 0.066855346922804579 -0.010041931661861417 0 0.066138167504656176 -0.0099751464932312933 0 0.066387353296443907 -0.01037338842187951 0 0.066855346922804579 -0.010041931661861417 0 0.066855346922804579 -0.010041931661861417 0 0.067617650446311725 -0.0090789370848675128 0 0.067761674267836566 -0.0095618890403308746 0 0.066855346922804579 -0.010041931661861417 0 0.066466798517638065 -0.0094373237128913146 0 0.067181202948728161 -0.0088470003758504747 0 0.067628864035684633 -0.0093103826552388309 0 0.067864077012355944 -0.0087149567837516064 0 0.066138167504656176 -0.0099751464932312933 0 0.066855346922804579 -0.010041931661861417 0 0.066466798517638065 -0.0094373237128913146 0 0.066466798517638065 -0.0094373237128913146 0 0.067181202948728161 -0.0088470003758504747 0 0.066315073037370845 -0.0088363843189647878 0 0.06749396510603109 -0.0076027714794252264 0 0.067181202948728161 -0.0088470003758504747 0 0.066702921779804886 -0.0081630238766582392 0 0.067181202948728161 -0.0088470003758504747 0 0.066702921779804886 -0.0081630238766582392 0 0.066315073037370845 -0.0088363843189647878 0 0.066702921779804886 -0.0081630238766582392 0 0.066315073037370845 -0.0088363843189647878 0 0.065746805670710798 -0.0082603125477523614 0 0.066315073037370845 -0.0088363843189647878 0 0.065746805670710798 -0.0082603125477523614 0 0.065615846642347916 -0.0090508986733280495 0 0.065615846642347916 -0.0090508986733280495 0 0.065878153682825055 -0.0094786796855337446 0 0.065322266190157116 -0.0094961701071555483 0 0.066466798517638065 -0.0094373237128913146 0 0.066315073037370845 -0.0088363843189647878 0 0.065878153682825055 -0.0094786796855337446 0 0.066315073037370845 -0.0088363843189647878 0 0.065615846642347916 -0.0090508986733280495 0 0.065878153682825055 -0.0094786796855337446 0 0.065720219030801857 -0.0098999105102399801 0 0.066138167504656176 -0.0099751464932312933 0 0.065878153682825055 -0.0094786796855337446 0 0.066138167504656176 -0.0099751464932312933 0 0.066466798517638065 -0.0094373237128913146 0 0.065878153682825055 -0.0094786796855337446 0 0.065720219030801857 -0.0098999105102399801 0 0.065878153682825055 -0.0094786796855337446 0 0.065427608361922324 -0.0097994330713294733 0 0.065878153682825055 -0.0094786796855337446 0 0.065322266190157116 -0.0094961701071555483 0 0.065427608361922324 -0.0097994330713294733 0 0.071290212882407944 -0.0047070197434466391 0 0.071502824481622582 -0.0052945406891414075 0 0.071624797703818091 -0.0051830852833492647 0 0.071184850679933062 -0.0058148609785778878 0 0.072341539981991859 -0.0032091570208451188 0 0.065183408512179658 -0.010061850096806541 0 0.065322266190157116 -0.0094961701071555483 0 0.064825716787895532 -0.0091697682802607035 0 0.065183408512179658 -0.010061850096806541 0 0.065322266190157116 -0.0094961701071555483 0 0.065427608361922324 -0.0097994330713294733 0 0.071184850679933062 -0.0058148609785778878 0 0.071980014598523212 -0.0042109110937813485 0 0.066445527494224277 -0.010265848692585254 0 0.066253356987746717 -0.010155949534890287 0 0.066253467245549036 -0.0099207376330220122 0 0.072341539981991859 -0.0032091570208451188 0 0.071980014598523212 -0.0042109110937813485 0 0.065615846642347916 -0.0090508986733280495 0 0.065322266190157116 -0.0094961701071555483 0 0.064825716787895532 -0.0091697682802607035 0 0.079547094311661112 0.0058060314769509862 0 0.078521140340905612 0.008761749522816312 0 0.078135239158762249 0.0066949217009774154 0 0.076377247258286596 0.0068725989184910989 0 0.078521140340905612 0.008761749522816312 0 0.078135239158762249 0.0066949217009774154 0 0.065746805670710798 -0.0082603125477523614 0 0.065615846642347916 -0.0090508986733280495 0 0.064825716787895532 -0.0091697682802607035 0 0.071787926355038306 -0.0022025200968885292 0 0.072341539981991859 -0.0032091570208451188 0 0.079547094311661112 0.0058060314769509862 0 0.078786893644772107 0.0079311712352805874 0 0.079916937625880341 0.00704723865248893 0 0.072933304679301161 0.0014941338744678049 0 0.072341539981991859 -0.0032091570208451188 0 0.073150089511318794 -0.0017076071033184678 0 0.071980014598523212 -0.0042109110937813485 0 0.08086318765165583 0.0058220824034334769 0 0.080206169503652322 0.0058571201642647558 0 0.079916937625880341 0.00704723865248893 0 0.074543424342449927 0.00041938649195618792 0 0.073150089511318794 -0.0017076071033184678 0 0.065768596493224099 -0.0098256524191846478 0 0.066055157201134168 -0.0094914786492113819 0 0.06605239694698796 -0.0097712498916448735 0 0.065768596493224099 -0.0098256524191846478 0 0.06605239694698796 -0.0097712498916448735 0 0.066112463956923051 -0.01004623452753595 0 0.065768596493224099 -0.0098256524191846478 0 0.065914258712245294 -0.010294441156370293 0 0.066112463956923051 -0.01004623452753595 0 0.06605239694698796 -0.0097712498916448735 0 0.066306603536330028 -0.0098755007788335642 0 0.066112463956923051 -0.01004623452753595 0 0.078786893644772107 0.0079311712352805874 0 0.079916937625880341 0.00704723865248893 0 0.079082106885226017 0.0081990551028159591 0 0.066055157201134168 -0.0094914786492113819 0 0.06605239694698796 -0.0097712498916448735 0 0.066306603536330028 -0.0098755007788335642 0 0.066253356987746717 -0.010155949534890287 0 0.066253467245549036 -0.0099207376330220122 0 0.066112463956923051 -0.01004623452753595 0 0.071980014598523212 -0.0042109110937813485 0 0.071393376731268304 -0.0047602630003140706 0 0.067309725962629394 -0.010734207623908009 0 0.067513460423845484 -0.010582485279643427 0 0.067348983563833689 -0.010409583867400572 0 0.064434286224107101 -0.00936834659196727 0 0.062372134538284073 -0.0094071659299766498 0 0.067309725962629394 -0.010734207623908009 0 0.067092066690656801 -0.010690013411842057 0 0.067348983563833689 -0.010409583867400572 0 0.067309725962629394 -0.010734207623908009 0 0.067513460423845484 -0.010582485279643427 0 0.067412578172828017 -0.011025469574685493 0 0.061179964364587405 -0.0086434551239260842 0 0.06099010100724761 -0.0085849458417312056 0 0.061039623637661883 -0.008337344958696178 0 0.061179964364587405 -0.0086434551239260842 0 0.06099010100724761 -0.0085849458417312056 0 0.061062155412051226 -0.0086943381806091746 0 0.060525431337654798 -0.0081721931334880326 0 0.060499414261729959 -0.0085657162147356088 0 0.06102806988339337 -0.0083061070424225378 0 0.061179964364587405 -0.0086434551239260842 0 0.061039623637661883 -0.008337344958696178 0 0.061325141933853751 -0.0081944486601634343 0 0.061526278692666858 -0.0092628793310704106 0 0.062372134538284073 -0.0094071659299766498 0 0.067309725962629394 -0.010734207623908009 0 0.067412578172828017 -0.011025469574685493 0 0.067166310775746724 -0.010936828088213935 0 0.067101039684125494 -0.011205458525326782 0 0.067412578172828017 -0.011025469574685493 0 0.067166310775746724 -0.010936828088213935 0 0.067166310775746724 -0.010936828088213935 0 0.066858037694455447 -0.010934349523565243 0 0.067092066690656801 -0.010690013411842057 0 0.067101039684125494 -0.011205458525326782 0 0.067166310775746724 -0.010936828088213935 0 0.066858037694455447 -0.010934349523565243 0 0.0664811350690971 -0.010700612758205753 0 0.066858037694455447 -0.010934349523565243 0 0.067385174855942628 -0.010163643654751784 0 0.066516602495497498 -0.011181031372179413 0 0.066385358099856087 -0.010992355151074369 0 0.066858037694455447 -0.010934349523565243 0 0.06714952207789307 -0.010134787177855717 0 0.067320420769228062 -0.0098202231555728249 0 0.0664811350690971 -0.010700612758205753 0 0.067385174855942628 -0.010163643654751784 0 0.067326044793783638 -0.0092981594766389456 0 0.066858037694455447 -0.010934349523565243 0 0.067385174855942628 -0.010163643654751784 0 0.068359675764644745 -0.010222485930253948 0 0.067309725962629394 -0.010734207623908009 0 0.067166310775746724 -0.010936828088213935 0 0.067092066690656801 -0.010690013411842057 0 0.067385174855942628 -0.010163643654751784 0 0.068359675764644745 -0.010222485930253948 0 0.068083301529681575 -0.0095278364518818388 0 0.067320420769228062 -0.0098202231555728249 0 0.067388822573659718 -0.0091678538250870439 0 0.068083301529681575 -0.0095278364518818388 0 0.068511025321302002 -0.0088732568204427324 0 0.069490473679732365 -0.0092319350939628324 0 0.068359675764644745 -0.010222485930253948 0 0.068083301529681575 -0.0095278364518818388 0 0.069490473679732365 -0.0092319350939628324 0 0.068083301529681575 -0.0095278364518818388 0 0.067326044793783638 -0.0092981594766389456 0 0.068511025321302002 -0.0088732568204427324 0 0.067385174855942628 -0.010163643654751784 0 0.068083301529681575 -0.0095278364518818388 0 0.067326044793783638 -0.0092981594766389456 0 0.068741635047503621 -0.0084223500592731544 0 0.068179899391555845 -0.0081429218554677704 0 0.067617650446311725 -0.0090789370848675128 0 0.068379943634199011 -0.0083809308501532429 0 0.067724123764691752 -0.0093550203511818582 0 0.068480240754000027 -0.0079755168162275372 0 0.067326044793783638 -0.0092981594766389456 0 0.068511025321302002 -0.0088732568204427324 0 0.068741635047503621 -0.0084223500592731544 0 0.067617650446311725 -0.0090789370848675128 0 0.067761674267836566 -0.0095618890403308746 0 0.068463772865602249 -0.0072561741672919743 0 0.067864077012355944 -0.0087149567837516064 0 0.068480240754000027 -0.0079755168162275372 0 0.068511025321302002 -0.0088732568204427324 0 0.068845158384557487 -0.0082834419851136286 0 0.068511025321302002 -0.0088732568204427324 0 0.069324906911024595 -0.008435925152210819 0 0.069490473679732365 -0.0092319350939628324 0 0.068511025321302002 -0.0088732568204427324 0 0.068845158384557487 -0.0082834419851136286 0 0.069324906911024595 -0.008435925152210819 0 0.069119000986776369 -0.0080026045511377552 0 0.068845158384557487 -0.0082834419851136286 0 0.069324906911024595 -0.008435925152210819 0 0.067388822573659718 -0.0091678538250870439 0 0.066704016765210886 -0.0085311143519356293 0 0.069324906911024595 -0.008435925152210819 0 0.069490473679732365 -0.0092319350939628324 0 0.07021421564218619 -0.0083538219186716865 0 0.069548717504590393 -0.0078159126976387015 0 0.069324906911024595 -0.008435925152210819 0 0.07021421564218619 -0.0083538219186716865 0 0.067513460423845484 -0.010582485279643427 0 0.067348983563833689 -0.010409583867400572 0 0.06761651141183822 -0.010127335173210527 0 0.061179964364587405 -0.0086434551239260842 0 0.061165752767390107 -0.0086425907257723453 0 0.061062155412051226 -0.0086943381806091746 0 0.064434286224107101 -0.00936834659196727 0 0.066704016765210886 -0.0085311143519356293 0 0.061165752767390107 -0.0086425907257723453 0 0.061301822961907261 -0.0086496966544753699 0 0.061795471055868065 -0.0085530124091368655 0 0.061301822961907261 -0.0086496966544753699 0 0.061795471055868065 -0.0085530124091368655 0 0.061226556882838443 -0.0085117210200394873 0 0.06175900323523708 -0.0084030242190648446 0 0.061795471055868065 -0.0085530124091368655 0 0.061226556882838443 -0.0085117210200394873 0 0.061301822961907261 -0.0086496966544753699 0 0.060822458352557826 -0.0086146291616671124 0 0.061226556882838443 -0.0085117210200394873 0 0.061165752767390107 -0.0086425907257723453 0 0.061301822961907261 -0.0086496966544753699 0 0.061062155412051226 -0.0086943381806091746 0 0.061301822961907261 -0.0086496966544753699 0 0.060822458352557826 -0.0086146291616671124 0 0.061062155412051226 -0.0086943381806091746 0 0.061526278692666858 -0.0092628793310704106 0 0.061250136594189791 -0.0092310100908981861 0 0.060822458352557826 -0.0086146291616671124 0 0.061062155412051226 -0.0086943381806091746 0 0.060499907226593139 -0.0085846265255155128 0 0.06099010100724761 -0.0085849458417312056 0 0.061039623637661883 -0.008337344958696178 0 0.060499907226593139 -0.0085846265255155128 0 0.06099010100724761 -0.0085849458417312056 0 0.061062155412051226 -0.0086943381806091746 0 0.060499907226593139 -0.0085846265255155128 0 0.060822458352557826 -0.0086146291616671124 0 0.060499907226593139 -0.0085846265255155128 0 0.060298051594412698 -0.0085402526015109347 0 0.060499907226593139 -0.0085846265255155128 0 0.060298051594412698 -0.0085402526015109347 0 0.059614107323050933 -0.0084825551399808612 0 0.060298051594412698 -0.0085402526015109347 0 0.059614107323050933 -0.0084825551399808612 0 0.059940855230866161 -0.0085309099581125664 0 0.060525431337654798 -0.0081721931334880326 0 0.059614107323050933 -0.0084825551399808612 0 0.060272782153025277 -0.0085279807452167504 0 0.060499414261729959 -0.0085657162147356088 0 0.060499907226593139 -0.0085846265255155128 0 0.060272782153025277 -0.0085279807452167504 0 0.060499907226593139 -0.0085846265255155128 0 0.059614107323050933 -0.0084825551399808612 0 0.060272782153025277 -0.0085279807452167504 0 0.060061645767368159 -0.0095739732147993289 0 0.059877504073530992 -0.009396799125972256 0 0.060525431337654798 -0.0081721931334880326 0 0.060499414261729959 -0.0085657162147356088 0 0.060272782153025277 -0.0085279807452167504 0 0.060075553237629808 -0.008541923127666393 0 0.059940855230866161 -0.0085309099581125664 0 0.059849950481081167 -0.0087111943777123096 0 0.060075553237629808 -0.008541923127666393 0 0.059940855230866161 -0.0085309099581125664 0 0.060709030599802753 -0.008637445891436963 0 0.060298051594412698 -0.0085402526015109347 0 0.059940855230866161 -0.0085309099581125664 0 0.060709030599802753 -0.008637445891436963 0 0.060822458352557826 -0.0086146291616671124 0 0.060298051594412698 -0.0085402526015109347 0 0.060709030599802753 -0.008637445891436963 0 0.060075553237629808 -0.008541923127666393 0 0.060709030599802753 -0.008637445891436963 0 0.060161052497600877 -0.0086606859983567701 0 0.060790832482296248 -0.008978840892497307 0 0.060703315005226417 -0.0091756581249849735 0 0.060709030599802753 -0.008637445891436963 0 0.060386004966680035 -0.0093972225185022049 0 0.060161052497600877 -0.0086606859983567701 0 0.060709030599802753 -0.008637445891436963 0 0.061226556882838443 -0.0085117210200394873 0 0.061158139591305859 -0.008301487875699164 0 0.060822458352557826 -0.0086146291616671124 0 0.060709030599802753 -0.008637445891436963 0 0.061226556882838443 -0.0085117210200394873 0 0.06175900323523708 -0.0084030242190648446 0 0.061226556882838443 -0.0085117210200394873 0 0.061158139591305859 -0.008301487875699164 0 0.060455808363249444 -0.00972109986604704 0 0.060703315005226417 -0.0091756581249849735 0 0.059962308352911844 -0.010194054623972852 0 0.060386004966680035 -0.0093972225185022049 0 0.059575227709885208 -0.0094853952765457505 0 0.059575227709885208 -0.0094853952765457505 0 0.059900354651369649 -0.0089564619692639423 0 0.059462416374938043 -0.0087473323325581356 0 0.060386004966680035 -0.0093972225185022049 0 0.059900354651369649 -0.0089564619692639423 0 0.060161052497600877 -0.0086606859983567701 0 0.060386004966680035 -0.0093972225185022049 0 0.059575227709885208 -0.0094853952765457505 0 0.059900354651369649 -0.0089564619692639423 0 0.058388826884429181 -0.010000325694068361 0 0.058775558110572675 -0.0093001364796175337 0 0.058035809974283613 -0.0093307400940128762 0 0.0591664998772157 -0.010197235067791213 0 0.059575227709885208 -0.0094853952765457505 0 0.058978050940900598 -0.0097430379039913969 0 0.058388826884429181 -0.010000325694068361 0 0.058978050940900598 -0.0097430379039913969 0 0.058775558110572675 -0.0093001364796175337 0 0.059575227709885208 -0.0094853952765457505 0 0.058978050940900598 -0.0097430379039913969 0 0.058775558110572675 -0.0093001364796175337 0 0.059575227709885208 -0.0094853952765457505 0 0.058775558110572675 -0.0093001364796175337 0 0.059462416374938043 -0.0087473323325581356 0 0.058775558110572675 -0.0093001364796175337 0 0.05861785119853942 -0.0087673905958206462 0 0.059462416374938043 -0.0087473323325581356 0 0.058775558110572675 -0.0093001364796175337 0 0.058326265533952648 -0.0089733239184482637 0 0.058035809974283613 -0.0093307400940128762 0 0.05861785119853942 -0.0087673905958206462 0 0.058326265533952648 -0.0089733239184482637 0 0.058226832775124658 -0.008502747669959539 0 0.058775558110572675 -0.0093001364796175337 0 0.05861785119853942 -0.0087673905958206462 0 0.058326265533952648 -0.0089733239184482637 0 0.057853024652418622 -0.008852269081729227 0 0.058326265533952648 -0.0089733239184482637 0 0.058226832775124658 -0.008502747669959539 0 0.057853024652418622 -0.008852269081729227 0 0.058326265533952648 -0.0089733239184482637 0 0.058035809974283613 -0.0093307400940128762 0 0.054560225435648549 -0.0068501321721615377 0 0.058355101694546531 -0.0067179343095715499 0 0.057005837714703307 -0.0082420824918345154 0 0.052499673022802562 -0.012779314949584333 0 0.052810644121115947 -0.012432963584818966 0 0.058255305046702358 -0.0078428302287274158 0 0.057005837714703307 -0.0082420824918345154 0 0.058226832775124658 -0.008502747669959539 0 0.05861785119853942 -0.0087673905958206462 0 0.058255305046702358 -0.0078428302287274158 0 0.058226832775124658 -0.008502747669959539 0 0.059462416374938043 -0.0087473323325581356 0 0.059599749958429885 -0.0086462133271465128 0 0.059807248295005444 -0.0086061878890680132 0 0.052499673022802562 -0.012779314949584333 0 0.054933850019544317 -0.012672403838238457 0 0.05861785119853942 -0.0087673905958206462 0 0.058255305046702358 -0.0078428302287274158 0 0.059462416374938043 -0.0087473323325581356 0 0.059435058406329185 -0.0086921611562659866 0 0.059462416374938043 -0.0087473323325581356 0 0.059599749958429885 -0.0086462133271465128 0 0.052499673022802562 -0.012779314949584333 0 0.054446104496127856 -0.01433891605628553 0 0.059435058406329185 -0.0086921611562659866 0 0.059599749958429885 -0.0086462133271465128 0 0.059733837927953469 -0.0085343840036556495 0 0.059599749958429885 -0.0086462133271465128 0 0.059807248295005444 -0.0086061878890680132 0 0.059733837927953469 -0.0085343840036556495 0 0.04973580517560084 -0.024898869722887549 0 0.048966583868334163 -0.023270717059828971 0 0.050015122206768216 -0.02266214337618129 0 0.04973580517560084 -0.024898869722887549 0 0.050015122206768216 -0.02266214337618129 0 0.051640950578726912 -0.022720024350597879 0 0.048966583868334163 -0.023270717059828971 0 0.048943539659422636 -0.022372739422918515 0 0.050015122206768216 -0.02266214337618129 0 0.060161052497600877 -0.0086606859983567701 0 0.059903684716623606 -0.008668854284258929 0 0.060004908254299931 -0.0085755833923668191 0 0.059900354651369649 -0.0089564619692639423 0 0.060161052497600877 -0.0086606859983567701 0 0.059903684716623606 -0.008668854284258929 0 0.059900354651369649 -0.0089564619692639423 0 0.059462416374938043 -0.0087473323325581356 0 0.059903684716623606 -0.008668854284258929 0 0.059462416374938043 -0.0087473323325581356 0 0.059903684716623606 -0.008668854284258929 0 0.059807248295005444 -0.0086061878890680132 0 0.059807248295005444 -0.0086061878890680132 0 0.060004908254299931 -0.0085755833923668191 0 0.060004155215560885 -0.008583627273638544 0 0.059903684716623606 -0.008668854284258929 0 0.059807248295005444 -0.0086061878890680132 0 0.060004908254299931 -0.0085755833923668191 0 0.059807248295005444 -0.0086061878890680132 0 0.060004155215560885 -0.008583627273638544 0 0.059733837927953469 -0.0085343840036556495 0 0.060075553237629808 -0.008541923127666393 0 0.060004908254299931 -0.0085755833923668191 0 0.060014572228435079 -0.0086434883771531034 0 0.060075553237629808 -0.008541923127666393 0 0.060161052497600877 -0.0086606859983567701 0 0.060004908254299931 -0.0085755833923668191 0 0.060004908254299931 -0.0085755833923668191 0 0.060014572228435079 -0.0086434883771531034 0 0.060004155215560885 -0.008583627273638544 0 0.060014572228435079 -0.0086434883771531034 0 0.060004155215560885 -0.008583627273638544 0 0.060047783257491709 -0.0090007770296826311 0 0.059726266891211015 -0.0088625008984539681 0 0.05941960717194341 -0.0091322566949657534 0 0.060004155215560885 -0.008583627273638544 0 0.060139470642239234 -0.0087435674035665576 0 0.059733837927953469 -0.0085343840036556495 0 0.05609855530349557 -0.01436589035013091 0 0.054446104496127856 -0.01433891605628553 0 0.053598504361079026 -0.020563592706908676 0 0.051640950578726912 -0.022720024350597879 0 0.05193782762360321 -0.020868119238397854 0 0.053598504361079026 -0.020563592706908676 0 0.052452192570365812 -0.019527320628051563 0 0.053613609495900577 -0.018737218590394445 0 0.053598504361079026 -0.020563592706908676 0 0.052452192570365812 -0.019527320628051563 0 0.05193782762360321 -0.020868119238397854 0 0.060004155215560885 -0.008583627273638544 0 0.060139470642239234 -0.0087435674035665576 0 0.059787626245076886 -0.0088200423591473509 0 0.060139470642239234 -0.0087435674035665576 0 0.059787626245076886 -0.0088200423591473509 0 0.059993547082178182 -0.0098981945410453361 0 0.049363996397593084 -0.021557232801520058 0 0.048943539659422636 -0.022372739422918515 0 0.050015122206768216 -0.02266214337618129 0 0.049363996397593084 -0.021557232801520058 0 0.050772590122470852 -0.021393524423354283 0 0.049838805247911282 -0.020499805974194121 0 0.049363996397593084 -0.021557232801520058 0 0.050015122206768216 -0.02266214337618129 0 0.050772590122470852 -0.021393524423354283 0 0.050772590122470852 -0.021393524423354283 0 0.051640950578726912 -0.022720024350597879 0 0.05193782762360321 -0.020868119238397854 0 0.050015122206768216 -0.02266214337618129 0 0.050772590122470852 -0.021393524423354283 0 0.051640950578726912 -0.022720024350597879 0 0.052452192570365812 -0.019527320628051563 0 0.051227896834257249 -0.020118952772218156 0 0.051412492044019736 -0.018906273419655461 0 0.052452192570365812 -0.019527320628051563 0 0.05193782762360321 -0.020868119238397854 0 0.051227896834257249 -0.020118952772218156 0 0.050772590122470852 -0.021393524423354283 0 0.051227896834257249 -0.020118952772218156 0 0.049838805247911282 -0.020499805974194121 0 0.050772590122470852 -0.021393524423354283 0 0.05193782762360321 -0.020868119238397854 0 0.051227896834257249 -0.020118952772218156 0 0.051227896834257249 -0.020118952772218156 0 0.049838805247911282 -0.020499805974194121 0 0.050166472046801816 -0.019100366238845232 0 0.048768240380659258 -0.019847392712192029 0 0.049838805247911282 -0.020499805974194121 0 0.050166472046801816 -0.019100366238845232 0 0.048813728443572769 -0.020878131923193478 0 0.049363996397593084 -0.021557232801520058 0 0.049838805247911282 -0.020499805974194121 0 0.048768240380659258 -0.019847392712192029 0 0.048813728443572769 -0.020878131923193478 0 0.049838805247911282 -0.020499805974194121 0 0.048875081938487573 -0.018047721451893827 0 0.048768240380659258 -0.019847392712192029 0 0.050166472046801816 -0.019100366238845232 0 0.048875081938487573 -0.018047721451893827 0 0.050166472046801816 -0.019100366238845232 0 0.050905457879643422 -0.017724493262966989 0 0.050166472046801816 -0.019100366238845232 0 0.051412492044019736 -0.018906273419655461 0 0.050905457879643422 -0.017724493262966989 0 0.051227896834257249 -0.020118952772218156 0 0.050166472046801816 -0.019100366238845232 0 0.051412492044019736 -0.018906273419655461 0 0.052452192570365812 -0.019527320628051563 0 0.051412492044019736 -0.018906273419655461 0 0.052316979486751417 -0.018051598891875246 0 0.051412492044019736 -0.018906273419655461 0 0.050905457879643422 -0.017724493262966989 0 0.052316979486751417 -0.018051598891875246 0 0.05072681322488938 -0.01560659670526662 0 0.051985718723837067 -0.01655249287590313 0 0.050905457879643422 -0.017724493262966989 0 0.051985718723837067 -0.01655249287590313 0 0.050905457879643422 -0.017724493262966989 0 0.052316979486751417 -0.018051598891875246 0 0.029498354491667232 -0.015321543643427579 0 0.029514299464462351 -0.014365775907655058 0 0.048875081938487573 -0.018047721451893827 0 0.05072681322488938 -0.01560659670526662 0 0.050905457879643422 -0.017724493262966989 0 0.01032858061026817 -0.014356680454123624 0 0.0099934849060172321 -0.0135190077615545 0 0.0089249252306254703 -0.015173634977083184 0 0.05609855530349557 -0.01436589035013091 0 0.057074513798310481 -0.014362925516199136 0 0.053598504361079026 -0.020563592706908676 0 0.055658180716603438 -0.018370867410251995 0 0.053613609495900577 -0.018737218590394445 0 0.055658180716603438 -0.018370867410251995 0 0.053613609495900577 -0.018737218590394445 0 0.053989372788015848 -0.01716633805727898 0 0.052452192570365812 -0.019527320628051563 0 0.053613609495900577 -0.018737218590394445 0 0.052316979486751417 -0.018051598891875246 0 0.053613609495900577 -0.018737218590394445 0 0.052316979486751417 -0.018051598891875246 0 0.053989372788015848 -0.01716633805727898 0 0.053454336154401295 -0.015358405778775702 0 0.051985718723837067 -0.01655249287590313 0 0.053989372788015848 -0.01716633805727898 0 0.051985718723837067 -0.01655249287590313 0 0.052316979486751417 -0.018051598891875246 0 0.053989372788015848 -0.01716633805727898 0 0.055658180716603438 -0.018370867410251995 0 0.053989372788015848 -0.01716633805727898 0 0.055793196892247716 -0.016763956053408861 0 0.054854973759961581 -0.015993951827980388 0 0.053454336154401295 -0.015358405778775702 0 0.053989372788015848 -0.01716633805727898 0 0.054854973759961581 -0.015993951827980388 0 0.053989372788015848 -0.01716633805727898 0 0.055793196892247716 -0.016763956053408861 0 0.054854973759961581 -0.015993951827980388 0 0.056507953080061048 -0.015932754534614187 0 0.055793196892247716 -0.016763956053408861 0 0.056965717127891793 -0.015181652776891831 0 0.057074513798310481 -0.014362925516199136 0 0.057658741299956677 -0.015738977317644981 0 0.056507953080061048 -0.015932754534614187 0 0.055793196892247716 -0.016763956053408861 0 0.057658741299956677 -0.015738977317644981 0 0.055658180716603438 -0.018370867410251995 0 0.055793196892247716 -0.016763956053408861 0 0.058961176411050309 -0.012777916582063099 0 0.059993547082178182 -0.0098981945410453361 0 0.058321986096715323 -0.01123573864980075 0 0.059993547082178182 -0.0098981945410453361 0 0.058338595349334714 -0.0098316570090642326 0 0.058321986096715323 -0.01123573864980075 0 0.05941960717194341 -0.0091322566949657534 0 0.058385731916678778 -0.0099669880739433371 0 0.059787626245076886 -0.0088200423591473509 0 0.059993547082178182 -0.0098981945410453361 0 0.058338595349334714 -0.0098316570090642326 0 0.059485357795513089 -0.0097600016040952937 0 0.056055333416443844 -0.010960734925204326 0 0.057722724969000543 -0.0098490512042526002 0 0.059485357795513089 -0.0097600016040952937 0 0.057722724969000543 -0.0098490512042526002 0 0.058752305116623479 -0.0092512629355424921 0 0.059485357795513089 -0.0097600016040952937 0 0.056055333416443844 -0.010960734925204326 0 0.054920478649068537 -0.011926220995719407 0 0.058385731916678778 -0.0099669880739433371 0 0.057247051443590359 -0.010861335835075243 0 0.058338595349334714 -0.0098316570090642326 0 0.058321986096715323 -0.01123573864980075 0 0.056968046608006549 -0.012097204456124569 0 0.058338595349334714 -0.0098316570090642326 0 0.056968046608006549 -0.012097204456124569 0 0.054920478649068537 -0.011926220995719407 0 0.058321986096715323 -0.01123573864980075 0 0.057891946486231076 -0.012435903089216329 0 0.056968046608006549 -0.012097204456124569 0 0.058961176411050309 -0.012777916582063099 0 0.058321986096715323 -0.01123573864980075 0 0.057891946486231076 -0.012435903089216329 0 0.056954678295223049 -0.013919959470763705 0 0.057891946486231076 -0.012435903089216329 0 0.056968046608006549 -0.012097204456124569 0 0.055590485333121623 -0.01334271767386531 0 0.056363821024686116 -0.013501895536841257 0 0.056968046608006549 -0.012097204456124569 0 0.056055333416443844 -0.010960734925204326 0 0.054920478649068537 -0.011926220995719407 0 0.050291077904042601 -0.012774651812882148 0 0.055590485333121623 -0.01334271767386531 0 0.056968046608006549 -0.012097204456124569 0 0.054920478649068537 -0.011926220995719407 0 0.053964402618049495 -0.013841409396740174 0 0.054920478649068537 -0.011926220995719407 0 0.050291077904042601 -0.012774651812882148 0 0.052839721731165482 -0.008180119579764146 0 0.049465601861770805 -0.0075988777805475636 0 0.056055333416443844 -0.010960734925204326 0 0.057599533486693451 -0.0093938605720813532 0 0.057208977643566666 -0.010126194159685431 0 0.056055333416443844 -0.010960734925204326 0 0.046425731911844258 -0.010463584761407527 0 0.050291077904042601 -0.012774651812882148 0 0.047063032791440612 -0.014490979420179807 0 0.046425731911844258 -0.010463584761407527 0 0.050291077904042601 -0.012774651812882148 0 0.057208977643566666 -0.010126194159685431 0 0.057700057249667841 -0.0098208095797349716 0 0.058097906626383401 -0.0095646548419232591 0 0.057667110923221569 -0.0098044733014183462 0 0.057599533486693451 -0.0093938605720813532 0 0.057208977643566666 -0.010126194159685431 0 0.057667110923221569 -0.0098044733014183462 0 0.057208977643566666 -0.010126194159685431 0 0.057700057249667841 -0.0098208095797349716 0 0.056055333416443844 -0.010960734925204326 0 0.057208977643566666 -0.010126194159685431 0 0.057722724969000543 -0.0098490512042526002 0 0.057208977643566666 -0.010126194159685431 0 0.057722724969000543 -0.0098490512042526002 0 0.058097906626383401 -0.0095646548419232591 0 0.058097906626383401 -0.0095646548419232591 0 0.058166797661962984 -0.0094048379783802163 0 0.059018984359871442 -0.0089902146267208521 0 0.057722724969000543 -0.0098490512042526002 0 0.058097906626383401 -0.0095646548419232591 0 0.058752305116623479 -0.0092512629355424921 0 0.058097906626383401 -0.0095646548419232591 0 0.059018984359871442 -0.0089902146267208521 0 0.058752305116623479 -0.0092512629355424921 0 0.057869305572438405 -0.0096786329207200796 0 0.057700057249667841 -0.0098208095797349716 0 0.057941893626874318 -0.009614240652775349 0 0.057700057249667841 -0.0098208095797349716 0 0.058097906626383401 -0.0095646548419232591 0 0.057941893626874318 -0.009614240652775349 0 0.058097906626383401 -0.0095646548419232591 0 0.057941893626874318 -0.009614240652775349 0 0.058166797661962984 -0.0094048379783802163 0 0.057869305572438405 -0.0096786329207200796 0 0.057941893626874318 -0.009614240652775349 0 0.058166797661962984 -0.0094048379783802163 0 0.057975332268859189 -0.0089769193678683416 0 0.059614107323050933 -0.0084825551399808612 0 0.058166797661962984 -0.0094048379783802163 0 0.059614107323050933 -0.0084825551399808612 0 0.058166797661962984 -0.0094048379783802163 0 0.059018984359871442 -0.0089902146267208521 0 0.059614107323050933 -0.0084825551399808612 0 0.059940855230866161 -0.0085309099581125664 0 0.059018984359871442 -0.0089902146267208521 0 0.059940855230866161 -0.0085309099581125664 0 0.059415849167910997 -0.0088800059230937662 0 0.059849950481081167 -0.0087111943777123096 0 0.059940855230866161 -0.0085309099581125664 0 0.059018984359871442 -0.0089902146267208521 0 0.059415849167910997 -0.0088800059230937662 0 0.059415849167910997 -0.0088800059230937662 0 0.059849950481081167 -0.0087111943777123096 0 0.059552293086229072 -0.009060557409964299 0 0.060014572228435079 -0.0086434883771531034 0 0.060047783257491709 -0.0090007770296826311 0 0.059849950481081167 -0.0087111943777123096 0 0.060075553237629808 -0.008541923127666393 0 0.060014572228435079 -0.0086434883771531034 0 0.059849950481081167 -0.0087111943777123096 0 0.060047783257491709 -0.0090007770296826311 0 0.059485357795513089 -0.0097600016040952937 0 0.059552293086229072 -0.009060557409964299 0 0.060047783257491709 -0.0090007770296826311 0 0.059849950481081167 -0.0087111943777123096 0 0.059552293086229072 -0.009060557409964299 0 0.059485357795513089 -0.0097600016040952937 0 0.058752305116623479 -0.0092512629355424921 0 0.059552293086229072 -0.009060557409964299 0 0.059415849167910997 -0.0088800059230937662 0 0.058752305116623479 -0.0092512629355424921 0 0.059552293086229072 -0.009060557409964299 0 0.059018984359871442 -0.0089902146267208521 0 0.059415849167910997 -0.0088800059230937662 0 0.058752305116623479 -0.0092512629355424921 0 
</DataArray>
</PointData>
<CellData Scalars="region_id,cross_section_updated," Vectors="" Tensors="stress,">
<DataArray type="Float64" Name="region_id" format="ascii">
5 5 5 5 5 6 5 5 5 5 5 5 5 6 5 5 5 5 6 5 5 6 5 5 5 5 6 5 5 5 5 6 5 5 5 5 5 5 5 5 5 5 5 5 5 6 5 5 6 5 5 5 5 5 6 5 5 5 5 5 5 5 6 5 5 5 5 6 5 5 5 5 5 5 5 5 5 6 5 5 6 5 5 6 5 5 5 5 6 5 5 5 5 5 5 5 6 6 6 5 5 6 5 5 5 5 5 6 5 5 5 5 5 5 5 5 5 5 5 5 5 6 5 5 5 6 5 5 5 5 5 5 6 5 5 5 5 5 5 5 5 5 5 5 5 5 5 5 5 5 5 5 5 5 5 5 5 5 6 5 5 5 6 5 5 6 5 5 5 5 5 5 5 5 5 5 5 6 5 5 5 5 5 5 5 5 6 5 5 5 5 5 5 5 5 6 5 5 5 5 5 5 5 5 5 6 5 5 5 5 5 5 5 5 5 5 5 5 5 5 5 5 5 5 5 5 5 5 5 6 5 5 5 6 5 6 5 6 5 5 6 5 5 5 6 5 6 5 6 5 6 6 5 6 5 5 6 5 6 5 5 5 6 5 6 6 5 5 6 5 5 5 6 5 6 6 6 5 6 5 5 5 6 5 6 6 6 5 5 6 6 5 5 5 5 6 5 6 5 5 6 5 5 5 6 5 6 6 6 5 5 5 6 5 6 6 6 6 5 5 5 6 6 5 5 6 6 6 5 6 5 5 5 5 6 5 5 5 5 5 5 5 6 5 5 5 5 5 5 6 6 5 5 5 6 5 5 5 6 5 6 5 6 6 5 5 5 5 6 5 5 6 5 5 5 5 6 5 6 5 5 5 5 5 6 6 5 5 5 5 5 5 5 5 6 5 5 5 6 5 5 6 5 6 5 5 5 5 5 5 5 5 5 5 5 6 5 6 5 6 5 5 5 6 5 6 5 6 5 5 5 5 5 5 6 5 6 5 5 5 6 5 5 5 6 5 6 6 5 5 5 5 6 5 5 5 5 6 6 5 5 6 5 6 5 6 6 5 5 5 6 5 5 5 5 6 5 5 5 5 5 5 5 5 5 5 5 6 5 5 5 5 6 5 5 5 6 5 6 6 6 5 5 5 6 6 5 6 5 5 6 5 5 5 5 6 5 5 5 5 5 5 5 5 5 5 5 6 6 5 5 6 5 5 5 6 5 5 5 5 5 5 6 5 5 5 6 5 5 5 6 5 5 5 5 5 5 5 5 5 5 5 6 5 5 5 6 5 5 5 5 5 5 5 6 5 5 5 5 5 6 5 5 5 5 5 5 5 5 5 5 5 5 5 5 5 5 5 5 5 6 5 5 5 5 6 5 5 6 5 5 5 5 5 5 5 6 5 5 5 5 5 5 5 5 6 5 6 5 5 6 5 5 5 6 5 5 6 5 5 5 6 5 6 5 5 6 5 6 5 5 5 5 5 5 5 5 5 5 5 5 5 5 5 5 5 5 5 5 5 5 6 5 6 5 6 5 5 5 5 5 5 5 5 5 5 5 5 5 5 5 6 5 5 5 5 5 5 5 5 5 6 5 5 5 5 5 5 5 5 5 5 5 5 5 5 5 5 5 5 5 5 5 5 5 5 5 5 5 5 5 6 5 5 6 5 5 5 6 6 5 6 5 5 5 5 5 6 5 5 5 5 5 6 5 5 5 5 5 5 5 5 5 5 5 5 5 5 5 5 5 5 5 5 5 5 5 5 5 5 5 5 5 5 5 5 5 5 5 5 5 5 5 5 5 5 5 5 5 5 5 5 5 6 5 5 5 5 5 5 5 5 5 5 5 5 5 5 5 6 5 5 5 5 6 5 5 5 5 5 5 5 5 5 5 5 5 5 5 5 5 5 5 5 5 5 5 5 5 5 5 5 6 5 5 6 5 6 6 6 6 5 5 6 5 5 5 5 5 5 5 5 5 5 5 5 5 5 5 5 5 6 5 5 6 5 6 5 5 5 5 6 5 6 5 5 5 5 6 5 5 5 6 5 5 5 5 5 6 5 6 5 5 6 6 5 6 5 5 5 5 5 5 5 5 5 5 5 6 5 5 5 6 5 5 5 6 5 5 6 6 6 5 5 5 5 5 5 5 5 5 5 5 6 5 5 5 5 5 5 5 5 6 6 6 5 5 5 5 5 5 5 5 6 6 5 5 5 6 5 5 6 5 5 5 5 5 5 5 5 5 5 5 6 5 5 5 5 5 5 5 5 6 5 5 5 5 5 5 5 5 5 5 6 5 6 6 6 5 5 5 5 5 5 5 6 6 5 6 5 5 5 5 5 6 5 6 6 5 5 5 6 5 6 5 5 5 5 6 5 5 5 5 5 5 5 5 5 5 5 5 5 5 5 5 5 6 5 5 5 6 5 5 5 5 5 6 5 5 5 5 5 5 6 5 6 5 5 5 5 5 5 5 5 6 5 5 5 6 5 5 5 5 5 5 5 5 5 5 5 5 5 5 5 5 5 5 5 5 5 5 5 5 5 6 6 6 5 5 5 5 6 5 5 5 5 6 5 5 5 5 5 5 5 6 5 5 5 5 5 5 5 5 6 5 5 5 5 5 5 5 5 5 5 5 5 6 5 5 5 5 5 5 6 5 5 5 5 5 5 5 5 6 5 5 5 6 5 5 5 5 5 5 5 5 5 5 5 5 6 5 5 5 5 5 5 5 5 5 5 5 5 5 5 5 5 5 5 5 5 5 5 5 5 5 5 5 5 5 5 5 5 5 5 5 5 5 5 5 5 5 5 5 5 5 5 5 6 5 5 5 5 5 5 5 5 5 5 5 5 5 5 5 5 5 5 5 5 5 5 5 5 6 5 5 5 5 5 5 5 5 5 5 6 5 5 6 5 5 5 5 5 5 5 5 5 6 5 6 5 5 5 5 6 5 5 6 5 6 5 5 5 5 5 6 5 5 5 5 5 5 5 5 6 5 5 5 5 5 5 5 5 5 5 5 5 5 5 6 5 6 6 5 5 5 5 5 6 5 5 5 5 5 5 5 5 5 5 5 5 5 5 5 6 5 5 5 5 5 5 5 5 5 5 5 5 5 5 5 5 6 5 5 5 5 5 6 6 5 5 6 5 5 5 5 5 5 5 5 5 5 6 5 5 5 5 5 5 5 5 5 6 5 6 5 5 5 5 5 6 5 5 5 5 6 5 5 5 6 5 5 5 6 5 5 6 5 5 5 5 5 5 5 5 5 5 5 5 5 5 5 5 6 5 5 5 5 5 5 5 6 5 5 5 5 5 5 5 5 5 5 5 5 5 5 5 5 5 5 5 5 5 5 5 5 5 5 5 6 5 5 5 5 6 5 5 5 6 5 5 5 5 5 5 5 5 5 6 5 6 5 5 5 5 5 5 5 5 5 5 5 5 5 5 5 5 5 5 6 6 5 5 5 6 5 5 6 5 5 6 5 5 5 6 5 5 6 5 5 5 5 5 5 5 5 5 5 5 5 5 5 5 5 5 5 5 5 6 5 6 5 5 5 5 5 5 5 5 5 5 5 6 5 6 5 5 5 6 5 5 5 5 5 6 5 5 5 5 5 5 6 5 5 5 5 5 5 5 5 5 5 5 6 5 5 5 5 5 5 5 5 6 5 5 5 6 5 5 6 5 5 5 5 5 6 5 5 5 5 5 5 5 5 5 6 5 5 6 5 6 5 6 6 6 5 6 5 5 5 5 5 5 6 5 5 5 5 5 5 6 5 5 5 5 5 5 5 6 5 5 5 5 6 5 5 5 5 5 6 5 6 5 5 5 5 5 5 5 5 5 5 6 5 5 5 5 5 5 5 6 5 5 5 5 5 5 5 6 5 6 5 5 5 5 5 5 5 5 6 5 5 5 6 6 5 5 5 5 5 6 6 5 6 5 5 6 5 5 6 5 5 5 5 5 5 5 5 6 5 5 5 5 5 6 5 5 5 5 6 5 5 6 5 5 5 5 5 5 5 5 5 5 5 5 5 5 5 5 5 5 5 5 5 5 5 5 5 5 5 5 5 5 5 5 5 5 5 5 5 5 5 5 5 6 5 5 6 5 5 5 5 5 6 5 5 5 5 6 5 5 5 5 5 5 5 5 5 5 5 5 5 5 5 5 5 5 5 5 5 5 5 5 6 5 5 5 6 5 5 5 5 5 5 6 5 5 5 5 5 5 5 5 5 5 5 6 5 6 6 5 5 6 5 5 5 5 5 5 5 5 5 5 5 6 5 5 6 5 5 5 5 5 5 5 5 5 5 5 5 5 5 5 6 5 5 5 5 5 5 5 6 5 6 5 5 5 5 6 5 6 5 5 5 5 5 5 5 5 5 6 5 5 5 5 5 5 5 5 5 5 5 5 5 5 5 5 5 6 5 5 5 5 5 5 5 5 5 5 5 5 5 5 5 5 5 5 5 5 5 5 5 5 5 6 6 5 5 5 5 5 5 5 5 5 5 5 6 5 5 5 5 6 5 5 5 5 6 5 5 5 5 5 5 5 5 6 5 5 5 5 5 5 5 5 5 6 5 5 5 5 5 5 5 5 5 5 5 5 5 5 5 5 5 5 5 5 6 5 5 5 5 5 5 5 5 5 5 5 5 5 5 6 5 6 5 5 5 5 5 5 5 5 6 5 5 6 5 5 5 5 5 5 5 5 5 5 5 5 5 5 5 5 5 5 5 5 5 5 5 5 5 5 5 5 5 5 5 5 5 5 5 5 6 5 5 6 5 5 5 5 6 5 6 5 5 6 5 6 5 5 5 5 5 6 5 5 5 5 5 5 5 5 5 5 5 5 6 5 5 5 6 5 5 5 5 5 5 5 5 5 6 5 5 5 5 6 6 5 5 5 5 5 5 5 5 6 5 5 5 5 5 6 5 5 5 6 5 5 5 6 5 5 5 5 6 5 5 5 5 5 5 5 5 5 5 5 5 5 5 6 5 5 5 5 5 5 6 5 6 6 5 6 5 6 5 5 5 5 6 5 5 5 5 6 5 5 5 5 5 5 5 5 5 6 5 5 5 5 5 5 5 5 5 5 5 5 5 5 6 5 5 5 6 5 5 5 6 5 6 5 5 5 5 5 5 5 5 5 5 5 5 5 5 5 5 6 5 5 5 5 5 5 6 5 5 5 5 5 5 5 5 5 5 5 5 5 5 5 5 5 5 6 5 5 5 5 5 5 5 5 5 5 5 5 5 5 5 5 5 5 5 5 5 5 5 5 5 5 5 5 5 5 5 5 5 5 6 5 5 5 5 6 5 5 5 5 5 5 5 6 5 5 5 5 5 5 5 5 5 6 5 5 6 5 5 5 5 5 6 5 5 5 6 5 5 6 5 5 5 5 5 5 5 5 5 5 5 5 5 5 5 5 5 5 5 5 6 5 5 5 5 5 5 5 5 5 5 6 6 5 6 5 5 5 5 5 6 5 5 5 5 6 5 5 5 5 5 6 5 6 5 5 6 5 5 5 5 5 5 5 5 6 5 5 5 5 5 5 6 5 5 5 5 5 5 6 5 5 5 5 6 5 5 6 5 6 5 5 6 5 5 5 5 5 5 6 5 5 5 5 6 5 5 5 5 5 5 5 5 6 6 5 5 5 5 5 5 5 5 6 5 5 5 5 5 5 6 5 5 5 5 5 5 5 6 5 5 5 6 5 5 5 5 5 5 5 5 5 5 5 5 6 5 5 5 5 6 5 5 6 5 5 5 5 6 5 5 5 6 6 5 5 5 6 5 5 5 6 5 5 5 5 5 5 5 5 5 6 5 5 5 6 5 5 5 5 5 5 5 5 5 5 5 5 6 5 6 5 5 6 5 5 6 5 5 5 5 5 5 5 6 5 5 5 5 5 6 5 6 5 5 5 6 6 5 6 6 5 6 5 5 5 5 5 5 6 5 6 5 5 5 5 5 5 5 5 5 5 5 5 5 6 5 5 6 5 6 5 5 6 5 5 5 6 6 5 5 6 5 5 5 5 5 5 5 5 5 5 5 5 5 5 5 5 5 5 5 5 5 5 5 6 6 5 6 5 6 5 5 6 6 5 5 6 5 5 6 5 5 6 5 6 5 5 5 5 6 5 5 5 5 6 5 6 6 5 6 5 5 6 6 5 5 5 6 5 5 5 5 6 6 5 5 5 5 5 6 5 5 5 5 5 5 5 5 5 5 5 6 5 6 5 6 5 5 6 5 6 5 5 5 5 5 5 5 5 6 5 5 6 5 5 5 5 6 5 5 5 5 5 5 5 5 5 5 5 5 6 5 5 5 5 5 5 5 5 5 5 5 6 5 5 5 5 5 5 6 5 6 5 5 6 5 5 5 5 5 5 5 5 5 5 5 5 5 5 5 5 5 6 6 5 5 5 6 5 5 6 5 5 5 5 5 5 5 5 5 5 5 5 5 5 5 5 5 5 5 5 5 5 5 5 5 6 6 5 5 5 5 5 5 5 5 5 5 5 6 5 5 5 5 5 5 5 5 5 5 5 5 5 5 5 5 5 5 5 5 5 5 5 5 5 5 5 5 5 5 5 5 5 6 5 5 5 5 5 6 5 5 6 5 5 6 6 5 5 5 5 5 5 5 5 5 5 5 5 5 6 5 5 6 5 5 5 5 5 5 6 5 5 6 5 5 5 5 5 5 5 5 5 5 5 5 5 6 5 5 5 5 5 5 5 6 5 5 5 5 5 5 5 5 5 5 5 5 6 5 5 6 5 5 5 5 5 5 5 5 5 5 5 5 5 5 5 5 5 5 5 5 6 5 5 6 5 6 5 5 5 6 5 5 6 5 6 5 5 5 6 5 5 5 5 6 5 5 5 5 5 5 5 6 5 5 5 6 5 5 5 5 5 5 5 5 5 5 5 5 6 5 5 5 5 5 5 5 5 6 5 5 5 5 5 5 5 5 5 5 5 6 5 5 5 5 5 5 5 5 5 5 5 5 5 5 5 5 5 5 5 6 6 5 5 5 6 5 5 5 5 5 5 5 5 5 5 5 5 6 5 5 5 5 5 5 5 5 5 6 5 5 5 5 5 5 5 5 5 5 5 5 5 5 5 5 6 5 6 5 5 5 5 5 6 5 5 5 5 6 5 5 5 6 5 5 5 6 5 5 5 5 5 5 5 5 5 6 5 5 5 6 5 5 6 5 5 5 5 5 5 6 5 5 5 5 5 5 5 5 6 5 5 5 6 5 5 5 5 5 5 5 5 5 5 5 5 5 5 5 5 5 5 5 5 5 5 5 5 5 5 5 6 5 5 5 5 5 5 5 6 5 5 5 5 5 5 5 5 5 5 5 5 5 5 5 5 5 5 5 5 5 5 5 5 5 6 5 6 5 5 5 5 5 5 6 5 5 5 6 5 5 6 5 5 5 5 5 5 5 5 5 5 5 5 6 5 5 5 5 5 6 5 5 5 5 5 5 5 5 5 5 5 5 5 6 5 5 5 6 5 5 5 5 5 5 5 5 5 5 5 5 6 6 5 5 5 5 6 5 5 5 5 5 5 5 5 5 6 6 5 5 5 5 5 6 5 5 5 5 5 6 5 5 5 5 5 6 5 6 5 5 5 5 6 5 6 5 6 6 5 5 5 5 5 5 5 6 6 5 5 5 5 5 5 6 6 6 5 6 6 5 5 5 6 5 5 5 5 5 6 6 6 5 6 5 5 5 6 5 6 6 5 5 5 5 5 5 5 6 6 5 5 6 6 6 5 5 5 5 5 5 5 5 5 5 5 5 5 5 5 5 5 5 5 5 5 5 5 5 5 5 5 5 5 5 5 5 5 5 5 5 5 5 5 5 6 5 5 5 5 5 5 5 5 5 5 6 5 5 5 5 5 5 6 5 5 6 5 5 5 5 5 5 5 5 5 5 5 5 5 6 5 6 5 5 5 5 6 5 5 5 6 5 5 6 5 5 5 6 5 5 6 5 5 5 5 5 6 5 5 5 5 5 5 5 6 5 5 5 5 5 5 5 6 5 5 6 5 5 5 5 6 5 6 5 5 5 5 5 6 5 5 5 5 6 5 5 5 5 5 5 6 6 5 5 5 5 5 6 5 5 6 5 5 5 5 5 5 5 5 5 5 6 5 5 5 5 5 5 5 5 5 5 5 5 5 5 5 5 5 5 6 5 5 5 5 5 5 6 5 5 5 5 5 5 5 6 6 5 5 5 5 6 5 5 5 5 5 5 5 6 5 5 6 5 6 6 6 5 5 5 5 5 5 6 5 5 5 5 5 6 5 5 5 5 6 5 5 5 6 5 5 5 6 5 5 5 5 5 5 5 5 5 5 5 5 5 5 5 5 5 5 5 5 5 5 5 5 5 6 5 5 5 5 5 5 5 6 5 6 5 5 5 5 5 5 6 5 5 6 5 5 5 6 5 5 6 5 5 5 5 5 6 5 5 5 6 6 5 5 5 5 5 5 5 5 5 5 5 5 6 5 5 5 5 5 5 5 5 5 6 5 5 5 5 5 6 6 5 5 5 5 5 5 5 5 5 6 5 5 5 5 5 5 5 5 6 5 5 5 5 5 5 5 5 5 5 5 5 5 5 5 5 5 5 6 5 5 5 5 6 5 6 5 6 5 5 5 5 5 5 5 5 5 5 5 5 5 5 5 5 5 6 5 5 5 5 5 6 5 5 5 6 6 5 5 5 5 5 6 5 5 5 5 6 5 5 5 5 5 5 5 5 6 5 5 5 5 5 5 5 6 5 5 5 5 5 5 5 5 5 6 5 5 5 5 5 5 5 5 5 5 5 5 5 5 5 5 5 5 6 5 5 5 5 5 5 5 5 5 5 5 5 5 6 5 5 5 5 5 5 6 5 5 6 5 5 6 5 5 5 5 5 5 5 5 5 5 5 5 5 5 5 5 5 5 5 5 5 5 5 5 5 5 6 5 6 5 6 6 5 5 5 6 5 5 5 5 5 5 5 5 5 6 6 5 6 5 5 5 5 5 5 5 5 5 5 5 5 5 5 6 5 6 6 5 6 5 5 5 5 5 5 5 5 5 6 6 5 5 5 5 5 5 5 5 5 5 5 5 5 5 5 5 5 5 5 5 5 5 6 5 5 5 5 5 6 5 5 5 5 5 6 5 5 5 6 5 5 5 5 5 5 5 5 5 6 5 5 5 5 6 5 5 5 5 5 5 6 5 5 5 5 5 5 5 6 5 5 5 5 6 5 5 5 5 5 5 5 5 5 5 6 5 5 5 5 6 5 5 5 6 5 5 5 5 5 6 5 5 5 5 5 5 5 5 5 5 5 5 5 5 6 6 5 5 6 5 5 5 5 5 5 5 6 5 5 5 5 5 5 6 5 5 5 5 5 5 5 5 5 5 5 5 5 5 5 5 5 5 5 5 5 5 5 6 5 5 5 5 5 5 5 5 6 5 5 5 5 6 5 5 5 5 5 6 5 6 5 6 5 5 5 5 5 5 5 6 5 5 5 6 5 5 5 5 5 6 5 5 5 5 5 6 5 6 5 5 6 5 6 5 5 5 5 5 6 5 5 5 6 5 5 5 5 5 5 5 5 5 5 6 5 5 5 5 5 5 5 5 5 5 5 5 5 5 5 5 5 5 5 5 5 5 6 5 5 5 5 5 5 5 5 5 5 5 5 5 5 5 5 5 5 6 5 5 5 6 5 5 5 5 5 5 6 5 5 5 6 6 5 6 5 6 6 5 6 5 5 6 5 5 6 6 5 5 5 5 5 5 5 5 6 5 6 5 5 5 5 5 5 5 5 5 5 5 5 5 5 5 5 5 5 5 5 5 5 6 5 5 5 5 5 5 5 5 6 5 5 6 5 5 6 6 5 5 6 5 5 5 5 5 5 5 5 5 5 5 5 5 5 5 5 5 5 5 5 5 5 5 5 5 5 5 5 5 5 5 5 5 5 5 5 5 5 5 6 5 6 5 5 5 5 5 5 5 5 5 5 5 5 5 5 5 5 5 5 5 5 5 5 5 5 5 5 5 5 5 5 5 5 5 5 5 5 5 5 5 5 6 5 5 6 5 5 5 5 5 6 5 6 5 5 6 5 5 5 5 5 5 6 5 5 5 5 5 5 5 5 5 5 5 6 5 5 6 6 5 6 5 5 6 5 5 5 5 6 5 5 5 5 5 5 5 5 5 6 5 6 5 5 5 5 5 5 5 6 5 6 5 5 5 5 5 5 5 5 5 6 5 6 5 5 5 5 5 5 5 5 5 5 6 5 5 5 6 5 5 6 5 5 6 5 5 5 5 6 5 5 5 6 5 5 5 5 5 5 5 5 5 5 5 5 5 5 6 5 5 5 5 5 5 6 5 6 5 6 5 5 5 6 5 5 5 5 5 5 5 5 6 5 5 5 5 5 6 5 5 6 5 5 5 5 5 5 5 5 5 6 5 5 5 6 5 5 5 5 5 5 6 5 5 5 5 5 5 5 5 5 5 5 5 5 5 5 5 5 5 5 5 5 5 5 5 5 5 5 5 5 5 5 6 5 5 5 5 5 6 5 5 6 6 5 5 5 5 6 5 5 5 5 5 6 5 5 5 5 5 5 5 5 5 5 5 5 5 5 5 5 6 5 5 5 5 5 5 5 5 6 6 5 5 5 5 5 5 6 5 5 5 5 6 5 5 5 5 5 5 5 5 5 5 5 5 5 5 5 5 5 5 5 5 5 5 5 5 6 5 5 6 5 5 5 5 5 5 5 5 5 5 5 5 5 5 5 5 5 5 5 5 5 5 5 5 5 5 5 6 5 6 5 5 5 5 5 6 5 5 5 5 5 5 5 5 5 5 5 5 5 5 5 5 5 5 5 5 6 6 5 6 5 5 5 5 5 5 5 5 5 5 5 5 5 5 5 5 6 5 5 5 6 5 5 5 5 5 5 5 5 5 5 5 5 5 6 5 5 5 5 5 5 5 5 5 5 5 5 5 5 5 5 5 5 5 5 5 5 6 5 5 5 5 5 5 5 5 5 5 5 5 5 6 5 6 5 5 6 6 5 5 5 5 5 5 5 5 5 5 5 5 5 5 5 5 5 5 5 5 6 5 5 6 5 5 5 6 5 5 5 5 5 5 6 5 5 5 6 5 5 5 5 5 5 5 5 6 5 5 6 5 5 6 5 6 5 5 5 5 6 6 5 5 6 6 5 5 6 5 5 5 5 6 5 5 6 6 5 6 5 5 5 5 5 5 5 5 5 5 5 5 5 5 5 5 5 5 5 5 6 5 5 5 5 6 5 5 5 5 6 6 5 5 5 5 5 5 5 5 5 5 5 5 6 5 5 5 6 5 5 5 5 5 5 5 6 5 5 5 6 5 5 6 6 5 5 5 6 5 5 5 6 5 5 5 5 5 5 5 5 5 5 5 5 5 5 5 5 5 5 6 5 5 5 5 5 5 5 5 5 5 5 5 5 5 5 5 5 5 6 6 5 5 5 5 5 6 6 5 6 5 5 5 5 5 5 5 5 5 6 5 5 5 6 5 5 5 5 5 5 5 5 5 5 5 5 5 5 6 5 5 5 5 5 5 5 6 5 5 6 5 5 5 5 5 5 6 5 5 5 5 6 5 5 5 5 5 5 6 5 5 5 5 5 5 5 5 6 6 5 5 5 6 6 5 5 5 5 5 6 5 5 5 5 5 5 6 5 5 5 5 6 5 5 5 5 5 6 5 5 5 5 6 5 5 5 5 5 5 5 5 5 5 5 5 5 5 5 5 5 5 5 5 5 5 5 5 5 6 5 5 5 5 6 5 6 5 6 5 5 6 5 5 6 5 5 6 5 5 5 5 5 5 6 5 5 6 5 6 6 6 5 5 6 5 6 6 5 5 5 6 5 6 5 5 5 5 5 5 6 5 5 5 6 5 5 5 5 5 5 5 6 5 5 5 6 5 6 6 5 5 5 5 5 5 5 6 5 5 5 5 5 5 5 5 6 6 5 5 5 5 6 5 5 6 5 5 5 6 5 5 5 6 6 5 5 5 5 6 5 5 5 5 5 6 6 5 5 5 5 5 5 5 5 5 5 5 5 5 5 5 5 5 5 5 5 5 5 5 5 5 5 5 5 5 5 5 6 5 5 5 6 5 5 5 5 5 5 5 5 5 5 5 5 5 5 5 6 5 6 6 5 5 6 5 5 5 5 5 5 5 5 5 5 5 5 5 5 5 5 5 5 5 5 5 5 5 6 5 5 6 6 5 5 5 5 5 5 5 6 5 5 5 6 5 5 5 5 6 6 5 5 5 5 5 5 5 6 5 5 5 5 6 5 5 5 5 6 5 5 5 5 5 5 5 5 5 5 5 5 5 5 5 5 5 5 5 6 5 5 5 5 5 5 5 5 5 5 5 5 5 5 5 5 6 5 5 5 6 5 5 5 5 5 5 5 5 5 6 5 5 5 5 5 5 5 5 5 5 5 5 5 5 5 5 5 5 5 5 5 6 5 5 5 5 5 5 5 5 5 5 5 5 5 5 5 5 5 6 5 5 5 5 5 6 5 5 5 5 5 5 5 5 5 5 5 5 5 5 5 5 5 5 5 5 5 5 5 5 5 5 5 6 5 5 6 5 5 5 6 5 5 5 5 5 5 5 5 5 5 5 5 5 5 5 6 5 6 5 5 5 5 5 5 5 5 5 6 5 5 5 5 5 5 5 5 5 6 6 5 5 5 5 5 5 5 5 5 5 5 5 5 5 5 5 5 5 5 5 5 5 5 5 5 5 5 5 5 5 5 5 5 5 5 5 5 5 5 5 5 5 5 5 5 5 5 5 5 5 5 5 5 5 5 5 5 5 5 5 5 5 5 5 5 5 5 5 5 5 5 6 5 5 5 5 5 5 6 5 5 5 5 5 5 5 5 5 6 5 6 5 5 5 5 5 5 5 5 5 5 5 5 5 5 5 5 5 5 5 5 5 5 5 5 5 5 5 5 5 5 5 5 5 5 6 5 5 5 6 6 5 5 5 5 5 5 5 5 5 5 5 5 5 5 5 5 5 5 5 5 5 5 6 6 5 5 5 5 5 5 5 5 6 5 5 5 5 5 5 6 5 5 5 5 5 6 5 5 5 5 6 5 5 5 6 5 5 5 6 5 5 6 5 5 5 5 5 5 5 5 5 5 5 5 5 6 5 5 5 5 5 5 5 5 6 5 5 5 5 5 5 5 5 5 5 5 6 5 5 5 6 5 5 5 5 6 5 5 5 5 5 5 5 5 6 5 6 5 5 6 5 5 5 5 5 6 5 5 5 5 5 5 5 5 5 5 5 5 6 5 5 5 5 5 5 5 5 5 6 5 5 5 5 5 5 6 5 5 5 5 5 5 5 6 5 5 5 5 5 6 5 5 5 5 5 5 5 5 5 5 5 5 5 5 5 5 5 5 5 5 5 5 5 5 5 5 5 5 5 5 5 5 5 5 5 5 5 5 5 5 5 5 5 5 5 5 5 6 5 6 5 5 5 5 5 5 5 5 5 5 5 5 5 5 6 5 5 5 5 5 5 5 5 5 5 5 5 5 5 5 6 5 5 6 5 6 5 5 5 5 5 6 5 5 5 5 5 5 5 5 5 5 5 5 5 5 5 5 5 5 5 5 6 5 5 5 5 5 5 5 5 5 5 5 6 5 6 5 5 6 5 6 5 5 5 5 5 5 5 6 5 6 5 5 5 5 6 5 5 5 5 6 6 5 5 6 5 5 5 5 5 5 5 5 5 5 5 5 5 5 5 5 6 5 5 5 5 5 5 5 5 5 5 5 5 5 5 6 5 6 5 5 5 5 5 5 5 6 5 6 5 5 5 5 5 5 5 5 5 6 6 5 5 5 6 5 5 5 5 6 5 6 5 5 6 5 6 6 6 5 5 6 5 5 5 6 6 6 5 5 5 5 5 5 5 5 5 5 5 6 5 5 5 5 5 5 6 5 5 5 6 5 5 5 5 5 5 5 5 6 5 5 5 6 5 5 5 5 5 5 5 5 5 5 5 5 5 5 5 5 5 5 5 5 5 5 5 5 5 5 5 5 5 5 5 5 5 5 5 5 5 5 5 5 5 5 5 5 5 5 5 5 5 5 5 5 5 5 5 5 5 5 5 5 6 5 5 5 5 5 6 5 5 5 5 6 5 5 5 6 5 5 5 5 5 5 5 5 5 5 5 5 5 5 5 5 5 5 5 5 5 5 5 5 5 5 5 5 5 5 5 5 5 5 5 5 5 5 5 5 6 5 5 6 5 5 5 5 5 5 5 6 5 5 5 5 5 5 5 5 5 5 5 6 5 5 6 5 6 5 5 5 6 5 5 5 5 5 5 5 5 6 5 5 5 5 6 5 5 5 5 6 5 6 5 5 5 5 5 5 5 5 5 5 5 5 6 5 6 5 5 5 5 5 5 5 5 5 5 5 5 5 6 5 5 5 5 5 5 5 5 5 6 5 5 5 6 5 5 5 5 5 5 5 5 5 5 5 5 5 5 5 5 5 5 5 5 5 5 5 5 5 5 5 5 5 5 5 5 5 5 5 6 5 5 6 5 5 5 5 6 5 5 5 5 5 5 5 5 5 5 5 5 5 5 5 6 5 5 5 5 5 5 5 5 5 6 5 6 5 5 5 5 5 5 5 6 5 5 5 5 5 5 5 5 5 5 5 5 5 5 6 5 5 5 5 5 5 5 5 5 5 5 6 5 5 5 5 5 5 5 5 5 5 5 5 5 5 5 5 5 5 5 5 5 5 5 6 5 6 5 5 5 5 5 5 6 5 6 5 5 5 6 5 5 5 6 5 5 5 6 5 5 6 5 5 5 5 5 5 5 6 5 5 5 5 5 5 5 6 5 5 5 5 5 5 5 5 5 5 5 5 5 6 5 5 5 5 5 5 5 5 6 5 5 5 5 5 5 5 5 5 5 5 5 5 5 5 5 5 5 5 5 6 5 5 5 5 5 5 5 5 5 5 5 5 5 5 5 5 5 5 5 5 5 5 5 5 5 5 5 5 5 5 5 5 5 5 5 5 5 5 5 5 5 5 5 5 5 5 5 5 5 5 6 5 6 5 5 5 6 5 5 6 6 5 6 5 5 5 5 5 5 5 5 5 5 5 5 5 5 5 5 5 5 5 5 5 5 5 5 5 5 5 5 5 5 5 5 5 5 5 6 5 5 5 5 6 5 5 6 5 5 5 6 5 5 5 5 6 5 6 6 5 5 5 5 6 5 5 5 6 5 5 5 6 5 5 5 5 5 5 6 5 5 5 5 5 5 5 5 5 5 5 5 5 5 5 5 5 5 5 5 6 5 5 5 5 5 5 5 5 5 5 5 5 5 5 5 5 5 5 6 5 5 6 5 5 6 5 5 5 5 5 5 5 5 5 5 5 6 5 5 5 5 6 5 5 5 5 6 5 5 5 6 5 5 5 5 5 5 5 5 5 5 5 5 5 5 5 5 5 5 5 5 5 5 5 5 5 6 5 5 5 5 5 5 5 5 6 5 5 5 6 5 5 5 5 5 5 5 5 5 5 5 5 5 5 5 5 5 5 5 5 5 5 5 5 6 5 5 5 6 5 5 5 5 5 5 5 5 6 5 5 6 5 5 5 5 6 5 5 5 5 5 5 5 6 5 6 5 5 6 5 5 6 6 5 5 5 5 5 5 5 5 5 5 5 5 5 5 5 5 5 5 5 5 5 6 5 5 5 5 6 5 5 5 5 5 5 5 5 5 5 5 5 5 6 5 5 6 5 5 5 5 5 5 5 5 5 5 5 5 5 5 5 5 5 5 5 5 5 5 5 5 5 5 5 5 5 5 5 5 5 5 5 5 5 5 5 5 5 5 5 5 5 5 5 5 5 5 5 5 5 5 5 5 5 5 5 5 5 5 5 5 5 5 5 5 5 5 5 5 5 5 5 5 5 5 5 5 5 5 5 5 5 5 5 5 5 5 5 5 5 5 5 5 5 5 5 5 5 5 5 5 5 5 5 5 5 5 5 5 5 5 5 5 5 5 5 5 5 5 5 5 5 5 5 5 6 5 5 5 5 5 5 5 6 5 5 5 5 5 5 5 5 5 6 5 6 5 5 5 6 5 5 6 5 5 5 5 5 5 5 5 5 5 5 5 5 5 5 5 5 5 5 5 5 5 5 5 5 5 5 5 5 5 5 5 5 5 5 5 5 6 5 5 6 6 5 5 6 5 5 6 5 5 5 6 5 5 5 5 5 5 5 5 5 6 5 5 5 5 5 5 6 5 5 5 5 5 5 5 5 5 5 5 5 5 5 5 5 5 5 5 5 5 5 5 5 5 5 5 5 5 5 5 6 5 5 5 5 5 5 5 5 5 5 5 5 5 5 5 5 5 5 5 5 5 5 5 5 5 5 5 5 5 5 5 5 5 5 5 5 5 5 5 5 5 5 5 5 5 5 6 5 6 5 5 5 5 6 5 5 5 5 6 5 5 5 5 6 5 5 5 5 5 5 5 5 6 5 5 6 5 6 5 5 5 5 6 5 5 6 6 5 5 5 5 5 5 6 5 5 5 5 5 5 5 5 5 5 6 6 5 5 5 5 5 6 5 5 6 5 5 5 5 6 5 5 6 5 5 5 5 5 5 5 5 5 5 5 5 5 5 5 5 5 5 5 5 5 5 5 5 5 5 5 5 5 6 5 6 5 5 5 5 5 5 5 5 5 5 5 5 5 6 5 5 5 5 6 6 5 5 5 5 5 5 5 5 5 5 5 5 5 5 5 5 5 5 5 5 5 5 5 5 5 5 5 5 5 5 5 5 5 5 5 5 5 5 5 5 5 5 6 5 5 5 6 5 5 5 5 5 5 5 5 5 5 5 5 5 5 5 5 5 5 5 5 6 5 5 6 5 5 5 5 5 5 5 5 5 6 5 5 5 5 5 6 5 5 5 5 5 6 5 6 5 5 5 5 5 5 5 5 5 5 5 5 5 6 5 5 5 6 6 5 5 5 5 5 5 5 5 6 5 5 6 5 5 6 6 5 5 5 5 5 6 5 5 5 5 5 5 5 6 5 5 6 6 5 5 5 5 5 5 6 6 5 5 5 6 5 5 5 5 5 5 5 6 5 5 5 5 5 5 5 5 5 5 5 5 5 5 5 5 5 5 5 5 5 5 5 5 5 5 6 5 5 5 5 5 5 5 6 5 5 5 5 5 5 5 5 5 5 5 6 5 5 5 5 5 5 5 5 6 5 5 5 5 5 5 5 5 5 5 5 5 5 5 5 5 6 5 5 5 6 5 5 5 5 5 6 5 5 5 5 5 5 5 5 5 5 5 5 5 5 6 5 5 5 5 6 5 5 6 5 5 5 5 5 6 5 5 5 5 5 5 5 5 5 5 5 5 5 5 6 5 6 5 5 5 6 5 6 5 6 5 5 5 5 5 5 6 6 5 5 5 5 5 5 6 5 6 5 5 5 5 5 5 5 5 5 5 5 5 5 5 5 5 5 6 5 5 5 6 6 5 5 5 5 5 6 5 5 6 6 5 5 5 5 5 5 5 5 5 5 5 5 5 5 5 5 5 5 5 5 5 5 5 5 5 5 5 5 5 5 5 5 5 5 5 5 5 5 5 5 5 5 5 5 6 5 5 6 6 6 5 5 5 5 5 5 6 5 5 5 5 5 5 5 5 5 6 5 5 5 6 5 5 5 5 5 5 5 5 5 5 5 5 5 5 5 5 5 5 5 5 6 5 5 5 5 6 5 5 5 5 5 5 5 5 5 5 5 5 5 5 5 5 5 5 5 5 5 5 5 5 5 5 5 5 5 5 5 5 5 5 6 5 6 5 5 5 5 5 5 5 5 6 5 5 5 6 5 6 5 5 5 5 5 5 5 5 6 5 5 5 5 6 5 5 5 5 6 5 5 5 5 5 5 5 6 5 5 5 5 6 5 5 5 5 5 5 5 5 5 5 5 5 5 5 5 5 5 5 5 5 5 5 5 5 5 5 5 5 5 5 5 5 5 5 5 5 5 5 5 5 5 5 5 5 5 5 6 5 5 5 5 6 6 5 5 6 6 5 5 5 5 5 5 5 5 5 5 5 5 5 5 5 5 5 5 5 6 5 5 5 6 6 5 5 5 5 5 5 5 5 5 5 5 5 5 5 5 5 5 5 5 5 5 5 5 5 5 5 5 6 5 5 5 5 5 5 5 6 5 5 5 5 5 5 5 5 5 5 5 5 5 5 5 6 5 5 5 5 5 5 5 5 6 5 6 6 5 5 5 5 5 5 5 5 5 5 5 5 6 5 5 5 5 5 5 5 5 5 5 5 5 5 5 5 5 5 5 6 5 5 5 6 5 5 5 5 5 5 5 5 6 5 5 5 5 5 5 5 5 5 5 5 5 5 5 5 6 5 5 5 6 5 5 5 5 5 5 5 5 5 5 5 5 5 5 5 5 5 5 5 5 5 5 5 5 5 5 5 5 5 5 5 5 5 6 5 6 5 5 5 5 5 5 5 5 6 5 5 5 5 5 5 5 5 5 6 5 5 6 5 5 5 5 5 6 5 5 5 5 6 5 5 5 5 6 5 5 5 6 5 6 5 5 6 5 5 5 5 5 5 5 5 5 5 5 5 5 5 6 5 5 6 5 6 5 5 5 6 5 5 6 5 5 5 5 6 5 6 5 5 5 5 5 5 6 5 6 5 5 5 5 5 6 5 5 5 5 6 5 5 5 5 5 5 6 5 5 5 5 5 5 5 5 5 5 5 5 5 5 5 5 5 5 5 5 5 5 5 5 5 5 5 5 5 5 5 5 5 6 6 5 5 5 5 5 5 5 5 5 5 6 5 5 6 6 5 6 5 5 5 5 5 5 5 6 5 5 5 5 5 5 5 5 5 5 5 5 6 5 5 5 5 6 5 5 5 5 5 5 5 5 5 5 5 5 6 5 5 5 5 5 5 5 5 5 5 5 5 5 5 5 5 5 6 5 5 5 5 5 6 5 5 5 6 5 5 5 5 5 5 6 5 6 5 5 5 6 5 5 5 5 5 5 5 5 5 6 5 5 6 5 5 5 5 5 5 5 6 5 5 5 5 5 5 5 5 5 5 5 5 5 6 5 5 6 5 5 5 5 5 5 6 5 5 5 5 5 5 6 5 5 5 5 5 5 5 6 5 5 5 5 5 5 5 5 5 5 5 5 5 5 5 5 5 5 5 5 5 5 6 5 5 5 5 5 5 5 5 5 5 6 5 5 5 5 6 6 5 5 5 5 6 5 5 5 5 5 5 5 5 5 6 5 5 5 5 5 5 5 5 5 5 5 6 5 5 5 6 5 5 5 6 5 5 5 5 5 5 5 5 5 5 5 5 6 5 5 5 5 5 6 5 5 6 5 5 5 5 5 5 5 5 5 5 5 5 5 5 6 5 5 5 5 5 5 5 6 5 5 5 6 5 5 5 5 5 6 5 5 5 5 5 5 5 5 5 6 5 5 5 5 5 5 5 5 6 5 5 5 5 5 6 5 5 5 5 5 5 5 6 5 5 5 5 5 5 5 5 5 5 5 5 5 5 5 5 5 5 5 5 5 5 5 5 5 5 5 5 5 5 5 5 5 5 5 5 5 5 5 5 5 5 5 5 5 5 5 5 6 5 5 5 5 5 5 5 6 5 5 5 5 5 5 5 5 5 5 5 5 5 5 5 5 5 5 5 5 5 5 6 6 5 5 6 6 5 5 5 5 5 5 5 6 5 5 5 5 5 5 5 5 5 5 5 5 5 5 6 5 5 5 5 5 5 5 5 6 5 5 6 5 5 5 6 5 5 5 5 5 5 5 5 5 5 5 5 5 5 5 5 5 5 5 5 5 5 5 5 5 5 5 5 6 5 5 5 5 5 5 5 5 6 5 5 5 5 5 5 6 6 5 5 5 5 6 5 5 6 5 5 6 5 5 5 5 5 5 6 5 5 5 5 5 5 5 5 6 5 5 5 5 5 5 5 5 5 5 5 6 5 5 6 5 5 5 5 5 5 5 6 5 5 5 6 5 6 5 6 5 5 5 5 5 5 5 5 5 5 5 5 5 5 5 5 5 6 5 6 5 5 5 5 5 5 5 5 5 5 6 5 5 5 5 5 5 5 6 5 5 5 6 5 6 6 5 5 6 5 5 5 5 6 5 5 5 6 5 5 5 6 5 6 6 5 5 5 5 5 5 6 5 5 5 5 5 5 5 5 6 6 6 5 6 5 5 6 6 5 5 6 5 5 5 5 5 5 5 5 5 5 5 6 5 5 5 5 5 5 5 5 5 5 5 5 5 6 6 5 5 5 5 6 5 5 5 6 5 5 5 5 5 6 6 5 5 5 6 5 5 5 5 5 5 5 5 5 5 5 5 5 5 5 6 5 5 5 6 5 5 5 6 5 5 5 5 5 5 6 5 5 5 5 5 6 5 5 5 5 5 5 5 5 6 5 5 5 5 5 5 5 5 5 6 5 5 5 5 6 5 6 5 5 6 5 6 5 5 5 5 5 5 6 5 6 6 5 5 5 5 5 5 5 5 6 5 6 5 6 5 6 5 5 5 5 5 5 5 5 5 5 5 6 5 5 5 6 5 5 5 5 5 5 5 5 6 5 5 5 5 5 5 5 5 5 6 5 5 5 5 6 5 5 6 5 5 5 5 5 5 5 5 5 6 5 5 5 6 5 5 5 5 5 5 5 5 5 5 5 5 5 5 5 5 5 5 5 6 5 5 5 5 5 5 5 5 5 5 6 5 5 5 5 5 5 5 5 5 5 5 5 5 5 5 5 5 5 5 5 5 5 5 5 5 5 5 5 5 5 5 5 5 5 5 5 5 5 5 5 5 5 5 5 5 6 6 5 5 5 5 5 5 5 5 5 5 5 5 5 6 6 5 5 5 6 5 5 6 5 5 5 6 5 5 5 6 5 5 5 5 5 5 5 5 6 5 5 6 5 6 6 5 5 5 5 5 5 6 5 6 6 6 5 5 6 5 5 6 6 5 5 5 5 5 5 5 5 5 5 5 5 5 5 5 5 5 5 5 5 5 6 5 5 5 5 5 5 5 5 5 6 5 5 5 5 5 5 5 6 6 5 5 5 5 5 5 5 5 5 5 5 5 5 5 5 5 5 5 5 5 5 5 5 6 5 6 5 5 5 5 5 5 5 6 5 5 5 6 6 5 5 6 5 5 5 5 6 5 5 5 6 5 5 5 6 5 5 5 5 5 5 5 5 5 6 6 5 5 5 5 5 6 5 5 6 6 6 5 5 5 5 5 6 5 5 5 5 5 5 5 5 5 6 5 6 5 5 5 5 5 5 5 5 5 5 5 5 5 5 5 5 5 5 5 5 5 5 5 5 6 5 5 5 5 6 6 5 5 5 6 5 5 5 5 5 5 5 5 5 5 5 5 5 5 5 5 6 5 5 5 6 5 5 6 5 5 5 5 5 5 5 5 5 5 5 5 5 6 5 5 6 5 5 5 6 5 6 5 6 5 6 6 6 5 5 5 5 5 5 5 5 6 5 5 5 5 5 5 5 5 6 5 5 6 5 5 5 5 5 5 5 5 5 5 5 5 5 5 5 5 5 5 5 5 5 6 5 5 5 5 5 5 5 5 5 5 6 5 6 5 5 6 5 6 5 6 5 5 6 5 6 5 5 6 5 5 5 6 5 5 5 5 5 5 5 5 5 5 5 5 5 5 5 5 5 5 5 5 5 5 5 5 5 5 5 5 5 5 5 5 5 5 5 5 5 5 5 5 5 5 5 5 5 5 5 5 5 5 5 5 5 5 5 5 5 5 5 5 5 6 5 5 6 5 5 5 5 5 5 6 6 5 5 5 5 5 5 5 5 5 5 5 5 5 5 5 5 5 5 6 5 5 5 6 5 5 5 5 5 5 5 5 5 5 5 5 5 5 5 5 6 5 5 5 5 5 5 5 6 5 5 5 5 5 5 5 5 6 5 6 5 5 5 5 5 5 5 5 5 5 5 5 5 5 5 5 6 5 5 5 5 5 5 5 6 5 5 5 5 6 5 5 5 5 5 5 5 6 5 5 6 6 5 5 6 5 5 5 5 5 5 6 5 5 5 5 5 5 5 5 5 6 5 5 6 5 5 6 5 5 6 5 5 5 5 5 6 5 5 5 5 5 5 5 5 6 5 5 5 5 5 5 5 6 5 5 5 5 5 5 5 5 5 5 5 5 6 5 5 5 5 5 5 5 6 6 5 6 5 6 5 5 5 5 5 5 5 5 5 5 5 5 5 5 5 6 5 6 5 5 5 5 5 5 5 5 6 5 6 5 6 5 6 5 6 5 5 6 5 5 5 5 5 6 5 5 5 5 5 5 5 5 6 5 5 5 5 5 6 5 5 6 5 6 6 5 5 5 5 5 5 5 5 6 5 5 5 5 5 5 5 5 5 5 5 5 5 6 5 5 5 5 5 5 5 6 5 5 5 6 5 5 5 5 5 5 5 5 5 5 5 5 5 5 5 5 5 6 5 5 5 5 5 5 5 6 5 5 6 5 5 5 5 5 5 5 5 5 5 5 5 5 5 5 6 5 5 5 5 6 5 5 5 5 5 5 5 5 5 5 5 5 5 5 5 5 5 5 5 5 5 5 5 5 5 6 5 5 5 5 5 5 6 5 5 5 5 5 5 5 5 5 6 6 5 5 5 6 5 6 5 5 5 5 5 5 5 5 5 5 5 5 5 5 5 6 5 5 5 5 5 5 5 5 5 5 5 5 6 6 5 5 5 5 5 5 5 5 6 5 5 6 5 5 6 6 5 5 5 5 5 5 5 6 5 5 5 5 5 5 5 5 5 6 5 5 5 6 5 5 5 5 5 6 5 5 5 5 5 5 5 5 5 5 5 5 6 5 5 5 6 5 5 5 6 5 5 5 5 5 5 5 5 5 5 5 5 5 5 5 5 5 5 5 5 5 5 5 5 5 5 5 5 5 5 5 5 6 5 5 5 5 5 5 5 5 5 5 5 5 5 5 5 5 5 5 5 5 5 5 5 5 6 5 6 5 5 6 5 5 5 5 5 5 5 5 5 6 5 5 5 5 5 5 5 5 5 5 5 5 5 5 6 5 5 5 5 6 5 5 5 6 5 5 5 5 5 5 5 5 5 5 5 5 5 5 5 5 5 5 5 5 5 5 5 5 5 5 5 5 5 5 5 5 5 5 5 5 5 5 5 5 5 5 5 5 5 5 5 5 5 5 5 5 5 5 5 5 5 5 5 5 5 5 5 5 5 5 5 5 5 5 5 5 5 5 5 5 5 5 5 5 5 5 5 5 5 5 5 5 5 5 5 5 5 5 5 5 5 5 5 5 5 5 5 5 5 5 5 5 5 5 5 5 5 5 5 5 5 5 5 5 5 5 5 5 5 5 5 5 5 5 5 5 5 5 5 5 5 5 5 5 5 5 5 5 5 5 5 5 5 5 5 5 5 5 5 5 5 5 5 5 5 5 5 5 5 5 5 5 5 5 5 5 5 5 5 5 5 5 5 5 5 5 5 5 5 5 5 5 5 6 5 5 5 5 5 5 5 5 5 5 5 5 5 5 5 5 6 5 5 5 5 5 5 5 5 6 5 5 5 5 6 5 5 5 5 5 5 5 5 5 5 5 5 5 5 5 5 5 5 5 5 5 5 6 5 5 5 5 5 5 5 5 5 5 5 5 5 6 6 5 5 5 5 5 6 5 6 5 5 5 5 5 5 5 5 5 5 5 6 5 5 5 5 5 5 5 6 5 5 5 5 5 5 5 5 5 5 5 5 5 5 5 6 6 5 5 5 5 5 5 5 5 5 5 5 5 6 5 5 5 5 5 5 5 5 5 5 5 5 5 5 5 5 6 5 5 5 5 5 5 5 6 5 5 5 5 5 5 5 5 5 5 6 6 5 5 5 5 5 5 5 5 5 5 5 5 5 5 5 5 5 5 5 5 5 5 5 5 5 5 5 5 5 5 6 5 5 5 5 5 6 5 5 5 5 5 5 5 5 5 5 6 5 5 5 5 6 5 5 5 5 5 5 5 5 5 5 6 5 6 5 5 5 5 5 5 5 5 5 5 5 5 5 5 5 5 5 5 5 5 5 5 5 5 5 5 5 5 5 5 5 6 5 5 5 5 5 6 5 5 5 5 5 5 5 5 5 5 5 5 5 5 5 5 5 5 6 5 5 6 5 5 5 6 5 5 5 5 5 6 5 5 5 5 5 5 5 5 5 5 6 5 5 5 5 5 5 6 5 5 5 5 5 6 6 5 5 6 5 5 6 5 5 5 5 5 5 5 5 5 5 6 5 5 6 5 5 6 5 5 6 5 5 6 5 5 6 5 5 5 5 5 5 6 5 5 5 5 5 5 5 5 5 5 5 6 5 5 5 5 5 5 5 6 5 5 5 5 6 5 5 5 6 5 5 5 5 5 5 5 5 5 5 5 6 5 5 5 5 5 5 5 5 5 5 5 5 5 5 5 5 5 5 5 5 5 5 5 5 6 5 5 5 5 5 6 5 5 5 5 5 5 5 5 5 5 5 5 5 5 6 5 5 6 5 6 5 5 5 5 6 5 6 6 5 6 5 5 5 5 5 5 5 6 5 6 5 5 5 5 5 5 6 5 5 5 5 5 5 6 5 5 5 5 6 5 5 5 5 5 6 5 5 6 5 5 5 5 6 5 5 5 5 6 5 5 5 5 5 5 6 5 5 5 5 5 5 5 5 5 6 5 5 5 5 5 5 6 5 5 5 5 6 5 5 5 5 5 5 5 5 5 5 5 5 5 5 5 5 6 5 5 5 6 5 5 6 5 5 5 5 5 5 5 5 5 5 5 5 5 5 5 5 6 5 6 5 5 5 5 5 5 5 5 5 5 5 5 5 5 5 5 5 5 5 5 5 5 5 5 5 5 6 5 5 6 5 5 5 5 5 5 5 5 5 5 6 5 5 5 5 6 5 5 5 5 6 5 5 5 5 5 5 5 5 5 6 5 5 5 5 5 5 5 5 5 5 5 5 5 5 5 5 5 5 5 5 5 5 5 5 5 5 5 5 
</DataArray>
<DataArray type="Float64" Name="stress" NumberOfComponents="9" format="ascii">
3173215379.8812408 -318623279.11496514 0 -318623279.11496514 -514723.84137495264 0 0 0 0 5356931090.4192886 -620022292.75684869 0 -620022292.75684869 -205124067.15958455 0 0 0 0 5976991871.0792389 -944115578.52428627 0 -944115578.52428627 -486908736.99025828 0 0 0 0 5080087813.0407486 -1146866767.9742959 0 -1146866767.9742959 175662522.55282807 0 0 0 0 4095157614.8744507 -1686386530.0553114 0 -1686386530.0553114 163448654.20422509 0 0 0 0 3895405.9968823195 -10327.259870192036 0 -10327.259870192036 33023.86586659911 0 0 0 0 67360834.880950928 269236479.7257275 0 269236479.7257275 503843176.55652368 0 0 0 0 1346991240.9223022 473341478.29682118 0 473341478.29682118 223312431.15001768 0 0 0 0 3596994087.3070526 -252221203.99037388 0 -252221203.99037388 -48120947.109229386 0 0 0 0 2732551210.8167915 -1514944967.9241238 0 -1514944967.9241238 792651282.41573024 0 0 0 0 287500285.72244263 -142634762.75790572 0 -142634762.75790572 493845308.5160315 0 0 0 0 1357832119.7082672 -902957164.72151542 0 -902957164.72151542 290817013.05051303 0 0 0 0 6654118.5347137451 -946893.90051716089 0 -946893.90051716089 -1994.6339368196445 0 0 0 0 3744663.1255826652 1384379.1435634792 0 1384379.1435634792 560781.64586664829 0 0 0 0 7405823.0244102478 -2429174.3295293958 0 -2429174.3295293958 -3008582.8498831694 0 0 0 0 3998580.5960998535 -3390460.1720981491 0 -3390460.1720981491 -4225.3745050667658 0 0 0 0 6898507.2233734131 -1286587.1058403184 0 -1286587.1058403184 -1080816.0982658721 0 0 0 0 9818704.5548095703 -47675.822578320047 0 -47675.822578320047 -1413953.844209318 0 0 0 0 5717380.6635567397 1675307.8181916177 0 1675307.8181916177 -222112.68973075075 0 0 0 0 7526381.4240722656 -1674747.6369537236 0 -1674747.6369537236 -731675.21653725253 0 0 0 0 6317212.4317016602 -559094.20756619005 0 -559094.20756619005 -1755730.9313275525 0 0 0 0 6602328.5802881271 -778387.9155932758 0 -778387.9155932758 -500117.80218831601 0 0 0 0 -28489453.450012207 32564437.069025218 0 32564437.069025218 -25787824.54373312 0 0 0 0 -66302768.88381958 32057078.449593067 0 32057078.449593067 18623993.288535595 0 0 0 0 -25048672.457305908 8044392.7027099133 0 8044392.7027099133 -6328438.5513443947 0 0 0 0 9646147.6654205322 13909116.824732602 0 13909116.824732602 51999514.212383747 0 0 0 0 7933358.266793929 321233.73388064653 0 321233.73388064653 1214494.5074994462 0 0 0 0 -53621428.790161133 42306747.169487953 0 42306747.169487953 42678720.638700098 0 0 0 0 6087607.0563354492 -14386490.83274889 0 -14386490.83274889 5531328.3572134972 0 0 0 0 -34289559.385292053 -11203424.090467751 0 -11203424.090467751 35136938.817495346 0 0 0 0 8233991.0644226074 -20615093.327827573 0 -20615093.327827573 -38992605.535456896 0 0 0 0 9199181.9151014388 386670.5194902271 0 386670.5194902271 -240369.87059867551 0 0 0 0 334567387.16098785 -229553531.54925746 0 -229553531.54925746 164134304.86761856 0 0 0 0 -176923023.32965088 -76930908.175799131 0 -76930908.175799131 276964372.13468337 0 0 0 0 -72625024.089981079 49477844.770836622 0 49477844.770836622 80183730.595680714 0 0 0 0 179137328.12490845 -178023145.19472551 0 -178023145.19472551 68917456.717986703 0 0 0 0 5754864.7411499023 -8780073.159843687 0 -8780073.159843687 302376278.7412079 0 0 0 0 27001171.34437561 354252433.5019331 0 354252433.5019331 324912523.05324817 0 0 0 0 -114649884.05609131 277644589.34904337 0 277644589.34904337 48194277.79985787 0 0 0 0 -143198343.51306152 64845203.584460378 0 64845203.584460378 87452225.231366038 0 0 0 0 6048619.3531171083 60712656.998519771 0 60712656.998519771 39073883.781651378 0 0 0 0 -215735810.7756958 77263234.18671906 0 77263234.18671906 231654523.28429314 0 0 0 0 -184308550.59106445 7029144.7118371129 0 7029144.7118371129 31560852.594012618 0 0 0 0 -236038481.75884247 159669595.00407353 0 159669595.00407353 43874876.810554862 0 0 0 0 10233454.05065918 101533231.84716344 0 101533231.84716344 -130407674.51758543 0 0 0 0 1921584.6767387651 698260.55349518359 0 698260.55349518359 63008.548746788991 0 0 0 0 -231878388.05630493 272452311.10608214 0 272452311.10608214 -216222804.83346748 0 0 0 0 86910429.568908691 1704082.3696111441 0 1704082.3696111441 -49860381.957484782 0 0 0 0 1960950.7085281685 327679.26065760106 0 327679.26065760106 -510081.69461663207 0 0 0 0 -541298109.54345703 180086342.51089418 0 180086342.51089418 7509570.7409017086 0 0 0 0 -142206277.65435791 24814630.840270698 0 24814630.840270698 -197927015.63635623 0 0 0 0 -530530321.99609375 173563829.35198271 0 173563829.35198271 -36764457.22751838 0 0 0 0 -113957862.02484131 268460006.50947517 0 268460006.50947517 -188356608.58238378 0 0 0 0 -50597111.577911377 93080691.487772226 0 93080691.487772226 19065169.131009951 0 0 0 0 3546039.7107870579 7194639.0718637109 0 7194639.0718637109 2882150.2229296928 0 0 0 0 -38712886.011245728 87871408.676087528 0 87871408.676087528 -10948626.035045981 0 0 0 0 118159089.45581055 133939064.0289489 0 133939064.0289489 -66687434.186120093 0 0 0 0 126419045.37794304 60005653.348768629 0 60005653.348768629 -371190306.45368087 0 0 0 0 -80172265.32598114 219755665.94162023 0 219755665.94162023 -100902860.65341389 0 0 0 0 9510201.1643981934 270329232.01304477 0 270329232.01304477 -73171172.776248813 0 0 0 0 73485070.276077271 47864979.130777523 0 47864979.130777523 -2534046.5201952457 0 0 0 0 -6776947.0431518555 -34010561.022837162 0 -34010561.022837162 7356781.9467172623 0 0 0 0 7221324.4999413788 -587202.41348046064 0 -587202.41348046064 3430971.4820932029 0 0 0 0 59849058.515991211 19100343.255065143 0 19100343.255065143 8496539.4170090556 0 0 0 0 60090949.016281128 22245301.528925076 0 22245301.528925076 -8925741.9784594774 0 0 0 0 9902314.962890625 40886423.415422812 0 40886423.415422812 -4518741.0410059392 0 0 0 0 20457609.572540283 7947495.8592426777 0 7947495.8592426777 16622666.875805616 0 0 0 0 11275720.926705636 -4187281.8644634113 0 -4187281.8644634113 -3291265.8711344772 0 0 0 0 34325279.964019775 9284497.9057388306 0 9284497.9057388306 -12940438.880757526 0 0 0 0 14813882.628875732 23315098.432480514 0 23315098.432480514 2901660.022818625 0 0 0 0 44920000.752792358 29241702.93183887 0 29241702.93183887 14393354.074524879 0 0 0 0 63609928.390838623 30736403.106719255 0 30736403.106719255 13393929.577300489 0 0 0 0 63401065.238624573 -10733684.385719046 0 -10733684.385719046 13895957.8104949 0 0 0 0 74140369.070495605 22427173.963251114 0 22427173.963251114 6375408.6046673059 0 0 0 0 63709159.464607239 -25991034.912075281 0 -25991034.912075281 -2697457.1156210899 0 0 0 0 87229613.875564575 8615306.7895234823 0 8615306.7895234823 -5443413.5002193451 0 0 0 0 22106207.017791748 21342324.7449615 0 21342324.7449615 36278066.548764825 0 0 0 0 17638406.287790731 -2312708.9998876974 0 -2312708.9998876974 -2988573.0026783049 0 0 0 0 11161953.147705078 1044644.9145707488 0 1044644.9145707488 1828585.9591126442 0 0 0 0 11710095.384399414 1994637.2204415798 0 1994637.2204415798 1520092.625825882 0 0 0 0 8598787.6048830897 470963.68718104117 0 470963.68718104117 6265302.119509628 0 0 0 0 39484331.839950562 3062842.8532500267 0 3062842.8532500267 -22216621.792137623 0 0 0 0 33857721.169006348 6568004.1844535917 0 6568004.1844535917 -3899978.9420871735 0 0 0 0 20544531.189294264 -5326620.6772862189 0 -5326620.6772862189 -805329.13369137759 0 0 0 0 29948237.390655518 -24796237.862815142 0 -24796237.862815142 2328878.0875380039 0 0 0 0 16926172.472503662 3131963.1749162674 0 3131963.1749162674 1551935.9058408737 0 0 0 0 12481567.648193359 64295477.492039233 0 64295477.492039233 -19133873.226413727 0 0 0 0 51540946.182800293 11734035.75510776 0 11734035.75510776 -27954438.662716269 0 0 0 0 9854495.5881767478 7568174.3384214491 0 7568174.3384214491 1500418.7638909931 0 0 0 0 26088282.189437866 9898356.68311584 0 9898356.68311584 -4913524.6529135704 0 0 0 0 34059565.013641357 16564565.488022268 0 16564565.488022268 -44597811.305578917 0 0 0 0 51453542.177230835 -6605027.0753262639 0 -6605027.0753262639 -15490603.714398324 0 0 0 0 77658236.408355713 -53565345.427910447 0 -53565345.427910447 -68775389.661597937 0 0 0 0 68212898.943710327 -72324491.604489207 0 -72324491.604489207 38810853.950385332 0 0 0 0 2783391483.5838318 -1842315912.7650032 0 -1842315912.7650032 1048036687.8280723 0 0 0 0 52371759.284248352 14187447.246437311 0 14187447.246437311 -74253377.263088226 0 0 0 0 22129666.063402191 4252133.7715398185 0 4252133.7715398185 -2127133.3217634372 0 0 0 0 567885.56643886864 -227454.61568500102 0 -227454.61568500102 9342.7832887005061 0 0 0 0 798331.45987401158 -11272379.648780666 0 -11272379.648780666 -5722992.9479238372 0 0 0 0 55416217.429626465 -35190700.577446103 0 -35190700.577446103 -22541503.199546456 0 0 0 0 40191430.139526367 -8052640.8065530062 0 -8052640.8065530062 -7426812.9491457939 0 0 0 0 1717653.3574103117 -11645217.714869052 0 -11645217.714869052 -2449626.9369898541 0 0 0 0 35852605.735443115 -40472788.847333387 0 -40472788.847333387 -8900851.7534691095 0 0 0 0 27098096.13923645 -70960176.989088073 0 -70960176.989088073 136739.97684459388 0 0 0 0 23226047.361221313 -55847550.842919067 0 -55847550.842919067 251908735.42537844 0 0 0 0 19882301.981079102 -54636824.443557888 0 -54636824.443557888 75591966.382296085 0 0 0 0 51236458.481079102 -67951921.515416622 0 -67951921.515416622 -42432507.740973473 0 0 0 0 9671673.548579514 -29038.799071099609 0 -29038.799071099609 -16706.766372195678 0 0 0 0 1775419827.1152039 2058195429.9441814 0 2058195429.9441814 2132348545.8267822 0 0 0 0 5975829060.2077789 -4480376681.7801027 0 -4480376681.7801027 2950557585.9459662 0 0 0 0 2828983937.5985107 -1862759836.4543397 0 -1862759836.4543397 773314734.74856806 0 0 0 0 3976638047.6907959 -2603653012.2004547 0 -2603653012.2004547 667171024.59163749 0 0 0 0 5988560773.4985857 -2294315465.9059057 0 -2294315465.9059057 -258297913.34894827 0 0 0 0 2766963061.1980896 -1328153229.702599 0 -1328153229.702599 264611765.95273158 0 0 0 0 3037237415.6006927 -2081056547.3826511 0 -2081056547.3826511 477564678.31458098 0 0 0 0 3273152905.9524021 -839210895.16239071 0 -839210895.16239071 -70652749.154892325 0 0 0 0 889989206.09124756 -198854496.33834982 0 -198854496.33834982 -66417025.097613245 0 0 0 0 319524769.9133606 -490533212.84383678 0 -490533212.84383678 -145465326.93721092 0 0 0 0 410795785.84399414 475266880.86599094 0 475266880.86599094 -165037122.06256044 0 0 0 0 -75501304.506591797 268835992.82936287 0 268835992.82936287 -722009238.46435356 0 0 0 0 1041463638.7014771 196607512.01067924 0 196607512.01067924 -938816272.57727933 0 0 0 0 4107768.788712278 -4275752.742506925 0 -4275752.742506925 -2495540.8071125969 0 0 0 0 335887251.36779785 -880847338.92577183 0 -880847338.92577183 509653643.44057965 0 0 0 0 676211308.09350586 -286473543.4313879 0 -286473543.4313879 -96963632.595773697 0 0 0 0 2634144352.8717651 -1543489193.9157691 0 -1543489193.9157691 -84476183.323608756 0 0 0 0 11444497.134330466 4479962.9678980634 0 4479962.9678980634 -2867715.0582329486 0 0 0 0 -493834821.70404434 -293238779.09106863 0 -293238779.09106863 696700998.19212008 0 0 0 0 -11462994.726196289 58564266.712619841 0 58564266.712619841 -33211946.243664056 0 0 0 0 33631180.127327919 37732216.245899327 0 37732216.245899327 -27259235.152700663 0 0 0 0 33574739.09197998 40350781.095457971 0 40350781.095457971 -107982992.06981415 0 0 0 0 32085260.867828369 128036194.12399527 0 128036194.12399527 -8818172.8995939493 0 0 0 0 -21827986.763656616 58573054.867270947 0 58573054.867270947 -31944769.233040631 0 0 0 0 3431728.3176843561 714405.34070271254 0 714405.34070271254 -649594.48102273711 0 0 0 0 -254306266.47451782 92293422.160335645 0 92293422.160335645 87764436.170555592 0 0 0 0 253882460.28858948 442234843.00542665 0 442234843.00542665 535239606.46107817 0 0 0 0 451566690.68100739 225107590.45316625 0 225107590.45316625 41424428.461661667 0 0 0 0 527379574.8319931 717575130.68088603 0 717575130.68088603 199352066.29262546 0 0 0 0 215296908.62559509 92922884.556763262 0 92922884.556763262 366322.81885057641 0 0 0 0 -26653710.340133667 223771170.34156069 0 223771170.34156069 86290042.636311352 0 0 0 0 95149401.783157349 63694231.163569354 0 63694231.163569354 7862213.8224816918 0 0 0 0 152611487.51042175 49663229.946092039 0 49663229.946092039 40159295.557869971 0 0 0 0 92860512.32800293 90737874.982703373 0 90737874.982703373 101681092.70379961 0 0 0 0 216529129.06401825 31098325.177233227 0 31098325.177233227 -42015.141474348799 0 0 0 0 215973593.00389099 60120217.13226378 0 60120217.13226378 107381156.24807014 0 0 0 0 276802224.3729248 -61384193.779262155 0 -61384193.779262155 102150880.8131831 0 0 0 0 425088783.81974792 -44337033.227798179 0 -44337033.227798179 25088980.254408866 0 0 0 0 168953246.51037598 97740016.720736489 0 97740016.720736489 170720731.98114371 0 0 0 0 133629512.73110962 -947180.30486187339 0 -947180.30486187339 23199913.463860571 0 0 0 0 130621885.62564087 -54983008.470871389 0 -54983008.470871389 -129730058.3500495 0 0 0 0 99377953.614044189 9994510.5410916209 0 9994510.5410916209 -78311403.585542381 0 0 0 0 210209588.22944641 5454178.3724913597 0 5454178.3724913597 -85588124.367955983 0 0 0 0 93406277.659683228 61211604.036163062 0 61211604.036163062 -58764453.692197561 0 0 0 0 119578999.35922241 109796224.14807841 0 109796224.14807841 21220536.711354315 0 0 0 0 65172116.382171631 84196252.994217634 0 84196252.994217634 -72347146.0859586 0 0 0 0 67230566.46809864 -26228975.31370312 0 -26228975.31370312 -117076435.30262327 0 0 0 0 59118212.341094971 -41143.484845995903 0 -41143.484845995903 -143538322.84277952 0 0 0 0 57235165.524780273 -14449958.003949881 0 -14449958.003949881 -71213043.466449022 0 0 0 0 3945468.5089111328 -57220407.815634012 0 -57220407.815634012 -99985119.59389919 0 0 0 0 1987743.3378519267 1013071.3574378118 0 1013071.3574378118 485143.30265677674 0 0 0 0 25844736.988861084 40216008.117499948 0 40216008.117499948 260585.80227766931 0 0 0 0 -71362105.430374146 -159268986.77818021 0 -159268986.77818021 -97662867.34478569 0 0 0 0 1540514.427734375 18881794.970813558 0 18881794.970813558 -13747707.841321409 0 0 0 0 3790119.0774131417 1522101.3913276196 0 1522101.3913276196 422063.32338723657 0 0 0 0 4642928.5757446289 11928492.218980074 0 11928492.218980074 -3886838.9792442322 0 0 0 0 16589780.302185059 29418598.613969207 0 29418598.613969207 -29896075.955151081 0 0 0 0 3717003.3677344173 1387725.1161791384 0 1387725.1161791384 -2064304.8678420521 0 0 0 0 -113132363.58755493 -92732868.068131626 0 -92732868.068131626 -4116932.7155275345 0 0 0 0 11417329.822662354 9089793.8256776333 0 9089793.8256776333 -19107558.310941696 0 0 0 0 10761498.805358887 12548294.859829783 0 12548294.859829783 -37342620.257977486 0 0 0 0 48082424.799194336 -23685452.499018192 0 -23685452.499018192 -41545028.013645172 0 0 0 0 38491741.255584717 1124883.2452915311 0 1124883.2452915311 -105534130.60440254 0 0 0 0 122399322.36990356 -182033505.88972336 0 -182033505.88972336 -163253444.87745136 0 0 0 0 -80630886.914878845 -169590896.9277781 0 -169590896.9277781 -99823702.762441993 0 0 0 0 45493069.340606689 -91813541.142004013 0 -91813541.142004013 -100930470.51352799 0 0 0 0 86607200.189697266 -136846667.77177513 0 -136846667.77177513 -133115659.31632745 0 0 0 0 227159271.4173584 -11823999.420989335 0 -11823999.420989335 -118324847.38823345 0 0 0 0 5903774.656539917 -126346571.81323054 0 -126346571.81323054 444548833.58330393 0 0 0 0 656738.13012465835 -288856.92198070697 0 -288856.92198070697 -93811.971826374487 0 0 0 0 94078378.823059082 61191270.761774801 0 61191270.761774801 -13848199.732614819 0 0 0 0 -46425017.623413086 318519458.16370332 0 318519458.16370332 104437434.02606386 0 0 0 0 29335482.175598145 -5366152.6078139497 0 -5366152.6078139497 41451.628380498078 0 0 0 0 124772635.32104492 17062308.352349747 0 17062308.352349747 -2864337.6953697503 0 0 0 0 207661431.70018005 69229797.743779272 0 69229797.743779272 -32832049.380317431 0 0 0 0 -24649543.031860352 13912001.992432348 0 13912001.992432348 11672321.498980043 0 0 0 0 -24943538.454370737 -26178613.595887855 0 -26178613.595887855 -5465074.9296067692 0 0 0 0 9393675.3753662109 2727805.144028021 0 2727805.144028021 4066620.7374299467 0 0 0 0 2476665.1987416893 -603869.95227070712 0 -603869.95227070712 -287338.36287423666 0 0 0 0 4517110.4906005859 -6320711.0536610279 0 -6320711.0536610279 -33517049.278684579 0 0 0 0 -16121200.89654541 -160369864.13219982 0 -160369864.13219982 140419011.28359053 0 0 0 0 80383116.337402344 -287477850.25135112 0 -287477850.25135112 -474059338.37114936 0 0 0 0 60747594.971313477 -213954581.54546139 0 -213954581.54546139 -49131152.672469273 0 0 0 0 3098312.7465133667 -3370699.0819136086 0 -3370699.0819136086 -5482529.9868572047 0 0 0 0 -4803633.5646972656 -8925857.4631446935 0 -8925857.4631446935 -5516.0698393442954 0 0 0 0 2427751.0075378418 -6918042.6815581359 0 -6918042.6815581359 -6340872.3130243495 0 0 0 0 5176827.8169250488 -3147630.0974645242 0 -3147630.0974645242 -6638781.5098940488 0 0 0 0 4606867.2362189442 -479576.49632502533 0 -479576.49632502533 -339218.54104908631 0 0 0 0 -30592263.694591522 -86063903.671851829 0 -86063903.671851829 50005880.11866045 0 0 0 0 231708847.63293457 50985664.596552134 0 50985664.596552134 -81978531.570411563 0 0 0 0 179223294.75177002 -44551153.555162668 0 -44551153.555162668 6353358.7131910324 0 0 0 0 -23140126.18157959 -30192631.589014053 0 -30192631.589014053 36385246.140165091 0 0 0 0 -10787178.444580078 -60842361.028412819 0 -60842361.028412819 -5891956.2784523964 0 0 0 0 30554966.705078125 -35033289.257109642 0 -35033289.257109642 7975752.1433691978 0 0 0 0 10605036.779296875 -12164975.134847164 0 -12164975.134847164 -14963874.611800671 0 0 0 0 197068487.55957031 90772358.873728991 0 90772358.873728991 42465378.438037395 0 0 0 0 3775364.5820922852 1279846.4697699547 0 1279846.4697699547 30967639.137613177 0 0 0 0 695359.26682861149 384653.82556338608 0 384653.82556338608 617731.42833593395 0 0 0 0 58917354.134094238 34398953.693698645 0 34398953.693698645 49992127.121051311 0 0 0 0 17110955.501403809 -2488887.1075415611 0 -2488887.1075415611 -998441.25572490692 0 0 0 0 61292446.245788574 3055813.2720394135 0 3055813.2720394135 7115479.8089742661 0 0 0 0 40672419.891601562 46309684.39927578 0 46309684.39927578 -12787515.78645134 0 0 0 0 37106682.973754883 37006890.790914059 0 37006890.790914059 2707314.6823959351 0 0 0 0 56906191.565063477 44022713.211922646 0 44022713.211922646 -450141.48256587982 0 0 0 0 83529987.537597656 25116765.115799904 0 25116765.115799904 -15230927.260406494 0 0 0 0 54236906.828857422 -11416535.332191467 0 -11416535.332191467 -10871597.936071873 0 0 0 0 30254019.788696289 -55938649.495507717 0 -55938649.495507717 17571128.05199337 0 0 0 0 141693697.765625 9706553.5961575508 0 9706553.5961575508 -5780872.411703825 0 0 0 0 25048347.16619873 2834830.5716450214 0 2834830.5716450214 -6351599.6255235672 0 0 0 0 32281421.951843262 -3526112.5221223831 0 -3526112.5221223831 -16632646.58611393 0 0 0 0 35268727.103546143 12208879.903276443 0 12208879.903276443 -1894782.414683342 0 0 0 0 28641139.020080566 19620805.486236215 0 19620805.486236215 1736706.0324811935 0 0 0 0 57702543.921569824 17768504.20208168 0 17768504.20208168 -13639081.901929855 0 0 0 0 42861767.468536377 16891371.572896481 0 16891371.572896481 -3440335.4276638031 0 0 0 0 45432477.853851318 12281907.999653339 0 12281907.999653339 4636136.919927597 0 0 0 0 40604505.506469727 12459961.5653162 0 12459961.5653162 -12058500.09860301 0 0 0 0 28665899.360969543 1211576.5851988792 0 1211576.5851988792 -9166481.0849266052 0 0 0 0 27710843.760986328 756377.03209447861 0 756377.03209447861 -9239966.3002958298 0 0 0 0 31931988.840698242 13905821.70994091 0 13905821.70994091 14971158.674118042 0 0 0 0 60290598.596008301 16591485.262214661 0 16591485.262214661 -3559352.0439031124 0 0 0 0 50895502.512695312 -2181880.6188263893 0 -2181880.6188263893 551915.5133228302 0 0 0 0 -803056.94123516977 2135769.5740255769 0 2135769.5740255769 800829.8737271115 0 0 0 0 28040009.893127441 -3292618.2675623894 0 -3292618.2675623894 -3200062.5348982811 0 0 0 0 12221758.391845703 23590778.671871901 0 23590778.671871901 10910870.389377594 0 0 0 0 8706913.1102294922 -14736485.896461964 0 -14736485.896461964 -7410030.8095417023 0 0 0 0 9072514.9504801929 -876904.12498118728 0 -876904.12498118728 5547819.5798334125 0 0 0 0 15699903.271697998 1318383.2634220123 0 1318383.2634220123 -980449.6793088913 0 0 0 0 108505.76499442756 545942.15642131411 0 545942.15642131411 1271479.9094598815 0 0 0 0 42362030.064117432 42079115.401374102 0 42079115.401374102 46839094.152887538 0 0 0 0 9874062.1162232161 3589350.8574864194 0 3589350.8574864194 4144172.7431448125 0 0 0 0 21698588.81010437 14323065.077150702 0 14323065.077150702 13908271.820362568 0 0 0 0 24202490.97277832 16529629.653850555 0 16529629.653850555 13709475.543539375 0 0 0 0 16638452.755913094 -692131.1912959771 0 -692131.1912959771 1774121.7165736321 0 0 0 0 24982120.244415283 13003439.884395361 0 13003439.884395361 1519569.3471951485 0 0 0 0 11568550.984375 1757948.0269036293 0 1757948.0269036293 -418557.18779754639 0 0 0 0 9475167.5012969971 1158101.2251667976 0 1158101.2251667976 1857184.1068973541 0 0 0 0 13845675.046797082 -781230.66121183336 0 -781230.66121183336 1432087.6137391883 0 0 0 0 -524373.56884765625 3404678.7735328674 0 3404678.7735328674 -1885537.8088691235 0 0 0 0 3358384.4207327664 2736643.4459450203 0 2736643.4459450203 8615788.2885927632 0 0 0 0 1869966.3745117188 254799.32953262329 0 254799.32953262329 -481035.52689111233 0 0 0 0 5278280.8245223761 875529.79849624122 0 875529.79849624122 7592589.0418375209 0 0 0 0 13019365.738647461 468625.50656509399 0 468625.50656509399 224205.0598449707 0 0 0 0 10617455.294677615 4889466.6924400106 0 4889466.6924400106 5925724.1020108294 0 0 0 0 13563513.642760426 1466677.0016020602 0 1466677.0016020602 1146201.0536425612 0 0 0 0 10576492.068618774 1128478.9266803265 0 1128478.9266803265 -774331.79111194611 0 0 0 0 5822036.6857227087 2386268.5556221548 0 2386268.5556221548 4702876.5890265116 0 0 0 0 7938641.3558654785 1465022.3906183243 0 1465022.3906183243 2395476.3322658539 0 0 0 0 8459463.755065918 2078715.8667850494 0 2078715.8667850494 2916178.6931198239 0 0 0 0 9874838.1583623439 -507147.66627378948 0 -507147.66627378948 7482383.5305090537 0 0 0 0 8508765.8522796631 1762849.7665433884 0 1762849.7665433884 2206688.0118379593 0 0 0 0 5316220.6337218136 -1448999.6780412886 0 -1448999.6780412886 5207504.8416680656 0 0 0 0 7317383.5701293945 -5641.9233913421631 0 -5641.9233913421631 1647799.7359924316 0 0 0 0 2101901.9754638672 -440544.30131149292 0 -440544.30131149292 3931175.8381717205 0 0 0 0 3568003.8202285767 310297.7275891304 0 310297.7275891304 4111468.0868625641 0 0 0 0 12321616.393230543 5301203.4632776752 0 5301203.4632776752 5777744.028244501 0 0 0 0 5216302.2509536743 454188.46572327614 0 454188.46572327614 1725926.6628551483 0 0 0 0 12338961.585742131 4213375.0031478256 0 4213375.0031478256 3354948.2945846813 0 0 0 0 4423386.0874893516 935143.11047915928 0 935143.11047915928 3370186.5663568489 0 0 0 0 5985302.3160858154 1427106.2680034637 0 1427106.2680034637 2020333.8471393585 0 0 0 0 6594042.9673461914 973028.46953582764 0 973028.46953582764 594535.04621505737 0 0 0 0 4499063.4273040444 188391.10139487311 0 188391.10139487311 914592.64146327507 0 0 0 0 6775923.6187057495 1495498.1272053719 0 1495498.1272053719 812918.80783081055 0 0 0 0 4470831.0716552734 894255.87265491486 0 894255.87265491486 898118.7661819458 0 0 0 0 5279290.0264587402 1735124.9183006287 0 1735124.9183006287 605294.99844789505 0 0 0 0 11192810.601388648 3338584.8413908109 0 3338584.8413908109 1761947.0082643852 0 0 0 0 5405679.6801300049 597970.27960014343 0 597970.27960014343 1027216.5246162415 0 0 0 0 12443063.033515468 3457382.2800661251 0 3457382.2800661251 1435862.7592145856 0 0 0 0 7630675.1010415666 3932973.0052005127 0 3932973.0052005127 1507033.9876035601 0 0 0 0 9283488.4670353606 3034854.2422439829 0 3034854.2422439829 217691.3932682178 0 0 0 0 1606286.2798461914 1364029.1306552887 0 1364029.1306552887 -57789.315298557281 0 0 0 0 2139754.4409199059 1989571.2234684732 0 1989571.2234684732 2334889.4414472277 0 0 0 0 32310373.681640625 13251529.836724758 0 13251529.836724758 15166295.655162811 0 0 0 0 4273881.1968574524 1469590.7864539623 0 1469590.7864539623 -6509.8366622924805 0 0 0 0 4116548.7591400146 576545.90871036053 0 576545.90871036053 105489.90476894379 0 0 0 0 2675736.5470337942 820607.4774845168 0 820607.4774845168 139723.35129454779 0 0 0 0 14112375.165527344 7493571.3645801544 0 7493571.3645801544 4121664.6253433228 0 0 0 0 9804359.512137156 4432075.7528383583 0 4432075.7528383583 765084.72879140079 0 0 0 0 9916961.2764641345 1840244.8698239103 0 1840244.8698239103 514085.43628847017 0 0 0 0 6644075.2590171471 3206657.0721708387 0 3206657.0721708387 1480425.3092762362 0 0 0 0 30703809.305389404 4453242.5593993664 0 4453242.5593993664 -3756913.5022695363 0 0 0 0 26101892.2784729 18881585.342489302 0 18881585.342489302 8508184.4280920029 0 0 0 0 10816428.837115109 3363709.8233342571 0 3363709.8233342571 -759845.97366640344 0 0 0 0 12053213.326315716 4767652.6327609867 0 4767652.6327609867 -313743.95918187627 0 0 0 0 22432064.469970703 -11353726.191792727 0 -11353726.191792727 -69122879.942754745 0 0 0 0 5600671.4404296875 2970873.6911115646 0 2970873.6911115646 -637553.92828893661 0 0 0 0 14948448.554489136 3335318.9423801899 0 3335318.9423801899 2857150.7745010853 0 0 0 0 7080116.8001403809 53855697.128513813 0 53855697.128513813 -72715164.554705381 0 0 0 0 16168489.353625879 5555187.5211409442 0 5555187.5211409442 573872.96599880641 0 0 0 0 8502404.6039886475 8995885.7448472977 0 8995885.7448472977 256654.69152832031 0 0 0 0 3209713.0760805737 2150089.0490235537 0 2150089.0490235537 -545502.81902364898 0 0 0 0 23278983.206783295 -12036600.130172338 0 -12036600.130172338 -44449529.239230394 0 0 0 0 7506310.943572998 8407044.3859148026 0 8407044.3859148026 2317683.4159517288 0 0 0 0 10216953.263287019 3769345.6796401441 0 3769345.6796401441 1773369.9572465997 0 0 0 0 7042062.3984947205 8941285.4532532692 0 8941285.4532532692 3550192.5544128418 0 0 0 0 7804468.9019165039 5568069.3174982071 0 5568069.3174982071 2521597.7591514587 0 0 0 0 6239609.3949279785 3594660.480448246 0 3594660.480448246 -31857.05051612854 0 0 0 0 7070012.8002014011 4109562.0034417734 0 4109562.0034417734 1500315.394137043 0 0 0 0 6143288.2476196289 2067627.7120103836 0 2067627.7120103836 1174379.3247718811 0 0 0 0 10981834.083280802 5617395.3642522246 0 5617395.3642522246 3007616.4411048777 0 0 0 0 7979470.5044384599 4115780.1240553036 0 4115780.1240553036 2271173.0364808943 0 0 0 0 11158415.661526814 5637078.2459812537 0 5637078.2459812537 1528943.7733402932 0 0 0 0 4221543.7825927734 1694995.824379921 0 1694995.824379921 -554560.88281583786 0 0 0 0 3722220.7820739746 -173240.55591392517 0 -173240.55591392517 1717793.9470481873 0 0 0 0 6929914.5465087891 4414986.0821762085 0 4414986.0821762085 1124708.7703249454 0 0 0 0 2410774.4234722555 2785001.1863774508 0 2785001.1863774508 4966350.0315626608 0 0 0 0 3158092.0549316406 2512139.0951557159 0 2512139.0951557159 662206.36614227295 0 0 0 0 9748758.856829904 4611894.5765084922 0 4611894.5765084922 3653403.4163256371 0 0 0 0 10009118.16396625 4109275.8952075094 0 4109275.8952075094 5743114.4464006312 0 0 0 0 2307460.6179303378 427328.38891205098 0 427328.38891205098 12771325.693051467 0 0 0 0 5592318.3804213554 -385329.03490069695 0 -385329.03490069695 3467283.7216586424 0 0 0 0 5706342.4526367188 4027925.4961643219 0 4027925.4961643219 4025000.4823188782 0 0 0 0 2124352.2393798828 2089950.9298706055 0 2089950.9298706055 6022500.1338920593 0 0 0 0 8673017.2016601562 7794654.0265979767 0 7794654.0265979767 2639286.6321182251 0 0 0 0 15009820.94950629 7433074.9573576748 0 7433074.9573576748 1174036.9386182819 0 0 0 0 -284661.83664745092 423714.72787304223 0 423714.72787304223 474325.50089558028 0 0 0 0 2335748.7717285156 1577584.6801528931 0 1577584.6801528931 7001011.7332458496 0 0 0 0 -865951.62200927734 2416138.6133594513 0 2416138.6133594513 1638241.0702819824 0 0 0 0 5924347.8469270393 5714204.6780106202 0 5714204.6780106202 3345164.0209187716 0 0 0 0 6265654.6906978674 2364551.1192837358 0 2364551.1192837358 3752034.6234066505 0 0 0 0 1799671.1440785378 1547523.098341465 0 1547523.098341465 13293027.059385721 0 0 0 0 3021368.7063598633 10856165.678871155 0 10856165.678871155 12753962.68863678 0 0 0 0 1235304.7721508145 5750359.1708936216 0 5750359.1708936216 11622682.935455006 0 0 0 0 3886160.0973510742 7419860.5724086761 0 7419860.5724086761 9160975.370010376 0 0 0 0 2408259.7031555176 4944944.9856491089 0 4944944.9856491089 -1968841.2143707275 0 0 0 0 7279125.3773803711 14150884.928668976 0 14150884.928668976 15209098.557937622 0 0 0 0 16092308.372879028 18144354.816702843 0 18144354.816702843 10705863.3540802 0 0 0 0 153677.59986563027 1148493.0708865598 0 1148493.0708865598 1029903.9677580521 0 0 0 0 -8797704.2123718262 7086365.679599762 0 7086365.679599762 13185840.687423706 0 0 0 0 -5714310.6395263672 11095829.44751358 0 11095829.44751358 14499151.546001434 0 0 0 0 -3593951.1475830078 7268971.9727630615 0 7268971.9727630615 19906074.904502869 0 0 0 0 486231.39349365234 5700040.103969574 0 5700040.103969574 22885757.209255219 0 0 0 0 692875.53442382812 7763340.9384155273 0 7763340.9384155273 14060953.81086731 0 0 0 0 9214278.4637451172 21953138.543003082 0 21953138.543003082 -2956609.3826217651 0 0 0 0 -3329301.2019042969 13919235.900999069 0 13919235.900999069 35424799.317512512 0 0 0 0 6128097.5016060174 8658697.0245846808 0 8658697.0245846808 6993274.7835143898 0 0 0 0 370726.21136474609 8384032.1292629242 0 8384032.1292629242 3047770.9344329834 0 0 0 0 -2391967.9111175537 14520820.018143654 0 14520820.018143654 15549318.795845032 0 0 0 0 -1695373.73828125 11784876.739624023 0 11784876.739624023 10271061.901660919 0 0 0 0 2262016.5573730469 8722493.9642448425 0 8722493.9642448425 11190137.346757889 0 0 0 0 -1764212.8358154297 9609385.0167350769 0 9609385.0167350769 3667761.5573959351 0 0 0 0 11049518.728637695 1285607.7989082336 0 1285607.7989082336 -3824889.1092529297 0 0 0 0 17624782.676289991 6933619.5935287699 0 6933619.5935287699 -366003.05704950076 0 0 0 0 130204.11448031664 66393.189474850893 0 66393.189474850893 -30732.86920621153 0 0 0 0 7571041.6557617188 10364592.886810303 0 10364592.886810303 2381432.6001663208 0 0 0 0 6378794.5898742676 18561731.676302433 0 18561731.676302433 6218714.3840446472 0 0 0 0 10343372.518719673 -5639781.0352969766 0 -5639781.0352969766 -10888076.769958496 0 0 0 0 6173908.8862774819 9670524.7805218566 0 9670524.7805218566 6995554.6511162231 0 0 0 0 9254222.6250610352 11039166.064096451 0 11039166.064096451 5513170.249979198 0 0 0 0 14919949.313720703 40521025.322101593 0 40521025.322101593 20776549.311553955 0 0 0 0 18981926.05645752 7416412.6319122314 0 7416412.6319122314 -9264719.1324768066 0 0 0 0 268918.66593929008 2805381.9582011402 0 2805381.9582011402 1072985.5230404288 0 0 0 0 1335663.4191894531 6279262.3281583786 0 6279262.3281583786 16674321.799621582 0 0 0 0 1913999.9511952847 6978008.7729044352 0 6978008.7729044352 8855955.1996630207 0 0 0 0 -22518857.661865234 -16866784.741891861 0 -16866784.741891861 -2525760.9056816101 0 0 0 0 -8814523.2844607979 3557307.183551427 0 3557307.183551427 6827243.7249696385 0 0 0 0 10024149.760485724 14889783.820160545 0 14889783.820160545 2397501.3519692719 0 0 0 0 -120059708.88494873 -2429802.0206985474 0 -2429802.0206985474 56906942.59198761 0 0 0 0 -215255169.39248657 27217428.621736526 0 27217428.621736526 55942977.257289886 0 0 0 0 -38541938.968032837 76656272.913326263 0 76656272.913326263 -40575131.664402008 0 0 0 0 -56787748.46673584 -154183949.65549469 0 -154183949.65549469 -204015042.34426117 0 0 0 0 410689.15306811035 4152671.0168321878 0 4152671.0168321878 3557121.5700955396 0 0 0 0 -40936469.482116699 237234349.62520218 0 237234349.62520218 -280947834.72055817 0 0 0 0 51126051.381011963 48997093.056489944 0 48997093.056489944 -96397550.355081558 0 0 0 0 15612113.526575096 14441607.211026136 0 14441607.211026136 763044.3171213707 0 0 0 0 14070070.993515015 10017241.925984859 0 10017241.925984859 1660328.1381225586 0 0 0 0 10192985.355102539 9883202.0262260437 0 9883202.0262260437 1656051.8385485411 0 0 0 0 -415477599.94277954 -42828152.34006995 0 -42828152.34006995 -6960468.9180283546 0 0 0 0 -519903333.44638062 -209521066.87729788 0 -209521066.87729788 157388054.84353638 0 0 0 0 2621098.5399488155 1852730.8687090203 0 1852730.8687090203 333745.0715519432 0 0 0 0 -1063671954.0380554 -112821244.42036057 0 -112821244.42036057 82531522.878189087 0 0 0 0 -1295868.2463943511 -258128.09385251999 0 -258128.09385251999 465619.40722543746 0 0 0 0 9455999.8428649902 10178208.495448112 0 10178208.495448112 1648211.153231144 0 0 0 0 9193544.8315124512 9915241.2035207748 0 9915241.2035207748 1986344.5083236694 0 0 0 0 7211065.351020813 9594587.1591900587 0 9594587.1591900587 2111722.0487422943 0 0 0 0 10295511.339935303 8648038.31686306 0 8648038.31686306 -1740093.5531158447 0 0 0 0 12247184.56350708 10113470.842442513 0 10113470.842442513 -4627026.1993312836 0 0 0 0 18697556.391611338 16907075.077861436 0 16907075.077861436 -1026848.2094886573 0 0 0 0 15622930.507493466 9943622.119654581 0 9943622.119654581 1679531.3242181062 0 0 0 0 11943937.417953491 10980023.57376194 0 10980023.57376194 -1789811.236125946 0 0 0 0 -489358196.04275513 151353092.25497675 0 151353092.25497675 185889567.12929535 0 0 0 0 -1867795713.5614014 -429641856.91593552 0 -429641856.91593552 797295119.2013855 0 0 0 0 -555829592.41146851 -142119572.39556503 0 -142119572.39556503 522712756.67344666 0 0 0 0 -1269688322.7183838 -108080271.98970413 0 -108080271.98970413 624872533.77827454 0 0 0 0 -346857728.80490112 -357176705.39681625 0 -357176705.39681625 229761378.32258606 0 0 0 0 -1712395855.8930054 327701959.76325226 0 327701959.76325226 568287524.43525696 0 0 0 0 21216618.674804688 -1110745.600818634 0 -1110745.600818634 27223999.724906921 0 0 0 0 129593.52158785239 716447.69155277312 0 716447.69155277312 28983.66940305382 0 0 0 0 -857079212.16021729 180212629.31723022 0 180212629.31723022 1005375004.6027222 0 0 0 0 20126549.713741779 124825865.78570426 0 124825865.78570426 42616306.60949707 0 0 0 0 -33702569.233917236 -48031072.750761032 0 -48031072.750761032 -295660459.98655319 0 0 0 0 -1000855.5724534839 3696138.6496730521 0 3696138.6496730521 1839838.9099790193 0 0 0 0 5665903.3058547974 -92147337.210943222 0 -92147337.210943222 -268712776.13534546 0 0 0 0 -148523657.10215759 -49702054.325059891 0 -49702054.325059891 159487888.03946686 0 0 0 0 -1721098.3835313246 -1311448.8307445422 0 -1311448.8307445422 12624170.820142023 0 0 0 0 -121869290.81152344 -143227275.21621704 0 -143227275.21621704 -109207177.25473022 0 0 0 0 -104359.88640084863 216209.28627749253 0 216209.28627749253 402929.27565022185 0 0 0 0 -781653639.95684814 -365203756.655159 0 -365203756.655159 -549101685.63962555 0 0 0 0 -1460694066.2113647 -760608910.24365234 0 -760608910.24365234 183141433.79046631 0 0 0 0 -1372558355.4228745 -426677945.36450481 0 -426677945.36450481 658537641.69914246 0 0 0 0 -549494478.90802002 87276430.240913391 0 87276430.240913391 111102928.83840942 0 0 0 0 -400187105.17540741 -184200230.37581444 0 -184200230.37581444 511906550.21295166 0 0 0 0 -724784169.03625488 499279195.70058823 0 499279195.70058823 -63099331.225084305 0 0 0 0 -264648204.68443298 669167314.63027763 0 669167314.63027763 435372109.30023956 0 0 0 0 -571103251.60740662 275396989.0320816 0 275396989.0320816 124045971.4440918 0 0 0 0 -232055785.18421936 389420023.06729507 0 389420023.06729507 -641155594.80018234 0 0 0 0 -199317354.99385071 634100428.13375473 0 634100428.13375473 -366180163.93310928 0 0 0 0 -554910683.83267212 517448305.35170746 0 517448305.35170746 179346313.74725246 0 0 0 0 -3095410.8018051982 4767680.3485963941 0 4767680.3485963941 12725003.409031216 0 0 0 0 -2078258.4857788086 7645687.223815918 0 7645687.223815918 -576142.09932565689 0 0 0 0 617165.87270349264 10219602.941518821 0 10219602.941518821 4483101.2734239623 0 0 0 0 16426325.560394287 -12466584.06552887 0 -12466584.06552887 -134866215.06030273 0 0 0 0 -1243728.0993409902 10643391.773757681 0 10643391.773757681 4390345.7512166537 0 0 0 0 -639843590.20519638 255892047.89203072 0 255892047.89203072 -211924267.05300903 0 0 0 0 -908918114.60852051 281542865.17588997 0 281542865.17588997 106066635.90615082 0 0 0 0 21810913.834278107 60324960.823738098 0 60324960.823738098 1709572.2457733154 0 0 0 0 -491384.19120332971 7837464.3927264437 0 7837464.3927264437 833463.73368479311 0 0 0 0 4296264.768157959 1504551.7058448792 0 1504551.7058448792 7849255.4315414429 0 0 0 0 -411452.2057935968 -710597.97011130303 0 -710597.97011130303 811107.60691257194 0 0 0 0 -3529698.310836792 6794667.1024551392 0 6794667.1024551392 7392142.7634811401 0 0 0 0 1717542.5799906552 5338609.3107309341 0 5338609.3107309341 6285271.2144927438 0 0 0 0 -4506298.3555908203 4355202.8195877075 0 4355202.8195877075 8688744.6613087654 0 0 0 0 1879763.7977294922 5711586.67486763 0 5711586.67486763 4074901.9500961304 0 0 0 0 1126786.6852416992 3695883.3703784943 0 3695883.3703784943 5554002.7626718283 0 0 0 0 2060737.9371337891 1720915.3924255371 0 1720915.3924255371 5884810.878492713 0 0 0 0 3902233.4342041016 1748643.5474433899 0 1748643.5474433899 5015930.8862361908 0 0 0 0 803564.78494262695 967954.00165367126 0 967954.00165367126 6041064.7745246887 0 0 0 0 4761291.782066647 2135622.1675164476 0 2135622.1675164476 4743753.1852475032 0 0 0 0 2315215.018661499 -100079.18551254272 0 -100079.18551254272 4344191.7796363831 0 0 0 0 4535382.6068410277 1611875.8637691513 0 1611875.8637691513 8006497.4674891457 0 0 0 0 -11510196.995452881 -10167082.345002174 0 -10167082.345002174 22348940.838542938 0 0 0 0 -6613649.2150268555 8087013.677349329 0 8087013.677349329 13365310.459373474 0 0 0 0 2257105.3851928711 4431642.9821338654 0 4431642.9821338654 4475442.5407544971 0 0 0 0 4793836.7272624671 1389845.2816753834 0 1389845.2816753834 5064408.9216124415 0 0 0 0 -1949983.358581543 1696074.6847114563 0 1696074.6847114563 6927213.4720840454 0 0 0 0 -4027400.9075622559 7432433.8875293732 0 7432433.8875293732 10893506.729945183 0 0 0 0 7249017.4764099121 4249491.4279375076 0 4249491.4279375076 724552.98440551758 0 0 0 0 6434313.4662365466 1311028.8383786157 0 1311028.8383786157 5829671.1360788345 0 0 0 0 -1021698.7314758301 2263230.2006187439 0 2263230.2006187439 3007683.107925415 0 0 0 0 1040010.4659684598 4010012.4619156122 0 4010012.4619156122 7214189.3147489857 0 0 0 0 -1603667.1869695336 2243682.6634432375 0 2243682.6634432375 12072079.297334917 0 0 0 0 9448297.0152282715 199594.19040679932 0 199594.19040679932 1663124.7183856964 0 0 0 0 -3838010.1609954834 -5852847.2108516693 0 -5852847.2108516693 13946290.701797485 0 0 0 0 -8541831.3760375977 -8386418.6226863861 0 -8386418.6226863861 12270006.370933533 0 0 0 0 -7097818.3689880371 -4521196.5778579712 0 -4521196.5778579712 38134323.732063293 0 0 0 0 -3535514.6139240116 -658035.14879196137 0 -658035.14879196137 15860980.373175915 0 0 0 0 504589.51928710938 -11320101.172149658 0 -11320101.172149658 43710456.36224556 0 0 0 0 -5048133.705078125 -15283861.992961884 0 -15283861.992961884 16512905.417297363 0 0 0 0 -11157836.519584656 11324273.837499619 0 11324273.837499619 32411761.350189209 0 0 0 0 20890740.981735229 -9893283.3541202545 0 -9893283.3541202545 11414811.131128311 0 0 0 0 -998631.34016413987 -7860696.5549087413 0 -7860696.5549087413 10502719.780999247 0 0 0 0 1462606.0021177232 -9997808.1020410992 0 -9997808.1020410992 13485244.477472054 0 0 0 0 -4837541.4971313477 -3215879.6862411499 0 -3215879.6862411499 4001192.4072570801 0 0 0 0 -9981567.2548980713 -3216487.813911438 0 -3216487.813911438 7622134.776008606 0 0 0 0 455024.08717897534 -7073713.9133685706 0 -7073713.9133685706 16011216.809312996 0 0 0 0 -850323.11090087891 -585803.24806213379 0 -585803.24806213379 487241.43438720703 0 0 0 0 3294556.0025651883 184807.39777980745 0 184807.39777980745 2414182.9666792378 0 0 0 0 14186710.131652832 -15093956.131016731 0 -15093956.131016731 10381018.49048233 0 0 0 0 15390519.792900577 -8738914.6968044378 0 -8738914.6968044378 6896273.0621221224 0 0 0 0 15359447.246776879 -13279623.831812162 0 -13279623.831812162 5312569.0656163786 0 0 0 0 27582843.856056213 -15058211.745779037 0 -15058211.745779037 3211268.9921226501 0 0 0 0 25193657.459388733 -19502393.761087418 0 -19502393.761087418 23774139.662326813 0 0 0 0 3421783.7916641235 14269364.896854401 0 14269364.896854401 19252258.258823395 0 0 0 0 -1748970.0029902905 1040157.271320492 0 1040157.271320492 3229712.0226403372 0 0 0 0 33866826.950820923 1586620.7188606262 0 1586620.7188606262 3017126.20023489 0 0 0 0 -4092126.3856887817 5857782.314391613 0 5857782.314391613 32123825.843818665 0 0 0 0 -10035727.114818573 -5157725.7043585777 0 -5157725.7043585777 33680459.121156693 0 0 0 0 51028147.905639648 -2737451.7789335251 0 -2737451.7789335251 5344084.0498962402 0 0 0 0 7789559.3028584719 -292268.66322442889 0 -292268.66322442889 6893199.4782121964 0 0 0 0 5683257.788734436 -7311124.0562553406 0 -7311124.0562553406 4971844.90193367 0 0 0 0 26355718.380065918 -11166749.698671341 0 -11166749.698671341 4028309.9895963669 0 0 0 0 30573325.388000488 -3084609.1098423004 0 -3084609.1098423004 -3982796.499645412 0 0 0 0 15655119.797504425 -1811293.2608685493 0 -1811293.2608685493 2440485.5148487091 0 0 0 0 37776487.206054688 9965011.5217952728 0 9965011.5217952728 10147892.984762192 0 0 0 0 32902420.459228516 -515470.95230293274 0 -515470.95230293274 1819059.5919971466 0 0 0 0 27401540.0675354 9229803.7944493294 0 9229803.7944493294 27970843.743030548 0 0 0 0 31352031.762130737 4782603.4853782654 0 4782603.4853782654 16905939.898986816 0 0 0 0 28678322.182678223 -5810495.7783424854 0 -5810495.7783424854 6965374.5131187439 0 0 0 0 18590925.500488281 -4885101.2145195007 0 -4885101.2145195007 12021199.292251587 0 0 0 0 27166929.31338501 -3429711.0903301239 0 -3429711.0903301239 4953572.5773239136 0 0 0 0 3180216.3859361112 672537.28830850869 0 672537.28830850869 -534831.97709515505 0 0 0 0 23378423.766937256 -3387234.0310916901 0 -3387234.0310916901 8518794.0760211945 0 0 0 0 10988983.304199219 -6638871.3841457367 0 -6638871.3841457367 -7689174.6599048376 0 0 0 0 23270008.453857422 -1812990.9779930115 0 -1812990.9779930115 8026361.8189220428 0 0 0 0 22673015.876731873 20591241.003917217 0 20591241.003917217 2122657.8544387817 0 0 0 0 11062530.717353582 1707677.3190427423 0 1707677.3190427423 5955599.597845939 0 0 0 0 -68685.658447265625 3207936.4512214661 0 3207936.4512214661 -2010225.8241558075 0 0 0 0 8312388.6025390625 -1119111.6789798737 0 -1119111.6789798737 2618101.7028656006 0 0 0 0 35887431.87934494 20189633.122047424 0 20189633.122047424 130323.12672805786 0 0 0 0 13649386.104105763 2333913.9903062209 0 2333913.9903062209 3468710.8542127246 0 0 0 0 26408929.883911133 307543.56760025024 0 307543.56760025024 -2938821.153213501 0 0 0 0 12702361.970589701 -2541746.695713155 0 -2541746.695713155 275792.35790042579 0 0 0 0 26683820.68474574 964846.3835215643 0 964846.3835215643 -1872415.9132663286 0 0 0 0 681161.60984392837 324279.63726869226 0 324279.63726869226 -188820.93908048235 0 0 0 0 11461073.929138184 -9536459.087199688 0 -9536459.087199688 -6604124.7891874313 0 0 0 0 21794386.811439514 -4954413.740228653 0 -4954413.740228653 1360464.7261238098 0 0 0 0 22498032.3501091 -6163480.3976606131 0 -6163480.3976606131 473715.7806892395 0 0 0 0 16158991.283103704 -10103249.586742217 0 -10103249.586742217 2418050.172605644 0 0 0 0 31488889.429209545 -7710527.1129451096 0 -7710527.1129451096 2012344.6848715097 0 0 0 0 14584034.388191223 -10831901.665360689 0 -10831901.665360689 5963229.560962677 0 0 0 0 26409911.816547208 -11666947.265263911 0 -11666947.265263911 4933707.7010867503 0 0 0 0 1078775.2104187012 -47038814.324408531 0 -47038814.324408531 15565350.880353928 0 0 0 0 27759637.173797607 -14309112.517886162 0 -14309112.517886162 6293186.8463096619 0 0 0 0 5946993.755378738 -14606229.767834106 0 -14606229.767834106 837197.11638533813 0 0 0 0 14380107.777420044 -47716959.693715096 0 -47716959.693715096 13010572.341403961 0 0 0 0 23808506.533294678 -86746035.746539831 0 -86746035.746539831 -34632918.195384026 0 0 0 0 26125827.123321533 -55954622.223689556 0 -55954622.223689556 -109238608.17053246 0 0 0 0 -7021730.5457191467 -77997678.986672401 0 -77997678.986672401 -24349573.852090836 0 0 0 0 18665664.499080703 -14904109.191636249 0 -14904109.191636249 4205415.9178120932 0 0 0 0 21303918.2775383 -99245701.5732342 0 -99245701.5732342 -15048458.840909958 0 0 0 0 44699995.527196884 -50899587.065473676 0 -50899587.065473676 -13832429.91959095 0 0 0 0 -31417677.098348618 -56566346.193642497 0 -56566346.193642497 61753090.143536568 0 0 0 0 5463147.0017871857 -198682187.23706377 0 -198682187.23706377 126860952.19614315 0 0 0 0 -182006950.9526825 -202742419.90135336 0 -202742419.90135336 151596021.60832262 0 0 0 0 120554095.25230408 -60537897.002481461 0 -60537897.002481461 113777705.31324765 0 0 0 0 -222947406.3969574 -30268993.159513474 0 -30268993.159513474 136038244.68364167 0 0 0 0 -105196992.88485336 68334484.227318883 0 68334484.227318883 -10589043.026637554 0 0 0 0 -69916439.779342651 -52338175.600848436 0 -52338175.600848436 71130525.195388794 0 0 0 0 8618169.6983566284 -23283169.445281506 0 -23283169.445281506 714783.38723564148 0 0 0 0 -56483051.744064331 -41588331.003122807 0 -41588331.003122807 14661390.752689898 0 0 0 0 13501406.444943577 -16344452.558660112 0 -16344452.558660112 7501675.2655546889 0 0 0 0 8412991.9098984301 -10805111.71676207 0 -10805111.71676207 4054712.8657810055 0 0 0 0 -43641527.317115784 6815844.3233473301 0 6815844.3233473301 24692430.350587547 0 0 0 0 4776167.8060684204 -14344315.78664732 0 -14344315.78664732 5649677.3776035309 0 0 0 0 -10526311.417488247 -7788067.4014826231 0 -7788067.4014826231 10970662.276050629 0 0 0 0 -11194190.833129883 -14209166.458146095 0 -14209166.458146095 11059141.471224546 0 0 0 0 4901599.3351287842 -15418698.751001179 0 -15418698.751001179 4741109.5662002563 0 0 0 0 -28659037.192337036 -12006377.409603119 0 -12006377.409603119 11749737.370029449 0 0 0 0 1933063.9869466498 -858639.92612987384 0 -858639.92612987384 244617.73578556627 0 0 0 0 5867078.5742053986 -18588206.156645894 0 -18588206.156645894 10959746.032203674 0 0 0 0 6596304.7387313843 -23499677.038419843 0 -23499677.038419843 2725951.3607444763 0 0 0 0 6235087.6875152588 -13032771.356741905 0 -13032771.356741905 11228302.489590645 0 0 0 0 2310872.1945495605 -21272099.304999352 0 -21272099.304999352 4935868.8871803284 0 0 0 0 11434370.117567062 -14202339.512212992 0 -14202339.512212992 3941391.6188659668 0 0 0 0 12837788.187885284 -8437513.0537850857 0 -8437513.0537850857 12009763.575439453 0 0 0 0 3814090.6552196778 -11773095.02105426 0 -11773095.02105426 15374889.069128143 0 0 0 0 20217535.374786377 -13086070.400515556 0 -13086070.400515556 8467287.4026117325 0 0 0 0 -55646705.800979614 47504978.535257339 0 47504978.535257339 24565379.868103027 0 0 0 0 -49905929.616615295 45463535.147147179 0 45463535.147147179 9592989.6357498169 0 0 0 0 -10456123.392835245 6190448.6713024303 0 6190448.6713024303 1209060.9267236721 0 0 0 0 -50264534.564178467 40776887.63817215 0 40776887.63817215 30803875.926513672 0 0 0 0 -10321919.586486816 -765842.79289627075 0 -765842.79289627075 5247975.9570388794 0 0 0 0 3268928.686340332 -2576001.1226501465 0 -2576001.1226501465 2099321.3391304016 0 0 0 0 -649022.33820571005 -2081945.1661201045 0 -2081945.1661201045 8482551.9714946598 0 0 0 0 -3023421.2153625488 -25566485.409753799 0 -25566485.409753799 -36845636.279388428 0 0 0 0 -47042648.294189453 36099087.983169556 0 36099087.983169556 39806747.911254883 0 0 0 0 -34128738.812133789 25718465.146606445 0 25718465.146606445 43728232.251419067 0 0 0 0 -21406206.463195801 23058679.793357849 0 23058679.793357849 21629116.887290955 0 0 0 0 -8981923.0832519531 888451.48544311523 0 888451.48544311523 50386359.382461548 0 0 0 0 21605792.532226562 22581270.35994339 0 22581270.35994339 14369801.91242981 0 0 0 0 -35963677.992858887 12387928.635467529 0 12387928.635467529 43190219.68862915 0 0 0 0 52993934.354034424 -6991393.2450752258 0 -6991393.2450752258 17041370.083843231 0 0 0 0 -55451855.267730713 24699235.688396454 0 24699235.688396454 42800562.093921661 0 0 0 0 -59673891.719329834 -27036857.627861023 0 -27036857.627861023 11139144.000663757 0 0 0 0 -152174309.07297516 14337688.375385523 0 14337688.375385523 52628855.874343872 0 0 0 0 5403365.3283103658 -15342851.499998465 0 -15342851.499998465 10604053.08873181 0 0 0 0 -35173634.959751129 11475805.782869816 0 11475805.782869816 -11069007.914299011 0 0 0 0 19230882.068496704 -12874415.87233448 0 -12874415.87233448 -1829207.5201530457 0 0 0 0 -58360113.554748535 -1599152.0103111267 0 -1599152.0103111267 -17536292.578670502 0 0 0 0 12162767.581284909 -16829959.203007758 0 -16829959.203007758 5199842.930843005 0 0 0 0 -136769970.24559021 -43050730.381243706 0 -43050730.381243706 54752346.233362198 0 0 0 0 -7897583.3129577637 19659287.720500946 0 19659287.720500946 62614268.945966721 0 0 0 0 -81059448.475158691 -47230897.996622086 0 -47230897.996622086 130867103.04701614 0 0 0 0 -58992032.877746582 -1787365.4555282593 0 -1787365.4555282593 73192291.813175201 0 0 0 0 5842115.5424957275 17835312.812383652 0 17835312.812383652 8243593.4137802124 0 0 0 0 9338480.1789398193 -749170.68915176392 0 -749170.68915176392 68039289.123757362 0 0 0 0 -3907227.1479606628 39986189.900130749 0 39986189.900130749 94956330.854118347 0 0 0 0 2313780.2215130702 -454610.71143007278 0 -454610.71143007278 -1966294.9321393762 0 0 0 0 54782794.436180115 102961725.62527466 0 102961725.62527466 289101492.17974281 0 0 0 0 165440517.6366272 -489283642.69913292 0 -489283642.69913292 -10243380.864186287 0 0 0 0 206991187.52104187 -40725854.951908112 0 -40725854.951908112 -120525886.37890244 0 0 0 0 -414334262.34680176 -228461079.05923843 0 -228461079.05923843 82245321.729957581 0 0 0 0 61892378.676838875 78989696.32221365 0 78989696.32221365 36849156.595668793 0 0 0 0 1415353.1221433878 -220408.00082556158 0 -220408.00082556158 -740157.46376173943 0 0 0 0 -341566178.22690582 -65930538.656273842 0 -65930538.656273842 82717541.529769897 0 0 0 0 -317376550.84313965 -97079256.764984131 0 -97079256.764984131 -18552058.483291626 0 0 0 0 -503531550.9263916 26127639.78817749 0 26127639.78817749 32652868.842010498 0 0 0 0 -308236489.51464844 52750277.628509521 0 52750277.628509521 32174420.820907593 0 0 0 0 -257956654.25750732 56981298.739242554 0 56981298.739242554 22764978.490715027 0 0 0 0 -486608655.34823608 162825947.42273712 0 162825947.42273712 88453269.500457764 0 0 0 0 -69347953.572753906 -41771163.613876343 0 -41771163.613876343 -10786039.357572556 0 0 0 0 -222882547.1675415 -6913822.7910614014 0 -6913822.7910614014 7255481.1723632812 0 0 0 0 -55988773.932067871 -4214321.3045730591 0 -4214321.3045730591 27026034.713180542 0 0 0 0 -67985204.458251953 -24001933.586555481 0 -24001933.586555481 1616148.5593700409 0 0 0 0 -113272720.27713013 85997288.934997559 0 85997288.934997559 20695693.620544434 0 0 0 0 -277821597.81976318 144562455.24515533 0 144562455.24515533 86241202.790420532 0 0 0 0 -750966156.39303589 268965056.33194733 0 268965056.33194733 -52137615.226852417 0 0 0 0 -102821637.87898254 -74789214.184913635 0 -74789214.184913635 -70939643.520050049 0 0 0 0 -830297395.42941284 354940274.43612051 0 354940274.43612051 -106700103.67955017 0 0 0 0 -635594833.02252197 89427180.283729553 0 89427180.283729553 123208239.31202698 0 0 0 0 -539382810.45470238 -584227824.82147551 0 -584227824.82147551 -586333167.04484558 0 0 0 0 -56704727.763870239 -39134694.539873958 0 -39134694.539873958 56418319.668204188 0 0 0 0 22181377.769866943 233709390.62514424 0 233709390.62514424 -211048364.7364288 0 0 0 0 27303327.121064812 9627424.3262286223 0 9627424.3262286223 5232684.1737366086 0 0 0 0 -30773358.144294739 49547833.989393599 0 49547833.989393599 -16621160.861063004 0 0 0 0 4152000.3070487976 -505305114.41151118 0 -505305114.41151118 398470806.75728798 0 0 0 0 -417669442.9407196 380649227.45902085 0 380649227.45902085 670295807.48023987 0 0 0 0 -469654874.91825867 228787964.07221603 0 228787964.07221603 521204929.97062778 0 0 0 0 19953372.144198492 8579554.6698431373 0 8579554.6698431373 5919820.0267495252 0 0 0 0 -53470177.052490234 679715701.20266795 0 679715701.20266795 136364494.29828453 0 0 0 0 350058127.12155151 -868165196.5611186 0 -868165196.5611186 615081050.78757334 0 0 0 0 7443366.7087541819 3766450.4718035422 0 3766450.4718035422 5453493.5106727825 0 0 0 0 5973510062.5903625 -1716786500.8279946 0 -1716786500.8279946 -298451895.55710208 0 0 0 0 3839477699.9489288 -2617971713.7201085 0 -2617971713.7201085 1482189000.329473 0 0 0 0 3878679962.031971 -793676920.37023401 0 -793676920.37023401 -688347897.48750472 0 0 0 0 182968141.16015625 -153358005.04609215 0 -153358005.04609215 6915163.9926478863 0 0 0 0 1979416159.1242523 -112817926.67288071 0 -112817926.67288071 94987302.652097464 0 0 0 0 3747581302.6482162 -1560193287.7942691 0 -1560193287.7942691 257018379.53420013 0 0 0 0 -272670665.59155273 306737904.87238622 0 306737904.87238622 715943807.57239056 0 0 0 0 2444562.9540426135 -219569.23659224063 0 -219569.23659224063 -184633.53444318927 0 0 0 0 3554195290.7654572 -163675298.56800067 0 -163675298.56800067 -453596866.76664937 0 0 0 0 3721866610.7002411 723451337.99203598 0 723451337.99203598 -1091851216.8818543 0 0 0 0 5987987355.1830902 -407351491.46175134 0 -407351491.46175134 -1218785437.1958652 0 0 0 0 5972628457.1474428 2226288025.9839478 0 2226288025.9839478 -1063227910.0728213 0 0 0 0 4023653754.4265442 797649279.07977688 0 797649279.07977688 -1075788736.2585742 0 0 0 0 705341477.61990356 167478268.9188796 0 167478268.9188796 148138767.63887355 0 0 0 0 712244768.67453003 166595394.25595862 0 166595394.25595862 47877685.075262919 0 0 0 0 2750250017.7880249 2216871713.2425833 0 2216871713.2425833 828127472.92626512 0 0 0 0 -700592.46724689007 -2821005.1881410377 0 -2821005.1881410377 493823.5765179632 0 0 0 0 40117871.044311523 -36735028.722111315 0 -36735028.722111315 32471785.627460957 0 0 0 0 6934355.6285957769 -2503669.3455040529 0 -2503669.3455040529 -616918.0652155201 0 0 0 0 37549431.979789734 -5688207.266854465 0 -5688207.266854465 35635672.596937418 0 0 0 0 1584636.6361694336 -11259850.817152858 0 -11259850.817152858 26837326.422273636 0 0 0 0 26068417.946603626 -5157906.9864520142 0 -5157906.9864520142 -2467950.7178789303 0 0 0 0 21188867.876365662 2613563.0458940268 0 2613563.0458940268 15375041.905314445 0 0 0 0 10330419.615264893 5436668.4298019409 0 5436668.4298019409 19291260.239669733 0 0 0 0 17173178.566314697 4338985.1213480234 0 4338985.1213480234 10738287.787084579 0 0 0 0 24100533.415682286 2894816.2611674606 0 2894816.2611674606 678031.04957801651 0 0 0 0 14504832.025268555 15050118.949865878 0 15050118.949865878 233877.47758501768 0 0 0 0 25626986.725326538 105720042.3230474 0 105720042.3230474 -325109730.67199135 0 0 0 0 35948616.872661769 6270448.6369753098 0 6270448.6369753098 2339583.3238970865 0 0 0 0 7684165.8606872559 7117127.009291172 0 7117127.009291172 18953496.763655663 0 0 0 0 13183970.135665894 976196.72742474079 0 976196.72742474079 34070.007551193237 0 0 0 0 17626889.206573486 -6300045.7207512856 0 -6300045.7207512856 -12346133.080307096 0 0 0 0 27930374.270150959 7308558.3168565184 0 7308558.3168565184 1132551.5577101251 0 0 0 0 13542336.383621216 1465121.6679396629 0 1465121.6679396629 685842.94601980597 0 0 0 0 23406435.991722375 4466119.0934892148 0 4466119.0934892148 5713224.296413946 0 0 0 0 72434011.785766602 -28139160.105659485 0 -28139160.105659485 -81181979.625108719 0 0 0 0 130326249.17855072 80787619.191919327 0 80787619.191919327 -354604161.07874298 0 0 0 0 1566622.3598542176 581564.16372673586 0 581564.16372673586 113468.24502657913 0 0 0 0 53155407.698165894 -13193826.119075775 0 -13193826.119075775 -50477279.28229332 0 0 0 0 33089129.641482078 9087508.5390536617 0 9087508.5390536617 3947873.0671748929 0 0 0 0 69361775.256256104 -7088653.0524272919 0 -7088653.0524272919 -92870159.250020981 0 0 0 0 32335443.316879272 -42363699.708515644 0 -42363699.708515644 -26431448.184335709 0 0 0 0 52493071.635437012 -70569615.942110062 0 -70569615.942110062 11252324.970815659 0 0 0 0 63288284.227344513 -53838552.083771706 0 -53838552.083771706 -99833172.60212326 0 0 0 0 27972258.332431793 -31218299.307860374 0 -31218299.307860374 -47048102.376792908 0 0 0 0 59499395.535041809 -60569305.02921772 0 -60569305.02921772 -35908157.726055145 0 0 0 0 86231394.667709351 -107104631.62358475 0 -107104631.62358475 7006829.996509552 0 0 0 0 51793152.455001831 -86786475.157295227 0 -86786475.157295227 -101473860.12725449 0 0 0 0 94077488.775556564 -33199314.77714622 0 -33199314.77714622 -60239580.998069763 0 0 0 0 34499553.224487305 -82937146.540276527 0 -82937146.540276527 46892002.286543846 0 0 0 0 43844261.562316895 -140361853.24913979 0 -140361853.24913979 331476731.29605103 0 0 0 0 23935370.212219238 -88586209.281458378 0 -88586209.281458378 102299743.00650597 0 0 0 0 14396035.310737744 -39232437.738627888 0 -39232437.738627888 5925929.1272964478 0 0 0 0 -40631805.124481201 -125279650.29798889 0 -125279650.29798889 -15040191.004216194 0 0 0 0 233042776.90119934 307778070.6027298 0 307778070.6027298 -534267677.73663521 0 0 0 0 190024676.75595093 20050792.577597618 0 20050792.577597618 -388154988.07611036 0 0 0 0 325414468.46149445 148605640.88329458 0 148605640.88329458 154957903.79162073 0 0 0 0 198725493.4440918 -188397943.49593353 0 -188397943.49593353 61920858.52612257 0 0 0 0 359548695.64542389 112162429.63314104 0 112162429.63314104 193321939.74068546 0 0 0 0 394012564.31904793 120695860.9269954 0 120695860.9269954 -73444725.023405075 0 0 0 0 383437838.57803822 170576172.96364522 0 170576172.96364522 242984456.33054733 0 0 0 0 523078218.44954681 321065212.55243921 0 321065212.55243921 97939886.847524166 0 0 0 0 1814333.4348605014 -1314005.6036080196 0 -1314005.6036080196 413744.15971889207 0 0 0 0 111261623.13895416 501231672.42320597 0 501231672.42320597 785269696.3504796 0 0 0 0 1687929.3373712003 -3115018.7948238384 0 -3115018.7948238384 1886740.394109298 0 0 0 0 104711651.21556091 -16089170.607457638 0 -16089170.607457638 -244308618.15786314 0 0 0 0 319696.77012993395 -139032.02353114448 0 -139032.02353114448 862860.65699067828 0 0 0 0 191056642.27384949 248956062.02836132 0 248956062.02836132 -153014156.12097383 0 0 0 0 -27970836.514507294 -8582520.6548023224 0 -8582520.6548023224 -7944742.0984811783 0 0 0 0 175784477.66094971 188452532.67351723 0 188452532.67351723 87516666.284074783 0 0 0 0 287419547.65208435 34843288.72561121 0 34843288.72561121 -30748210.869213104 0 0 0 0 168448987.34404755 -130339219.12124085 0 -130339219.12124085 24163214.937673569 0 0 0 0 181544155.34261036 59955153.186013401 0 59955153.186013401 79767522.321552277 0 0 0 0 168965716.73542786 -38685815.540554762 0 -38685815.540554762 107301331.53722262 0 0 0 0 511261278.07325745 216399417.53882861 0 216399417.53882861 30853300.07451725 0 0 0 0 343883129.62256622 -6008392.7181668282 0 -6008392.7181668282 71809160.383836746 0 0 0 0 883961876.03053284 -9890734.1090738773 0 -9890734.1090738773 123447746.66113043 0 0 0 0 609062308.86825562 586353029.45292771 0 586353029.45292771 681481055.37708974 0 0 0 0 480288603.43154144 125578650.86694908 0 125578650.86694908 139768657.42098641 0 0 0 0 414131231.40333557 -205644180.10357773 0 -205644180.10357773 46554990.603065491 0 0 0 0 192237695.57032776 -189965053.80189848 0 -189965053.80189848 225504436.94181585 0 0 0 0 420611153.27955627 274660459.84961116 0 274660459.84961116 153687344.64023352 0 0 0 0 978250.55726742744 -552756.45009441301 0 -552756.45009441301 173639.49595268141 0 0 0 0 316531814.02986145 214268631.83408427 0 214268631.83408427 208631221.48486662 0 0 0 0 1228009951.9465027 1218411824.3044639 0 1218411824.3044639 1013497690.0647535 0 0 0 0 2288630236.980484 1085724738.3167901 0 1085724738.3167901 526295572.28846645 0 0 0 0 993087231.88359833 1431877377.9757452 0 1431877377.9757452 1043175761.4539828 0 0 0 0 1020695475.3232956 766910293.52698493 0 766910293.52698493 465148038.31114483 0 0 0 0 760231198.20453644 955441529.44089866 0 955441529.44089866 310547087.93834448 0 0 0 0 892940807.08079529 678970215.85600138 0 678970215.85600138 817146590.40972507 0 0 0 0 190733616.33567047 -202486248.50694227 0 -202486248.50694227 570953245.82374001 0 0 0 0 613498596.95352173 495148538.36306715 0 495148538.36306715 187400032.33474255 0 0 0 0 1282726.9152130038 -1062377.9162377343 0 -1062377.9162377343 -124364.46195559669 0 0 0 0 585776519.96388245 637770960.41986132 0 637770960.41986132 407431329.2823168 0 0 0 0 -604689897.02114868 -210948994.23960257 0 -210948994.23960257 800053246.54323006 0 0 0 0 -326030984.32208252 -268954198.11814404 0 -268954198.11814404 699670283.81692791 0 0 0 0 1409295671.5489807 3247998111.7539334 0 3247998111.7539334 5260872734.3922253 0 0 0 0 257485793.09701538 428988331.30609691 0 428988331.30609691 1251236246.3915343 0 0 0 0 1483604096.5798149 2348841789.972774 0 2348841789.972774 2218823395.2405357 0 0 0 0 3705562172.164505 2477230756.0282688 0 2477230756.0282688 201133283.22859529 0 0 0 0 5971982706.7236557 3673434576.3057837 0 3673434576.3057837 799102376.64898908 0 0 0 0 5986884882.7496338 2052122690.0397234 0 2052122690.0397234 -540472911.13239551 0 0 0 0 3576338035.4228058 1900049741.5145128 0 1900049741.5145128 402011831.75840485 0 0 0 0 2728473622.8851929 1863344196.2553964 0 1863344196.2553964 462933816.54057431 0 0 0 0 4270430443.6821518 1173039948.3029737 0 1173039948.3029737 -537475829.18800056 0 0 0 0 5982500856.5907898 -38913406.51873932 0 -38913406.51873932 -1046769059.676011 0 0 0 0 3808409944.5877609 941610030.30657256 0 941610030.30657256 -528348338.08181453 0 0 0 0 3337102316.2489548 175963390.00141174 0 175963390.00141174 -263889699.38478756 0 0 0 0 3028887176.0694885 154095113.15193355 0 154095113.15193355 -262114111.31401518 0 0 0 0 3337864799.1862793 -440788758.30459666 0 -440788758.30459666 -1091003586.0155759 0 0 0 0 1190669514.9753075 448534206.6334855 0 448534206.6334855 729726165.33664751 0 0 0 0 1870796987.3811722 954366597.03275442 0 954366597.03275442 503191197.67529017 0 0 0 0 2188652039.4764786 -596833883.63583302 0 -596833883.63583302 -176643062.4340682 0 0 0 0 752639205.4615593 455279633.94594347 0 455279633.94594347 735303302.3089776 0 0 0 0 257468483.76854324 1039331379.8468289 0 1039331379.8468289 -767348883.86469388 0 0 0 0 460399239.7889576 -467912259.5893904 0 -467912259.5893904 73140182.123623371 0 0 0 0 1357016039.4627457 1154450.6109756827 0 1154450.6109756827 -640316273.20983171 0 0 0 0 5984493221.8302765 -1301303722.2777069 0 -1301303722.2777069 -1227650175.3145816 0 0 0 0 2054100507.3125114 -2187813769.7705421 0 -2187813769.7705421 675260455.68084979 0 0 0 0 3235651372.1396027 -1345963243.5461817 0 -1345963243.5461817 -919594681.0005995 0 0 0 0 5976274169.4790955 -3470766947.6707788 0 -3470766947.6707788 146147325.46178702 0 0 0 0 155645439.90896606 -3016690401.2426543 0 -3016690401.2426543 4861339861.9946489 0 0 0 0 3144541.537627466 -610854.96388651803 0 -610854.96388651803 1498794.6967361851 0 0 0 0 5958796598.639267 -119820.87392335462 0 -119820.87392335462 -3538635.5634208592 0 0 0 0 138646440.6786499 3002464905.2493691 0 3002464905.2493691 3758120376.5258183 0 0 0 0 8930428.3633146882 -3900038.2849311633 0 -3900038.2849311633 1334659.0444809794 0 0 0 0 -95228927.760894775 6764919.5014929771 0 6764919.5014929771 1324588.2928110361 0 0 0 0 -97785718.922210693 -38707050.347235203 0 -38707050.347235203 -295703.56631486118 0 0 0 0 545012211.92029428 -471593733.12858349 0 -471593733.12858349 544204554.67748964 0 0 0 0 15151513.958006024 -4065487.5659016352 0 -4065487.5659016352 1523048.7084803421 0 0 0 0 5771921.068111442 -4776720.0610675644 0 -4776720.0610675644 153991.01144777285 0 0 0 0 1741709002.3806992 -754532044.85892415 0 -754532044.85892415 261246393.57521224 0 0 0 0 5836386.4999198988 1324767.2560017798 0 1324767.2560017798 2761060.126612951 0 0 0 0 -364829062.18933868 214491405.22303534 0 214491405.22303534 -69722081.478371859 0 0 0 0 -458137507.62580872 85929473.702157378 0 85929473.702157378 302533421.09617043 0 0 0 0 -354241211.83370972 -71035095.812533855 0 -71035095.812533855 126539443.77704096 0 0 0 0 -98158797.957183838 -36484197.870361328 0 -36484197.870361328 59498083.194999501 0 0 0 0 -94044071.325380325 15330652.087331951 0 15330652.087331951 62306667.190434456 0 0 0 0 16446879.780467547 -4080143.0290523358 0 -4080143.0290523358 878708.44849849259 0 0 0 0 238362267.80915833 -600390043.62633729 0 -600390043.62633729 131576126.79316202 0 0 0 0 -294516025.60404778 -196550214.21149915 0 -196550214.21149915 -68110863.774074316 0 0 0 0 -257960468.2405014 -282358333.79879284 0 -282358333.79879284 -289792343.89476967 0 0 0 0 -313398719.89262772 -154626449.64698854 0 -154626449.64698854 190565792.82621002 0 0 0 0 -313094599.55055237 -600002477.53119063 0 -600002477.53119063 -341135717.02601874 0 0 0 0 16940342.560256369 -1846326.9414543696 0 -1846326.9414543696 -331349.1232240285 0 0 0 0 -261588747.6051178 155299126.47326243 0 155299126.47326243 299942602.20799673 0 0 0 0 5085974027.9831543 436322046.7855227 0 436322046.7855227 -521679823.52918899 0 0 0 0 907265431.25492859 -441040995.71464485 0 -441040995.71464485 -234169638.70873237 0 0 0 0 4663044736.5572586 2290231597.8790097 0 2290231597.8790097 653009872.0147661 0 0 0 0 5977059833.6451912 2756482161.7848816 0 2756482161.7848816 -489440925.81873769 0 0 0 0 2507286912.1399078 4129947374.361618 0 4129947374.361618 2142409710.7839041 0 0 0 0 3483635892.5284147 1020458163.0924029 0 1020458163.0924029 -125415335.56949526 0 0 0 0 425641627.34830475 1052880560.2273629 0 1052880560.2273629 289464756.34712768 0 0 0 0 374516911.33605957 -358471242.22931564 0 -358471242.22931564 797928789.92875528 0 0 0 0 1046493535.9347706 -301765377.67690128 0 -301765377.67690128 -95029305.840827465 0 0 0 0 397522658.60397339 -216532500.76749498 0 -216532500.76749498 33229046.962755919 0 0 0 0 819860934.47481251 505143523.46825707 0 505143523.46825707 195279623.2843312 0 0 0 0 1851417574.9231873 -71350050.708995759 0 -71350050.708995759 500246492.51211792 0 0 0 0 113571753.21694946 120311717.703713 0 120311717.703713 79620973.635593295 0 0 0 0 649355754.12809753 -133745638.33731472 0 -133745638.33731472 -676025806.11446047 0 0 0 0 320283828.70157623 -112305447.94083285 0 -112305447.94083285 -144456962.94131887 0 0 0 0 190136347.26301575 -457715384.84769803 0 -457715384.84769803 32220909.648348093 0 0 0 0 466982594.39296722 -332565022.83345592 0 -332565022.83345592 -516937204.8698678 0 0 0 0 195513370.43774414 -214272996.47209358 0 -214272996.47209358 -559954436.52296734 0 0 0 0 49756384.838897705 -425743868.47783184 0 -425743868.47783184 -435074496.04074597 0 0 0 0 110545030.39205933 -408398102.89324737 0 -408398102.89324737 -661375722.4458828 0 0 0 0 -72146632.034561157 -294599800.50848031 0 -294599800.50848031 -483054840.19480991 0 0 0 0 4549601.3005065918 -472496298.69176817 0 -472496298.69176817 -506117962.71026522 0 0 0 0 45391596.614822388 -507883582.31627238 0 -507883582.31627238 -138323965.02731895 0 0 0 0 203343307.30718994 -331497617.48271263 0 -331497617.48271263 -435770859.15080482 0 0 0 0 -414551594.62026978 -277850408.65879095 0 -277850408.65879095 -392205798.02793074 0 0 0 0 -200347216.40259933 -502879061.83136648 0 -502879061.83136648 -160763681.15763688 0 0 0 0 -293212888.57978821 -232570843.99780142 0 -232570843.99780142 336735840.37584448 0 0 0 0 -44614956.393356323 -413833075.5813396 0 -413833075.5813396 -177040895.95426452 0 0 0 0 135710574.32969666 -490396681.81440914 0 -490396681.81440914 352087187.1701684 0 0 0 0 -35058934.926773071 -237337686.06168842 0 -237337686.06168842 16417944.793785095 0 0 0 0 68910170.035514832 16287691.951795101 0 16287691.951795101 650317789.54409909 0 0 0 0 -28276003.012813568 -274703878.53196782 0 -274703878.53196782 306753513.26105976 0 0 0 0 -359467590.82746887 -94391265.787558556 0 -94391265.787558556 666781592.97478676 0 0 0 0 -264662950.20329285 38131452.280954599 0 38131452.280954599 13623308.28572464 0 0 0 0 -100529922.99533081 308066076.39858961 0 308066076.39858961 411083975.99817443 0 0 0 0 105059283.80454254 -61865958.339265585 0 -61865958.339265585 655399746.87989283 0 0 0 0 1277410663.8242798 254560294.41944933 0 254560294.41944933 1237022006.1365318 0 0 0 0 1085397015.991684 552919147.63831615 0 552919147.63831615 847606448.23979473 0 0 0 0 2150955057.6685181 1173931067.941597 0 1173931067.941597 702977240.21180105 0 0 0 0 305421356.42319107 -266041965.63574362 0 -266041965.63574362 958600247.27369118 0 0 0 0 1074256643.2658844 124134254.7420578 0 124134254.7420578 652725562.82764232 0 0 0 0 1708505331.1256981 1539818337.8970103 0 1539818337.8970103 3877660186.9701271 0 0 0 0 2076881589.1601715 858406411.40626812 0 858406411.40626812 1105811932.9382043 0 0 0 0 824243515.69021225 557510744.82630551 0 557510744.82630551 1913843191.0070791 0 0 0 0 3510195180.4228134 2406008481.9329214 0 2406008481.9329214 1074539444.6705427 0 0 0 0 1770528456.8947449 1147560963.6691933 0 1147560963.6691933 1596764521.3106623 0 0 0 0 3649302038.9437256 822912854.02322388 0 822912854.02322388 923570894.33296204 0 0 0 0 4022469863.7298126 2052377625.9192078 0 2052377625.9192078 -495801822.79830551 0 0 0 0 359801.97312563658 1144386.633825127 0 1144386.633825127 3182081.6575657316 0 0 0 0 228193066.03375244 682204687.48814583 0 682204687.48814583 1475938384.7546368 0 0 0 0 3792819110.1713486 290809320.75226772 0 290809320.75226772 -253528338.60500336 0 0 0 0 2245391855.60116 -77979299.80248642 0 -77979299.80248642 -341068203.25759983 0 0 0 0 2364251324.6913605 1149394359.1343994 0 1149394359.1343994 139529075.52224159 0 0 0 0 3174082552.6976662 1748696059.8037815 0 1748696059.8037815 563103209.90556908 0 0 0 0 2219833075.7249298 871792179.89069843 0 871792179.89069843 1545948548.7530994 0 0 0 0 1306367846.4117737 710225019.52117181 0 710225019.52117181 492288911.89562845 0 0 0 0 2357437386.4769821 1243914133.0762906 0 1243914133.0762906 -378837717.71415615 0 0 0 0 2197081364.5672607 1610780510.8539801 0 1610780510.8539801 351862661.34463763 0 0 0 0 2452557166.0371552 1599629131.1599782 0 1599629131.1599782 -194371030.60884991 0 0 0 0 1921033346.5944214 791386149.06327987 0 791386149.06327987 -92505190.115347862 0 0 0 0 828060664.28924561 309357334.8628968 0 309357334.8628968 45139280.464758396 0 0 0 0 473542381.73899841 108780165.94631147 0 108780165.94631147 -13318349.390703201 0 0 0 0 1704074784.0182037 1019906088.6682777 0 1019906088.6682777 -282252647.92378235 0 0 0 0 2554925358.6192627 1332558892.2301488 0 1332558892.2301488 -242039709.77024555 0 0 0 0 5877984.7878416553 3900204.3295291085 0 3900204.3295291085 3279975.3648205688 0 0 0 0 -553474945.98553467 911064056.62012291 0 911064056.62012291 -312870806.74090683 0 0 0 0 -210848635.47351837 -120130254.44996071 0 -120130254.44996071 -101741515.37551451 0 0 0 0 1298554019.1953888 753402213.88077593 0 753402213.88077593 303326717.16864944 0 0 0 0 2185364047.6343689 715431353.0816431 0 715431353.0816431 -1092476262.0067213 0 0 0 0 2779416.5320024341 2162879.4365671854 0 2162879.4365671854 1617900.5515103021 0 0 0 0 512134469.10412598 -75532037.255659819 0 -75532037.255659819 -141194551.75576869 0 0 0 0 -627409138.57406998 1064862550.1236873 0 1064862550.1236873 1413337449.001642 0 0 0 0 1365226573.1246338 1384947647.9399512 0 1384947647.9399512 1114696484.0527079 0 0 0 0 483845545.84847641 1075959531.2489882 0 1075959531.2489882 1179243361.0927901 0 0 0 0 1000731614.124588 327693992.12501717 0 327693992.12501717 169030185.71161079 0 0 0 0 571448935.4221344 458748353.85464859 0 458748353.85464859 146055534.40486157 0 0 0 0 56249247.420333862 151528560.06421065 0 151528560.06421065 285156159.35815716 0 0 0 0 1511687552.5303879 161485925.41882512 0 161485925.41882512 412260161.28458571 0 0 0 0 1426807552.9263611 1206653544.7042847 0 1206653544.7042847 992342935.65399587 0 0 0 0 850600742.83369446 337708590.83718657 0 337708590.83718657 967778700.20318937 0 0 0 0 1908034492.6481857 1011362293.6598706 0 1011362293.6598706 481974952.78665924 0 0 0 0 766684323.89131165 368622028.59449697 0 368622028.59449697 517211118.99303412 0 0 0 0 667247245.21158409 -88107386.251785815 0 -88107386.251785815 101607192.35738611 0 0 0 0 289419091.42202759 122540276.837749 0 122540276.837749 454383908.178895 0 0 0 0 413891772.89862061 71814859.79731679 0 71814859.79731679 129995666.05879784 0 0 0 0 48015386.016937256 49181092.949599266 0 49181092.949599266 -78281986.305576086 0 0 0 0 149247682.06263733 -139500866.8581481 0 -139500866.8581481 163656719.58169508 0 0 0 0 -156548233.68224525 -8134794.506832242 0 -8134794.506832242 -85078089.350317955 0 0 0 0 -717622253.67892456 168326877.3275218 0 168326877.3275218 -21652859.89325428 0 0 0 0 -223750941.41333008 51479419.893075943 0 51479419.893075943 -184593825.34828472 0 0 0 0 -745891822.99221802 -184274571.84642768 0 -184274571.84642768 -122615855.70996571 0 0 0 0 -196763187.80135727 -127829991.17795271 0 -127829991.17795271 -66884761.040521622 0 0 0 0 -290052512.4937439 187463209.76291513 0 187463209.76291513 19062426.553720593 0 0 0 0 -262375228.23792076 23515279.620876044 0 23515279.620876044 -355011807.35074902 0 0 0 0 252453508.67701721 265653386.74409676 0 265653386.74409676 -14393444.385498524 0 0 0 0 -532666647.64598846 -2087855.2370228767 0 -2087855.2370228767 323067085.90148354 0 0 0 0 -79503686.76083374 374431396.20995998 0 374431396.20995998 258265104.37539315 0 0 0 0 2327073.1207314171 3316574.7603655495 0 3316574.7603655495 6280842.4654682186 0 0 0 0 89418324.294059753 48635953.707418561 0 48635953.707418561 -57880580.928153992 0 0 0 0 -593592026.77818298 332959889.03940439 0 332959889.03940439 170512895.21077681 0 0 0 0 8491921.0259576216 3687450.1879973374 0 3687450.1879973374 1883409.2283178065 0 0 0 0 -2341340.1282806396 1023339.2391548157 0 1023339.2391548157 1982024.9464302063 0 0 0 0 8211924.2670458406 -4653646.6384895183 0 -4653646.6384895183 3230175.8296829853 0 0 0 0 5243714.7598612458 -2613817.5725022927 0 -2613817.5725022927 3143924.9209249672 0 0 0 0 -3406892.8925405815 4352528.8755884394 0 4352528.8755884394 1704083.1083557757 0 0 0 0 8406257.226705879 -6893470.6493736226 0 -6893470.6493736226 4167826.7950052535 0 0 0 0 5412563.6399383545 4544885.9282586575 0 4544885.9282586575 -8044595.6614961624 0 0 0 0 -2444919.3050632477 20586109.53748709 0 20586109.53748709 -24047690.349817753 0 0 0 0 875845.66145276278 1773394.7324215844 0 1773394.7324215844 -749169.59392832033 0 0 0 0 -1090128613.9417267 63956141.970707417 0 63956141.970707417 95571895.625478745 0 0 0 0 19705898.121353149 -16728300.642751694 0 -16728300.642751694 -2067495.6301517487 0 0 0 0 16557924.118972778 -10576203.525871277 0 -10576203.525871277 1993877.0929145813 0 0 0 0 -3653678.8594970703 -18191840.87594986 0 -18191840.87594986 2807494.4642429352 0 0 0 0 8823562.9861373901 -17031682.480340481 0 -17031682.480340481 -2431174.7544784546 0 0 0 0 9021303.2672042847 -16401802.24138546 0 -16401802.24138546 -1811667.5114402771 0 0 0 0 2200292.3117828369 -13874220.562942505 0 -13874220.562942505 4844043.7158813477 0 0 0 0 4328479.9131622314 -19850137.117155075 0 -19850137.117155075 -2066962.3202438354 0 0 0 0 4889539.222946167 -21886794.622713089 0 -21886794.622713089 -5757384.8816337585 0 0 0 0 9278063.8705368042 -15909768.962514877 0 -15909768.962514877 -1568945.8295097351 0 0 0 0 9667962.8601074219 -16329254.038547516 0 -16329254.038547516 -2208229.6337060928 0 0 0 0 10345293.147666931 -17157049.494581223 0 -17157049.494581223 -5198201.5167388916 0 0 0 0 10459291.507629395 -17147324.830352783 0 -17147324.830352783 -6156817.062817812 0 0 0 0 15590731.222259521 -13632934.283384323 0 -13632934.283384323 -699042.19782543182 0 0 0 0 -2858688.2546081543 -9256996.2471008301 0 -9256996.2471008301 -8049953.9111976624 0 0 0 0 17340417.774810791 -13230035.682668686 0 -13230035.682668686 -4626613.5989284515 0 0 0 0 17043405.562896729 -12762161.746904373 0 -12762161.746904373 -5341177.2752151489 0 0 0 0 14760796.084776014 -4108790.0748308226 0 -4108790.0748308226 1441138.904748966 0 0 0 0 20461698.712417603 -10780723.201673508 0 -10780723.201673508 -4694915.3222475052 0 0 0 0 -1634435.8283843994 -10406621.591924667 0 -10406621.591924667 -10844356.182891846 0 0 0 0 17438015.025921367 -9027782.3619819563 0 -9027782.3619819563 -38725.493014000589 0 0 0 0 10103218.414718628 -36317865.498596191 0 -36317865.498596191 -18678080.49901855 0 0 0 0 8792986.072755821 -17993307.892616849 0 -17993307.892616849 -236983.21378282784 0 0 0 0 38726041.16771698 37998482.692897797 0 37998482.692897797 18043039.454890966 0 0 0 0 11729390.253921509 -21652636.435647011 0 -21652636.435647011 -4523863.6001739502 0 0 0 0 21790664.084442139 -16664833.983537674 0 -16664833.983537674 -6531145.7437095642 0 0 0 0 84348472.912658691 27248579.662948608 0 27248579.662948608 30870845.517272949 0 0 0 0 30953223.549651887 -3538537.8686707765 0 -3538537.8686707765 -5425777.5764597431 0 0 0 0 82345533.180875778 -10620929.022233963 0 -10620929.022233963 7657044.3451957703 0 0 0 0 7088716.4684662186 6030584.0470380783 0 6030584.0470380783 4027276.049083313 0 0 0 0 24836796.757965088 -3304553.709777832 0 -3304553.709777832 -4458774.5664176941 0 0 0 0 -13312548.921829224 59235861.379817963 0 59235861.379817963 27787713.779430389 0 0 0 0 10064979.443933487 1529317.1514866352 0 1529317.1514866352 1705491.9570465088 0 0 0 0 12689710.403213501 10319971.389798164 0 10319971.389798164 9436530.4940490723 0 0 0 0 5644215.108100865 554739.74396083876 0 554739.74396083876 -2823208.080916157 0 0 0 0 5395315.4170227051 -3978493.5597305298 0 -3978493.5597305298 10019192.003012538 0 0 0 0 10417709.68157959 4370003.8090419769 0 4370003.8090419769 -11018219.621700287 0 0 0 0 3617532.011932373 2670617.1609172821 0 2670617.1609172821 1569792.6152045727 0 0 0 0 7353361.3875386091 284068.97780120373 0 284068.97780120373 2597438.414975415 0 0 0 0 6573736.879524231 3558225.227291584 0 3558225.227291584 598812.21859455109 0 0 0 0 36103619.519599915 -16567554.274323463 0 -16567554.274323463 8896459.5123825073 0 0 0 0 26045999.358917236 5465521.4548192024 0 5465521.4548192024 -574222.16719341278 0 0 0 0 1555030.4769897461 -24394.146011352539 0 -24394.146011352539 7460175.2517852783 0 0 0 0 39239.182006835938 2620715.6330795288 0 2620715.6330795288 -1422929.3302923441 0 0 0 0 1932268.5130405277 4052058.7339127734 0 4052058.7339127734 4067779.9675425277 0 0 0 0 285969233.40716553 463896722.41691875 0 463896722.41691875 -336990284.36103249 0 0 0 0 288703.3439790383 2548783.5009495132 0 2548783.5009495132 7950138.9418243393 0 0 0 0 -382774361.68556213 476200524.75956488 0 476200524.75956488 -74637751.851260185 0 0 0 0 150250586.5446701 -48427484.63225162 0 -48427484.63225162 -151815643.61324835 0 0 0 0 7224417.3850973248 1017675.374488309 0 1017675.374488309 136913.40859882534 0 0 0 0 4894336.4709860533 3506524.3854415547 0 3506524.3854415547 4601076.2733639665 0 0 0 0 4782665.058265686 1658398.1915721893 0 1658398.1915721893 6347238.685426712 0 0 0 0 4978653.1974680647 2509537.6266459897 0 2509537.6266459897 4200677.9398989966 0 0 0 0 2820754.7846069336 1716314.9748840332 0 1716314.9748840332 1724021.8478622437 0 0 0 0 4618585.0644683838 2005544.1794185638 0 2005544.1794185638 1573822.4307823181 0 0 0 0 72824461.07365036 -55625535.814721823 0 -55625535.814721823 4745499.3574199677 0 0 0 0 132941477.19223022 -172441021.04065132 0 -172441021.04065132 -392118280.11141396 0 0 0 0 74560545.27784729 -210183924.32596016 0 -210183924.32596016 257919321.45664024 0 0 0 0 17746235.813903809 -79769582.904191971 0 -79769582.904191971 8247285.1001987457 0 0 0 0 -17034754.232711792 -135051867.97474289 0 -135051867.97474289 -4135542.0622243881 0 0 0 0 169982.26257324219 -119028450.03269863 0 -119028450.03269863 -154150388.65076447 0 0 0 0 -52774342.972564697 -81769684.61838913 0 -81769684.61838913 -34925912.637807846 0 0 0 0 -19412385.856628418 -106205650.85262489 0 -106205650.85262489 -41761361.172050714 0 0 0 0 -24297981.024543762 -130544458.43517685 0 -130544458.43517685 37737256.056671143 0 0 0 0 19498507.450449888 -20673039.226964038 0 -20673039.226964038 2116112.4372624587 0 0 0 0 -81624581.025421143 -100051228.70360947 0 -100051228.70360947 2422461.1211345196 0 0 0 0 -80841300.685295105 -51725906.835754395 0 -51725906.835754395 -3212754.7512588501 0 0 0 0 -5848210.0107154846 -29436357.187398911 0 -29436357.187398911 -6267504.1093139648 0 0 0 0 24413994.051299609 -17812238.001559023 0 -17812238.001559023 -3700457.2608292028 0 0 0 0 4224216.243270874 -19273597.02723217 0 -19273597.02723217 -5254375.0140304565 0 0 0 0 -3823864.0068283081 -28402350.03833437 0 -28402350.03833437 -6912671.4238471985 0 0 0 0 1103311.6761665344 -22005201.85050106 0 -22005201.85050106 7344832.1265068054 0 0 0 0 12602267.828434832 -20059084.325115621 0 -20059084.325115621 -1625793.7742608043 0 0 0 0 33623412.131561279 -3335119.096912384 0 -3335119.096912384 -17040262.656748295 0 0 0 0 -29261494.758575439 -68383922.889055729 0 -68383922.889055729 11196095.170646667 0 0 0 0 36657482.520243809 -16601776.372995287 0 -16601776.372995287 -6226487.9932581587 0 0 0 0 1468515.2234300673 -19020147.109794915 0 -19020147.109794915 -2538678.9761479897 0 0 0 0 123583.48646299541 -3278961.8073375206 0 -3278961.8073375206 -466403.94234802364 0 0 0 0 161152.25798797607 -35777466.437109947 0 -35777466.437109947 -11729488.055020332 0 0 0 0 18045248.351821899 -92982412.296716928 0 -92982412.296716928 -25173821.506501019 0 0 0 0 176358188.92785645 -120241125.15629411 0 -120241125.15629411 -40104862.663420916 0 0 0 0 97282861.631240845 -100427197.78238046 0 -100427197.78238046 -38549231.562348366 0 0 0 0 15970511.904953003 -154956342.28864765 0 -154956342.28864765 -35839070.434204102 0 0 0 0 35795481.791061401 -100153365.75430679 0 -100153365.75430679 94511931.911327362 0 0 0 0 101858132.75596619 -60320167.648601174 0 -60320167.648601174 -49356641.392886162 0 0 0 0 42916037.946655273 -85835433.441822052 0 -85835433.441822052 -59314963.225639343 0 0 0 0 115869716.76318359 -80238008.97652626 0 -80238008.97652626 -94040220.307624817 0 0 0 0 123180578.1552124 -48222949.199516058 0 -48222949.199516058 -79863244.440822601 0 0 0 0 217400194.72787476 68181427.835126877 0 68181427.835126877 -15522045.82333374 0 0 0 0 10112259.234084718 2136914.163561821 0 2136914.163561821 443290.49035471212 0 0 0 0 125813375.12572479 -62266205.280326322 0 -62266205.280326322 -66383498.170956135 0 0 0 0 126161290.63818359 -65108188.087328434 0 -65108188.087328434 -81746702.516201496 0 0 0 0 135964489.65174103 -76950568.801635504 0 -76950568.801635504 -68818865.874049187 0 0 0 0 60755497.1771698 -56347715.105385125 0 -56347715.105385125 -44885689.662911892 0 0 0 0 109766503.53305054 -76934498.454864979 0 -76934498.454864979 -66179073.839489937 0 0 0 0 118543032.14041901 -64741064.750609756 0 -64741064.750609756 -65427866.140245914 0 0 0 0 158029787.79299927 -104800027.75813031 0 -104800027.75813031 -63672170.562146664 0 0 0 0 22425974.347808838 8672070.1387033463 0 8672070.1387033463 -19487533.916793823 0 0 0 0 43135268.744474337 -13962614.470396001 0 -13962614.470396001 -9178090.9684575237 0 0 0 0 24066334.933353711 -15241065.19717212 0 -15241065.19717212 -1786022.7052414063 0 0 0 0 57758865.973821841 -10049980.970078707 0 -10049980.970078707 -13399758.48149652 0 0 0 0 17504525.41973114 -32106416.983737946 0 -32106416.983737946 -24631407.616073608 0 0 0 0 123224188.11638641 -330711200.32833767 0 -330711200.32833767 -117435150.17555285 0 0 0 0 633092276.18599319 291099004.99834538 0 291099004.99834538 88025256.275752544 0 0 0 0 -286161153.29151917 -24085653.284725189 0 -24085653.284725189 -158006811.9036026 0 0 0 0 276419880.25584412 344939379.54698181 0 344939379.54698181 -97887916.027053833 0 0 0 0 -224933255.19740677 71268473.945533752 0 71268473.945533752 205230894.24274397 0 0 0 0 17564227.423370361 -42544703.473378181 0 -42544703.473378181 -21940827.316925526 0 0 0 0 316748696.30823517 -141059339.02110672 0 -141059339.02110672 -201836807.26811981 0 0 0 0 30525059.834197216 -9106138.181903325 0 -9106138.181903325 -5902597.6663897438 0 0 0 0 884302.63399732858 2338063.5145201306 0 2338063.5145201306 5098.7809945028275 0 0 0 0 71992.513179779053 143551861.00609589 0 143551861.00609589 10496545.361834675 0 0 0 0 20776328.026126862 20931292.105710983 0 20931292.105710983 118022140.27213287 0 0 0 0 87198700.87097168 4038565.1856231689 0 4038565.1856231689 -11343187.913421631 0 0 0 0 3471344.9005723558 6306358.8359412402 0 6306358.8359412402 -435369.53594697826 0 0 0 0 -81651489.527043104 -21236211.703318417 0 -21236211.703318417 -142325814.18045044 0 0 0 0 -112574709.80142593 -387073801.41794395 0 -387073801.41794395 -321397409.21975517 0 0 0 0 9784731.165026715 1705299.9940077513 0 1705299.9940077513 -3618843.8197001833 0 0 0 0 377030365.91159058 92780221.156741619 0 92780221.156741619 18877033.401317596 0 0 0 0 704511340.77928543 138171932.78240365 0 138171932.78240365 80683933.423312306 0 0 0 0 118475016.99911976 171923376.32052505 0 171923376.32052505 220127234.43301392 0 0 0 0 260801438.56213379 -218914419.05516171 0 -218914419.05516171 -149109344.91802788 0 0 0 0 329738243.20856953 225856530.52340886 0 225856530.52340886 586532108.01842558 0 0 0 0 1123273546.7921829 744300507.00440335 0 744300507.00440335 401557909.44761008 0 0 0 0 368293862.78325653 334042737.8932333 0 334042737.8932333 300638120.73402798 0 0 0 0 431715579.31795931 -43425833.832496405 0 -43425833.832496405 -61925490.150945187 0 0 0 0 136216656.44799805 -300798460.49926448 0 -300798460.49926448 -212554968.8171978 0 0 0 0 -95750028.781990051 -122990041.21906757 0 -122990041.21906757 125221536.92173386 0 0 0 0 -275306363.34155822 -554588156.55879474 0 -554588156.55879474 -134957496.81512642 0 0 0 0 3729327.9340765458 415720.4541033851 0 415720.4541033851 -1760557.1945526693 0 0 0 0 115726749.74286652 -36641497.851361275 0 -36641497.851361275 -196965242.7405262 0 0 0 0 360251348.07537556 -276692371.5289309 0 -276692371.5289309 -12982686.844524384 0 0 0 0 -312487144.6705246 -27510264.615963936 0 -27510264.615963936 52026231.078615189 0 0 0 0 -36675455.025619507 6861909.70408988 0 6861909.70408988 -23759289.483480453 0 0 0 0 10765186.514133453 -92704228.237087488 0 -92704228.237087488 124367269.6857748 0 0 0 0 116520463.88602448 -9268991.7297720909 0 -9268991.7297720909 44398202.668219447 0 0 0 0 225687720.62293434 -126266540.7021656 0 -126266540.7021656 110950500.78539562 0 0 0 0 67426953.686817169 -21160497.912226796 0 -21160497.912226796 245849004.2047174 0 0 0 0 1777778.5156028355 87282.189727038145 0 87282.189727038145 -1148157.4612273742 0 0 0 0 156759756.51349258 177316130.47890592 0 177316130.47890592 108794111.9405371 0 0 0 0 -62893022.383224487 64815493.675862849 0 64815493.675862849 62975588.869902909 0 0 0 0 138071420.32779312 38439366.121999502 0 38439366.121999502 -14467590.352574348 0 0 0 0 -35299231.847354889 -39536670.6155653 0 -39536670.6155653 29989270.152577877 0 0 0 0 34777475.210578918 63014313.923112392 0 63014313.923112392 48724062.700014114 0 0 0 0 -96053912.195343018 -3450635.7278366089 0 -3450635.7278366089 43158295.08395195 0 0 0 0 -236678156.44681931 -104816417.53734171 0 -104816417.53734171 1230736.487678051 0 0 0 0 -123401510.95961761 65414955.957803965 0 65414955.957803965 39406710.629836559 0 0 0 0 -47440248.983576298 -1458258.4880176634 0 -1458258.4880176634 -97137644.993731976 0 0 0 0 -170557366.48382568 -110754176.74043751 0 -110754176.74043751 -43549056.015313625 0 0 0 0 1538306.5238669636 -1901555.3541740817 0 -1901555.3541740817 -801432.54902356979 0 0 0 0 20080352.487632751 2888224.0339756012 0 2888224.0339756012 -1570920.525188446 0 0 0 0 35626150.086289302 -6600276.0146652255 0 -6600276.0146652255 2009501.8538549538 0 0 0 0 26559120.35893099 4332446.1982207615 0 4332446.1982207615 -1545423.5530395687 0 0 0 0 29002515.2160438 7232650.5640125405 0 7232650.5640125405 -2410940.342534075 0 0 0 0 -244752479.74385834 -63293079.950862408 0 -63293079.950862408 45221244.018496513 0 0 0 0 -328565848.26968765 -2768526.3714492321 0 -2768526.3714492321 2558597.4959821701 0 0 0 0 11829939.259153366 -6019442.7528984845 0 -6019442.7528984845 -9398268.3349819779 0 0 0 0 -208432994.26351547 -86600837.362973213 0 -86600837.362973213 77333163.865089893 0 0 0 0 -212002194.14855576 -56466477.851662159 0 -56466477.851662159 -45422977.915145874 0 0 0 0 15329754.436523438 -532695.69052505493 0 -532695.69052505493 -3944155.1219406128 0 0 0 0 -355079438.2151947 -201611863.45375729 0 -201611863.45375729 -3236103.2702884674 0 0 0 0 38162855.382888898 -7618011.2356843716 0 -7618011.2356843716 -1246844.4529966554 0 0 0 0 47734941.79159262 -10750354.486159053 0 -10750354.486159053 -12385590.042273104 0 0 0 0 84810480.515197754 -47258247.695636749 0 -47258247.695636749 -30880126.418663025 0 0 0 0 40752976.049261443 3202409.9221458472 0 3202409.9221458472 -2484803.9817050342 0 0 0 0 180139375.73814392 886012080.59536767 0 886012080.59536767 1056673958.2581005 0 0 0 0 20219898.883068085 850939920.30263042 0 850939920.30263042 1365600705.9003506 0 0 0 0 713323249.87407684 2241157682.092248 0 2241157682.092248 3414838961.4838691 0 0 0 0 3785883621.0939178 718222339.34458828 0 718222339.34458828 1115163687.8509645 0 0 0 0 -312378084.77561951 -160442364.32864952 0 -160442364.32864952 1546093204.9436779 0 0 0 0 -99813.522973256186 361702.42741598189 0 361702.42741598189 5106550.3867534325 0 0 0 0 4141971943.0454674 758849556.52949595 0 758849556.52949595 145254921.69935226 0 0 0 0 -322465.04990335554 793996.23942998238 0 793996.23942998238 317846.8460086803 0 0 0 0 6995890.0467943847 8123470.5323161939 0 8123470.5323161939 -486965.68362231879 0 0 0 0 6261390.7289047241 10588.69481754303 0 10588.69481754303 -4085387.1542921066 0 0 0 0 436471373.27080917 -67542991.496367455 0 -67542991.496367455 -466069785.42637253 0 0 0 0 308137862.35454559 278666483.59646225 0 278666483.59646225 -237103611.60386491 0 0 0 0 12002063.275547523 6814751.9013300706 0 6814751.9013300706 -1906608.8352695298 0 0 0 0 11991256.33757019 -8239144.859041214 0 -8239144.859041214 -20572910.140386581 0 0 0 0 15704613.392923273 5989899.4063865207 0 5989899.4063865207 -3172972.7480258774 0 0 0 0 80777633.081985474 6963463.1146240234 0 6963463.1146240234 -12498454.141675949 0 0 0 0 237349354.92169952 -134039953.68470192 0 -134039953.68470192 -512593591.06835365 0 0 0 0 21366875.326904297 20663163.425714493 0 20663163.425714493 -11989485.771915436 0 0 0 0 12093931.009613037 22314297.314767838 0 22314297.314767838 -11440256.59709549 0 0 0 0 2011814.915344689 115220.72847205773 0 115220.72847205773 -1169409.46781574 0 0 0 0 -7634725.1812286377 2800809.2307929993 0 2800809.2307929993 -5172911.5596847534 0 0 0 0 -16181633.710983276 -133024616.36291265 0 -133024616.36291265 9103984.9620666504 0 0 0 0 323626687.92756653 344274001.372509 0 344274001.372509 186372496.27501392 0 0 0 0 286612907.23969269 -101223833.86966419 0 -101223833.86966419 -160735265.1433506 0 0 0 0 -23791832.899999142 241668862.14198789 0 241668862.14198789 337763115.8605423 0 0 0 0 789747165.38809967 1094973689.2361407 0 1094973689.2361407 780068464.03062725 0 0 0 0 581295256.5719986 670940527.77476799 0 670940527.77476799 621372187.69815087 0 0 0 0 563439670.98890972 222467479.38507569 0 222467479.38507569 234045448.63515663 0 0 0 0 1352785534.5539093 272153991.75038958 0 272153991.75038958 801151131.10542822 0 0 0 0 1920802488.8554401 1661642080.2470443 0 1661642080.2470443 608190975.32271266 0 0 0 0 522153525.45160675 1915826787.9427412 0 1915826787.9427412 1279348029.2499304 0 0 0 0 701241413.87519455 1776464754.6108389 0 1776464754.6108389 1394881939.3768435 0 0 0 0 525760712.00898743 1347196366.8131528 0 1347196366.8131528 540271538.43529654 0 0 0 0 1487143624.2811012 1527547722.3882194 0 1527547722.3882194 579725525.31812835 0 0 0 0 1020988531.8886566 1323909764.3964081 0 1323909764.3964081 996055295.5912956 0 0 0 0 934508358.48203278 345009398.01362991 0 345009398.01362991 -1039017989.1060925 0 0 0 0 -282912772.95680237 685093790.52084541 0 685093790.52084541 514413621.57498837 0 0 0 0 8173660.1378218941 3237464.8756633014 0 3237464.8756633014 1236954.2248036426 0 0 0 0 -152354779.76383781 -3664017.7869477272 0 -3664017.7869477272 24914990.62499094 0 0 0 0 127970485.69458008 868280516.77341557 0 868280516.77341557 -1259599493.6902428 0 0 0 0 -73770649.719680786 -141211984.62686396 0 -141211984.62686396 -153445212.09076405 0 0 0 0 18963104.131197497 -52389.350429637823 0 -52389.350429637823 -1787325.9856510058 0 0 0 0 -50329321.741081238 307583016.74114776 0 307583016.74114776 -853741578.33615673 0 0 0 0 811387705.23346901 275936851.76095033 0 275936851.76095033 -167283645.01710987 0 0 0 0 -167894439.71109772 -213046486.63028216 0 -213046486.63028216 223060198.8270936 0 0 0 0 -127300188.79057503 74621445.150773406 0 74621445.150773406 257259519.99446726 0 0 0 0 1026024730.5452271 -182188455.72596598 0 -182188455.72596598 6200756.340310812 0 0 0 0 2648380.6953774616 2635010.403306379 0 2635010.403306379 1294533.3603933207 0 0 0 0 2287334904.9347095 1202565540.0191841 0 1202565540.0191841 297798476.08209562 0 0 0 0 1228289091.5836143 1513205632.8723958 0 1513205632.8723958 1481281262.2769208 0 0 0 0 941085286.19846153 969072026.80931532 0 969072026.80931532 451661831.24752235 0 0 0 0 1817086161.0512009 1429468971.0716746 0 1429468971.0716746 626818957.68531632 0 0 0 0 1021169999.337883 1437819392.302794 0 1437819392.302794 1208079936.3946242 0 0 0 0 545452409.56060791 329231182.97418928 0 329231182.97418928 162220896.45808995 0 0 0 0 13923566.615339847 105153.95437610778 0 105153.95437610778 -1301061.3225566642 0 0 0 0 461018354.07206535 -105470880.11095858 0 -105470880.11095858 -1489324523.5201778 0 0 0 0 5533153.3679425176 317223.80268736742 0 317223.80268736742 -479485.8102197526 0 0 0 0 -41025167.46258688 -811020437.75777793 0 -811020437.75777793 -674186195.29966736 0 0 0 0 1791922107.5111504 2123818774.7412949 0 2123818774.7412949 1767229839.9010196 0 0 0 0 994702962.36882591 -747217082.95746756 0 -747217082.95746756 -784606083.42055726 0 0 0 0 439708281.51278687 -272757882.84376717 0 -272757882.84376717 -874129692.02386093 0 0 0 0 101748292.91528606 66540024.050127864 0 66540024.050127864 -648385525.82152414 0 0 0 0 -91698320.283718109 -167377574.63211393 0 -167377574.63211393 -888837732.08703828 0 0 0 0 182321308.95808744 59824624.576256931 0 59824624.576256931 -1178189623.4340754 0 0 0 0 104853653.14485168 -139587821.00337815 0 -139587821.00337815 -907924665.40070009 0 0 0 0 2924975.6037562955 1765830.2585089291 0 1765830.2585089291 -1307059.7127152388 0 0 0 0 12677978.354626775 -12443807.867431063 0 -12443807.867431063 -49010201.428842545 0 0 0 0 -120746193.0260582 -25152192.240637898 0 -25152192.240637898 74713867.939342499 0 0 0 0 14725479.990041286 97373408.318236962 0 97373408.318236962 87645211.008977413 0 0 0 0 22878705.111303415 577639.66059804428 0 577639.66059804428 3484443.4367852388 0 0 0 0 -41861914.541849136 -4528389.2965261936 0 -4528389.2965261936 67079832.464213371 0 0 0 0 -99105936.273229599 -213775381.56150079 0 -213775381.56150079 -94487260.002933502 0 0 0 0 -127216822.99385643 101843102.59666514 0 101843102.59666514 715541994.68059826 0 0 0 0 1957402510.5342712 8923575.264122963 0 8923575.264122963 562088236.19261408 0 0 0 0 542140507.60963821 111204614.01609969 0 111204614.01609969 748227244.80468178 0 0 0 0 -31189597.696903229 -475849090.21638775 0 -475849090.21638775 -34873772.811975718 0 0 0 0 456569925.07766724 369427256.98564398 0 369427256.98564398 -30393582.867566824 0 0 0 0 1422634704.6051903 701793877.419765 0 701793877.419765 205755812.95605469 0 0 0 0 622750173.03469849 210129957.33125019 0 210129957.33125019 121790747.65261745 0 0 0 0 2905847544.2403984 1283794937.1857257 0 1283794937.1857257 550337376.65658975 0 0 0 0 1281634890.9867516 722994294.9054749 0 722994294.9054749 423658811.2048111 0 0 0 0 1426196410.7211237 1339941202.1735408 0 1339941202.1735408 689486922.7407093 0 0 0 0 2052261075.7549644 128026572.31846166 0 128026572.31846166 -470399855.56514215 0 0 0 0 768784019.3568306 655954884.52111316 0 655954884.52111316 -8512461.262430191 0 0 0 0 726891937.49679947 1053021835.3781295 0 1053021835.3781295 191885925.65195632 0 0 0 0 607809582.2225914 461549491.98555088 0 461549491.98555088 1446127503.6837645 0 0 0 0 668180165.24298 481621228.5939405 0 481621228.5939405 228757617.84246922 0 0 0 0 340650326.17728424 603139921.51669598 0 603139921.51669598 573789167.34762955 0 0 0 0 304960430.20767021 407375486.5154556 0 407375486.5154556 112910777.18505192 0 0 0 0 886616163.26649475 626852216.00134468 0 626852216.00134468 -72400954.644126415 0 0 0 0 304276410.88340378 445615043.00599194 0 445615043.00599194 168057732.10475636 0 0 0 0 380623812.55849791 180592190.74088979 0 180592190.74088979 -4102705.4604091644 0 0 0 0 154771040.92323494 135515671.43767142 0 135515671.43767142 54074937.759490967 0 0 0 0 -141356115.15961409 -52816819.680056274 0 -52816819.680056274 111720044.02568531 0 0 0 0 -19615990.43466568 355952171.4696064 0 355952171.4696064 499240546.78671598 0 0 0 0 1972359.0359460302 5813094.4749215823 0 5813094.4749215823 1119048.1196886273 0 0 0 0 3953219.425494086 1970713.7645151233 0 1970713.7645151233 -1896666.4132503448 0 0 0 0 6208718.8286719695 10459327.180562276 0 10459327.180562276 19123364.147937957 0 0 0 0 16191993.631109238 43481851.886035919 0 43481851.886035919 111695724.89230347 0 0 0 0 32748979.586128235 -1795414.0473060608 0 -1795414.0473060608 -2771616.3904418945 0 0 0 0 993790780.66905713 -9668505.0194023252 0 -9668505.0194023252 228896492.22960091 0 0 0 0 74192849.815446854 -132914186.80724716 0 -132914186.80724716 -451956547.36237335 0 0 0 0 1714748.5789221402 -3465662.0096868761 0 -3465662.0096868761 -5757430.938201746 0 0 0 0 2809600995.7911911 -180955190.65878415 0 -180955190.65878415 -440807514.0205636 0 0 0 0 2600412462.5151348 203795034.71145916 0 203795034.71145916 -516258129.7539196 0 0 0 0 1106802659.6330414 -1380585525.1901507 0 -1380585525.1901507 1951922293.1616106 0 0 0 0 1342047786.4538405 -108209897.47056723 0 -108209897.47056723 -266290523.30334282 0 0 0 0 4923588.2400454339 76296.396772384644 0 76296.396772384644 -12854958.893166382 0 0 0 0 823037373.35800314 -36734859.160050631 0 -36734859.160050631 -267513850.55310631 0 0 0 0 771039897.12167358 469096845.04996902 0 469096845.04996902 -285987197.09395409 0 0 0 0 1279102001.6536648 434021665.19479632 0 434021665.19479632 -304059478.27546883 0 0 0 0 1579491368.4765472 385852002.77720261 0 385852002.77720261 -394753363.84348488 0 0 0 0 1220744968.9125404 1076534134.4137731 0 1076534134.4137731 -396151384.50066566 0 0 0 0 817296851.60369682 827629806.37154484 0 827629806.37154484 -211626951.38582802 0 0 0 0 757351723.69867134 882275337.01964259 0 882275337.01964259 -219348057.7743578 0 0 0 0 4478905.8986135535 165799.71879275655 0 165799.71879275655 -559430.46982945269 0 0 0 0 2504516029.2635174 -756581566.71166372 0 -756581566.71166372 -1423857559.7790098 0 0 0 0 1069632519.2547092 1159929294.8988981 0 1159929294.8988981 -508625602.3696661 0 0 0 0 2063837514.9232101 849122822.71093845 0 849122822.71093845 -490376000.10421371 0 0 0 0 154544014.36722946 1101325999.5100913 0 1101325999.5100913 -92836235.806107044 0 0 0 0 -73314465.763884068 -10960637.344623864 0 -10960637.344623864 -717509471.33709049 0 0 0 0 699070398.14391661 -395506726.07011646 0 -395506726.07011646 -653264786.21968937 0 0 0 0 1079645822.8430138 771949688.08946371 0 771949688.08946371 -272915971.81677914 0 0 0 0 640363291.37026978 3926610.6903157234 0 3926610.6903157234 -1531106485.2544611 0 0 0 0 7847618.6703927498 851678.67044460843 0 851678.67044460843 -881169.30745070335 0 0 0 0 531514576.61755276 965040603.05961871 0 965040603.05961871 -1487614861.2398369 0 0 0 0 119919402.6236763 197611817.13408652 0 197611817.13408652 -448411798.07783073 0 0 0 0 -86095579.079774857 842783170.82420993 0 842783170.82420993 717193628.77868128 0 0 0 0 597009823.52396393 258060550.48938751 0 258060550.48938751 833371626.30248952 0 0 0 0 1109989355.5648046 -217158999.99287611 0 -217158999.99287611 242713901.52601361 0 0 0 0 1746984699.4660645 -209219934.36944875 0 -209219934.36944875 1129586538.4904363 0 0 0 0 2047749697.6009197 394952189.88599312 0 394952189.88599312 628452726.73606849 0 0 0 0 -597887003.77756882 416934479.04565066 0 416934479.04565066 72564529.692286015 0 0 0 0 1468753806.2990265 -1128986623.6563802 0 -1128986623.6563802 -914361338.81285346 0 0 0 0 2442229832.8425503 -416521474.30827868 0 -416521474.30827868 175425801.29905969 0 0 0 0 2653596017.4535189 -367991109.32369864 0 -367991109.32369864 -426781282.47577333 0 0 0 0 2528958566.4013109 -1237356878.7087007 0 -1237356878.7087007 357497816.91702908 0 0 0 0 1276328.6187757314 1578673.3950427836 0 1578673.3950427836 5164230.9811554002 0 0 0 0 4476265823.8149652 -818939517.90440989 0 -818939517.90440989 475302441.10733688 0 0 0 0 2568642816.0920639 -912424358.21621144 0 -912424358.21621144 -254657906.17240858 0 0 0 0 2354251359.5937233 -1325945481.5823319 0 -1325945481.5823319 892643797.60675764 0 0 0 0 2379265809.2913494 -819774277.37852347 0 -819774277.37852347 843485310.38125682 0 0 0 0 438387790.06020474 -557445937.39009702 0 -557445937.39009702 760723056.28661346 0 0 0 0 295606405.63274193 -717075485.27378607 0 -717075485.27378607 -453755533.35591412 0 0 0 0 18941.940839088405 -1642729.9816215062 0 -1642729.9816215062 1506418.9677897478 0 0 0 0 313423327.59952021 -538611816.3490274 0 -538611816.3490274 1188272537.8903112 0 0 0 0 153679220.61653137 -266841200.6078701 0 -266841200.6078701 476377168.4068985 0 0 0 0 227577558.6305275 -474482134.4568882 0 -474482134.4568882 815527207.20529175 0 0 0 0 305556168.02875328 -392160076.24753952 0 -392160076.24753952 624528255.52932739 0 0 0 0 407951740.22267151 -504889565.38825989 0 -504889565.38825989 488006438.20817566 0 0 0 0 398892106.48567581 -355505894.88350296 0 -355505894.88350296 124018729.90232086 0 0 0 0 501332029.38388062 -463035982.94744492 0 -463035982.94744492 65841615.729213715 0 0 0 0 451928154.94169044 -539270215.70450306 0 -539270215.70450306 228700065.02099609 0 0 0 0 4279190.839800003 -2716874.2396525145 0 -2716874.2396525145 -3317981.9452742292 0 0 0 0 -206976191.31171036 269388335.83581543 0 269388335.83581543 251466921.96281433 0 0 0 0 10212424.274673104 10635334.359673262 0 10635334.359673262 -9594666.4116344452 0 0 0 0 2468254516.2346821 -545839063.8067708 0 -545839063.8067708 -827360205.21973491 0 0 0 0 4065022.4586326354 6252218.846400246 0 6252218.846400246 13616618.156169405 0 0 0 0 426527919.53706455 578375728.28447151 0 578375728.28447151 -30194386.425317287 0 0 0 0 1399680905.812149 210949660.4467752 0 210949660.4467752 -367187633.68429691 0 0 0 0 389712137.63026142 363364329.78726971 0 363364329.78726971 732025167.59776032 0 0 0 0 327390755.26292038 117953148.25841218 0 117953148.25841218 -56609346.376490116 0 0 0 0 39035609.891397476 190548919.02541518 0 190548919.02541518 -56569003.532084465 0 0 0 0 577608029.7281189 43528526.516195774 0 43528526.516195774 -650139866.29353297 0 0 0 0 371718761.58308506 -176743628.26994669 0 -176743628.26994669 -466655357.02923918 0 0 0 0 530262879.66006279 -116500349.31205583 0 -116500349.31205583 -723124393.59302735 0 0 0 0 379487769.13131189 -639737173.31040192 0 -639737173.31040192 -432749281.7350378 0 0 0 0 328870226.26356888 -624473926.90152764 0 -624473926.90152764 -393189705.32450116 0 0 0 0 138469090.99218178 -114282906.23478377 0 -114282906.23478377 -791785024.45896029 0 0 0 0 923390415.92128086 -779462488.56256843 0 -779462488.56256843 -550876068.36058271 0 0 0 0 3412211.5053698719 473918.71430448268 0 473918.71430448268 -311139.20420502528 0 0 0 0 322332849.08982086 970330400.84390545 0 970330400.84390545 476638938.74339795 0 0 0 0 -191631703.03114939 539274560.62371039 0 539274560.62371039 594216407.66581964 0 0 0 0 -11497885.851651192 612113406.32983041 0 612113406.32983041 620954087.21342719 0 0 0 0 1169493912.7211761 156120193.59560078 0 156120193.59560078 230425576.68697381 0 0 0 0 572234826.26926708 -371749991.33543068 0 -371749991.33543068 584138536.37088394 0 0 0 0 390639972.89487076 -79892100.503838181 0 -79892100.503838181 122252267.98111868 0 0 0 0 199185705.443964 213304033.78934741 0 213304033.78934741 -112923598.863965 0 0 0 0 658019325.37665749 -76766625.516720772 0 -76766625.516720772 -78466803.062615335 0 0 0 0 157742045.00485706 255639167.84450799 0 255639167.84450799 73639477.262629032 0 0 0 0 395407714.68382454 -49418864.102356195 0 -49418864.102356195 210930127.86175036 0 0 0 0 116025630.69235277 233671597.54749018 0 233671597.54749018 -44517062.872466087 0 0 0 0 93205766.649200439 302867800.99245644 0 302867800.99245644 208625259.28175795 0 0 0 0 49833495.621912003 355130032.29878575 0 355130032.29878575 43439268.12958765 0 0 0 0 49188438.454402924 347965625.70040214 0 347965625.70040214 -444392440.14268064 0 0 0 0 -76618088.700609207 279503485.24435449 0 279503485.24435449 -49741923.520624042 0 0 0 0 106686470.73226833 271881153.65218842 0 271881153.65218842 -448953065.60000515 0 0 0 0 506912384.31130886 571676543.35766602 0 571676543.35766602 -37811616.698072433 0 0 0 0 147878683.75515938 268886361.34098458 0 268886361.34098458 67672084.047350407 0 0 0 0 272277761.54582977 254118025.48178029 0 254118025.48178029 114076089.02038071 0 0 0 0 150063733.63351059 303867311.60688674 0 303867311.60688674 -327883747.76758409 0 0 0 0 15007229.789827347 295403928.51146483 0 295403928.51146483 -50635383.914945289 0 0 0 0 148778508.09848976 379153909.68264318 0 379153909.68264318 -51237785.91041363 0 0 0 0 155429829.9312973 357018169.03261542 0 357018169.03261542 18301674.303135872 0 0 0 0 384556100.82931519 384220186.97668409 0 384220186.97668409 -48633340.273150563 0 0 0 0 473979720.78620148 135912493.07217741 0 135912493.07217741 -218585484.51778984 0 0 0 0 267479418.52644444 382393653.20108098 0 382393653.20108098 -9712838.3687019348 0 0 0 0 162601089.40978622 274895847.30050945 0 274895847.30050945 -118431192.68933034 0 0 0 0 -61285360.168441772 328433277.98987722 0 328433277.98987722 -123297086.89035869 0 0 0 0 70866745.999793053 -51928150.877518535 0 -51928150.877518535 -318907081.76351786 0 0 0 0 1290634190.5835037 -573833145.53099775 0 -573833145.53099775 -357378696.50225425 0 0 0 0 1323340398.5932941 -531515837.16806304 0 -531515837.16806304 -665657795.74970341 0 0 0 0 988298070.54618835 -397281626.03347635 0 -397281626.03347635 -458010208.38658333 0 0 0 0 1594900572.5208244 -397939314.32573378 0 -397939314.32573378 -943434667.54394436 0 0 0 0 1489197913.4892859 -108915195.15885335 0 -108915195.15885335 -634392490.17655563 0 0 0 0 507399011.44916153 173086268.18527341 0 173086268.18527341 -219127444.42808056 0 0 0 0 531892939.60875702 144384011.95228553 0 144384011.95228553 -235345661.89215541 0 0 0 0 563584666.88691998 179853945.1944716 0 179853945.1944716 -237849274.12523937 0 0 0 0 5665669832.2320347 753937376.96272349 0 753937376.96272349 153223886.66100091 0 0 0 0 1829661305.2708817 35795479.027655244 0 35795479.027655244 -263763927.33783531 0 0 0 0 547212104.89291 -428428400.98007429 0 -428428400.98007429 -401078659.53403342 0 0 0 0 1514781074.1104965 -698617018.27303934 0 -698617018.27303934 -525290039.98859745 0 0 0 0 1599646759.1015739 -564761785.83505619 0 -564761785.83505619 -698042345.04278648 0 0 0 0 1509828724.8018112 -562860236.39410543 0 -562860236.39410543 -961459680.98643887 0 0 0 0 1587247686.0968435 -776341990.54041541 0 -776341990.54041541 -1134688665.7275121 0 0 0 0 7616846797.7953796 864449056.56518614 0 864449056.56518614 93575081.296675086 0 0 0 0 -523559848.47729969 -1634873035.9009442 0 -1634873035.9009442 -429931787.93360686 0 0 0 0 5987681114.2108631 -2014734523.0166025 0 -2014734523.0166025 -413937192.25710034 0 0 0 0 2708593.6533533377 -1514031.441501305 0 -1514031.441501305 -466376.23619650712 0 0 0 0 1508977433.1137962 -2170354265.9060607 0 -2170354265.9060607 -1543433114.5198278 0 0 0 0 4498377794.5898743 -1374680286.5691998 0 -1374680286.5691998 -1361544089.5702338 0 0 0 0 5148805084.2469902 -1101134093.2731752 0 -1101134093.2731752 -1379595853.8158371 0 0 0 0 4146286877.2549286 -1924475258.4574139 0 -1924475258.4574139 -1560701017.6347106 0 0 0 0 4436398251.4037476 -709720454.60689533 0 -709720454.60689533 -1069308375.5601236 0 0 0 0 2362254973.1920509 -636903032.12495804 0 -636903032.12495804 -1068409305.0571954 0 0 0 0 2205834884.901792 -754598261.20841634 0 -754598261.20841634 -1135939603.8701835 0 0 0 0 2112936998.7838345 -127765229.41691232 0 -127765229.41691232 -803708058.7108798 0 0 0 0 2828320008.9735985 -51474446.87149179 0 -51474446.87149179 -668002642.36010361 0 0 0 0 2929268690.4459896 58883680.942817986 0 58883680.942817986 -783130056.15674961 0 0 0 0 4100600813.2410851 -217256948.23381126 0 -217256948.23381126 -791814584.55495429 0 0 0 0 5983159533.2038889 -433315680.95273709 0 -433315680.95273709 -1631270798.1628227 0 0 0 0 1154165018.8084564 293540884.57493091 0 293540884.57493091 -228193575.37909436 0 0 0 0 847711266.63129807 264560481.6901654 0 264560481.6901654 -163082334.9982965 0 0 0 0 1174877270.8093405 312358888.54452199 0 312358888.54452199 -315488065.80362844 0 0 0 0 1749496098.1568451 -43182935.518041849 0 -43182935.518041849 -664750000.84671104 0 0 0 0 1743803609.6142921 -52614484.029062271 0 -52614484.029062271 -658038848.72327065 0 0 0 0 1625274593.9337273 261652233.92620921 0 261652233.92620921 -319688334.27790934 0 0 0 0 1647648126.5497017 462608378.15539205 0 462608378.15539205 -281844139.36756575 0 0 0 0 1877306121.3581848 580759110.23244298 0 580759110.23244298 -308980965.4746666 0 0 0 0 1647146483.4278183 525245103.63119698 0 525245103.63119698 -249853179.7268557 0 0 0 0 1152239238.1330643 600707965.97085989 0 600707965.97085989 -230611129.55736017 0 0 0 0 707947830.07045841 850698374.2405746 0 850698374.2405746 286355735.99680877 0 0 0 0 1078875704.9190617 1925571463.7159047 0 1925571463.7159047 665009786.28719258 0 0 0 0 3313051.0662521273 1221248.860774321 0 1221248.860774321 356581.74681104359 0 0 0 0 172735669.74810457 -52714502.598592684 0 -52714502.598592684 -156264785.53868592 0 0 0 0 281402087.77083397 314833717.94005877 0 314833717.94005877 -971399353.82525504 0 0 0 0 4720001490.9535236 142088515.20036399 0 142088515.20036399 -771465042.84693003 0 0 0 0 2652170146.3018932 914445207.64262831 0 914445207.64262831 -576529830.79719901 0 0 0 0 4708551050.513813 950964097.23693073 0 950964097.23693073 -621696396.29824257 0 0 0 0 4274852751.6711922 -56635686.803628378 0 -56635686.803628378 -727531793.20757723 0 0 0 0 5982764493.3631115 1034211945.7227256 0 1034211945.7227256 -31527669.02217849 0 0 0 0 4840809733.0000648 1449064064.2724109 0 1449064064.2724109 -166342952.57373136 0 0 0 0 4903353579.6407318 1283336130.9705186 0 1283336130.9705186 -318269721.74722147 0 0 0 0 4071630325.7045078 2405208880.8599601 0 2405208880.8599601 913664539.75149059 0 0 0 0 4911818.8036148027 45624.526892330963 0 45624.526892330963 -312558.32368965034 0 0 0 0 5766962191.5236073 1128497299.1932998 0 1128497299.1932998 -501806594.74770129 0 0 0 0 5986278807.4537506 1692212241.3827679 0 1692212241.3827679 879339416.87752342 0 0 0 0 7878907.917492846 1254784.8024147749 0 1254784.8024147749 -101678.02969975004 0 0 0 0 -88123853.899299622 19150745.143889748 0 19150745.143889748 45963715.182423115 0 0 0 0 -318992356.77147579 198413623.98973608 0 198413623.98973608 -45055270.2537141 0 0 0 0 2231820615.9516907 -573298897.75833631 0 -573298897.75833631 -26273547.374243557 0 0 0 0 -476358971.30230331 16154916.097145572 0 16154916.097145572 660719484.32711005 0 0 0 0 720681196.93720245 845151848.43629026 0 845151848.43629026 470560870.28646773 0 0 0 0 303714109.16836166 -714109610.32902515 0 -714109610.32902515 300860423.09487706 0 0 0 0 -122168337.90838623 121454986.71802095 0 121454986.71802095 -127314123.84517705 0 0 0 0 -27704367.225311279 -250329002.30707094 0 -250329002.30707094 -311668861.66091782 0 0 0 0 -26608593.745513916 -1486932.1193723679 0 -1486932.1193723679 26693954.999827862 0 0 0 0 10278795.408747938 -914496.02357290126 0 -914496.02357290126 -766513.78875914949 0 0 0 0 33277549.077217102 18686184.255052924 0 18686184.255052924 -50990851.786929011 0 0 0 0 11766182.050174594 -1411476.9201348252 0 -1411476.9201348252 -1603227.8256141988 0 0 0 0 -17452258.288391113 -341390122.128438 0 -341390122.128438 -788240827.10629082 0 0 0 0 -19482019.25304985 -42988780.582928546 0 -42988780.582928546 -37077669.986864984 0 0 0 0 100827736.55659294 -27780553.041289568 0 -27780553.041289568 -750414880.85036755 0 0 0 0 -3399131.1812438965 -6880648.8100323677 0 -6880648.8100323677 -10111405.030257404 0 0 0 0 11745935.662095236 -3813662.9432668625 0 -3813662.9432668625 -3047282.933249448 0 0 0 0 -22407464.942205429 -91483926.495192498 0 -91483926.495192498 -667642505.70155001 0 0 0 0 -320873539.52719116 -53645002.827571869 0 -53645002.827571869 -485355299.92781448 0 0 0 0 22314273.521686263 1724756.3687540325 0 1724756.3687540325 -6649448.9141060421 0 0 0 0 4425506.7872619629 -3401598.3149471283 0 -3401598.3149471283 -29399638.12515831 0 0 0 0 20688381.595387194 10121009.12955077 0 10121009.12955077 -7483473.2069617379 0 0 0 0 41658415.916534424 -501929297.60816669 0 -501929297.60816669 -802738978.77683043 0 0 0 0 -315275996.30379486 -285806145.43703103 0 -285806145.43703103 -716178487.60830688 0 0 0 0 -94318629.178222656 -238130596.72597885 0 -238130596.72597885 -775422659.53745842 0 0 0 0 -73857037.085083008 -518652465.19405174 0 -518652465.19405174 -773514763.65833473 0 0 0 0 -281718354.7194519 -191816954.31844854 0 -191816954.31844854 -705954362.07680511 0 0 0 0 22528813.769549329 3896986.6228939742 0 3896986.6228939742 -5339999.7783354707 0 0 0 0 -223444189.15164185 -286356297.29414654 0 -286356297.29414654 -778139143.21616173 0 0 0 0 -16561973.484741211 -318892654.91483212 0 -318892654.91483212 -706884507.53958893 0 0 0 0 52435395.439453125 -370766209.60661364 0 -370766209.60661364 -755460972.59574318 0 0 0 0 -69954672.160064697 -448754734.73256707 0 -448754734.73256707 -654024578.45028591 0 0 0 0 209355953.8994751 -327131530.35289669 0 -327131530.35289669 -715203223.25913811 0 0 0 0 239375351.66836548 197168105.9676857 0 197168105.9676857 -1408506572.3285348 0 0 0 0 224988562.49440002 -407132588.37302494 0 -407132588.37302494 -691135239.54555511 0 0 0 0 413600291.23080444 -34025095.630673409 0 -34025095.630673409 -1430692047.4739933 0 0 0 0 14824821.902658083 -4216100.4062830117 0 -4216100.4062830117 -2851111.2572061853 0 0 0 0 92930699.38142395 -119725580.06947136 0 -119725580.06947136 -928265787.00706959 0 0 0 0 382649553.30919647 -193461660.58990574 0 -193461660.58990574 -1049049869.7827396 0 0 0 0 125268260.26483154 55256992.3992033 0 55256992.3992033 -1103758192.8490722 0 0 0 0 -355943813.70861816 54096421.073862076 0 54096421.073862076 -746690422.12067604 0 0 0 0 -24135522.737426758 -96270558.819375992 0 -96270558.819375992 -879977387.38128662 0 0 0 0 -148379129.85870361 60050108.590665817 0 60050108.590665817 -1017187154.3791075 0 0 0 0 -300174958.4989624 189533587.3282299 0 189533587.3282299 -921558269.92962742 0 0 0 0 151920820.82971382 -114490362.99588835 0 -114490362.99588835 -947973539.89395905 0 0 0 0 85508014.596694946 -335547709.29623604 0 -335547709.29623604 -1109623326.9608154 0 0 0 0 194915278.28431702 -19824756.609120369 0 -19824756.609120369 -690907722.97980082 0 0 0 0 19875285.728189468 -44484578.126894891 0 -44484578.126894891 -35125701.315394878 0 0 0 0 -33768843.832151413 160725170.37064838 0 160725170.37064838 81139123.66231513 0 0 0 0 -8370794.9626464844 37215769.846550941 0 37215769.846550941 -12746249.113374233 0 0 0 0 101821681.42817688 17483180.217977524 0 17483180.217977524 -96553481.249694347 0 0 0 0 23932741.021153439 1953186.2413642625 0 1953186.2413642625 -3214656.6882165195 0 0 0 0 -15284559.044967651 16796978.757862091 0 16796978.757862091 -8044193.4313471317 0 0 0 0 21267644.549527675 -8838439.554046737 0 -8838439.554046737 -3774147.450181928 0 0 0 0 10239546.484656788 8364243.083108386 0 8364243.083108386 -6892498.7957871268 0 0 0 0 -2451315.9369125366 -144824065.24200261 0 -144824065.24200261 -686042292.64422202 0 0 0 0 47022025.834770203 -119442781.36995041 0 -119442781.36995041 -724574815.31173611 0 0 0 0 47296399.679904938 -134783533.3424989 0 -134783533.3424989 -684036006.2222054 0 0 0 0 -81632672.001255512 -489934697.6458779 0 -489934697.6458779 -1601175464.2807207 0 0 0 0 31020399.822441101 380907186.58757305 0 380907186.58757305 -1284674143.5338802 0 0 0 0 2338136.8868874097 2336922.0306228395 0 2336922.0306228395 -1550515.2421499244 0 0 0 0 47017306.6577034 144099704.14929855 0 144099704.14929855 -1005370250.1348495 0 0 0 0 -241760424.92903471 368746957.25127697 0 368746957.25127697 -805309966.92181969 0 0 0 0 -222773428.86034393 149108710.27984285 0 149108710.27984285 -456032328.26924115 0 0 0 0 109145796.52929306 177588747.74729276 0 177588747.74729276 -754291279.18365598 0 0 0 0 -21108250.276790619 157806870.44953948 0 157806870.44953948 -446806150.70226955 0 0 0 0 152438980.00850153 125791220.85252117 0 125791220.85252117 -562339515.61152411 0 0 0 0 88265862.657587051 128558167.18952966 0 128558167.18952966 -317743675.19649756 0 0 0 0 112581493.43284416 233871310.70510682 0 233871310.70510682 -162906158.90454644 0 0 0 0 297791334.6661253 260374033.51345232 0 260374033.51345232 -330762655.37696707 0 0 0 0 68676677.664190292 -53454089.842237666 0 -53454089.842237666 -498304069.7241776 0 0 0 0 132278220.74682236 -89757018.704268277 0 -89757018.704268277 -701018169.49882984 0 0 0 0 70776170.067541122 -36738064.054769397 0 -36738064.054769397 -485896400.73729324 0 0 0 0 105385745.28026962 -55589960.543107629 0 -55589960.543107629 -671154598.08705997 0 0 0 0 342106562.58396339 -131876809.83481753 0 -131876809.83481753 -1693349156.2068768 0 0 0 0 102021084.32853699 82618206.465584755 0 82618206.465584755 -1030322307.2449837 0 0 0 0 5698709.4748152718 -3891487.2760897372 0 -3891487.2760897372 2397384.3253128724 0 0 0 0 -1194787690.5540543 -782364829.76334238 0 -782364829.76334238 -804317229.49169087 0 0 0 0 -617419168.15384293 -1974961710.5177979 0 -1974961710.5177979 -1690849911.0082817 0 0 0 0 475072945.68015289 -427417019.60414696 0 -427417019.60414696 -1052810944.1660614 0 0 0 0 184883068.94263458 -339805622.99779892 0 -339805622.99779892 -766512860.28362656 0 0 0 0 111226269.30783892 -1028298878.1831086 0 -1028298878.1831086 -925460919.08324814 0 0 0 0 717913532.88613129 -909680586.77680016 0 -909680586.77680016 -1452901495.912138 0 0 0 0 719897760.72466278 -555993210.14768982 0 -555993210.14768982 -689179741.81902695 0 0 0 0 308171007.96753693 -591751710.97406387 0 -591751710.97406387 -399390742.79336548 0 0 0 0 542182359.87857056 -156083932.21321869 0 -156083932.21321869 -119942852.12031174 0 0 0 0 184322866.98667049 -152190816.48309469 0 -152190816.48309469 266560277.40201187 0 0 0 0 456930153.22985458 -516766592.35277557 0 -516766592.35277557 -863231454.3303566 0 0 0 0 -193675595.94785118 368032273.1108017 0 368032273.1108017 163592371.38651228 0 0 0 0 449663907.55130005 261407903.57708359 0 261407903.57708359 177114932.03133011 0 0 0 0 -39489594.112871408 355665025.78247643 0 355665025.78247643 389994081.76213646 0 0 0 0 268836814.17545521 365648992.37081641 0 365648992.37081641 -963567066.64899254 0 0 0 0 81688564.12766552 708228360.77571344 0 708228360.77571344 -212940086.01341438 0 0 0 0 -1029730.4035574575 4154998.2302615829 0 4154998.2302615829 513033.18842811137 0 0 0 0 1308255151.4970274 -250173893.18551922 0 -250173893.18551922 -1140692870.267056 0 0 0 0 -134572379.22858047 -224997472.59153783 0 -224997472.59153783 -571062575.9387542 0 0 0 0 -220068566.69363022 -442453823.59921885 0 -442453823.59921885 -1124118030.6765947 0 0 0 0 202652879.64820004 -227221.68010950089 0 -227221.68010950089 -1009659241.626453 0 0 0 0 5086260.8790740967 -154065859.97631788 0 -154065859.97631788 -547284196.88039255 0 0 0 0 20736428.257762738 -13632804.126780692 0 -13632804.126780692 8063994.6131903538 0 0 0 0 2764887.6515771672 -497640.03094446287 0 -497640.03094446287 576724.4338104371 0 0 0 0 19163516.901557922 432073459.8484993 0 432073459.8484993 30240662.668647636 0 0 0 0 1419638765.1837463 -599114503.45223999 0 -599114503.45223999 36644395.833997726 0 0 0 0 15547624.576428238 -9820422.5013078321 0 -9820422.5013078321 5099984.310323691 0 0 0 0 41970567.754549026 -645097772.560992 0 -645097772.560992 -1641544896.4233456 0 0 0 0 975894618.75150299 1361995124.5722075 0 1361995124.5722075 836755742.10212898 0 0 0 0 1556457977.9229736 1974617143.7035742 0 1974617143.7035742 1448357030.3255644 0 0 0 0 1260188805.6796494 1211012024.0147495 0 1211012024.0147495 881840583.93239975 0 0 0 0 2809921293.5959396 1466596580.4826288 0 1466596580.4826288 922421405.58983994 0 0 0 0 635125444.89842224 460843915.2009449 0 460843915.2009449 397557199.50017095 0 0 0 0 560690755.04673767 434908998.77244759 0 434908998.77244759 400562566.29946077 0 0 0 0 -334968176.81270838 -55024895.539326251 0 -55024895.539326251 77928757.065925598 0 0 0 0 601336583.3288269 312120895.40927505 0 312120895.40927505 343680461.8940134 0 0 0 0 -483286950.56804276 314625375.18489242 0 314625375.18489242 -455727332.36472321 0 0 0 0 1238193.5406675488 171268.25600149855 0 171268.25600149855 -929005.15421744995 0 0 0 0 -358452678.61090088 167008381.77877426 0 167008381.77877426 8965811.5582122803 0 0 0 0 796132788.77861023 319621572.69670296 0 319621572.69670296 308357173.38308144 0 0 0 0 -384902336.67952728 -67279771.098548889 0 -67279771.098548889 808194116.60474396 0 0 0 0 -524144694.80688477 184612969.17467213 0 184612969.17467213 388976983.21233273 0 0 0 0 714822469.38294983 -177893593.4765017 0 -177893593.4765017 302592477.0627346 0 0 0 0 758540161.60536194 624011210.87542725 0 624011210.87542725 213009908.30254936 0 0 0 0 1072178622.2329483 888479014.99902105 0 888479014.99902105 569677707.24688721 0 0 0 0 1434770184.1341248 423959267.25810432 0 423959267.25810432 -181863292.80020142 0 0 0 0 1826403088.3973999 1196822896.2008839 0 1196822896.2008839 -495397593.56725121 0 0 0 0 4575319.3636339717 -719871.55530161597 0 -719871.55530161597 -1661599.4829027224 0 0 0 0 2313112462.4156342 1452303148.9985914 0 1452303148.9985914 43915928.781282425 0 0 0 0 34795604.250465415 36969063.154824518 0 36969063.154824518 12901191.471520452 0 0 0 0 29122948.857913971 47815410.057367802 0 47815410.057367802 -6699628.1769580841 0 0 0 0 31218315.652044296 45472060.19384861 0 45472060.19384861 -21113437.19033432 0 0 0 0 60443941.928314209 61841013.36151886 0 61841013.36151886 -57994652.476451874 0 0 0 0 53706351.046173096 234305867.76444435 0 234305867.76444435 -92134773.338327408 0 0 0 0 20564600.707962036 101600878.99367332 0 101600878.99367332 -46817814.99905777 0 0 0 0 9402606.0925297029 2083527.3135120533 0 2083527.3135120533 -176447.02134818584 0 0 0 0 118481298.05850601 1500693.9637050629 0 1500693.9637050629 15383409.125209808 0 0 0 0 218807893.39433289 168835736.89307976 0 168835736.89307976 -75769214.374129295 0 0 0 0 211672953.56715393 76604681.568739891 0 76604681.568739891 -43678178.062040329 0 0 0 0 -216737209.90744781 179524001.09736395 0 179524001.09736395 40094134.01883316 0 0 0 0 33924463.533338979 39508191.943325736 0 39508191.943325736 13338290.119877489 0 0 0 0 -197720400.50732994 118207186.37206173 0 118207186.37206173 61954592.554656982 0 0 0 0 -185135769.88290405 169938712.6683445 0 169938712.6683445 81587777.934341431 0 0 0 0 -204633086.8132019 99193531.055240631 0 99193531.055240631 -42550298.91443634 0 0 0 0 30895499.782785833 7631700.5255757906 0 7631700.5255757906 -808762.45986738522 0 0 0 0 1312705676.2940063 -483897326.14723778 0 -483897326.14723778 -568816248.10526276 0 0 0 0 96204924.374794006 47256097.596364975 0 47256097.596364975 43420585.756039619 0 0 0 0 116284523.86489868 42550416.949900627 0 42550416.949900627 -10333412.905086517 0 0 0 0 31061265.638139278 45424557.116392553 0 45424557.116392553 5049374.1724738879 0 0 0 0 -67445894.201049805 169283463.32848644 0 169283463.32848644 -557285509.42542458 0 0 0 0 201921703.26499939 653122756.09856701 0 653122756.09856701 191835089.28946972 0 0 0 0 34233621.61209818 5897032.1986072473 0 5897032.1986072473 -4764380.1201999821 0 0 0 0 -399253168.85051727 9715242.0946788788 0 9715242.0946788788 44674619.056804657 0 0 0 0 -289170587.37454987 149190672.09112358 0 149190672.09112358 45720505.933113098 0 0 0 0 -30397883.704788208 137821886.02189636 0 137821886.02189636 -11396706.133285522 0 0 0 0 2977617998.1294785 2762126078.9451466 0 2762126078.9451466 833770991.6287899 0 0 0 0 480350062.87473297 -2271848073.0400667 0 -2271848073.0400667 -2730486198.6574745 0 0 0 0 4833877397.6795654 1725519786.6704121 0 1725519786.6704121 -510588034.65227509 0 0 0 0 4553086034.4675903 239277257.56645966 0 239277257.56645966 80014676.497127533 0 0 0 0 2375840681.5327759 306929861.82547188 0 306929861.82547188 684684805.18418884 0 0 0 0 4752760362.2976074 -1993889527.0031033 0 -1993889527.0031033 1254288404.8268509 0 0 0 0 6120398169.518631 -421452472.62731361 0 -421452472.62731361 -276305521.17584991 0 0 0 0 1732919505.0174637 546656013.81977558 0 546656013.81977558 111458391.80005264 0 0 0 0 3876933206.6447754 1861334317.0907469 0 1861334317.0907469 28208795.632564545 0 0 0 0 1882989535.6426926 986493450.73746777 0 986493450.73746777 -36274687.469799042 0 0 0 0 -648709475.98111343 -606295744.49188876 0 -606295744.49188876 768842662.70202255 0 0 0 0 660214593.44818878 1144803550.3294744 0 1144803550.3294744 424000501.47102779 0 0 0 0 -248485679.39175415 -963255904.41309929 0 -963255904.41309929 -18923724.002944946 0 0 0 0 1753704.3323796466 -453945.27553879283 0 -453945.27553879283 -227687.16843816452 0 0 0 0 1783891203.9000549 475415596.32496452 0 475415596.32496452 140485609.26436043 0 0 0 0 -272817164.73239136 675869074.04153633 0 675869074.04153633 344178200.25104904 0 0 0 0 145735400.29444885 -227771247.55751801 0 -227771247.55751801 -772259184.904562 0 0 0 0 354764082.21665955 -69043493.049333572 0 -69043493.049333572 508344453.3521812 0 0 0 0 680423405.97517395 -866052353.17852402 0 -866052353.17852402 374547571.37133789 0 0 0 0 954680479.14084148 -440356120.78993833 0 -440356120.78993833 292225078.33696747 0 0 0 0 950097739.15078735 -481752820.70981598 0 -481752820.70981598 1514925525.7612457 0 0 0 0 14263445.2827462 7796112.5712539274 0 7796112.5712539274 -2016239.0727231037 0 0 0 0 1600127473.5740356 287330201.01576614 0 287330201.01576614 -710652593.43218231 0 0 0 0 -70301494.000526428 107647440.95807552 0 107647440.95807552 -352807586.17169762 0 0 0 0 1721623507.7698021 471882345.08832693 0 471882345.08832693 -299765295.27109146 0 0 0 0 222408181.20818329 -254069274.86104679 0 -254069274.86104679 -628916608.83250391 0 0 0 0 232016110.43465424 -405355974.01054382 0 -405355974.01054382 -408372882.27317429 0 0 0 0 1875528983.9970322 32480018.572038651 0 32480018.572038651 -1018903067.3214798 0 0 0 0 1930383748.2334452 -452763927.41273034 0 -452763927.41273034 -1432001487.9786682 0 0 0 0 1911447975.1918497 -21377750.603244781 0 -21377750.603244781 -1615536083.7417984 0 0 0 0 1474970652.3116455 -884756105.49393463 0 -884756105.49393463 -1841376156.5410995 0 0 0 0 2694924297.4565506 -231180139.96457863 0 -231180139.96457863 -2290075752.0265427 0 0 0 0 1093222831.4342346 -726449063.76779175 0 -726449063.76779175 4275294557.5428314 0 0 0 0 3724541954.4583893 1699201508.5377178 0 1699201508.5377178 -17389367.565170288 0 0 0 0 1666262920.9657898 1164245804.9487 0 1164245804.9487 657642418.98835945 0 0 0 0 762302442.48548889 -1229354951.0572166 0 -1229354951.0572166 -1810000142.0126801 0 0 0 0 2025541366.4019775 -1061737269.2339287 0 -1061737269.2339287 -3091410725.0583458 0 0 0 0 1328409523.7502441 -583122768.81146622 0 -583122768.81146622 -1187706568.03479 0 0 0 0 630454875.20547867 -642516004.76805496 0 -642516004.76805496 -510133320.08608246 0 0 0 0 1000934632.0071716 -789253087.43267441 0 -789253087.43267441 -1151067414.8741951 0 0 0 0 1254603121.2621307 -353135056.13936615 0 -353135056.13936615 -491535617.97741699 0 0 0 0 883028200.90008545 -470132638.86083698 0 -470132638.86083698 -399331532.76300049 0 0 0 0 925946098.55647278 -595262191.83434296 0 -595262191.83434296 -590542969.58980751 0 0 0 0 718348804.56821251 -574213410.54904938 0 -574213410.54904938 -88277757.07371521 0 0 0 0 731441264.49472809 -510027484.41795731 0 -510027484.41795731 24236058.196517944 0 0 0 0 891630050.5422287 -405844244.65555763 0 -405844244.65555763 -250038129.49289322 0 0 0 0 1134806598.9548416 -257995700.36464119 0 -257995700.36464119 -160851746.72959137 0 0 0 0 1053626366.703701 78802615.508358002 0 78802615.508358002 220811238.01877975 0 0 0 0 426891053.04566956 -128079476.3360939 0 -128079476.3360939 152730844.01233482 0 0 0 0 18232654.611407362 40463265.054228909 0 40463265.054228909 23408061.560894832 0 0 0 0 32681995.215423584 100403678.36809158 0 100403678.36809158 25737743.667877197 0 0 0 0 572743242.10180092 -474742491.84225845 0 -474742491.84225845 219626026.79438019 0 0 0 0 476747281.91090393 -316300136.81708908 0 -316300136.81708908 49117116.719112396 0 0 0 0 -42087588.131790161 -28735100.321392059 0 -28735100.321392059 -30935945.103437066 0 0 0 0 10104842.475637317 1672779.3230361268 0 1672779.3230361268 -1528749.0626734048 0 0 0 0 -357584.47314453125 170170969.28403854 0 170170969.28403854 -38543310.946117401 0 0 0 0 204121127.97161102 60537772.855739594 0 60537772.855739594 -6818319.2018795013 0 0 0 0 33467728.690288544 94350645.50030899 0 94350645.50030899 59492917.337692261 0 0 0 0 19850968.09442215 34640653.229440309 0 34640653.229440309 -27178626.230352256 0 0 0 0 168885180.85405731 -24517082.586082935 0 -24517082.586082935 -60956430.998924255 0 0 0 0 -869150882.29476929 134566861.01560974 0 134566861.01560974 169300401.45787048 0 0 0 0 -635991121.94668579 395117546.08662033 0 395117546.08662033 72074431.777708054 0 0 0 0 -616376210.84414673 -140478597.47915649 0 -140478597.47915649 101599206.5388031 0 0 0 0 -174508292.3059845 -322634709.10591125 0 -322634709.10591125 -185127223.38973236 0 0 0 0 75034554.634185791 -54989952.955486298 0 -54989952.955486298 -309466577.54407501 0 0 0 0 230882593.53637695 174214266.24462891 0 174214266.24462891 64130926.642822266 0 0 0 0 -191247970.69607544 277553961.34300613 0 277553961.34300613 57870230.385528564 0 0 0 0 138413044.35939407 208197578.07976151 0 208197578.07976151 153194455.3102417 0 0 0 0 8865423.761107564 25898183.837480932 0 25898183.837480932 -28368222.672195867 0 0 0 0 281344836.27429199 378679605.70570374 0 378679605.70570374 460689757.78436279 0 0 0 0 679166.21294678748 271780.19743337296 0 271780.19743337296 -1257696.3436351866 0 0 0 0 -44451822.469802856 -114471018.04920864 0 -114471018.04920864 -6284523.7971115112 0 0 0 0 -62989698.407836914 -143693276.59377861 0 -143693276.59377861 35401464.120574951 0 0 0 0 -49668742.516578674 -117855715.22840309 0 -117855715.22840309 38809695.266372681 0 0 0 0 -67388442.64251709 -134980478.12782288 0 -134980478.12782288 99856176.991767883 0 0 0 0 57259330.025177002 103157960.4979248 0 103157960.4979248 173688149.52823448 0 0 0 0 99528967.37169075 72856484.551719666 0 72856484.551719666 30932806.544830322 0 0 0 0 9858587.7985687256 91440514.464286804 0 91440514.464286804 114524882.00019073 0 0 0 0 9083258.3926925659 1475169.8114433289 0 1475169.8114433289 -28353480.91847229 0 0 0 0 -57107969.08429718 24177346.999633789 0 24177346.999633789 62245860.910240173 0 0 0 0 -22883315.061738014 3711976.4741821289 0 3711976.4741821289 74474358.672241211 0 0 0 0 726779.69036197662 112998123.12327766 0 112998123.12327766 193501188.80036926 0 0 0 0 -1933495.7615013123 180495940.30152512 0 180495940.30152512 166443567.27801514 0 0 0 0 -126082309.02778625 -55924266.014053345 0 -55924266.014053345 112165727.69802094 0 0 0 0 131665594.64227295 131387403.35827637 0 131387403.35827637 50434731.385009766 0 0 0 0 94596225.478942871 260264253.60388947 0 260264253.60388947 507139429.25250244 0 0 0 0 230370854.96582031 128370575.97296143 0 128370575.97296143 155408546.20405579 0 0 0 0 286088631.20199585 350885940.3114624 0 350885940.3114624 372993081.44281006 0 0 0 0 375465211.42345428 539739971.8146286 0 539739971.8146286 521749828.89038086 0 0 0 0 -2550401.567161262 1309329.9215098852 0 1309329.9215098852 3537878.4647759646 0 0 0 0 16604344.718307879 24919553.705148559 0 24919553.705148559 15723673.164593428 0 0 0 0 148508599.21165848 -62382497.384113312 0 -62382497.384113312 270533338.73146629 0 0 0 0 -31512792.484954834 18693214.391616821 0 18693214.391616821 39629595.764545441 0 0 0 0 -53428827.198875427 38098558.956277847 0 38098558.956277847 45568269.856552124 0 0 0 0 7218045.4126849528 15426389.416880641 0 15426389.416880641 272451.06280934066 0 0 0 0 -42098771.37613678 -15006081.128406525 0 -15006081.128406525 10547814.714111328 0 0 0 0 172689949.25730896 -127666715.83995819 0 -127666715.83995819 -59118135.862548828 0 0 0 0 2914203.456567402 8175803.3562797569 0 8175803.3562797569 15188655.658116519 0 0 0 0 1096007740.8547058 435164184.67295837 0 435164184.67295837 245352781.07562637 0 0 0 0 1575797348.3889465 930765124.05230713 0 930765124.05230713 -26365212.812744141 0 0 0 0 18561187.08527068 2130279.1075238772 0 2130279.1075238772 2475666.0408828836 0 0 0 0 1500752918.1966515 258144089.43533325 0 258144089.43533325 73195675.808940887 0 0 0 0 3556009262.8662138 448207164.59976578 0 448207164.59976578 860237420.82013702 0 0 0 0 3358625125.6329517 910011182.79416656 0 910011182.79416656 -164256762.63792801 0 0 0 0 -277956.31690130429 3145610.3800540091 0 3145610.3800540091 1297743.1627993174 0 0 0 0 3618306314.6120877 2454156379.9638319 0 2454156379.9638319 881182008.00709534 0 0 0 0 2043103002.9122553 -665102001.44432926 0 -665102001.44432926 4306007422.1858521 0 0 0 0 5459376.7052675709 -382720.64640014805 0 -382720.64640014805 2034044.1739231721 0 0 0 0 335187135.46928406 -1371645725.0894909 0 -1371645725.0894909 2713591652.6401253 0 0 0 0 331427666.57598114 -251114258.66072845 0 -251114258.66072845 325815740.60823059 0 0 0 0 250230556.23391628 -304972372.90804291 0 -304972372.90804291 298088136.46401978 0 0 0 0 386637755.87122822 -540385177.858325 0 -540385177.858325 724432716.54883575 0 0 0 0 982049361.47997284 -881693526.95493317 0 -881693526.95493317 247100021.77165222 0 0 0 0 1212870589.4540138 -469457683.62034035 0 -469457683.62034035 -282831527.57882309 0 0 0 0 3323116628.2595558 -1918383278.3469925 0 -1918383278.3469925 -99743808.613311768 0 0 0 0 3906627287.0753112 -516172468.61427402 0 -516172468.61427402 -1280588146.5769424 0 0 0 0 2273450447.2133632 560809701.63496923 0 560809701.63496923 -1540145020.0918045 0 0 0 0 1847525907.8707848 -898404102.28389359 0 -898404102.28389359 -306130352.67990685 0 0 0 0 959739129.11206436 550398812.89217949 0 550398812.89217949 84168386.154631138 0 0 0 0 1270162518.6988029 721413237.43789101 0 721413237.43789101 -510152182.45524597 0 0 0 0 913594100.22374129 -192741514.04110062 0 -192741514.04110062 -270199236.18888092 0 0 0 0 723214548.57010651 -629214771.88370514 0 -629214771.88370514 -154007964.02153015 0 0 0 0 860832870.86402893 -378070369.55018616 0 -378070369.55018616 -233475218.93294334 0 0 0 0 368930623.86061096 -576412667.71361637 0 -576412667.71361637 -311144002.65142059 0 0 0 0 749244429.15203094 -281808893.21981621 0 -281808893.21981621 -262530760.64019775 0 0 0 0 212124313.44449192 802592764.64073348 0 802592764.64073348 843466951.24981689 0 0 0 0 -26084736.249532938 -210125280.66899681 0 -210125280.66899681 1358664782.5255966 0 0 0 0 1333367532.9337702 731569137.44339561 0 731569137.44339561 186130813.98241806 0 0 0 0 -1281654.2912010872 6844367.7191750323 0 6844367.7191750323 1632994.7133039124 0 0 0 0 -314995906.43653774 1396618120.0312805 0 1396618120.0312805 529067165.02841187 0 0 0 0 2571338.5447149188 -204686.58002725895 0 -204686.58002725895 -753227.07907056063 0 0 0 0 -269767908.91626638 2035862599.9818921 0 2035862599.9818921 -818859557.0296402 0 0 0 0 -1366224528.1404972 389118327.70249557 0 389118327.70249557 548268840.11267281 0 0 0 0 571626911.0107255 666930240.88568234 0 666930240.88568234 -1248382002.5837593 0 0 0 0 2603541476.1483827 1176544290.0697031 0 1176544290.0697031 203883340.06245422 0 0 0 0 593434883.80854797 -17692506.199695587 0 -17692506.199695587 190746158.9246645 0 0 0 0 137170384.3887701 385897176.2508049 0 385897176.2508049 1341175604.6116409 0 0 0 0 687844709.7005024 -130723354.02226257 0 -130723354.02226257 1456770173.2913322 0 0 0 0 5506189.1326570511 -81750542.182350159 0 -81750542.182350159 172374658.59726715 0 0 0 0 -717524242.50437903 258594122.73326206 0 258594122.73326206 649080588.62982941 0 0 0 0 12505999.09025538 -35457688.091295242 0 -35457688.091295242 163923065.89121628 0 0 0 0 -573796860.49685574 420327430.23657608 0 420327430.23657608 -403912144.27953053 0 0 0 0 3398406.5293653044 -3721849.1245084964 0 -3721849.1245084964 602798.49461949989 0 0 0 0 -1509695845.5487309 1382371954.8845959 0 1382371954.8845959 -267740298.02897739 0 0 0 0 4597183.1424727011 -12357723.099592971 0 -12357723.099592971 2858870.7035365961 0 0 0 0 14667032.080581665 -36672911.700260162 0 -36672911.700260162 5572772.3028125763 0 0 0 0 85570667.762313843 228830897.60947227 0 228830897.60947227 309616091.53158379 0 0 0 0 563181877.82791138 467116042.61816788 0 467116042.61816788 416485305.62186623 0 0 0 0 9923137.4821657483 -8541316.8725377452 0 -8541316.8725377452 12310553.35886425 0 0 0 0 -21353176.289696693 -59182640.390349388 0 -59182640.390349388 35421433.602874756 0 0 0 0 44659038.668726921 -3445642.2190742493 0 -3445642.2190742493 11872478.131449699 0 0 0 0 -10174364.654138565 45558602.302639008 0 45558602.302639008 92390694.972949982 0 0 0 0 81318271.298175812 90022889.802826881 0 90022889.802826881 29040391.102892876 0 0 0 0 39021634.057283401 36755530.536399841 0 36755530.536399841 -3595384.2247848511 0 0 0 0 288992.31586207636 -219177.94699489698 0 -219177.94699489698 2254121.269469847 0 0 0 0 21081961.346000791 139560847.59679127 0 139560847.59679127 352106838.39070129 0 0 0 0 -71918072.154287338 213684068.50405598 0 213684068.50405598 310190567.36964035 0 0 0 0 -72250557.457618713 225643961.27187634 0 225643961.27187634 624767721.77130985 0 0 0 0 30728471.283443689 64648695.673311234 0 64648695.673311234 159343942.89643288 0 0 0 0 -36875649.866858482 -34287090.798727036 0 -34287090.798727036 410002860.09564495 0 0 0 0 14722841.736431122 -3628632.1340198517 0 -3628632.1340198517 -5928471.8981676102 0 0 0 0 4591507.3662396111 6483660.3799996767 0 6483660.3799996767 4307212.2602557177 0 0 0 0 294427599.56551361 -52126566.403987885 0 -52126566.403987885 -84387690.2368927 0 0 0 0 -32739506.808974743 -206129573.74526811 0 -206129573.74526811 477193403.12857056 0 0 0 0 -10698860.051204681 -84920422.445766449 0 -84920422.445766449 312935500.0802803 0 0 0 0 158755298.6916281 -356693241.60484749 0 -356693241.60484749 528687009.48252487 0 0 0 0 9681079.0730133057 -165062452.40593719 0 -165062452.40593719 728495649.34818649 0 0 0 0 -51094501.94201088 -245264795.23747158 0 -245264795.23747158 799271085.79921913 0 0 0 0 -93457314.086780548 -115332595.19195938 0 -115332595.19195938 522321303.58135033 0 0 0 0 -131866860.49427795 -68377944.781698227 0 -68377944.781698227 512689950.63514328 0 0 0 0 -132025741.08388519 -150023405.51391792 0 -150023405.51391792 645489767.90308952 0 0 0 0 -18498155.749782562 -157053682.25065899 0 -157053682.25065899 263831086.54305649 0 0 0 0 9675785.6707954407 -17808824.258630753 0 -17808824.258630753 183714594.74034309 0 0 0 0 10833707.556531848 10282968.942583226 0 10282968.942583226 5874022.1903596511 0 0 0 0 4881646.9621009827 -54846010.111665726 0 -54846010.111665726 168821349.17773247 0 0 0 0 -3057549.1384773254 74022470.693946838 0 74022470.693946838 324859003.32245827 0 0 0 0 -130090653.94838321 -26153543.494882852 0 -26153543.494882852 473062961.08453369 0 0 0 0 -248150400.77855301 25096343.072208881 0 25096343.072208881 605900584.90481615 0 0 0 0 -218095218.68774796 113026352.16975975 0 113026352.16975975 551116458.31704569 0 0 0 0 77530775.596996307 209126916.29123688 0 209126916.29123688 380136859.3762846 0 0 0 0 -6239307.724925518 41608467.755640507 0 41608467.755640507 144532962.05479813 0 0 0 0 -66316845.553689957 -26057002.645008087 0 -26057002.645008087 29618283.617603302 0 0 0 0 10080904.750496449 -220991.68083477952 0 -220991.68083477952 6463705.0237026177 0 0 0 0 23817057.406787872 28849739.483297348 0 28849739.483297348 144530725.12382609 0 0 0 0 -5715978.9837360382 10473297.84362793 0 10473297.84362793 149855023.21343994 0 0 0 0 1775625.2688598633 43967918.557655334 0 43967918.557655334 298847135.68741417 0 0 0 0 -1771456.114694302 11020052.821851231 0 11020052.821851231 10989455.063256105 0 0 0 0 -6030687.2278194427 21022600.717756271 0 21022600.717756271 18623431.68917942 0 0 0 0 8443152.6274995804 38131275.014363289 0 38131275.014363289 2119874.6996335983 0 0 0 0 16141658.013038509 14581469.23713937 0 14581469.23713937 7256725.1544064078 0 0 0 0 37810159.969490051 34638402.405254364 0 34638402.405254364 59635617.87071991 0 0 0 0 11790302.989783287 18168377.877736568 0 18168377.877736568 -7622717.5765800476 0 0 0 0 23683598.500317097 26980763.053362846 0 26980763.053362846 -25155877.07431221 0 0 0 0 50800814.370534897 41171749.22556591 0 41171749.22556591 3342305.6042461395 0 0 0 0 14834134.92476511 -5018103.0345740318 0 -5018103.0345740318 17577720.015494347 0 0 0 0 4448744.9299557358 2870334.0721436967 0 2870334.0721436967 -186714.21113379207 0 0 0 0 24321339.785193622 1384484.0314771533 0 1384484.0314771533 -876860.20320510864 0 0 0 0 53206896.640358314 -7357822.810092181 0 -7357822.810092181 -4762421.7761039734 0 0 0 0 25048495.947307587 -10831493.486963272 0 -10831493.486963272 3014775.9211883545 0 0 0 0 19200626.365307808 5378166.1490936279 0 5378166.1490936279 -9532282.1801166534 0 0 0 0 8438534.5171377659 4328728.9237351418 0 4328728.9237351418 -5350672.5506782532 0 0 0 0 24807237.148706913 -1932904.8569293022 0 -1932904.8569293022 -10780307.616790771 0 0 0 0 18531778.436178207 29366313.377454758 0 29366313.377454758 1958414.1820964813 0 0 0 0 143471750.12945366 77694344.007767677 0 77694344.007767677 34309611.337429166 0 0 0 0 148741588.50488424 24160457.348597765 0 24160457.348597765 4156756.984369278 0 0 0 0 -1040988.1899071333 -975444.37858669716 0 -975444.37858669716 735856.67456114199 0 0 0 0 357258.47408676147 -7532038.6346626282 0 -7532038.6346626282 -3233390.4641914368 0 0 0 0 -43187673.061559677 -40160721.182574272 0 -40160721.182574272 9887454.421724081 0 0 0 0 8815093.0395282377 5118150.3179152366 0 5118150.3179152366 10759515.90740506 0 0 0 0 2776179.0873641968 3261595.8778123856 0 3261595.8778123856 -1361588.2725524902 0 0 0 0 6332783.7709190249 6658358.5905721895 0 6658358.5905721895 6154195.7669485211 0 0 0 0 1984150.3645782471 4570999.808590889 0 4570999.808590889 576632.12643432617 0 0 0 0 6438160.7919798689 7596164.5798689537 0 7596164.5798689537 8159818.1386699043 0 0 0 0 8462418.2137084845 6028740.6645874232 0 6028740.6645874232 -621129.4871926317 0 0 0 0 3382228.4722567722 2174934.2649218263 0 2174934.2649218263 -1071542.6387842977 0 0 0 0 11113129.85546875 5538140.2773323059 0 5538140.2773323059 -127888.52945709229 0 0 0 0 243937.72347223479 669415.11735818163 0 669415.11735818163 933866.33123879042 0 0 0 0 -17713068.771558523 -7635028.0763844252 0 -7635028.0763844252 40378374.515387535 0 0 0 0 47033501.786187172 -79948.251883506775 0 -79948.251883506775 48178524.587842941 0 0 0 0 25270491.055421352 37458152.966078997 0 37458152.966078997 647727.7174243927 0 0 0 0 108914915.20855093 62957050.240357876 0 62957050.240357876 531680.22676467896 0 0 0 0 35405833.694985867 95872683.640806675 0 95872683.640806675 5272242.2409973145 0 0 0 0 164132685.20593739 -13974172.810235023 0 -13974172.810235023 -22610841.008138895 0 0 0 0 -4286789.860778911 13813843.972735597 0 13813843.972735597 8811642.2303474471 0 0 0 0 153868855.72423172 86018417.678068638 0 86018417.678068638 39231884.403297901 0 0 0 0 107501806.66659927 100135267.68474579 0 100135267.68474579 35026113.333091736 0 0 0 0 131206500.35666084 148552378.97149396 0 148552378.97149396 2774910.1237754822 0 0 0 0 52594758.878795624 160482117.55199718 0 160482117.55199718 55038890.789457321 0 0 0 0 177881266.33939886 170496468.16532302 0 170496468.16532302 -90464752.835903168 0 0 0 0 194825391.86914062 129391018.67021179 0 129391018.67021179 8495869.5528922081 0 0 0 0 4219242.5920090219 -1140873.9783680094 0 -1140873.9783680094 -2246840.5091407262 0 0 0 0 129523002.90603828 -40897055.149646521 0 -40897055.149646521 30494783.605906844 0 0 0 0 429839979.30907249 -214166345.44504517 0 -214166345.44504517 95396166.347691059 0 0 0 0 160747110.15125656 24882188.13050127 0 24882188.13050127 10733091.605609655 0 0 0 0 103561329.02086639 57239548.331493378 0 57239548.331493378 15851548.978834361 0 0 0 0 138568569.00131989 102494554.70257664 0 102494554.70257664 55869993.709320068 0 0 0 0 305767152.42954731 104632920.06538773 0 104632920.06538773 12464824.234589577 0 0 0 0 -494639.38673830032 -35384442.669720173 0 -35384442.669720173 78355076.356489182 0 0 0 0 1098040.6477302872 17275734.22709075 0 17275734.22709075 4412142.1615689574 0 0 0 0 111846646.73363686 60909852.400521636 0 60909852.400521636 56015750.566081047 0 0 0 0 62769929.426956177 69075222.569115877 0 69075222.569115877 20860271.351385951 0 0 0 0 115450391.09869385 99383259.264244199 0 99383259.264244199 38275420.966126442 0 0 0 0 102809728.8509922 13193304.804915905 0 13193304.804915905 -32837538.26086235 0 0 0 0 22911702.348925516 19304665.292567499 0 19304665.292567499 -7436703.4220817313 0 0 0 0 77324553.343776703 -4289305.1770744324 0 -4289305.1770744324 -26130571.952882767 0 0 0 0 82944559.844993591 84676873.423091769 0 84676873.423091769 -31257252.512949228 0 0 0 0 99035999.064541817 -2307688.1910538673 0 -2307688.1910538673 -51454345.327408791 0 0 0 0 -41828209.00084877 2240697.0922391415 0 2240697.0922391415 62207024.584709167 0 0 0 0 37761250.506668568 54408580.007768154 0 54408580.007768154 70391206.069381714 0 0 0 0 12889227.482391575 2649605.333737344 0 2649605.333737344 8833661.0512692817 0 0 0 0 83807498.255749702 70065391.022244453 0 70065391.022244453 -28598542.96030283 0 0 0 0 -1743335.873245476 -1730659.8155479124 0 -1730659.8155479124 851611.17125852592 0 0 0 0 144607871.43301892 300756115.95787239 0 300756115.95787239 -131617289.53293037 0 0 0 0 280085959.78703791 461087239.52703518 0 461087239.52703518 -539187440.39307117 0 0 0 0 108679061.28760576 259762643.09653139 0 259762643.09653139 36599706.111368895 0 0 0 0 93897476.998651266 516524359.60903931 0 516524359.60903931 142385617.45767212 0 0 0 0 87345173.281703949 115034767.6213088 0 115034767.6213088 159428588.89560604 0 0 0 0 72903650.902562141 295777987.98950052 0 295777987.98950052 55585732.823360443 0 0 0 0 54608160.579898834 186750333.75401402 0 186750333.75401402 265932965.27116561 0 0 0 0 76615261.533904195 96908718.885679483 0 96908718.885679483 -216875902.53874207 0 0 0 0 -96001951.311851501 345297785.40225065 0 345297785.40225065 -179874136.23285902 0 0 0 0 88825025.739324093 91599257.472079277 0 91599257.472079277 -272204171.8680191 0 0 0 0 10364265.110555222 -3637646.7981970976 0 -3637646.7981970976 -3729481.4438420236 0 0 0 0 30440607.72673893 168572348.16979432 0 168572348.16979432 -304388077.10503483 0 0 0 0 52441792.786845207 71801752.72543335 0 71801752.72543335 -261576744.6022563 0 0 0 0 179542911.62866116 93139485.044742107 0 93139485.044742107 -277489437.84464979 0 0 0 0 183613375.44025183 305094.28793048859 0 305094.28793048859 -496896988.66642761 0 0 0 0 184729308.92358384 59893693.401679873 0 59893693.401679873 -424461485.89479828 0 0 0 0 12405669.255179405 -107119549.88802052 0 -107119549.88802052 -250236284.29550791 0 0 0 0 32851900.983183354 -17857311.044224024 0 -17857311.044224024 -173865868.89547157 0 0 0 0 22838782.008519839 -17158951.974590965 0 -17158951.974590965 12907832.604585744 0 0 0 0 -21214795.181129456 -76021653.720439911 0 -76021653.720439911 -43461994.209961891 0 0 0 0 -39532241.084320068 -81001575.451813221 0 -81001575.451813221 -18332926.955857754 0 0 0 0 -1625279.9983825684 -7804676.2953071594 0 -7804676.2953071594 20124157.800289154 0 0 0 0 30910481.904182434 -22870608.148630857 0 -22870608.148630857 -16078230.181892395 0 0 0 0 -20810475.122550964 -31531532.587929726 0 -31531532.587929726 9742345.2131271362 0 0 0 0 -16050684.495056152 -47912016.121482849 0 -47912016.121482849 -5317942.599615097 0 0 0 0 40827802.697814941 -56572128.322528839 0 -56572128.322528839 -84381588.852935791 0 0 0 0 1642196.392374143 -769570.58433140442 0 -769570.58433140442 -420608.84999593534 0 0 0 0 33038349.033424079 -20202800.855484948 0 -20202800.855484948 -152532983.12184763 0 0 0 0 20003941.340945624 -8138492.4114553416 0 -8138492.4114553416 -5573537.2744295886 0 0 0 0 78061928.604463577 -39733309.318973303 0 -39733309.318973303 15047822.425519466 0 0 0 0 178647356.65335464 -111141619.02124548 0 -111141619.02124548 30461752.616199017 0 0 0 0 98951741.538812637 -3047437.0864396095 0 -3047437.0864396095 -79541192.525560379 0 0 0 0 118548265.23780823 -49750314.176850319 0 -49750314.176850319 -44360984.415584564 0 0 0 0 66925762.522891998 -17302715.112086296 0 -17302715.112086296 -15145266.398450136 0 0 0 0 88124864.109583855 -47546423.665509224 0 -47546423.665509224 -3969221.1846923828 0 0 0 0 73114187.316386223 -32965840.449048042 0 -32965840.449048042 -4223531.3946292102 0 0 0 0 88090061.487165451 -32126267.771688461 0 -32126267.771688461 -17660253.756376266 0 0 0 0 37698947.253852986 -1443910.4934822973 0 -1443910.4934822973 4148884.7945486028 0 0 0 0 21956519.328887939 -15631730.954361916 0 -15631730.954361916 -8953518.8611936569 0 0 0 0 103450692.61924744 95809840.160579681 0 95809840.160579681 -56804787.888040543 0 0 0 0 52571162.937408447 50332654.820634842 0 50332654.820634842 -43900182.88739109 0 0 0 0 75428999.393727511 11953138.491210993 0 11953138.491210993 3852276.2540558772 0 0 0 0 15735174.375393793 7258567.9088191316 0 7258567.9088191316 -7892696.7450153343 0 0 0 0 109902119.18983459 -9818793.6628232002 0 -9818793.6628232002 -159952522.9054656 0 0 0 0 74729216.013275146 4281822.9464888573 0 4281822.9464888573 -140871876.09976912 0 0 0 0 78844585.589168549 23799799.610428751 0 23799799.610428751 -67373597.900057793 0 0 0 0 42309727.739547729 106740559.12908244 0 106740559.12908244 -178224684.64545 0 0 0 0 -4186671.4878845215 46635147.186968684 0 46635147.186968684 -8325158.8343639374 0 0 0 0 26760809.816334292 4879825.3091212809 0 4879825.3091212809 8149081.6895955065 0 0 0 0 6418200.7513011098 1848939.0654687323 0 1848939.0654687323 -2711227.4787288844 0 0 0 0 218647676.13913536 349507737.19183028 0 349507737.19183028 267988108.41880685 0 0 0 0 16784818.457975075 5520612.3476616722 0 5520612.3476616722 2195696.3020483311 0 0 0 0 -44019687.485862732 6362829.9396295547 0 6362829.9396295547 75246314.2576828 0 0 0 0 29028304.190825462 35354903.536306024 0 35354903.536306024 46258748.895323753 0 0 0 0 7109773.9856536351 3163032.6034925133 0 3163032.6034925133 3819000.1436388106 0 0 0 0 18987873.900939941 1018715.4781665802 0 1018715.4781665802 14931605.327934265 0 0 0 0 13501917.558666229 -18889205.044029236 0 -18889205.044029236 12265600.224113464 0 0 0 0 51541706.919061579 -5968160.5495665781 0 -5968160.5495665781 5377547.9466026649 0 0 0 0 22878789.420837402 -21047572.845336914 0 -21047572.845336914 -4416858.9164276123 0 0 0 0 -793132.02557373047 -18196645.610137939 0 -18196645.610137939 16881441.031455994 0 0 0 0 11750748.274688721 -31371325.996200562 0 -31371325.996200562 3208205.0375289917 0 0 0 0 12056490.624822617 -29855741.889081717 0 -29855741.889081717 3556631.6974754333 0 0 0 0 22027164.171615601 -14207209.674860001 0 -14207209.674860001 6535438.7774171829 0 0 0 0 12199735.288511276 -8210628.884272337 0 -8210628.884272337 22436923.41762352 0 0 0 0 12140776.599021912 -10281268.352180481 0 -10281268.352180481 24955358.58880043 0 0 0 0 104366121.83401489 -6565412.2228279114 0 -6565412.2228279114 -35230171.394194841 0 0 0 0 49340676.455473736 -10921748.877744071 0 -10921748.877744071 -10781181.881930349 0 0 0 0 107797936.26678658 11223030.985046625 0 11223030.985046625 -76984313.532840729 0 0 0 0 125842192.41052246 -28355582.044483185 0 -28355582.044483185 -65008386.309155941 0 0 0 0 109687761.16500854 -3619016.2993354797 0 -3619016.2993354797 -61106250.069522381 0 0 0 0 16427475.69178009 -6336637.9829114377 0 -6336637.9829114377 -10068419.090982199 0 0 0 0 53050031.533859253 83853036.174829721 0 83853036.174829721 -27782830.439971566 0 0 0 0 68875749.360711113 -11494790.658141464 0 -11494790.658141464 -7569283.5038145604 0 0 0 0 63423336.330415726 25723258.436253548 0 25723258.436253548 30891913.592380524 0 0 0 0 37809790.009487152 91659198.609385848 0 91659198.609385848 -44677121.249048233 0 0 0 0 89127899.774002075 114208207.46955657 0 114208207.46955657 -155931939.79104805 0 0 0 0 128910760.1269722 78974156.734015465 0 78974156.734015465 -56334947.655017853 0 0 0 0 96729509.887315482 26371281.62403889 0 26371281.62403889 -6163651.9985188637 0 0 0 0 82794170.635803223 47293122.816687107 0 47293122.816687107 -82630035.37835598 0 0 0 0 105543182.56390381 18437989.610460281 0 18437989.610460281 -47769842.872109413 0 0 0 0 87473677.595103338 19758408.447225824 0 19758408.447225824 -1319943.8132056659 0 0 0 0 160001567.13239479 70625830.002943039 0 70625830.002943039 -176235764.59571743 0 0 0 0 93532183.413543701 63100827.043897152 0 63100827.043897152 -84579479.56764555 0 0 0 0 94316072.0522995 6682078.2221295834 0 6682078.2221295834 -106977655.22335315 0 0 0 0 203371559.26489222 69673229.490272015 0 69673229.490272015 -70683641.38675499 0 0 0 0 205923303.06219471 -51373631.076266587 0 -51373631.076266587 -42824267.207948208 0 0 0 0 73337728.920570374 39041731.212334633 0 39041731.212334633 -65318484.9851861 0 0 0 0 6172513.6708602905 71011133.935399771 0 71011133.935399771 -76097213.165571213 0 0 0 0 56920910.530103683 66531867.015556991 0 66531867.015556991 -80437891.079271317 0 0 0 0 53450718.757385254 48317458.142118454 0 48317458.142118454 -93260840.696476698 0 0 0 0 42814757.710128784 96979961.588193417 0 96979961.588193417 -112836660.20458508 0 0 0 0 127631616.77713013 122127325.90156937 0 122127325.90156937 -123351404.00272238 0 0 0 0 5992181.2568969727 146769257.02685547 0 146769257.02685547 -214660455.46661663 0 0 0 0 1883219.1068725586 112929883.91393661 0 112929883.91393661 -123934955.22680318 0 0 0 0 275553315.13343811 222947054.32134223 0 222947054.32134223 -308491405.76093006 0 0 0 0 146471702.75311279 49671133.858262062 0 49671133.858262062 -115155433.97874451 0 0 0 0 135112747.55440521 16791390.948455572 0 16791390.948455572 -104947043.35494614 0 0 0 0 143268914.10986328 691330.51085662842 0 691330.51085662842 -78724058.634037256 0 0 0 0 219555849.31053162 11965470.716393471 0 11965470.716393471 -134942093.64891243 0 0 0 0 144901243.07252121 56294449.339363217 0 56294449.339363217 -120703326.75080872 0 0 0 0 181765856.88311768 54226436.348443508 0 54226436.348443508 -170518131.50878382 0 0 0 0 364993708.48168945 -6034552.5902299881 0 -6034552.5902299881 -175947590.73421615 0 0 0 0 278317546.15557861 -70052598.908177853 0 -70052598.908177853 -111546833.21016026 0 0 0 0 192724336.07443237 -42245947.203885555 0 -42245947.203885555 -120264699.41320658 0 0 0 0 175343185.09957886 -74645486.893147945 0 -74645486.893147945 -83734617.790140152 0 0 0 0 180041200.22244263 -76885262.251515865 0 -76885262.251515865 -86308370.690793991 0 0 0 0 142223548.40971375 -57095018.205498934 0 -57095018.205498934 -88900541.855140686 0 0 0 0 143859718.26000977 -55587803.206741333 0 -55587803.206741333 -88187345.724222183 0 0 0 0 184876572.93188477 -35967970.130173683 0 -35967970.130173683 -108094940.28603745 0 0 0 0 158331823.35479736 -29486557.940226555 0 -29486557.940226555 -99545477.327232361 0 0 0 0 130935583.72473145 -19003271.542966366 0 -19003271.542966366 -90292587.228572845 0 0 0 0 120430023.74328613 -44549587.55472374 0 -44549587.55472374 -79020087.083518982 0 0 0 0 348928830.61897278 -115722218.06041574 0 -115722218.06041574 -146419427.36436844 0 0 0 0 327050723.00909424 -120371036.25076008 0 -120371036.25076008 -212950587.38317013 0 0 0 0 375834175.75180054 1191522.3384647369 0 1191522.3384647369 -47343916.472272873 0 0 0 0 195949182.83027649 -78021299.499250889 0 -78021299.499250889 -36106134.99864769 0 0 0 0 214956498.66163635 -108775835.91748166 0 -108775835.91748166 -62608514.739521027 0 0 0 0 268267612.40113831 -34043133.03661567 0 -34043133.03661567 -98077330.417168617 0 0 0 0 589195680.23684692 -18925156.83110714 0 -18925156.83110714 -112936341.12804699 0 0 0 0 530293360.56997681 -32787736.668151855 0 -32787736.668151855 -92842982.096140862 0 0 0 0 381108726.82309723 -27745894.034660339 0 -27745894.034660339 -682275.90403366089 0 0 0 0 5659864.4340209961 -8989625.3582420349 0 -8989625.3582420349 -61442863.55373764 0 0 0 0 4297966.9688523263 -4811045.6475500613 0 -4811045.6475500613 -4964181.862634968 0 0 0 0 507758393.32167053 -52234956.99648571 0 -52234956.99648571 -12571629.307370663 0 0 0 0 596803923.31292868 -206247616.94984591 0 -206247616.94984591 54189946.027484894 0 0 0 0 -917160.91323004663 100000.90498925373 0 100000.90498925373 1715695.4155992605 0 0 0 0 -115912418.74783325 377400843.95813656 0 377400843.95813656 -361265297.18512011 0 0 0 0 -165125578.47745895 121233367.77558172 0 121233367.77558172 -210188300.72436142 0 0 0 0 -33024403.301620483 36189787.203461528 0 36189787.203461528 -159638914.08215189 0 0 0 0 -58473857.578277588 106581681.23095465 0 106581681.23095465 -306051595.53518105 0 0 0 0 -78770657.190078735 113197246.49022579 0 113197246.49022579 -178113687.61419344 0 0 0 0 -2054904.6874930561 4811601.5891070142 0 4811601.5891070142 4713834.4648095099 0 0 0 0 -174360645.4837265 151346758.50061703 0 151346758.50061703 -176520901.13357544 0 0 0 0 -106913616.27374268 229881884.95291042 0 229881884.95291042 -300078397.20390296 0 0 0 0 87666420.068077087 -48856487.669101477 0 -48856487.669101477 -42062270.123386383 0 0 0 0 95657528.432388306 -133797973.64356613 0 -133797973.64356613 16194268.298147202 0 0 0 0 4069571.3770521805 -6489681.2156861499 0 -6489681.2156861499 -4549103.6709419452 0 0 0 0 -97354446.560531616 -56007130.29309082 0 -56007130.29309082 7982570.0485029221 0 0 0 0 421285125.7253418 -44783978.240170479 0 -44783978.240170479 -33524411.063007355 0 0 0 0 706948016.36477661 47981279.406129837 0 47981279.406129837 -50469521.938672304 0 0 0 0 389678349.34539413 -59359027.241845131 0 -59359027.241845131 96037515.354703903 0 0 0 0 388846695.84669495 -34849397.076025009 0 -34849397.076025009 -20636262.122915268 0 0 0 0 475749009.28127193 580509867.64861822 0 580509867.64861822 348991142.06011772 0 0 0 0 397333489.51628113 353688808.22790241 0 353688808.22790241 61554605.034976006 0 0 0 0 337121033.17051983 696978682.99093401 0 696978682.99093401 595258559.14417648 0 0 0 0 119031726.01233292 17392180.675627023 0 17392180.675627023 -244579720.8383944 0 0 0 0 246793094.79013062 -12771857.976559281 0 -12771857.976559281 -223383913.77260971 0 0 0 0 36706623.204483032 324612903.44656253 0 324612903.44656253 167022587.56110513 0 0 0 0 176282048.68170929 -54792445.264338493 0 -54792445.264338493 -134005644.67840195 0 0 0 0 184298262.51455688 39608923.88711834 0 39608923.88711834 -251787743.07673788 0 0 0 0 115538240.0508194 -780760.10918569565 0 -780760.10918569565 -170753346.98526287 0 0 0 0 105933358.82304382 15279351.674965262 0 15279351.674965262 -180094095.30868769 0 0 0 0 14254138.621887207 15364324.22851181 0 15364324.22851181 -151821041.39173508 0 0 0 0 36569948.96925354 64558288.678900719 0 64558288.678900719 -206918143.21195507 0 0 0 0 -26889800.172164917 31821694.158008575 0 31821694.158008575 -130417846.2009201 0 0 0 0 91887618.572235107 43002156.859936714 0 43002156.859936714 -188721218.96841908 0 0 0 0 514734777.40313721 97410170.095541954 0 97410170.095541954 -127206326.05339432 0 0 0 0 91727739.719940186 38794317.719914436 0 38794317.719914436 -35079423.972224236 0 0 0 0 1164083810.0068512 274095593.11907673 0 274095593.11907673 -144787231.77494812 0 0 0 0 62652177.999406815 -6408973.1385757923 0 -6408973.1385757923 -39748424.566921234 0 0 0 0 -20920963.935195923 202089689.93241882 0 202089689.93241882 -163895859.94245577 0 0 0 0 -3085743.3873442709 3805028.9199061505 0 3805028.9199061505 5999643.1079328125 0 0 0 0 -2662633.8855247498 109799028.90717793 0 109799028.90717793 -86110395.648284912 0 0 0 0 302548229.79771423 80953513.61387825 0 80953513.61387825 -90819257.09081459 0 0 0 0 75094586.103065491 162494499.59500408 0 162494499.59500408 266200552.08456421 0 0 0 0 -1918604.4381858706 1668694.0121809412 0 1668694.0121809412 3310847.8956411257 0 0 0 0 315391053.89944458 933991890.11522675 0 933991890.11522675 921801980.08106041 0 0 0 0 756720104.81115913 1014843855.4328852 0 1014843855.4328852 777326969.97577477 0 0 0 0 509300601.32341003 646273148.98777008 0 646273148.98777008 293539014.65396976 0 0 0 0 504029657.26657438 722707335.83041263 0 722707335.83041263 402397562.56922531 0 0 0 0 735287700.90132141 575137991.53664207 0 575137991.53664207 488506026.48552132 0 0 0 0 704629832.93110657 474871068.4886508 0 474871068.4886508 204727377.29203796 0 0 0 0 -2561515.6340943202 -551169.76235374436 0 -551169.76235374436 3195746.580568701 0 0 0 0 1065235596.8123913 -11706467.351387024 0 -11706467.351387024 84105358.874835968 0 0 0 0 1172144381.4227905 537515781.84501219 0 537515781.84501219 -304695670.00833893 0 0 0 0 1438242742.1641693 135129203.28672791 0 135129203.28672791 -309300464.27414513 0 0 0 0 1179235965.201622 627142059.4769125 0 627142059.4769125 208163555.89695671 0 0 0 0 909578128.07462311 864816632.47159815 0 864816632.47159815 382255482.83999443 0 0 0 0 273251155.90929413 -96130361.262960434 0 -96130361.262960434 74274223.265533447 0 0 0 0 256166672.46180344 -154402478.35501003 0 -154402478.35501003 -110591783.05074692 0 0 0 0 14006966.872322083 185087331.19172668 0 185087331.19172668 39225465.713088512 0 0 0 0 662116726.379776 198844305.23477554 0 198844305.23477554 33771810.727611542 0 0 0 0 239435500.15077209 -85086087.660903931 0 -85086087.660903931 91039940.830970764 0 0 0 0 223661354.75941849 -127398029.59778404 0 -127398029.59778404 54885527.511770248 0 0 0 0 2651623.669103004 376152.7480843775 0 376152.7480843775 7568192.2643256187 0 0 0 0 275890763.83033562 -215251177.97369146 0 -215251177.97369146 192658591.94687653 0 0 0 0 -4082393.3626103699 -439038.35102490522 0 -439038.35102490522 2107917.8087671823 0 0 0 0 3443980.6389177293 6278860.2355953688 0 6278860.2355953688 3047931.5981579227 0 0 0 0 641636.97602653503 2019324.7017734051 0 2019324.7017734051 -181572.79495620728 0 0 0 0 324322089.95471191 -268727386.2977581 0 -268727386.2977581 220768527.03598976 0 0 0 0 2858343.2876863442 417131.04444980063 0 417131.04444980063 3771759.8868759386 0 0 0 0 18111941.737304688 -26599684.375914574 0 -26599684.375914574 -26890911.166191101 0 0 0 0 715542053.92675781 -1140197815.1516905 0 -1140197815.1516905 -519867214.65468407 0 0 0 0 584136155.60876465 -209612031.40072823 0 -209612031.40072823 101213516.08997345 0 0 0 0 676641286.67613602 -313642298.11257601 0 -313642298.11257601 -572099147.6701622 0 0 0 0 380465185.32311058 87318560.891037464 0 87318560.891037464 31997150.987390518 0 0 0 0 2396063326.3656311 -78626416.037927628 0 -78626416.037927628 -982447883.6356926 0 0 0 0 895564255.64637756 -40440434.298183322 0 -40440434.298183322 -257507394.37625885 0 0 0 0 1292282349.2574768 1437189598.9853859 0 1437189598.9853859 3390302987.7285318 0 0 0 0 2960228940.5654449 -1142486673.0333543 0 -1142486673.0333543 517319837.19902229 0 0 0 0 -732924564.6605072 445521879.93945742 0 445521879.93945742 744055044.04773045 0 0 0 0 -1934814.2854290009 7629027.1551675797 0 7629027.1551675797 9689427.0856704712 0 0 0 0 -1454571.0146509148 2569942.2475729324 0 2569942.2475729324 12976401.19959832 0 0 0 0 1818230842.8535919 875783616.41129971 0 875783616.41129971 -132577536.36404514 0 0 0 0 3397327283.2558899 1121051595.0821543 0 1121051595.0821543 -476186877.03058434 0 0 0 0 5789142.0607115403 2521920.024606281 0 2521920.024606281 1309539.2495455109 0 0 0 0 922787293.83588409 1757463022.2947927 0 1757463022.2947927 2282976921.5343933 0 0 0 0 313399964.31924438 339565673.37568414 0 339565673.37568414 222169975.26190567 0 0 0 0 -75065058.152328491 67532760.041898727 0 67532760.041898727 346814281.2037468 0 0 0 0 -73789970.261207581 15422674.644377232 0 15422674.644377232 6253563.9638242722 0 0 0 0 1461019927.3977184 882738347.2419771 0 882738347.2419771 -76360304.07211113 0 0 0 0 2198789937.8106079 1144057788.6852913 0 1144057788.6852913 100620705.69926643 0 0 0 0 1479126437.2390537 756940691.38390911 0 756940691.38390911 -79236345.782493591 0 0 0 0 2403174503.4145813 859281318.547616 0 859281318.547616 -610734686.40727043 0 0 0 0 2617830926.348999 -576179305.2413168 0 -576179305.2413168 -236511351.25232601 0 0 0 0 3610485518.9166756 1277499606.0108695 0 1277499606.0108695 -499499496.36086845 0 0 0 0 1353443542.521637 1387022534.2752733 0 1387022534.2752733 259729062.60019779 0 0 0 0 2352823968.4786682 753255414.18646097 0 753255414.18646097 -591611652.52138901 0 0 0 0 -10227706.756462097 2920409.8224430084 0 2920409.8224430084 6695385.6717681885 0 0 0 0 -96354813.302215576 66590815.240429878 0 66590815.240429878 -25545116.645057678 0 0 0 0 -7684759.5823440552 5163091.0266418457 0 5163091.0266418457 8830967.4147567749 0 0 0 0 716837.29015044123 3786404.6028410681 0 3786404.6028410681 8543135.6198314633 0 0 0 0 -12832680.693984985 5840186.1447153091 0 5840186.1447153091 11265411.262519836 0 0 0 0 -20422323.396934509 -7245516.7719726562 0 -7245516.7719726562 5462167.6036267281 0 0 0 0 -16747447.348510742 1608947.0216426849 0 1608947.0216426849 9943524.8241119385 0 0 0 0 -12753268.885726929 -927279.15350151062 0 -927279.15350151062 2581640.1555099487 0 0 0 0 5218693686.103775 376694181.63800621 0 376694181.63800621 -245360468.92307854 0 0 0 0 3377793362.3583679 1020105794.4910755 0 1020105794.4910755 -530741109.3061676 0 0 0 0 3078271543.4348145 725966357.3315506 0 725966357.3315506 333466086.25397491 0 0 0 0 679674.46231351048 297519.02081167325 0 297519.02081167325 170855.10299342312 0 0 0 0 2217024664.1207581 1048817832.8668175 0 1048817832.8668175 298718930.12774277 0 0 0 0 -289388.418131385 689813.41014223918 0 689813.41014223918 2755324.4496145677 0 0 0 0 2857462629.0910664 253196903.80540824 0 253196903.80540824 1240855330.4794159 0 0 0 0 2394072964.5727997 2027489129.5429955 0 2027489129.5429955 1104363921.3234215 0 0 0 0 4505473863.8417358 1609803701.5696888 0 1609803701.5696888 68065459.597951889 0 0 0 0 10889992.067399979 100964819.50417113 0 100964819.50417113 816760634.64482498 0 0 0 0 2414599.0052948035 1785690.618380405 0 1785690.618380405 -281157.26695128344 0 0 0 0 2465003723.2178879 1501602183.1319911 0 1501602183.1319911 472021672.8815937 0 0 0 0 2901067.0087717436 -216425.49009967223 0 -216425.49009967223 -1411385.2431145906 0 0 0 0 496689724.71653748 262180577.23449135 0 262180577.23449135 75102827.266967773 0 0 0 0 650243574.22743988 500289448.49857903 0 500289448.49857903 -44263809.94285202 0 0 0 0 2960435326.991868 651880518.26952851 0 651880518.26952851 168344782.58745384 0 0 0 0 1077929299.7664337 1604352479.3520184 0 1604352479.3520184 232917076.11508214 0 0 0 0 -85946256.857350826 -272481464.82188421 0 -272481464.82188421 -14463215.879823685 0 0 0 0 5337678.65184021 115484778.85067463 0 115484778.85067463 100352974.98993587 0 0 0 0 -64069518.938358307 -58923301.118293762 0 -58923301.118293762 56151742.181648254 0 0 0 0 373234824.04194641 -701200168.5082655 0 -701200168.5082655 583208510.14262199 0 0 0 0 1485397225.9284058 443691222.93114281 0 443691222.93114281 -338571673.97994423 0 0 0 0 4723754.3422997184 -239133.14722843096 0 -239133.14722843096 3062693.3891440472 0 0 0 0 1136616245.7950287 475903054.95038414 0 475903054.95038414 661344127.6638813 0 0 0 0 14720094.634063721 4400414.1903610229 0 4400414.1903610229 27690177.066450119 0 0 0 0 -55546085.392532349 30077732.047021866 0 30077732.047021866 22826116.379699707 0 0 0 0 4486317.8970947266 32576129.97820282 0 32576129.97820282 17104681.646007538 0 0 0 0 36490824.859405518 75242803.269987106 0 75242803.269987106 -23064553.442905426 0 0 0 0 25273898.376171112 58717752.820189476 0 58717752.820189476 5823061.1759719849 0 0 0 0 42951705.781738281 43486171.749577522 0 43486171.749577522 -6379891.0013160706 0 0 0 0 12630621.45665741 62411374.439492702 0 62411374.439492702 -13303128.022943497 0 0 0 0 -11270288.446182251 73716737.34907341 0 73716737.34907341 -7685190.0596008301 0 0 0 0 15844908.466514587 67088641.551645756 0 67088641.551645756 -15058918.403526306 0 0 0 0 -15284487.26600647 101731061.29815483 0 101731061.29815483 -46781078.212209702 0 0 0 0 -11096016.642303467 61763209.603002548 0 61763209.603002548 -12451960.974183083 0 0 0 0 -9601126.7402572632 49673016.490863919 0 49673016.490863919 14567438.210502625 0 0 0 0 -85183925.305404663 107710917.15008545 0 107710917.15008545 16749163.918691635 0 0 0 0 -54005125.782867432 72648623.100958824 0 72648623.100958824 13022910.168235779 0 0 0 0 -223786749.54817581 -64832694.028636456 0 -64832694.028636456 76989921.975025177 0 0 0 0 -11471032.510643005 -60201367.612752914 0 -60201367.612752914 47124120.703974724 0 0 0 0 2469332.3368042074 667143.90112693608 0 667143.90112693608 -1241566.2283496093 0 0 0 0 7867323.3985328674 -32642012.638228416 0 -32642012.638228416 -1966278.9131240845 0 0 0 0 646355281.18435669 617935104.7106781 0 617935104.7106781 238510593.81786489 0 0 0 0 465015772.55502796 365673882.98246169 0 365673882.98246169 357311405.71142197 0 0 0 0 -12198948.369537354 -3649574.8360977173 0 -3649574.8360977173 -951899.74029129744 0 0 0 0 -21114875.035136223 -2361354.9444565773 0 -2361354.9444565773 13039999.16973877 0 0 0 0 -13485157.408599854 -10699889.615068436 0 -10699889.615068436 36948262.400177002 0 0 0 0 -55245134.17613405 -28927185.243026104 0 -28927185.243026104 29012652.270637512 0 0 0 0 -12961986.617288589 -9239997.5316941738 0 -9239997.5316941738 12122584.344192505 0 0 0 0 -19847430.600143433 -11214495.770198822 0 -11214495.770198822 49183194.013637543 0 0 0 0 -9305283.6692657471 15236893.980358124 0 15236893.980358124 40307337.992370605 0 0 0 0 -19209991.304679871 2872360.1093406677 0 2872360.1093406677 29269060.558113098 0 0 0 0 -16029482.54649353 2066114.6426296234 0 2066114.6426296234 8993193.1378440857 0 0 0 0 -15640395.26764679 16354404.968166351 0 16354404.968166351 15954177.875244141 0 0 0 0 -7556068.4321670532 13950704.338903427 0 13950704.338903427 9258344.5235939026 0 0 0 0 -18649194.096427917 54991594.086696625 0 54991594.086696625 1431080.3693790436 0 0 0 0 -15740952.019990921 14568530.809497356 0 14568530.809497356 44756747.589267731 0 0 0 0 -53300893.265426636 19400171.735332489 0 19400171.735332489 84883338.406177521 0 0 0 0 151174220.40023041 31210595.003379822 0 31210595.003379822 28641646.444721222 0 0 0 0 36688546.628181458 -40819211.227118492 0 -40819211.227118492 73238867.993255615 0 0 0 0 60530999.995986938 7212308.61536026 0 7212308.61536026 22767137.0209198 0 0 0 0 43607047.808576584 86591660.575272799 0 86591660.575272799 30635800.567707062 0 0 0 0 41255107.975891113 57818004.144233704 0 57818004.144233704 55324867.762882233 0 0 0 0 77328173.576126099 79265811.29662323 0 79265811.29662323 13865275.474210739 0 0 0 0 118706492.95368958 115941042.75784302 0 115941042.75784302 88547501.71966362 0 0 0 0 182019817.86413574 -29588097.392742157 0 -29588097.392742157 -201794029.95548439 0 0 0 0 885825.27296396717 1077617.1088420115 0 1077617.1088420115 -283421.35937812831 0 0 0 0 159581.02930533513 5932495.0338009195 0 5932495.0338009195 1124399.9790222044 0 0 0 0 138060522.62724304 27576046.517713547 0 27576046.517713547 -127904842.25726318 0 0 0 0 3598980.5982971191 85985375.104915619 0 85985375.104915619 189692762.97595596 0 0 0 0 157826803.39741087 100335181.07617116 0 100335181.07617116 -79526363.754146576 0 0 0 0 163547948.33936691 48441053.485167503 0 48441053.485167503 -19904192.619377136 0 0 0 0 109897884.65353966 132955656.37914371 0 132955656.37914371 -74601693.202274323 0 0 0 0 113932152.05225372 102548566.68693733 0 102548566.68693733 36784668.504779816 0 0 0 0 56306206.966308594 103644453.91970444 0 103644453.91970444 87336925.325313568 0 0 0 0 104123845.98429108 245264311.43612099 0 245264311.43612099 142184346.53215027 0 0 0 0 123467685.23738098 237966156.18232727 0 237966156.18232727 40607176.315612793 0 0 0 0 56257447.733818054 209751501.98674202 0 209751501.98674202 264345229.86830902 0 0 0 0 306590478.65022278 -116273550.12891388 0 -116273550.12891388 -196551946.71249771 0 0 0 0 376328.60074242204 1542715.0021005925 0 1542715.0021005925 752229.1893073041 0 0 0 0 436821403.91107559 -77930679.518457413 0 -77930679.518457413 -229587904.05566406 0 0 0 0 -11961997.011520386 59863706.565963745 0 59863706.565963745 328140357.87023163 0 0 0 0 44580405.904090881 103490114.85097122 0 103490114.85097122 134213297.41726685 0 0 0 0 -5993162.2032852173 -10297392.877656937 0 -10297392.877656937 127940589.90018463 0 0 0 0 1238783.1796660572 4196053.9345038049 0 4196053.9345038049 1509421.78586917 0 0 0 0 -3166807.2543716431 8701418.0887403488 0 8701418.0887403488 9416942.8334579468 0 0 0 0 -77187563.18397522 -30127293.405982971 0 -30127293.405982971 -22838490.417285919 0 0 0 0 6520742.1300201416 11933699.161384583 0 11933699.161384583 8244564.5114040375 0 0 0 0 3962941.4490585327 22198929.969219208 0 22198929.969219208 -30413608.115587234 0 0 0 0 1408785.7362395376 2482836.6388535779 0 2482836.6388535779 161990.75337884855 0 0 0 0 244499860.49449825 -197013379.096838 0 -197013379.096838 -131734113.7569313 0 0 0 0 -190351501.06480408 201249096.53048325 0 201249096.53048325 228101516.37964773 0 0 0 0 -138603968.366539 -66828007.932798386 0 -66828007.932798386 260278798.29827118 0 0 0 0 -71512267.26058197 124890009.85961914 0 124890009.85961914 -62705419.580656052 0 0 0 0 -63235509.839645386 1894408.5597763062 0 1894408.5597763062 1415633.4921951294 0 0 0 0 -147120381.91445732 -11098532.272369862 0 -11098532.272369862 7446225.3635177612 0 0 0 0 -16630531.630989075 -1718258.4504337311 0 -1718258.4504337311 5129855.3852958679 0 0 0 0 -5051489.2146682739 -1772976.8239269257 0 -1772976.8239269257 -7306417.971912384 0 0 0 0 85472.377872422338 3927692.8019298743 0 3927692.8019298743 3420367.9111242993 0 0 0 0 3429111.0417938232 -9405929.2533664703 0 -9405929.2533664703 -3022011.0943603516 0 0 0 0 -6573671.7626609802 -1526377.5918893814 0 -1526377.5918893814 29394004.311752319 0 0 0 0 28993991.65549469 44993159.418813705 0 44993159.418813705 43106620.954208374 0 0 0 0 14859392.114532471 9864314.2641735077 0 9864314.2641735077 1193293.1090869904 0 0 0 0 -13650927.400009155 -8062287.8989830017 0 -8062287.8989830017 17299930.06047821 0 0 0 0 64790611.877059937 -122066706.70466232 0 -122066706.70466232 147334638.69718409 0 0 0 0 -71351223.395847321 239845133.41136646 0 239845133.41136646 102365718.00521088 0 0 0 0 223536559.02006912 -124357003.9910965 0 -124357003.9910965 -191790338.43010712 0 0 0 0 331092960.14930725 -79413938.69329071 0 -79413938.69329071 -225566133.70160294 0 0 0 0 373306.89619722962 1147891.594175485 0 1147891.594175485 921692.93963314872 0 0 0 0 62937190.713752747 78455767.170976639 0 78455767.170976639 92833895.011102676 0 0 0 0 253122837.82496643 86094396.861946106 0 86094396.861946106 -4873432.8858947754 0 0 0 0 106649166.17823792 47137231.916566849 0 47137231.916566849 -13060085.619054794 0 0 0 0 326404529.55740547 -72488504.607717514 0 -72488504.607717514 -66144302.361198425 0 0 0 0 86095347.703071594 -76116698.039810181 0 -76116698.039810181 -44324691.254905701 0 0 0 0 82065160.139511108 -16220023.649999619 0 -16220023.649999619 -19008136.274629593 0 0 0 0 171758387.99177551 -24556692.787906647 0 -24556692.787906647 -30428265.256168365 0 0 0 0 68407088.520397186 25827795.270533562 0 25827795.270533562 -6785232.4701690674 0 0 0 0 86963825.825489044 25567910.035909653 0 25567910.035909653 -7053829.2055625916 0 0 0 0 88063203.326751709 12657817.159227371 0 12657817.159227371 -15046036.607666016 0 0 0 0 70435913.994949341 14582843.335361481 0 14582843.335361481 -8766226.352519989 0 0 0 0 63429933.389884949 5922387.3849048615 0 5922387.3849048615 -3927570.0966720581 0 0 0 0 83611784.876255989 -1141621.3229641914 0 -1141621.3229641914 -3002966.7420272827 0 0 0 0 71931712.291137695 13250406.865976334 0 13250406.865976334 2320189.0590400696 0 0 0 0 72152354.698940277 14552886.912940979 0 14552886.912940979 -8989960.4043731689 0 0 0 0 67502280.786888123 17367976.985542297 0 17367976.985542297 -890392.98055648804 0 0 0 0 72969988.651017666 16294855.539004326 0 16294855.539004326 -1406092.6490783691 0 0 0 0 68786175.46585083 18964556.743213654 0 18964556.743213654 9506948.5262134075 0 0 0 0 41829190.78414917 -19493029.064445019 0 -19493029.064445019 -64687311.210323334 0 0 0 0 72663145.241607666 20088764.571546555 0 20088764.571546555 1471041.3369107246 0 0 0 0 37737908.634227186 -9044579.7093443424 0 -9044579.7093443424 -21224183.70656411 0 0 0 0 570593409.68765259 -168206023.48183441 0 -168206023.48183441 -140585055.0891037 0 0 0 0 175061623.90060425 73103615.250007629 0 73103615.250007629 -68269521.972351074 0 0 0 0 216375045.61886597 96596250.197006226 0 96596250.197006226 -100705522.814888 0 0 0 0 488768655.14982224 167516184.91654205 0 167516184.91654205 -91850168.452133179 0 0 0 0 213106296.23054504 72469388.073486328 0 72469388.073486328 -68457764.457807541 0 0 0 0 236754682.16366577 -149951355.15086365 0 -149951355.15086365 -138699186.47542381 0 0 0 0 206657017.06018066 -7454756.3899688721 0 -7454756.3899688721 -118340116.60908508 0 0 0 0 387174601.67939758 39684907.142730713 0 39684907.142730713 -117656392.13578033 0 0 0 0 74528591.194717407 9925467.4149093628 0 9925467.4149093628 -3424754.7034606934 0 0 0 0 55535686.308334351 6928172.6341247559 0 6928172.6341247559 -1494472.6816329956 0 0 0 0 68134769.657852173 12174018.76725769 0 12174018.76725769 -6427957.8084716797 0 0 0 0 48817840.101646423 10285688.80475235 0 10285688.80475235 1242082.6241073608 0 0 0 0 57398885.475509644 17197669.94045639 0 17197669.94045639 -5254786.1026992798 0 0 0 0 46817269.873950958 15141462.214641571 0 15141462.214641571 -3294944.0566711426 0 0 0 0 10110712.054142894 -2649632.1818962954 0 -2649632.1818962954 -2031859.9486079887 0 0 0 0 614584045.68720484 -245125472.71017861 0 -245125472.71017861 83626691.772476196 0 0 0 0 -2609550.4357805476 -589162.34023446217 0 -589162.34023446217 3146063.4497846365 0 0 0 0 637044654.9486084 10671127.84790802 0 10671127.84790802 133472641.30610275 0 0 0 0 58305523.161186218 230340009.90598297 0 230340009.90598297 -100384533.87950516 0 0 0 0 47136143.700660706 12857097.721481323 0 12857097.721481323 -5722416.7307281494 0 0 0 0 47374386.58719635 3378992.4161663055 0 3378992.4161663055 -13287256.663767993 0 0 0 0 53491440.865875244 13003766.772727966 0 13003766.772727966 -5169321.4518709183 0 0 0 0 65802734.900730133 20179699.778533936 0 20179699.778533936 -7176005.5512695312 0 0 0 0 54000776.897254944 13741046.510128021 0 13741046.510128021 -13009241.723731995 0 0 0 0 420888906.61491585 -135807878.74931526 0 -135807878.74931526 -65072324.972206116 0 0 0 0 4087866.2942349631 -2120457.641319409 0 -2120457.641319409 3278548.6276511624 0 0 0 0 -1494091.3573684692 16884471.208193779 0 16884471.208193779 16350865.600608826 0 0 0 0 233570504.53717041 4895676.8447303772 0 4895676.8447303772 -7848136.4347896576 0 0 0 0 -4151021.6852797419 -845362.81589101069 0 -845362.81589101069 5286870.4171800241 0 0 0 0 219893586.15704775 -41616581.074092984 0 -41616581.074092984 12451211.585968018 0 0 0 0 310516478.61407471 -129194135.25830078 0 -129194135.25830078 -46031889.411554337 0 0 0 0 220666979.2333293 -35209157.214519262 0 -35209157.214519262 -64586242.276786804 0 0 0 0 219126901.82770538 -154742851.90750504 0 -154742851.90750504 68509781.860214233 0 0 0 0 189281353.72377014 -95250992.077243805 0 -95250992.077243805 -77029482.964939117 0 0 0 0 314544736.25712585 264872314.83028793 0 264872314.83028793 350670394.1375742 0 0 0 0 684256694.25122833 186631697.83048439 0 186631697.83048439 83064438.079380035 0 0 0 0 369272430.84664917 -145355438.82653236 0 -145355438.82653236 61063014.328542233 0 0 0 0 403165250.62931061 -99154995.841947556 0 -99154995.841947556 -182041009.00222778 0 0 0 0 355507779.80177307 1633719.4952945709 0 1633719.4952945709 -157142397.86405563 0 0 0 0 266973091.1440506 -33962231.397489548 0 -33962231.397489548 16729151.740457535 0 0 0 0 -102044674.37325287 49762524.297807693 0 49762524.297807693 -127485673.90627193 0 0 0 0 358344446.402771 -58597491.005714417 0 -58597491.005714417 -192714306.63551712 0 0 0 0 400519000.9552002 -134280127.40050888 0 -134280127.40050888 -204195002.85581207 0 0 0 0 1102026300.5646515 32429130.670677185 0 32429130.670677185 -191712133.20628214 0 0 0 0 224748558.43289948 -64655638.702676773 0 -64655638.702676773 -154557512.03905487 0 0 0 0 228535824.91549683 -82299137.858505249 0 -82299137.858505249 -276149514.99582672 0 0 0 0 -17417141.929100037 125757816.47998428 0 125757816.47998428 -12509242.718612671 0 0 0 0 17103220.365671158 -25139608.275773525 0 -25139608.275773525 -40636306.193435669 0 0 0 0 241226040.71589661 109334534.5037384 0 109334534.5037384 -68195350.46912384 0 0 0 0 253909412.072258 -47724943.404230118 0 -47724943.404230118 -143226566.10530853 0 0 0 0 349823817.24914169 -41753227.922109604 0 -41753227.922109604 -211315974.73233795 0 0 0 0 308204886.18643188 -50388710.565311432 0 -50388710.565311432 -143716736.3122654 0 0 0 0 353824428.73892212 246888380.74599457 0 246888380.74599457 -23975669.664955139 0 0 0 0 630224214.92514038 20713287.793502808 0 20713287.793502808 -204373430.50255299 0 0 0 0 18843371.765594482 207866668.92645264 0 207866668.92645264 -7905207.9582080841 0 0 0 0 88812628.875274658 57193606.120079041 0 57193606.120079041 -61921533.923950195 0 0 0 0 121740445.83140564 103560603.36206055 0 103560603.36206055 -56232929.912029266 0 0 0 0 120020720.33518219 102044323.07710648 0 102044323.07710648 -21078417.801940918 0 0 0 0 138979375.36541748 112082274.96903992 0 112082274.96903992 -43243618.970321655 0 0 0 0 100686186.34161377 79010933.385505676 0 79010933.385505676 -23823806.077190399 0 0 0 0 147604147.53397369 58536504.32642746 0 58536504.32642746 -70829645.344543457 0 0 0 0 78085077.241394043 51931463.530464172 0 51931463.530464172 -67223810.365486145 0 0 0 0 121077123.46681976 21245102.674526215 0 21245102.674526215 -78602576.582504272 0 0 0 0 698148.10498046875 67800434.566108704 0 67800434.566108704 -54967379.14793396 0 0 0 0 91232434.374977112 89568553.236818314 0 89568553.236818314 -81982803.560180664 0 0 0 0 3797518.7458593389 -113015.66730351374 0 -113015.66730351374 130048.14261291549 0 0 0 0 826579267.92248535 305468685.22018814 0 305468685.22018814 117010526.0745697 0 0 0 0 -192574145.41046143 139434821.78417206 0 139434821.78417206 14957661.767868042 0 0 0 0 3558907.6772947833 -686208.05883057974 0 -686208.05883057974 -1956299.5068802908 0 0 0 0 -2573555.3068275452 56095895.079293251 0 56095895.079293251 -82031935.652053833 0 0 0 0 852307740.75666809 -477733497.90533447 0 -477733497.90533447 -372116000.44346619 0 0 0 0 460223240.25240707 411542141.72930145 0 411542141.72930145 997555462.83200073 0 0 0 0 36347710.049926758 4530222.5823745728 0 4530222.5823745728 -21288602.201324463 0 0 0 0 12269163.825197015 -7725826.128386315 0 -7725826.128386315 -9990504.5357718766 0 0 0 0 67442290.026885986 39211987.145698547 0 39211987.145698547 -56182867.487167358 0 0 0 0 35214246.399878547 13897655.401181698 0 13897655.401181698 -10550710.311348885 0 0 0 0 49545090.600841522 32447849.396259308 0 32447849.396259308 -54925943.571517944 0 0 0 0 14391687.871551514 83043779.61781311 0 83043779.61781311 -82727448.860475302 0 0 0 0 20158725.639558703 11850644.661285922 0 11850644.661285922 -3379195.5199249834 0 0 0 0 18761591.945449829 91937959.160438538 0 91937959.160438538 -70071113.697193146 0 0 0 0 -2498250.333719857 4104605.0404517753 0 4104605.0404517753 6715251.659161251 0 0 0 0 -118807002.82544136 295709012.4002862 0 295709012.4002862 -310365369.59690857 0 0 0 0 -119083814.05224609 286498994.63008881 0 286498994.63008881 -429604910.85338974 0 0 0 0 137381527.64692688 -297791229.94878769 0 -297791229.94878769 54222348.067512512 0 0 0 0 -156876162.06031799 387865287.65592194 0 387865287.65592194 228901368.20809174 0 0 0 0 1064687657.5214138 23057127.802207947 0 23057127.802207947 -213318405.79602814 0 0 0 0 -1691916.0304730386 1940437.0259960182 0 1940437.0259960182 3558715.1985894889 0 0 0 0 -256210502.08319473 101094672.76362801 0 101094672.76362801 135385958.32839966 0 0 0 0 -118602882.7520256 -16583073.424931526 0 -16583073.424931526 95979159.551681519 0 0 0 0 24916109.989990234 159613697.92465973 0 159613697.92465973 57817287.082511902 0 0 0 0 -180782350.85728455 148513604.98161316 0 148513604.98161316 164361564.88230133 0 0 0 0 28109866.682847261 302690507.97284091 0 302690507.97284091 -33480554.666595459 0 0 0 0 430938225.31057739 584173492.5175705 0 584173492.5175705 163158423.46615219 0 0 0 0 398901894.81713867 179611437.9965744 0 179611437.9965744 -63444612.415557861 0 0 0 0 110427920.73649979 97386826.0773592 0 97386826.0773592 6663795.7697296143 0 0 0 0 123498362.23502731 116718863.02358818 0 116718863.02358818 -76126308.936035156 0 0 0 0 -13954871.539833069 59667927.590673447 0 59667927.590673447 29282619.31652832 0 0 0 0 13312295.608810425 127234320.94199371 0 127234320.94199371 38846187.703510284 0 0 0 0 34251788.204589844 -4597183.6538887024 0 -4597183.6538887024 -11016116.965623856 0 0 0 0 25320600.427638099 -855803.59141428769 0 -855803.59141428769 -13073174.219908593 0 0 0 0 29650070.715881348 3025446.4931459427 0 3025446.4931459427 -13670291.823974609 0 0 0 0 16697140.187644958 15778001.956680298 0 15778001.956680298 -16650882.904174805 0 0 0 0 18162763.541559219 4380965.5793423653 0 4380965.5793423653 -2406068.8547515869 0 0 0 0 21269798.204838198 -3391103.3377809338 0 -3391103.3377809338 -20826060.671930041 0 0 0 0 99528878.714408875 -54326063.690719604 0 -54326063.690719604 -103126882.34539032 0 0 0 0 1223024222.0865173 205254668.22032166 0 205254668.22032166 -633043116.78452301 0 0 0 0 306771550.77711487 -78230276.62587738 0 -78230276.62587738 -415576247.65880966 0 0 0 0 183832497.63529968 52663878.810604095 0 52663878.810604095 -9883959.8599090576 0 0 0 0 53743978.473083496 -17398844.745865822 0 -17398844.745865822 -36565869.307823688 0 0 0 0 30812551.400939941 -8675323.0825843811 0 -8675323.0825843811 -36735946.203288615 0 0 0 0 57313322.915967941 19963645.521551013 0 19963645.521551013 -65816980.11371994 0 0 0 0 188133389.17276001 49729800.935590744 0 49729800.935590744 -39346545.693670273 0 0 0 0 34125799.81072998 11419261.731027603 0 11419261.731027603 -45167239.457942963 0 0 0 0 32395859.577506229 6143428.1286619827 0 6143428.1286619827 -13756840.136357939 0 0 0 0 20129295.075973511 7530822.6338310242 0 7530822.6338310242 -20891030.838214874 0 0 0 0 61625076.585113525 -9158429.300362587 0 -9158429.300362587 -13161132.918765545 0 0 0 0 36030613.104248047 -7960356.155380249 0 -7960356.155380249 -15415095.876392365 0 0 0 0 18510873.057678223 -4088907.104013443 0 -4088907.104013443 1469086.4497184753 0 0 0 0 23060399.412142128 6923014.5489641875 0 6923014.5489641875 -8467497.4151120465 0 0 0 0 13592731.962333571 -7344076.964456521 0 -7344076.964456521 -7350200.2687413134 0 0 0 0 38398034.316299438 940248.29539299011 0 940248.29539299011 -21013105.875219345 0 0 0 0 32277279.491369724 104098447.24513853 0 104098447.24513853 -42429717.282123566 0 0 0 0 -33103675.559387207 -6886870.1321926117 0 -6886870.1321926117 19994990.448681831 0 0 0 0 -28042549.734283447 -26072704.334219933 0 -26072704.334219933 34751847.22396946 0 0 0 0 -43485561.716140747 -16530674.457719803 0 -16530674.457719803 40289876.214224815 0 0 0 0 23443994.298103333 -62965465.534136295 0 -62965465.534136295 -31507513.61161232 0 0 0 0 -36019088.421432495 -252195.530772686 0 -252195.530772686 6083575.2355804443 0 0 0 0 -37778663.314025879 -39279493.70676899 0 -39279493.70676899 78353501.341909409 0 0 0 0 -521820.03878646344 -10632.188960030675 0 -10632.188960030675 505322.01655749232 0 0 0 0 352354183.19169617 134632943.02917886 0 134632943.02917886 -74940935.785287857 0 0 0 0 18258255.573547363 50715580.794082642 0 50715580.794082642 5077964.4561033249 0 0 0 0 269813938.82199097 -84385980.873754501 0 -84385980.873754501 -83229222.381404877 0 0 0 0 130239640.84519958 71688162.065899849 0 71688162.065899849 -115080448.78779793 0 0 0 0 72311389.242950439 161220722.97511482 0 161220722.97511482 185867731.14636421 0 0 0 0 11513781.853354588 -9161921.2369952109 0 -9161921.2369952109 -11122536.691062987 0 0 0 0 36475461.327217102 -59490116.421609402 0 -59490116.421609402 -101399770.78704262 0 0 0 0 -67247365.887817383 -105330357.97966909 0 -105330357.97966909 47796281.165222168 0 0 0 0 16804248.615264893 -33827323.003051758 0 -33827323.003051758 -50115694.242673874 0 0 0 0 22862762.700180322 -15989778.40539261 0 -15989778.40539261 -24560360.314084928 0 0 0 0 8995529.4314804077 -26324371.817558289 0 -26324371.817558289 -10071825.329322815 0 0 0 0 21022502.617462158 -29975501.010710716 0 -29975501.010710716 -48721214.877346039 0 0 0 0 19765328.178131104 -43277277.543280602 0 -43277277.543280602 -65279731.305926323 0 0 0 0 40681815.743939556 -7330785.007732749 0 -7330785.007732749 -28930572.631651748 0 0 0 0 15444287.282371521 -36734747.320705175 0 -36734747.320705175 -47200554.980788231 0 0 0 0 16007573.834529877 -37996709.06131351 0 -37996709.06131351 -54247938.795860291 0 0 0 0 82391187.66015625 17243267.444591522 0 17243267.444591522 3119973.1989898682 0 0 0 0 153362739.06966019 -53550819.802427292 0 -53550819.802427292 -72136881.702026367 0 0 0 0 28308088.073217683 5220971.108327603 0 5220971.108327603 -11850357.498883281 0 0 0 0 78068311.484802246 24280906.674291611 0 24280906.674291611 9761104.1808379889 0 0 0 0 177852270.16845202 -26413246.131457567 0 -26413246.131457567 -74536344.259567261 0 0 0 0 177387178.64518356 -15844344.779457331 0 -15844344.779457331 -99825071.294464111 0 0 0 0 157880675.56365967 -9583881.8381500244 0 -9583881.8381500244 -87040630.672897339 0 0 0 0 121235538.06222534 21418108.936676025 0 21418108.936676025 -78478505.541114807 0 0 0 0 136778368.63043594 32386190.511745453 0 32386190.511745453 -81980940.961151123 0 0 0 0 185837944.60247803 26055483.078643799 0 26055483.078643799 -83975266.286018372 0 0 0 0 165812573.28321838 -25217181.628143787 0 -25217181.628143787 -46522358.616012573 0 0 0 0 156518486.14442444 -10096758.824691772 0 -10096758.824691772 -70356785.229385376 0 0 0 0 164281615.8314209 -11638738.710197449 0 -11638738.710197449 -86395818.090782166 0 0 0 0 126249283.80404663 1812478.0256347656 0 1812478.0256347656 -71358094.320220947 0 0 0 0 154436084.98916626 -19912257.829017639 0 -19912257.829017639 -61441939.592102051 0 0 0 0 26368542.2706604 -5484249.3716545105 0 -5484249.3716545105 -13315953.85874176 0 0 0 0 118368328.89260864 -11371932.7212677 0 -11371932.7212677 -42849117.382766724 0 0 0 0 31738164.471183769 -3099491.6461751983 0 -3099491.6461751983 -22523366.850324094 0 0 0 0 105765557.48309326 -6758916.1697998047 0 -6758916.1697998047 -43600523.483795166 0 0 0 0 66552810.012968779 11174310.706913054 0 11174310.706913054 -50522074.246429443 0 0 0 0 82893561.573486328 48843994.655647278 0 48843994.655647278 -73019334.982884407 0 0 0 0 86573272.228622437 9972485.4708557129 0 9972485.4708557129 -47506714.829910278 0 0 0 0 18854148.07043457 4376948.2529602051 0 4376948.2529602051 875597.43353271484 0 0 0 0 -6778252.5577392578 -16633612.664745331 0 -16633612.664745331 -56283351.703930855 0 0 0 0 19956818.851221286 -6833494.140421398 0 -6833494.140421398 -10148010.605621871 0 0 0 0 163004482.44737244 1822598.9453887939 0 1822598.9453887939 -8520428.814666748 0 0 0 0 30371198.961126905 956080.25586835667 0 956080.25586835667 -16058224.780756747 0 0 0 0 6460408.9818177372 -4470928.4341595871 0 -4470928.4341595871 -7246034.6158404201 0 0 0 0 57117924.499023438 30012671.599029541 0 30012671.599029541 6875802.9727935791 0 0 0 0 47581106.438166849 -5772835.2096716389 0 -5772835.2096716389 -32598751.73296814 0 0 0 0 21027056.396179199 1524840.5987663269 0 1524840.5987663269 -15146986.537902832 0 0 0 0 30757209.828330107 -8096141.6105114864 0 -8096141.6105114864 -28535964.804369137 0 0 0 0 62535356.820243835 -664262081.71002007 0 -664262081.71002007 4894781.1162719727 0 0 0 0 1244462282.1111603 -264811625.54297638 0 -264811625.54297638 -156327982.76927948 0 0 0 0 407616080.54290771 -319623638.75589561 0 -319623638.75589561 47548964.568534851 0 0 0 0 12354199.172485352 -41264606.434036255 0 -41264606.434036255 -111417389.04210567 0 0 0 0 1567271.654208988 -2898850.2125538439 0 -2898850.2125538439 -1418609.5407028981 0 0 0 0 1594197348.5678864 209288667.39898682 0 209288667.39898682 -102327184.65546417 0 0 0 0 -219767591.33635712 -246122504.03811359 0 -246122504.03811359 -25219636.569046021 0 0 0 0 801353311.28366089 -545277524.5466404 0 -545277524.5466404 -190732078.93636703 0 0 0 0 471416721.83483505 -33006558.092935562 0 -33006558.092935562 89550860.162509918 0 0 0 0 3291085.3725803606 -5830906.571322158 0 -5830906.571322158 -3278170.7562345192 0 0 0 0 1073298885.2553864 -148286197.57496548 0 -148286197.57496548 -189537638.73731518 0 0 0 0 -54700436.513731003 -78389775.52869463 0 -78389775.52869463 22395481.649780273 0 0 0 0 412241938.62980652 264303509.85154533 0 264303509.85154533 98556387.712748528 0 0 0 0 650693734.73264313 483866511.53475761 0 483866511.53475761 -156990209.1532402 0 0 0 0 1762066901.7168427 1020578936.0579796 0 1020578936.0579796 93316171.134117126 0 0 0 0 1993219272.9708176 -150809777.72606468 0 -150809777.72606468 -304698573.88902569 0 0 0 0 646086142.98564148 415581101.22377777 0 415581101.22377777 74470821.646051645 0 0 0 0 654330927.97935486 460876333.89958191 0 460876333.89958191 -80105969.394702911 0 0 0 0 -40595374.271209717 48695789.886924744 0 48695789.886924744 144161167.12417984 0 0 0 0 -1680268.151690945 2164073.7451395392 0 2164073.7451395392 3796250.2084104978 0 0 0 0 1007503621.4582272 75910692.871370554 0 75910692.871370554 -506395654.06503677 0 0 0 0 827763950.63557816 879451030.41529465 0 879451030.41529465 444116693.07550049 0 0 0 0 1158302207.9371033 819766471.44266319 0 819766471.44266319 50666986.191873074 0 0 0 0 404155576.88154221 201589619.36951256 0 201589619.36951256 435816144.67850113 0 0 0 0 1064326001.9802551 637984449.18301582 0 637984449.18301582 367590078.33974218 0 0 0 0 928626579.74102783 929821610.47686577 0 929821610.47686577 280964242.83366394 0 0 0 0 -92733023.113365173 884522098.83117867 0 884522098.83117867 650321418.25257301 0 0 0 0 968808310.58360672 991211772.00103426 0 991211772.00103426 333396042.31541443 0 0 0 0 501219449.94210815 343394558.49944305 0 343394558.49944305 796240478.18072152 0 0 0 0 507296481.93782043 462384682.09704304 0 462384682.09704304 373436940.63473892 0 0 0 0 20381317.431137085 239576608.6668129 0 239576608.6668129 411154213.74909401 0 0 0 0 15959531.292442322 434352986.54506111 0 434352986.54506111 -528577076.66055489 0 0 0 0 27506819.465583801 6907824.8389205933 0 6907824.8389205933 -108381037.37629318 0 0 0 0 -54010412.723358154 339059111.28172874 0 339059111.28172874 -406365278.83331299 0 0 0 0 -2401479.6119653285 4299566.820353047 0 4299566.820353047 6876731.0098586939 0 0 0 0 -179311750.39242554 307680384.54587173 0 307680384.54587173 45832056.212409973 0 0 0 0 -74009172.910140991 -36556092.976863861 0 -36556092.976863861 10046275.623271942 0 0 0 0 38974146.007614136 78450996.814052582 0 78450996.814052582 126137593.7529068 0 0 0 0 7583324.1511569433 447931.77448731661 0 447931.77448731661 207557.49738859385 0 0 0 0 -71649434.764953613 3038565.9566841125 0 3038565.9566841125 53744789.489875793 0 0 0 0 -1732221.7004089355 52309053.083221436 0 52309053.083221436 16354927.559421539 0 0 0 0 -19148215.87374115 45495496.942428589 0 45495496.942428589 31318229.233169556 0 0 0 0 22319311.593644515 7718550.8336446807 0 7718550.8336446807 3697584.4185632467 0 0 0 0 90333046.699615479 45973415.695896149 0 45973415.695896149 6978388.3090248108 0 0 0 0 15692361.27340243 1186697.2470754534 0 1186697.2470754534 -12066274.959416546 0 0 0 0 170276547.32930756 -15116459.076658249 0 -15116459.076658249 -40137826.767547607 0 0 0 0 171288146.50657654 90291032.627522469 0 90291032.627522469 101990906.95276642 0 0 0 0 149622472.22389221 32792264.477935791 0 32792264.477935791 9061838.7485046387 0 0 0 0 151924716.48799133 22744554.196163177 0 22744554.196163177 27564356.143676758 0 0 0 0 144090980.28912354 39754675.225090027 0 39754675.225090027 -41211726.872047424 0 0 0 0 157724637.97113037 8667373.1581497192 0 8667373.1581497192 -14257167.322425842 0 0 0 0 121259790.27536011 39951750.527881622 0 39951750.527881622 -80905039.708251953 0 0 0 0 120631605.62865448 61692720.9947052 0 61692720.9947052 7017490.3455047607 0 0 0 0 215359853.10171509 23105484.698753357 0 23105484.698753357 3172070.6793236732 0 0 0 0 82126596.334762573 51976973.497894287 0 51976973.497894287 193145960.37625122 0 0 0 0 393452513.37489319 176895263.31629181 0 176895263.31629181 156648902.91807556 0 0 0 0 60877345.871961594 -9786800.2164740562 0 -9786800.2164740562 166176539.5337677 0 0 0 0 179774654.5907135 -37177641.901279449 0 -37177641.901279449 98214902.835613251 0 0 0 0 359355947.58115387 77357073.619075775 0 77357073.619075775 -67345012.521591187 0 0 0 0 299016716.88450432 284669355.87300062 0 284669355.87300062 401195315.32821655 0 0 0 0 900462132.47589684 1219307785.8619394 0 1219307785.8619394 802660949.0080986 0 0 0 0 1026914.8391702287 769281.52258619666 0 769281.52258619666 4083750.0004461743 0 0 0 0 -649912096.55754089 -25653572.034393311 0 -25653572.034393311 623035940.7924614 0 0 0 0 5963073872.3250523 537795163.30719709 0 537795163.30719709 73980490.053459167 0 0 0 0 -77346661.780883789 601621129.61648941 0 601621129.61648941 1126770628.6582813 0 0 0 0 -54219458.84047699 222512970.2102356 0 222512970.2102356 -65333404.320381165 0 0 0 0 189444883.91754913 75011342.66330719 0 75011342.66330719 -92523577.409103394 0 0 0 0 -345233298.47879028 104180510.72165298 0 104180510.72165298 17925237.334875107 0 0 0 0 2327107.0920340121 5019801.8026855662 0 5019801.8026855662 12770300.805885613 0 0 0 0 5427443851.9140129 -848414788.29645348 0 -848414788.29645348 -684510825.2368927 0 0 0 0 2428169522.2141113 -691339803.70415878 0 -691339803.70415878 931126415.17958832 0 0 0 0 2238743977.94487 -219327922.47021103 0 -219327922.47021103 755929363.03748512 0 0 0 0 3575776996.3449402 524457422.13534546 0 524457422.13534546 59195920.928321838 0 0 0 0 1412236848.5627441 -83365548.1456604 0 -83365548.1456604 169935218.39482117 0 0 0 0 2449462732.0222168 1018003690.2865944 0 1018003690.2865944 -864869867.21973419 0 0 0 0 1330655582.1019211 -404393014.75077248 0 -404393014.75077248 -1092784715.393013 0 0 0 0 -391794060.26831055 404816914.77058411 0 404816914.77058411 209114791.06135798 0 0 0 0 1928984255.7492371 772041833.50530624 0 772041833.50530624 390539735.81201935 0 0 0 0 510723072.6965332 -108936559.44457245 0 -108936559.44457245 248483957.48695326 0 0 0 0 308817422.20993042 179438047.13789749 0 179438047.13789749 448166849.9165802 0 0 0 0 -378309022.09463501 -438063361.57289505 0 -438063361.57289505 684548392.70569992 0 0 0 0 341410309.0432663 15749533.846990585 0 15749533.846990585 1265960118.3222733 0 0 0 0 1863883361.3119354 828740554.04299164 0 828740554.04299164 1516026560.960125 0 0 0 0 1204000869.0053711 -435192107.9787178 0 -435192107.9787178 591021006.45270157 0 0 0 0 1271607454.5260315 -465590379.90093803 0 -465590379.90093803 828165494.61571503 0 0 0 0 401655358.9241333 -602666359.22732544 0 -602666359.22732544 487637026.79898834 0 0 0 0 463783093.39997864 101330851.9799614 0 101330851.9799614 526812326.92834473 0 0 0 0 29308777.146287873 6066289.320173664 0 6066289.320173664 -5039053.4019440617 0 0 0 0 -43073080.734298706 419291424.93341184 0 419291424.93341184 -482449416.57704234 0 0 0 0 333717172.88751221 -263500234.34226418 0 -263500234.34226418 437564797.35562062 0 0 0 0 -443172686.35308838 113538017.66374779 0 113538017.66374779 163053895.01307297 0 0 0 0 -233114281.80938721 519640480.64193773 0 519640480.64193773 356808379.88737673 0 0 0 0 176641466.8314209 -795544338.12013197 0 -795544338.12013197 767110102.61090469 0 0 0 0 2958452161.5942993 -2013059837.2315936 0 -2013059837.2315936 830350848.47893572 0 0 0 0 6012645645.9067993 -1346250425.9552431 0 -1346250425.9552431 -803914463.93554318 0 0 0 0 5102079592.3228149 561482893.17084503 0 561482893.17084503 -537778724.39126968 0 0 0 0 3216322673.3394775 -880310444.08376694 0 -880310444.08376694 -745701222.94593239 0 0 0 0 2720238672.4794464 -134385320.24622345 0 -134385320.24622345 9956005.6536979675 0 0 0 0 1425286696.6763916 -382422051.78023148 0 -382422051.78023148 212921807.2401638 0 0 0 0 2675250189.1628723 -29093334.431116104 0 -29093334.431116104 -225557301.44124603 0 0 0 0 1218625266.74646 -148092260.46651697 0 -148092260.46651697 94806861.686462402 0 0 0 0 2672788590.3290768 295360650.861287 0 295360650.861287 -101826602.48462677 0 0 0 0 3939402012.305603 -13349978.637170792 0 -13349978.637170792 -530480975.10677338 0 0 0 0 2621260095.1874084 364371024.5167141 0 364371024.5167141 -309438252.10482788 0 0 0 0 3216187161.7277832 239618729.31616402 0 239618729.31616402 -396952612.25993538 0 0 0 0 2710516344.3011551 137577218.73534107 0 137577218.73534107 -190641448.30715179 0 0 0 0 1395854344.0463562 345679798.11558914 0 345679798.11558914 -519287.10489273071 0 0 0 0 484178663.67266846 353235933.79763412 0 353235933.79763412 220366366.23559761 0 0 0 0 1085778139.1916046 226221123.71706009 0 226221123.71706009 127114449.6097374 0 0 0 0 66723047.629074097 -267710144.10542011 0 -267710144.10542011 190641470.09388733 0 0 0 0 -250739381.86849976 89829161.464014053 0 89829161.464014053 110042715.85418892 0 0 0 0 -135049745.31520081 279766475.35081387 0 279766475.35081387 293554396.16416168 0 0 0 0 -361706611.21206665 264620574.6388092 0 264620574.6388092 2524430.6968994141 0 0 0 0 -403853845.9173584 -164424869.56890488 0 -164424869.56890488 -40418420.539352417 0 0 0 0 -360558005.26144409 -20126069.022651672 0 -20126069.022651672 229600125.10853577 0 0 0 0 -333959104.66966248 -210490485.98702621 0 -210490485.98702621 -163859933.36419678 0 0 0 0 -253628247.53033447 -368807860.76836014 0 -368807860.76836014 102177510.89445686 0 0 0 0 -283676905.98410034 49866163.374435425 0 49866163.374435425 381618469.75888634 0 0 0 0 -208579013.99339867 337781259.22017896 0 337781259.22017896 403531183.50043488 0 0 0 0 -204452302.02716064 396690301.42508698 0 396690301.42508698 6637474.5852737427 0 0 0 0 -246604697.92294312 39576066.906280518 0 39576066.906280518 279090364.49951553 0 0 0 0 -284762367.01554871 23285526.49814415 0 23285526.49814415 582573367.21560669 0 0 0 0 -2081388.5436925441 -1321854.3682381324 0 -1321854.3682381324 1699921.3805383819 0 0 0 0 982278817.36920166 454844199.13635635 0 454844199.13635635 512074819.6146208 0 0 0 0 2109639804.4956055 260922453.80795288 0 260922453.80795288 -1886270266.8081932 0 0 0 0 2876485401.5198669 121173618.98578644 0 121173618.98578644 -150463829.92195892 0 0 0 0 1243731491.8527679 643695001.71635437 0 643695001.71635437 104680141.98491669 0 0 0 0 562789.50495560467 -1238133.3386830036 0 -1238133.3386830036 1188546.3337064576 0 0 0 0 2500465023.1704865 598041216.42050171 0 598041216.42050171 -139127974.01511383 0 0 0 0 1316535381.5944519 -323556242.52207947 0 -323556242.52207947 -560900515.10798264 0 0 0 0 2791124329.4050293 253810215.80265427 0 253810215.80265427 -23764258.519989967 0 0 0 0 3076759504.4054565 -77961024.369033813 0 -77961024.369033813 70451552.525999069 0 0 0 0 2670922801.1601105 349454724.22842026 0 349454724.22842026 -90916460.940757751 0 0 0 0 -160819988.86665726 86622428.762704849 0 86622428.762704849 37748994.735290527 0 0 0 0 4652349883.4462585 157980577.04355907 0 157980577.04355907 -673956886.71167755 0 0 0 0 2310165.9780395981 11615350.508505709 0 11615350.508505709 24989002.522152379 0 0 0 0 3375428949.9928589 1139238420.8093605 0 1139238420.8093605 -543265302.8742981 0 0 0 0 -19435928.50050354 66161413.751098633 0 66161413.751098633 -13670215.517227173 0 0 0 0 -46620076.097198486 110841403.91740417 0 110841403.91740417 -15515802.340942383 0 0 0 0 747762.57571411133 90664698.152946472 0 90664698.152946472 -16434089.600204468 0 0 0 0 -69236259.643463135 19928426.069324493 0 19928426.069324493 22975228.986694336 0 0 0 0 2860898.343536377 50276271.860275269 0 50276271.860275269 13913147.711215973 0 0 0 0 4364982.7268600464 35710349.386264801 0 35710349.386264801 71833164.275115967 0 0 0 0 -12480619.959197998 70773654.27375412 0 70773654.27375412 60468680.00592041 0 0 0 0 1432806475.7041931 -1144941313.0937271 0 -1144941313.0937271 178324128.30951142 0 0 0 0 20239325.755726993 12098418.044027649 0 12098418.044027649 -19485141.109530434 0 0 0 0 -15637946.302246094 68715419.072025299 0 68715419.072025299 82890664.082550049 0 0 0 0 2354311775.4534149 763675945.5773797 0 763675945.5773797 348040737.15302658 0 0 0 0 1007377.6382623147 21251803.168423358 0 21251803.168423358 40081491.163422003 0 0 0 0 3064920866.2088623 630650293.61212349 0 630650293.61212349 78876190.941188812 0 0 0 0 3391320878.3674927 764513184.31994438 0 764513184.31994438 -189167830.0564785 0 0 0 0 3504676560.9979248 1036721637.7853737 0 1036721637.7853737 270675386.37275314 0 0 0 0 2982507753.6523895 1335383461.7550073 0 1335383461.7550073 853756497.89856339 0 0 0 0 -1804477774.4567871 1806981809.4856892 0 1806981809.4856892 808752225.86667633 0 0 0 0 2061050.6105754413 3531062.804195419 0 3531062.804195419 -638760.69827014022 0 0 0 0 -206957416.55639648 -596170320.3752079 0 -596170320.3752079 -1604909933.2316437 0 0 0 0 1849638688.2293091 175935244.23426926 0 175935244.23426926 -2522316609.2892756 0 0 0 0 4989270220.1937256 1430717568.1518135 0 1430717568.1518135 -162460896.71934509 0 0 0 0 2619925.0519779772 3923257.0061563626 0 3923257.0061563626 5590352.5934699448 0 0 0 0 3952732135.4493103 2032243134.476923 0 2032243134.476923 751091586.6403923 0 0 0 0 7898996214.7763062 1518457032.0864487 0 1518457032.0864487 -2226926643.4013352 0 0 0 0 704923.77182282507 -253315.32103960216 0 -253315.32103960216 3654979.7360066436 0 0 0 0 618806700.48510742 -475973164.29704905 0 -475973164.29704905 239517338.64967251 0 0 0 0 -1878703916.3907166 1043961823.213135 0 1043961823.213135 133384369.04839659 0 0 0 0 680609486.29940033 -136441943.34553003 0 -136441943.34553003 59441436.262514114 0 0 0 0 -1987524900.8499756 1204845829.2967663 0 1204845829.2967663 9771384.2367453575 0 0 0 0 -126945823.44491577 60835.776985168457 0 60835.776985168457 241060069.19611168 0 0 0 0 -8934914.7785949707 -510371121.36816788 0 -510371121.36816788 948816797.42978287 0 0 0 0 297019588.10275269 -264208793.57722187 0 -264208793.57722187 213739167.25904846 0 0 0 0 41916033.10546875 -161533863.87574196 0 -161533863.87574196 368879315.88564777 0 0 0 0 5010628.7521743774 -26466488.926865339 0 -26466488.926865339 116006806.55827713 0 0 0 0 52429612.194274902 -195251811.20534801 0 -195251811.20534801 252227769.880023 0 0 0 0 40668025.926452637 -114086394.4144206 0 -114086394.4144206 -108912.62145549059 0 0 0 0 -86753669.09046936 122564478.85885334 0 122564478.85885334 4352473.5134429932 0 0 0 0 -19449893.809631348 5432579.5503740311 0 5432579.5503740311 198318096.41127205 0 0 0 0 -82951204.068969727 153749787.31312752 0 153749787.31312752 98636054.841212273 0 0 0 0 -75831377.162002563 127952741.6204257 0 127952741.6204257 -41296615.092933655 0 0 0 0 -261344378.9786377 526735801.73965073 0 526735801.73965073 -90644398.128979683 0 0 0 0 -52277060.287322998 72422210.271754265 0 72422210.271754265 310402051.95088387 0 0 0 0 -489963367.77865601 113218800.75409126 0 113218800.75409126 742698342.6413784 0 0 0 0 87909645.318862915 76899319.700782776 0 76899319.700782776 6145635.2253417969 0 0 0 0 69145505.171905518 103987080.30378151 0 103987080.30378151 15367190.602157593 0 0 0 0 32513544.60291864 8947696.328096576 0 8947696.328096576 -22650358.639670849 0 0 0 0 16002294.091247559 109991518.42799377 0 109991518.42799377 -37625988.360359192 0 0 0 0 80775960.954025269 89136387.428049088 0 89136387.428049088 -40056711.094268799 0 0 0 0 91808660.294902802 62778096.658508301 0 62778096.658508301 8552451.2134246826 0 0 0 0 11523652.801025391 70819304.444519043 0 70819304.444519043 12427763.959354401 0 0 0 0 84232375.293762207 45437791.989242554 0 45437791.989242554 -30920230.170085907 0 0 0 0 112501673.92470551 -2645482.5154209137 0 -2645482.5154209137 -35687906.319061279 0 0 0 0 68772533.170562744 34269919.16506207 0 34269919.16506207 -3328546.4563560486 0 0 0 0 49798593.980560303 118373667.30678368 0 118373667.30678368 -288914605.97576094 0 0 0 0 60788692.176879883 53412916.671661854 0 53412916.671661854 35367977.162182808 0 0 0 0 100977359.64453125 71406035.232176781 0 71406035.232176781 -9872639.3728618622 0 0 0 0 20603798.972230744 19190398.294730321 0 19190398.294730321 8570846.786886856 0 0 0 0 39071468.325584099 4911723.9065677673 0 4911723.9065677673 -19576863.688783817 0 0 0 0 27150745.822494507 54546361.396186829 0 54546361.396186829 29361400.099880219 0 0 0 0 31473483.230958059 38336676.85796456 0 38336676.85796456 23215656.233763412 0 0 0 0 18165910.282714844 75679941.135353088 0 75679941.135353088 33247550.294960022 0 0 0 0 9904433.2895812988 39191996.32699585 0 39191996.32699585 25119049.118873596 0 0 0 0 25950389.19972229 57371423.479942322 0 57371423.479942322 34544747.503097534 0 0 0 0 8074479.5616664886 45705483.008712232 0 45705483.008712232 51225727.762649536 0 0 0 0 13572090.669364929 82527025.338357329 0 82527025.338357329 23300261.193313599 0 0 0 0 42020860.578072265 45595221.514140382 0 45595221.514140382 19708708.54586412 0 0 0 0 -10480750.838439941 28683514.348081589 0 28683514.348081589 -3697634.4982833862 0 0 0 0 113233211.64309692 59872922.226701736 0 59872922.226701736 48336472.725541592 0 0 0 0 105518152.19415283 13753045.527763367 0 13753045.527763367 44989714.021770477 0 0 0 0 -2108256.3326721191 52166056.257924557 0 52166056.257924557 56932345.537395477 0 0 0 0 8959695.9377388358 7052362.5255631208 0 7052362.5255631208 4063566.9014349193 0 0 0 0 -121682119.23120117 113712351.74210215 0 113712351.74210215 54011433.113342285 0 0 0 0 149994163.20883179 18715585.134285927 0 18715585.134285927 21027694.205406189 0 0 0 0 245492523.12449646 200256574.86218381 0 200256574.86218381 746987.30645179749 0 0 0 0 442281101.30734253 6090403.7457318306 0 6090403.7457318306 20181730.170385361 0 0 0 0 58158945.992858887 92575135.093337059 0 92575135.093337059 112113336.9911871 0 0 0 0 5528739.7450176924 3762641.2654979452 0 3762641.2654979452 1356416.4814417101 0 0 0 0 59351353.920532227 102579354.5501852 0 102579354.5501852 30467814.735032082 0 0 0 0 5060854.6882752776 5201212.0884858854 0 5201212.0884858854 -65530.682678456884 0 0 0 0 148889711.54693604 -28256497.289313316 0 -28256497.289313316 125840649.52433395 0 0 0 0 62475744.297271729 90346911.834420204 0 90346911.834420204 42466978.17131424 0 0 0 0 12228731.456456065 10043288.577017561 0 10043288.577017561 1724101.1501768143 0 0 0 0 63469033.021484375 72179569.306206703 0 72179569.306206703 -111322448.8899703 0 0 0 0 15424893.846635818 -263380757.18554449 0 -263380757.18554449 -190384729.89060831 0 0 0 0 -3629031.0768432617 80990825.400538206 0 80990825.400538206 37862826.786850929 0 0 0 0 18647138.161254883 94590406.097164631 0 94590406.097164631 40205187.01963377 0 0 0 0 68309774.063121796 124166642.18043035 0 124166642.18043035 -44095280.449942589 0 0 0 0 166052651.37322998 282853749.22245622 0 282853749.22245622 36303390.811879516 0 0 0 0 369390936.89996338 64194731.510682106 0 64194731.510682106 -23847206.76169014 0 0 0 0 884449297.03900146 -57247116.321140289 0 -57247116.321140289 -327684245.63563752 0 0 0 0 2229625.6735290885 3006728.7683629394 0 3006728.7683629394 1503578.1846298189 0 0 0 0 415795243.43390656 200773617.96548283 0 200773617.96548283 -176838927.33036995 0 0 0 0 57698447.901519775 223291014.59850049 0 223291014.59850049 -44578241.88818717 0 0 0 0 -54033346.025302887 -324974288.52193928 0 -324974288.52193928 322022790.31239796 0 0 0 0 283288976.59716797 35580273.95940876 0 35580273.95940876 78837410.549167395 0 0 0 0 422675564.33748245 437089092.77257752 0 437089092.77257752 -179409175.63936746 0 0 0 0 -3926086.5981140137 -44940262.814275265 0 -44940262.814275265 183985900.05833405 0 0 0 0 664446.21504536271 563099.30445173383 0 563099.30445173383 53665.379852064652 0 0 0 0 -56314827.034423828 118592499.42079711 0 118592499.42079711 241004705.00560093 0 0 0 0 811402192.98483658 253740362.9083727 0 253740362.9083727 -340153579.39476663 0 0 0 0 876900438.59893799 -135357568.95046031 0 -135357568.95046031 -399468.69521142077 0 0 0 0 30549824.985565186 -314892066.79432344 0 -314892066.79432344 373661451.50268108 0 0 0 0 374666250.74690247 242425154.34247434 0 242425154.34247434 -66364274.877681524 0 0 0 0 939618019.46121216 -119369084.35105786 0 -119369084.35105786 -147790919.98106474 0 0 0 0 1545521.8443235308 -86102.399868689477 0 -86102.399868689477 -213452.18296580034 0 0 0 0 412871657.31167603 -520345341.33635443 0 -520345341.33635443 572324439.81162608 0 0 0 0 188580297.21972656 -171527432.51853681 0 -171527432.51853681 130641302.11814451 0 0 0 0 186020329.93023682 -214450060.39059508 0 -214450060.39059508 159940273.18020105 0 0 0 0 182571123.13473511 -167099069.66002154 0 -167099069.66002154 157766705.73130119 0 0 0 0 4041784.167504549 160084.08597616851 0 160084.08597616851 -438682.92774707865 0 0 0 0 36481249.105613708 -95365122.337259471 0 -95365122.337259471 304720.2629391863 0 0 0 0 -38661764.296020508 -34957808.516589627 0 -34957808.516589627 -28269772.034873605 0 0 0 0 4274920.2677225843 -8179.0913621634245 0 -8179.0913621634245 -233506.94615546876 0 0 0 0 -33160680.896167755 24106426.360622924 0 24106426.360622924 -2008949.172637105 0 0 0 0 7020921.4689956009 -898874.64556837082 0 -898874.64556837082 -236439.45354837051 0 0 0 0 2190733.4953460693 -10316816.375531744 0 -10316816.375531744 -12821222.359057844 0 0 0 0 246152420.78884888 -150924355.80722857 0 -150924355.80722857 56335967.717988968 0 0 0 0 2476657.7045591772 1219818.9895366207 0 1219818.9895366207 88046.438927602489 0 0 0 0 145834681.64405823 -126340271.24280944 0 -126340271.24280944 112707381.86250877 0 0 0 0 250644738.60922241 -211069154.00402069 0 -211069154.00402069 110992152.81895566 0 0 0 0 243096158.96490479 -259572902.28159761 0 -259572902.28159761 161272430.41224748 0 0 0 0 236749314.37738037 -178891119.17338061 0 -178891119.17338061 60410226.23370409 0 0 0 0 51846991.926483154 -77846287.075561047 0 -77846287.075561047 151687180.55159807 0 0 0 0 -58437148.069473267 -184688260.03495347 0 -184688260.03495347 186738931.94304276 0 0 0 0 2314344.5410381146 2445892.5897817686 0 2445892.5897817686 1435387.8539220989 0 0 0 0 490413744.29386902 120101589.2260614 0 120101589.2260614 -106270815.0007658 0 0 0 0 143127944.40942383 -170730189.89353895 0 -170730189.89353895 206851447.62556553 0 0 0 0 297577289.34255219 -244418846.18712044 0 -244418846.18712044 85862431.006994247 0 0 0 0 -47986136.143577576 -19611973.579808533 0 -19611973.579808533 8633043.7483534813 0 0 0 0 878952.40620747954 644267.0740672797 0 644267.0740672797 -40442.456581341103 0 0 0 0 545227730.29769897 -265483472.81361961 0 -265483472.81361961 60709807.511967659 0 0 0 0 189052015.08009338 -278348139.58660376 0 -278348139.58660376 239172600.41521931 0 0 0 0 249263729.34899902 -224921283.36253524 0 -224921283.36253524 143996074.10020804 0 0 0 0 128662125.215271 95379636.586542368 0 95379636.586542368 -31113792.766537786 0 0 0 0 -17618690.65776062 3817204.4302706718 0 3817204.4302706718 16253423.946350574 0 0 0 0 -1980938943.3684998 -727361151.37444723 0 -727361151.37444723 1381260686.9585674 0 0 0 0 1157323463.2127686 3792725407.6559858 0 3792725407.6559858 1251037919.4470358 0 0 0 0 5381095544.4078064 -3063469055.7117705 0 -3063469055.7117705 1070880084.4743671 0 0 0 0 4697457.8790229708 -820544.42551808059 0 -820544.42551808059 2846538.4749298352 0 0 0 0 8849783.3881192654 -395383.50027208775 0 -395383.50027208775 -283725.77169391647 0 0 0 0 20901103.287536621 22401452.765605807 0 22401452.765605807 -13685617.378358185 0 0 0 0 27224725.492797852 -23044762.044234902 0 -23044762.044234902 -6808769.8321349025 0 0 0 0 13649868.151062012 19261029.327443548 0 19261029.327443548 -27433548.730071444 0 0 0 0 8152056.4620819092 7450854.0877450556 0 7450854.0877450556 -30021902.809720188 0 0 0 0 64987819.948989868 18087901.595353808 0 18087901.595353808 -31774341.773413375 0 0 0 0 10714020.908172607 44089475.405768074 0 44089475.405768074 48383.600958557945 0 0 0 0 -19766713.347732544 -47942993.746193521 0 -47942993.746193521 5826404.904201379 0 0 0 0 54561893.30166626 -26171144.820344064 0 -26171144.820344064 -27222513.352798238 0 0 0 0 4081416.335619092 -431531.45539440215 0 -431531.45539440215 204108.70039998929 0 0 0 0 1709752.8698425293 -22194706.85194359 0 -22194706.85194359 -27516948.912668884 0 0 0 0 22301628.589538574 -1545425.9977369159 0 -1545425.9977369159 -29131438.692359306 0 0 0 0 1113998595.3850708 -690669916.9342308 0 -690669916.9342308 372389596.76678503 0 0 0 0 2347567328.418457 754217167.10442877 0 754217167.10442877 -291728424.71452695 0 0 0 0 2143016941.6688843 573330545.15040159 0 573330545.15040159 -428573933.47806352 0 0 0 0 2715363976.859436 723208645.24678636 0 723208645.24678636 -391212717.72368467 0 0 0 0 1460808.7368074283 -229795.79409097135 0 -229795.79409097135 175486.68889442924 0 0 0 0 2589838742.9751587 520191464.94067591 0 520191464.94067591 -277556568.70383525 0 0 0 0 1705497472.4772034 327206459.23262775 0 327206459.23262775 -17770330.698285207 0 0 0 0 2077717864.9910889 414522690.06140375 0 414522690.06140375 -284637633.71137685 0 0 0 0 1790860702.0930786 893777460.84445786 0 893777460.84445786 6394082.6187333167 0 0 0 0 1061059619.0567932 295236256.30605674 0 295236256.30605674 -213503884.38735104 0 0 0 0 1651142455.2962646 1800674228.6892114 0 1800674228.6892114 2469906967.7622547 0 0 0 0 2496188104.2976685 -930392599.89465773 0 -930392599.89465773 334908636.21014243 0 0 0 0 4401203.3250106573 891769.83313215524 0 891769.83313215524 364988.16395352932 0 0 0 0 3999904717.0668335 372022009.73867857 0 372022009.73867857 -428373409.20355141 0 0 0 0 3030754405.7011719 2473368456.1675396 0 2473368456.1675396 80887306.156204224 0 0 0 0 2360036127.8930817 2451310753.4510584 0 2451310753.4510584 176868990.43987441 0 0 0 0 11482429.669046476 1329107.9559509717 0 1329107.9559509717 -1705765.7508014713 0 0 0 0 2160419972.3720551 3101270066.4583874 0 3101270066.4583874 1571510400.83323 0 0 0 0 845933984.02606201 -529050528.716362 0 -529050528.716362 167827318.34378672 0 0 0 0 604726604.82156372 -47856678.496033192 0 -47856678.496033192 -743810305.38562679 0 0 0 0 22185808.165405273 -9543854.5381908417 0 -9543854.5381908417 -14500464.596981525 0 0 0 0 63195280.568115234 -4358763.6086273193 0 -4358763.6086273193 -13999306.558151245 0 0 0 0 3121774.0682983398 -6093369.491071701 0 -6093369.491071701 -10771799.775220871 0 0 0 0 3075440.6449279785 38964164.938111782 0 38964164.938111782 -18466818.12563324 0 0 0 0 33815473.68006897 -17602332.670521975 0 -17602332.670521975 -56072083.205310822 0 0 0 0 15121336.553955078 36522905.655345917 0 36522905.655345917 -58353569.88398093 0 0 0 0 20017616.494628906 41869807.204787254 0 41869807.204787254 -52517663.65681076 0 0 0 0 26796424.932128906 -9610464.3768925667 0 -9610464.3768925667 -29047362.243646622 0 0 0 0 16073637.515930176 21513787.525945663 0 21513787.525945663 -3367943.7073936462 0 0 0 0 5619501.226452142 -2937153.0541278496 0 -2937153.0541278496 -4069021.1410469692 0 0 0 0 -12173983.33247757 -14405063.972280443 0 -14405063.972280443 385076.08948230743 0 0 0 0 184690859.43406677 27695999.86645031 0 27695999.86645031 -67594694.483060837 0 0 0 0 195631288.89729309 -25744466.012619972 0 -25744466.012619972 -12906218.939973831 0 0 0 0 -6907627.2362747192 -12523302.319730639 0 -12523302.319730639 -6819497.8999061584 0 0 0 0 16970646.410176791 -3734098.6186503917 0 -3734098.6186503917 -7516383.089004349 0 0 0 0 -48144157.176246643 -42799993.032225132 0 -42799993.032225132 -31243745.782949448 0 0 0 0 -10599573.632125854 -7229597.0532870293 0 -7229597.0532870293 7931931.7397203445 0 0 0 0 -9815383.1642582715 -5752928.6362975016 0 -5752928.6362975016 3048733.7519410355 0 0 0 0 -14365793.476318359 -14640056.807664871 0 -14640056.807664871 8851340.5843801498 0 0 0 0 -11286168.576690674 -12066840.911659956 0 -12066840.911659956 -5170274.5660047531 0 0 0 0 -19183853.801849365 -25354138.676050663 0 -25354138.676050663 -17191345.078340054 0 0 0 0 -20952587.163885117 -1202037.0083887577 0 -1202037.0083887577 -10484205.147996902 0 0 0 0 2728318.9994871505 188275.0450117439 0 188275.0450117439 -2115427.1148923244 0 0 0 0 21160668.534729004 -10903573.328982353 0 -10903573.328982353 -9851898.6019611359 0 0 0 0 106347040.20358276 58253858.345503807 0 58253858.345503807 34295941.233760834 0 0 0 0 403160565.93988037 33982558.738222122 0 33982558.738222122 -86131304.645562172 0 0 0 0 573679.94754844904 188380.16112387925 0 188380.16112387925 -40504.663319904357 0 0 0 0 9020275.3680729754 303073.35007682443 0 303073.35007682443 -4225272.9504341381 0 0 0 0 -13592457.263824463 -14538595.974120855 0 -14538595.974120855 3618015.5023612976 0 0 0 0 -42371827.114852905 283991.61360931396 0 283991.61360931396 20664772.048458099 0 0 0 0 290578699.03767395 38557363.867637634 0 38557363.867637634 -52715342.010032654 0 0 0 0 -1402424.8120414801 -1029090.7518420443 0 -1029090.7518420443 1272474.6651422326 0 0 0 0 37552442.541610718 110327869.80360889 0 110327869.80360889 62875888.703417778 0 0 0 0 -69350707.405914307 -13589443.987184286 0 -13589443.987184286 -12971806.037563562 0 0 0 0 28868746.960690975 -96311772.446712613 0 -96311772.446712613 10592740.322286606 0 0 0 0 5966453.6961567551 -2982670.7432243973 0 -2982670.7432243973 -4757043.4421324236 0 0 0 0 -81319260.691070557 20989549.324312925 0 20989549.324312925 -18407672.397956848 0 0 0 0 175662477.12184143 -44958408.27848196 0 -44958408.27848196 -130795315.39268112 0 0 0 0 184663184.80973816 -86725811.143400192 0 -86725811.143400192 23340245.443023682 0 0 0 0 87358923.781452179 124424036.06875014 0 124424036.06875014 124310998.15174103 0 0 0 0 158996604.69474792 160999371.77008748 0 160999371.77008748 90901791.530593872 0 0 0 0 -35671509.332672119 155428923.55900955 0 155428923.55900955 -36672436.186214447 0 0 0 0 66787417.01751709 36741745.48882103 0 36741745.48882103 75373079.601371765 0 0 0 0 195887799.90020752 45956031.97111702 0 45956031.97111702 -19154793.842576981 0 0 0 0 25099457.122283936 -15298276.501781464 0 -15298276.501781464 -22455781.36945343 0 0 0 0 13506446.564525165 1057214.3728625774 0 1057214.3728625774 -4352683.2125948975 0 0 0 0 8930044.1915893555 3462962.9764175415 0 3462962.9764175415 -29650012.48274231 0 0 0 0 -22935701.716918945 -4421892.6728401184 0 -4421892.6728401184 -29164460.067550659 0 0 0 0 -25918939.760864258 -11616060.733098984 0 -11616060.733098984 17824301.214837074 0 0 0 0 3667516.1253684759 -882269.40741458163 0 -882269.40741458163 -2733557.4980504839 0 0 0 0 86175895.367645264 -65063898.821806908 0 -65063898.821806908 48241372.947891235 0 0 0 0 -7638799.1747131348 6259958.4076366425 0 6259958.4076366425 -24728900.310745478 0 0 0 0 -79516584.528663635 41171984.675135612 0 41171984.675135612 50933860.885139465 0 0 0 0 22917684.15687561 72321526.644340515 0 72321526.644340515 115698077.79906845 0 0 0 0 19705872.120498657 10587276.754713058 0 10587276.754713058 17286984.194252014 0 0 0 0 2397101.1393737793 -23454967.52652359 0 -23454967.52652359 -28105761.920218468 0 0 0 0 20773484.529495239 -36151266.942822456 0 -36151266.942822456 6185079.2848968506 0 0 0 0 172456377.2638855 57033877.541018486 0 57033877.541018486 26135076.479967594 0 0 0 0 90975428.154403687 48470815.305875778 0 48470815.305875778 11002665.930202484 0 0 0 0 49287355.505661011 -4442167.9431829453 0 -4442167.9431829453 7261918.8473072052 0 0 0 0 98925213.959007263 -58623341.111960411 0 -58623341.111960411 -9556259.0383033752 0 0 0 0 13310239.361938477 -30187999.922188759 0 -30187999.922188759 62952.292151451111 0 0 0 0 21713685.240573555 5790407.543850407 0 5790407.543850407 -7833834.1325266697 0 0 0 0 93577313.604156494 103739751.42966843 0 103739751.42966843 100841483.5759201 0 0 0 0 -1758539.7102945745 -2246059.0431290641 0 -2246059.0431290641 -51485.176356890239 0 0 0 0 -11696420.421264648 -8824673.5633020401 0 -8824673.5633020401 4577811.8903045654 0 0 0 0 27698026.787733078 26848027.917798519 0 26848027.917798519 13124655.717853546 0 0 0 0 31872722.300225541 2021891.4944846034 0 2021891.4944846034 -26158426.904181879 0 0 0 0 127783961.4291687 79757316.239448547 0 79757316.239448547 -18696897.604732513 0 0 0 0 42545766.383728027 -11013417.225791931 0 -11013417.225791931 4996126.3621139526 0 0 0 0 9693641.3634584099 6827749.9608547091 0 6827749.9608547091 -4226039.2436832935 0 0 0 0 23542678.272521973 22877424.366706848 0 22877424.366706848 -1746196.6749868393 0 0 0 0 17572559.430389404 45244691.867835045 0 45244691.867835045 -17379136.858142853 0 0 0 0 71662521.491577148 82891943.982589722 0 82891943.982589722 -2038632.5602703094 0 0 0 0 82545979.128479004 30267482.860557556 0 30267482.860557556 20629119.669517517 0 0 0 0 53745018.442687988 53563642.535186768 0 53563642.535186768 87609295.712994576 0 0 0 0 84036135.665100098 66624547.839595795 0 66624547.839595795 81572995.455509186 0 0 0 0 2459273.9732055664 12953314.973892212 0 12953314.973892212 87306644.08864975 0 0 0 0 838013.909200361 871319.70782009512 0 871319.70782009512 -238468.78081287816 0 0 0 0 60907096.174819946 60507816.484924316 0 60507816.484924316 23956775.503852844 0 0 0 0 62883135.973922729 95806797.882476807 0 95806797.882476807 6783630.552028656 0 0 0 0 119050052.9312439 54717165.099487305 0 54717165.099487305 31438439.607315063 0 0 0 0 23987018.145324707 33197537.96465683 0 33197537.96465683 34957059.54920578 0 0 0 0 43627231.758781195 45472568.827291772 0 45472568.827291772 -20445618.418411255 0 0 0 0 3191140.0091568753 1879476.0628767833 0 1879476.0628767833 655407.06596883759 0 0 0 0 88439027.113327026 62597596.075897217 0 62597596.075897217 19061847.20810318 0 0 0 0 40086430.436463729 12937529.065554537 0 12937529.065554537 -18391662.200692281 0 0 0 0 81212379.547988892 93150806.089393616 0 93150806.089393616 29751427.105445147 0 0 0 0 34167905.00390625 23855565.382331848 0 23855565.382331848 18283903.193069458 0 0 0 0 15295822.452941895 4751141.4649047852 0 4751141.4649047852 -14067560.308731079 0 0 0 0 9394509.9481998086 21888573.407539189 0 21888573.407539189 9207736.6841733027 0 0 0 0 26993114.995495275 3561277.1849014498 0 3561277.1849014498 -12475838.79559486 0 0 0 0 43714910.985229492 -471876.85252380371 0 -471876.85252380371 521895.87738037109 0 0 0 0 40566983.000953056 3744481.604129184 0 3744481.604129184 -20263102.163550347 0 0 0 0 19955364.388496391 13972540.271157436 0 13972540.271157436 -9322177.3159432001 0 0 0 0 -360931192.57385254 40851757.048386574 0 40851757.048386574 -21831710.806243896 0 0 0 0 7798795.0769869834 10867525.524514548 0 10867525.524514548 -5862420.5490487134 0 0 0 0 84221180.927154541 266060919.77828312 0 266060919.77828312 -34499926.644998133 0 0 0 0 298463831.28076172 -135766457.2343502 0 -135766457.2343502 -93206901.372327805 0 0 0 0 -20711121.816482544 10781246.268005371 0 10781246.268005371 60832538.587315679 0 0 0 0 -90649052.755462646 48992570.303692818 0 48992570.303692818 55039199.797607422 0 0 0 0 17500090.399749756 59214855.750112534 0 59214855.750112534 -16909641.057771027 0 0 0 0 87869831.082422137 -159493869.11570454 0 -159493869.11570454 -8164395.2159614563 0 0 0 0 2303168.5443854332 -270219.84845818952 0 -270219.84845818952 -720326.45970629994 0 0 0 0 41292735.017150879 13155708.099505663 0 13155708.099505663 -32977881.253795624 0 0 0 0 24609405.131598577 14912780.137026705 0 14912780.137026705 -5377941.7629678082 0 0 0 0 42891453.191101074 8976601.5313405991 0 8976601.5313405991 -92118281.133325577 0 0 0 0 27833491.689025879 52817743.76434803 0 52817743.76434803 -38421210.594071269 0 0 0 0 41751724.584655762 68466713.984732151 0 68466713.984732151 -23230597.393403053 0 0 0 0 31749248.497924805 48788462.53976059 0 48788462.53976059 -20263911.691193581 0 0 0 0 50955386.308731079 41031479.054855347 0 41031479.054855347 -77168217.710502625 0 0 0 0 64752246.033172607 17535666.171178818 0 17535666.171178818 -11044391.998273849 0 0 0 0 46596120.010955811 68504080.300909042 0 68504080.300909042 5192589.8807106018 0 0 0 0 55415262.469360352 61149856.054580688 0 61149856.054580688 -22908067.337089539 0 0 0 0 -2839939.7289123535 48217764.607622147 0 48217764.607622147 4280218.7526865005 0 0 0 0 7126219.3818054199 71140272.88711834 0 71140272.88711834 12123408.830699921 0 0 0 0 13968321.48336792 82838910.540502548 0 82838910.540502548 6318945.8911046982 0 0 0 0 -37963882.717407227 108239293.22161865 0 108239293.22161865 -7591026.5106420517 0 0 0 0 21624673.00428772 34302698.802832603 0 34302698.802832603 -40679514.551448822 0 0 0 0 3384550.8984937817 956199.63066266477 0 956199.63066266477 -136683.34665069729 0 0 0 0 21303774.024307251 3374854.5394573212 0 3374854.5394573212 -21389952.19581461 0 0 0 0 17858057.559921265 -11451890.230781555 0 -11451890.230781555 -67580520.022959948 0 0 0 0 12553135.616703466 4316547.2415103316 0 4316547.2415103316 1221595.8927454599 0 0 0 0 27352919.409667969 4972956.5980439186 0 4972956.5980439186 -9813873.6977818906 0 0 0 0 8635705.1234880984 -1054150.2249514386 0 -1054150.2249514386 -3385847.0598892886 0 0 0 0 62301706.917236328 -24764785.034785271 0 -24764785.034785271 -8890517.4173021317 0 0 0 0 -16710565.102460861 26784261.993514713 0 26784261.993514713 -2059765.7463855743 0 0 0 0 16717454.789435886 12256594.248971276 0 12256594.248971276 320740.39575384138 0 0 0 0 -10105899.057220459 11782815.439163446 0 11782815.439163446 7733749.8932728767 0 0 0 0 8837862.7264785767 3219353.6041128635 0 3219353.6041128635 -3281695.4333295822 0 0 0 0 7095607.5350952148 1299990.8130090237 0 1299990.8130090237 -2743703.5678892136 0 0 0 0 8567250.2803823054 458781.93358962983 0 458781.93358962983 -1559979.312371437 0 0 0 0 16501668.257995933 2326352.4838699698 0 2326352.4838699698 1267107.2075437428 0 0 0 0 17356613.984939575 77808199.909990311 0 77808199.909990311 -24541109.677546501 0 0 0 0 11350875.613601685 69835103.773798943 0 69835103.773798943 17490798.942501068 0 0 0 0 19126077.540149987 13162850.476691447 0 13162850.476691447 -602656.03496121196 0 0 0 0 3906690.9805908203 53072054.730807304 0 53072054.730807304 -16828034.243703365 0 0 0 0 3930040.2254943848 52489936.52510643 0 52489936.52510643 -11301227.640754223 0 0 0 0 -10408709.483947754 27936931.314589262 0 27936931.314589262 -4516567.0115646124 0 0 0 0 -16783008.864368439 24119262.453192882 0 24119262.453192882 21019294.22727108 0 0 0 0 -12596078.097473145 10916151.531633377 0 10916151.531633377 8133482.8638567924 0 0 0 0 -7252495.2648620605 2928014.9040265083 0 2928014.9040265083 41475028.664007872 0 0 0 0 -8930564.5472412109 35994220.638816059 0 35994220.638816059 37618975.969072342 0 0 0 0 13708351.382751465 -20223375.632894516 0 -20223375.632894516 62534798.845225692 0 0 0 0 -7701762.3952026367 40989908.847016335 0 40989908.847016335 20470334.146247894 0 0 0 0 -8939996.8953552246 60218050.449599028 0 60218050.449599028 107349669.82650948 0 0 0 0 1370512.4969482422 3545063.9203391075 0 3545063.9203391075 8094041.5436366796 0 0 0 0 4623614.1343688965 2534905.1105175018 0 2534905.1105175018 8374486.008711338 0 0 0 0 -1222157.3082885742 -306687.19115352631 0 -306687.19115352631 4390193.5083084106 0 0 0 0 -10709649.910461426 13586912.240390062 0 13586912.240390062 8669128.6423463821 0 0 0 0 -21014053.036376953 12771824.261375904 0 12771824.261375904 9482437.0069990158 0 0 0 0 -9811386.1484375 7314717.5920767784 0 7314717.5920767784 13727091.152745247 0 0 0 0 -12244760.534759521 14711762.429861784 0 14711762.429861784 244935.7011089325 0 0 0 0 -2372868.3530044556 4204426.8407389522 0 4204426.8407389522 -606028.87223339081 0 0 0 0 -11273916.956420898 9106664.2445306778 0 9106664.2445306778 -45935.109583854675 0 0 0 0 -415484.27444458008 166447.690762043 0 166447.690762043 5412700.5919554234 0 0 0 0 -174998.03364562988 3693876.0074671507 0 3693876.0074671507 2092125.9688477516 0 0 0 0 -683507.8798828125 2014418.4164007902 0 2014418.4164007902 -2164464.6371707916 0 0 0 0 293037742.73016357 -546389839.53433526 0 -546389839.53433526 1026596170.6380579 0 0 0 0 155214.73727530241 547643.51530437637 0 547643.51530437637 -632284.53633392008 0 0 0 0 13557279.018216081 7864095.508253701 0 7864095.508253701 4421745.6369130798 0 0 0 0 -216764918.6980896 287841684.87436396 0 287841684.87436396 -12282406.393344697 0 0 0 0 494487.9302495718 988691.27784602344 0 988691.27784602344 361720.62622649735 0 0 0 0 8740621.3046875 4739629.807888031 0 4739629.807888031 -374085.5988291502 0 0 0 0 6945929.6889539361 4553565.489425065 0 4553565.489425065 -1521710.9909164496 0 0 0 0 12181088.289245605 3585597.4939627647 0 3585597.4939627647 -2021005.4232814312 0 0 0 0 8780426.7889709473 5825091.4587925673 0 5825091.4587925673 -3356936.8620598316 0 0 0 0 1120666.6339089721 37722.324661366642 0 37722.324661366642 -790680.38733920804 0 0 0 0 10259508.953840218 10281932.589955531 0 10281932.589955531 878610.16441028286 0 0 0 0 7428952.450592041 3319121.7107031345 0 3319121.7107031345 -3885467.5684051514 0 0 0 0 -17475126.986557007 1828621.3450837135 0 1828621.3450837135 4010653.4907121658 0 0 0 0 376336.22533848882 1672441.9926379491 0 1672441.9926379491 -159624.76213579759 0 0 0 0 8047934.6761474609 4129782.7524795532 0 4129782.7524795532 880498.11140656471 0 0 0 0 2086867.551361084 1839192.602586145 0 1839192.602586145 738.91501758782738 0 0 0 0 5129778.5585428774 2447319.3729534587 0 2447319.3729534587 -352622.20860670111 0 0 0 0 3185466.7097167969 912246.30941204727 0 912246.30941204727 -147559.93709560647 0 0 0 0 8928833.365020752 4853694.7827029228 0 4853694.7827029228 -306389.90272426605 0 0 0 0 10372165.080334388 7654823.3929263353 0 7654823.3929263353 2313621.5538558769 0 0 0 0 3253890.8596954346 813484.72780118731 0 813484.72780118731 -7413.4840842019439 0 0 0 0 6215058.3916602135 424133.35286311526 0 424133.35286311526 -928190.1658548275 0 0 0 0 10242253.245452881 1275273.1861031055 0 1275273.1861031055 -1952635.3159179688 0 0 0 0 7992680.3946890831 2414192.5780740157 0 2414192.5780740157 -2347816.2508201599 0 0 0 0 3808461.6062011719 -1680298.5332558905 0 -1680298.5332558905 -767560.75567350246 0 0 0 0 10025022.081176758 940725.88516521454 0 940725.88516521454 -4869784.8536286354 0 0 0 0 11092295.862567768 4559231.7883256674 0 4559231.7883256674 -911949.47421234939 0 0 0 0 292674722.98840332 -733791478.80377972 0 -733791478.80377972 -1118174.5153043047 0 0 0 0 10263245.603546143 -174173.02523219585 0 -174173.02523219585 -3992197.6529431343 0 0 0 0 19285052.263652802 71853650.638158441 0 71853650.638158441 -38953317.258635998 0 0 0 0 15799987.674041748 6440052.5156576633 0 6440052.5156576633 11968915.461705208 0 0 0 0 3647653.8078457713 2153696.7147000916 0 2153696.7147000916 -434138.56044563191 0 0 0 0 5907018.0512695312 -835704.14549722511 0 -835704.14549722511 -9470.7745294496381 0 0 0 0 12401548.999638647 2268625.2225288749 0 2268625.2225288749 -704984.24086589541 0 0 0 0 11227049.653398827 -1902825.6109113395 0 -1902825.6109113395 -2465687.4790141853 0 0 0 0 6918256.6014709473 756672.10037398338 0 756672.10037398338 -4430820.285389185 0 0 0 0 15117831.078597933 -5642122.7306534834 0 -5642122.7306534834 -6178175.2129426133 0 0 0 0 4814426.7989501953 -3779891.7980718613 0 -3779891.7980718613 -8714042.5696270466 0 0 0 0 374889679.23672485 -91567859.469682693 0 -91567859.469682693 -301479676.54635048 0 0 0 0 16953480.136624634 -3064744.9398176614 0 -3064744.9398176614 -6151780.1213621963 0 0 0 0 8128031.0825611055 2484913.8984598517 0 2484913.8984598517 -521715.65742809646 0 0 0 0 6344018.1295776367 -2160951.2954739332 0 -2160951.2954739332 -5190502.2543246746 0 0 0 0 11634346.375961304 226578.21874824166 0 226578.21874824166 -7186797.5209015012 0 0 0 0 10488914.298034668 -358401.00599884987 0 -358401.00599884987 -6643343.8999080658 0 0 0 0 7086730.3418301642 534560.09917142428 0 534560.09917142428 -629623.37830651342 0 0 0 0 11915642.726320267 1637575.118050769 0 1637575.118050769 -5923477.3477993011 0 0 0 0 8214886.9418640137 1861019.607293129 0 1861019.607293129 -6166432.2079489231 0 0 0 0 18305838.585968018 -15154838.10727787 0 -15154838.10727787 18042353.864141941 0 0 0 0 2033054.0069885254 36368509.290269852 0 36368509.290269852 4047649.3989143372 0 0 0 0 18990236.316252798 3114153.8705327138 0 3114153.8705327138 -3049629.0853859698 0 0 0 0 -1247724.2180974633 -1222126.2461471483 0 -1222126.2461471483 -13020.403385647573 0 0 0 0 257438082.58191681 445007479.68306875 0 445007479.68306875 -297729626.2163887 0 0 0 0 -42692081.547668457 16454137.179080963 0 16454137.179080963 -19070611.164764404 0 0 0 0 -63903177.874923706 -77237019.803693771 0 -77237019.803693771 323224278.34518051 0 0 0 0 -153696103.49853516 -46694183.183914185 0 -46694183.183914185 68127609.166282654 0 0 0 0 293816520.89273071 -103256753.70713234 0 -103256753.70713234 -35128788.059705734 0 0 0 0 704164.25238417834 225147.03782805055 0 225147.03782805055 -580015.89014293719 0 0 0 0 56942531.204284668 60795859.88038826 0 60795859.88038826 -146081318.22769451 0 0 0 0 -20576879.511726379 45634740.375946999 0 45634740.375946999 -19240496.4028759 0 0 0 0 60853003.872900963 -5246773.8703584075 0 -5246773.8703584075 -14152128.124843597 0 0 0 0 13920645.290313721 23318814.737808228 0 23318814.737808228 586591.88627052307 0 0 0 0 17862121.251953125 -2391704.9367227554 0 -2391704.9367227554 2325881.7881259918 0 0 0 0 -15488752.897827148 -14902212.123252526 0 -14902212.123252526 -10485051.125197649 0 0 0 0 -44160579.001617432 -49752310.305704176 0 -49752310.305704176 -11952403.86846292 0 0 0 0 -41692991.640327454 -22265429.517637726 0 -22265429.517637726 6139083.0111354589 0 0 0 0 -30890182.322929382 -23063352.039400101 0 -23063352.039400101 -32973625.193777084 0 0 0 0 120284700.51376343 31264919.813155651 0 31264919.813155651 114768769.00011826 0 0 0 0 -60696284.267089844 -53607112.910840988 0 -53607112.910840988 -16218906.839317322 0 0 0 0 -9337201.8052164018 -3106618.4828297719 0 -3106618.4828297719 2732907.6251798104 0 0 0 0 -13601139.575378418 -5947550.4099369049 0 -5947550.4099369049 -8662306.439053297 0 0 0 0 5753926.4446914122 -2562501.0429760218 0 -2562501.0429760218 -3638893.5554207382 0 0 0 0 354012033.0859375 -130749938.49607468 0 -130749938.49607468 191645301.83631897 0 0 0 0 16937696.12260583 -3388240.7335466966 0 -3388240.7335466966 -4767548.8635517787 0 0 0 0 -17681480.218688965 -13538567.485163927 0 -13538567.485163927 11187135.503503919 0 0 0 0 -38724042.420898438 -47992114.850137711 0 -47992114.850137711 -30968571.023855209 0 0 0 0 -1562696.5987908095 -402719.93761257827 0 -402719.93761257827 536938.25855372695 0 0 0 0 -38002173.437173843 -34530574.48457253 0 -34530574.48457253 -44424372.864433289 0 0 0 0 17899362.996033862 -3097011.3895159811 0 -3097011.3895159811 -3246808.8115645349 0 0 0 0 -146251836.96347046 -127768894.4472847 0 -127768894.4472847 -62335226.829035521 0 0 0 0 -18256850.914031982 -30396105.849431634 0 -30396105.849431634 -3263110.6408489943 0 0 0 0 -4171807.2483215332 -25301512.84881264 0 -25301512.84881264 -16057863.136061907 0 0 0 0 -6870966.1382007599 2067768.9365351647 0 2067768.9365351647 3828019.3494839668 0 0 0 0 -1608586.8904685974 -6313422.6052125618 0 -6313422.6052125618 -1980488.4465993047 0 0 0 0 711145.16287994385 -571736.82147627324 0 -571736.82147627324 -5081096.9912747443 0 0 0 0 -744213.44845581055 297668.9900844025 0 297668.9900844025 1309746.7103617433 0 0 0 0 2795072.4346923828 -5223514.0753757954 0 -5223514.0753757954 -5207407.271932736 0 0 0 0 2251107.5240034759 -2142080.7098632082 0 -2142080.7098632082 1280745.0170919457 0 0 0 0 1486501.4155273438 -3977336.8619449735 0 -3977336.8619449735 -751059.42672941089 0 0 0 0 2816030.4924316406 -6831072.2563383393 0 -6831072.2563383393 -3427869.4443908506 0 0 0 0 -3744182.6358722448 -5637948.2567010811 0 -5637948.2567010811 -438391.96861017245 0 0 0 0 4757894.6761474609 -5589489.0978566408 0 -5589489.0978566408 -3605172.9685416818 0 0 0 0 1575499.0440063477 -4668111.2232471704 0 -4668111.2232471704 -3853003.367595613 0 0 0 0 2683699.842956543 -1509600.4291918278 0 -1509600.4291918278 -5195525.3034970649 0 0 0 0 5582662.9863891602 -2378522.0712511833 0 -2378522.0712511833 -6243990.5777814174 0 0 0 0 586966.76469352841 -172375.96769381315 0 -172375.96769381315 -312365.31013312511 0 0 0 0 5383454.5247955322 -1952280.6566782978 0 -1952280.6566782978 -2213630.6786943851 0 0 0 0 11750003.428833008 -1513429.4757747236 0 -1513429.4757747236 -2046893.3054821594 0 0 0 0 4393915.6585693359 -3104059.8026430854 0 -3104059.8026430854 4479.3091413654101 0 0 0 0 1440944.736328125 -6959790.5339598078 0 -6959790.5339598078 -2128683.6116194101 0 0 0 0 12867575.136444092 6463349.7541177534 0 6463349.7541177534 5632174.6881326502 0 0 0 0 55872278.706848145 5197525.5243762648 0 5197525.5243762648 -5981417.2780050784 0 0 0 0 29946197.298721313 -1829593.2003147474 0 -1829593.2003147474 7656.9157723260014 0 0 0 0 22085421.411834717 14410992.254082946 0 14410992.254082946 8075497.8322624974 0 0 0 0 21788657.608825684 4321401.690670982 0 4321401.690670982 5705443.0164366961 0 0 0 0 8138934.4490966797 -7055913.5693917088 0 -7055913.5693917088 -7518679.3111714162 0 0 0 0 -1832205.2940063477 -2237023.631325148 0 -2237023.631325148 6694633.4770535827 0 0 0 0 10113734.755432129 11696730.274256855 0 11696730.274256855 2492055.6280614212 0 0 0 0 2295527.4821799099 -991167.15131495893 0 -991167.15131495893 537170.44455864164 0 0 0 0 19306149.641048431 -1271099.9966234143 0 -1271099.9966234143 -1661497.4985243119 0 0 0 0 46227541.973953247 -26993328.629325826 0 -26993328.629325826 -3699037.4618199281 0 0 0 0 57180143.982170105 7444715.2241394725 0 7444715.2241394725 -8654478.0742818266 0 0 0 0 72021922.921386719 -8249346.6652505891 0 -8249346.6652505891 -30401.617958729701 0 0 0 0 113176656.13479614 5086254.3894935586 0 5086254.3894935586 -10600312.640942922 0 0 0 0 94177574.106620789 -23442379.449138276 0 -23442379.449138276 -3571263.6947601065 0 0 0 0 24810070.747497559 -59097461.60174235 0 -59097461.60174235 28416453.197237756 0 0 0 0 104493509.62650299 -3584934.8796467083 0 -3584934.8796467083 27237195.382117465 0 0 0 0 88480910.391769409 -15219131.242719922 0 -15219131.242719922 -367803.35901002586 0 0 0 0 189644546.9324646 -40153775.774179578 0 -40153775.774179578 5776453.9024607725 0 0 0 0 156742973.43981934 63121139.734630004 0 63121139.734630004 23550663.570767045 0 0 0 0 -109752.3672593832 -400372.05000242218 0 -400372.05000242218 96037.659899878112 0 0 0 0 106087844.64279175 19071313.575601656 0 19071313.575601656 197804798.49770245 0 0 0 0 123005308.94142151 -95901988.160429791 0 -95901988.160429791 85883811.476634473 0 0 0 0 209772426.28112793 33576431.093587294 0 33576431.093587294 14562922.67024377 0 0 0 0 122188043.85357666 -11292907.339531183 0 -11292907.339531183 -1788326.241194129 0 0 0 0 13668600.6328125 10268018.2419382 0 10268018.2419382 52944652.837715134 0 0 0 0 51545124.723724365 56017928.762854308 0 56017928.762854308 52713808.924812213 0 0 0 0 86972.008147224784 20595.462960071862 0 20595.462960071862 -9389.5334324729993 0 0 0 0 -19949863.399215698 -3108855.5556304455 0 -3108855.5556304455 34561167.061273098 0 0 0 0 -2641981.6796184778 -2849378.2902025525 0 -2849378.2902025525 -300842.12795586139 0 0 0 0 6956081.1901855469 5362160.2997618914 0 5362160.2997618914 23611723.274672896 0 0 0 0 26364937.35546875 9026088.6515525132 0 9026088.6515525132 -3757983.9355362207 0 0 0 0 -502155.19914714992 -1299925.9534509853 0 -1299925.9534509853 328680.99968996434 0 0 0 0 32626224.415893555 3223196.3500198349 0 3223196.3500198349 -2467713.4516940191 0 0 0 0 35524646.521911621 28636744.487538937 0 28636744.487538937 19394122.861150458 0 0 0 0 -5868215.1210479736 15719121.795894772 0 15719121.795894772 54895351.713443756 0 0 0 0 -486009.66772460938 -7073340.2233920991 0 -7073340.2233920991 44485284.470754802 0 0 0 0 1351249.1950378418 9094698.7044523656 0 9094698.7044523656 166872785.55824548 0 0 0 0 -1247889.3978271484 -22446412.468162477 0 -22446412.468162477 45165625.999735892 0 0 0 0 17112354.48260498 -55304967.259947091 0 -55304967.259947091 -14520524.142011225 0 0 0 0 -18477968.094329834 -53849403.423776954 0 -53849403.423776954 -24418320.27651161 0 0 0 0 -28949455.512298584 -36056262.837692142 0 -36056262.837692142 40499743.339840658 0 0 0 0 -434807.09020996094 -2215291.571170494 0 -2215291.571170494 33763634.674010277 0 0 0 0 -25468831.144897461 -23476752.40266557 0 -23476752.40266557 22747001.393642556 0 0 0 0 -19907538.939758301 -51645346.433919251 0 -51645346.433919251 -25978274.679800332 0 0 0 0 28942580.594573975 -25542458.451105267 0 -25542458.451105267 -55572272.280302048 0 0 0 0 -331067.09265136719 -50362601.182510525 0 -50362601.182510525 -63678148.851587534 0 0 0 0 2171898.260925293 -12520027.11534071 0 -12520027.11534071 -8634217.0421352386 0 0 0 0 22909945.31640625 11437334.189527035 0 11437334.189527035 -19920846.761791229 0 0 0 0 1405951.7975158691 13383835.517885447 0 13383835.517885447 -12767173.52427578 0 0 0 0 4069295.487832725 -304085.41480343044 0 -304085.41480343044 -1669936.5134367873 0 0 0 0 7331140.0452173054 -8726658.8091989309 0 -8726658.8091989309 -4025147.7999163587 0 0 0 0 -11085773.435241699 2982933.4325246811 0 2982933.4325246811 -7901883.1133868694 0 0 0 0 -30905901.936279297 -8113125.1127409935 0 -8113125.1127409935 -14831878.744719505 0 0 0 0 46347687.692443848 18656132.9860816 0 18656132.9860816 -11041063.804031909 0 0 0 0 3465850.9670515731 514200.32412660867 0 514200.32412660867 -502511.82514264097 0 0 0 0 -64117702.399452209 -113092282.05755556 0 -113092282.05755556 -55732580.459185481 0 0 0 0 9826518.0415649414 -46941319.362776756 0 -46941319.362776756 -1627675.6564161777 0 0 0 0 9446951.8263745904 -8416130.1429393291 0 -8416130.1429393291 -3765979.8134960709 0 0 0 0 26651740.138381958 -110468201.60458609 0 -110468201.60458609 -113342351.83753669 0 0 0 0 -70369406.399993896 -52432398.658375114 0 -52432398.658375114 -14597848.439262092 0 0 0 0 45478961.296325684 -39656767.964072883 0 -39656767.964072883 -116935124.30972095 0 0 0 0 30849887.581512451 -46277333.23569569 0 -46277333.23569569 -31989218.554427266 0 0 0 0 126011781.57794952 7221350.0156878829 0 7221350.0156878829 -38573590.588242352 0 0 0 0 64135518.666809082 -16150054.797923386 0 -16150054.797923386 -36965852.292440765 0 0 0 0 96818400.488769531 -67611844.808294058 0 -67611844.808294058 -25232026.706242859 0 0 0 0 94802713.46774292 -16237008.699985355 0 -16237008.699985355 -66070436.767334104 0 0 0 0 96595092.117004395 -41196345.187341452 0 -41196345.187341452 -78248732.872360766 0 0 0 0 8403881.3407669067 -52845167.75149823 0 -52845167.75149823 -55613719.960823655 0 0 0 0 64526902.682739258 26215370.918278337 0 26215370.918278337 -14775449.41061797 0 0 0 0 131587010.51059914 55419720.84949211 0 55419720.84949211 -16773297.514487386 0 0 0 0 82635219.554992676 27348855.758835465 0 27348855.758835465 -32184870.540493727 0 0 0 0 50902862.985610962 31587573.265638757 0 31587573.265638757 281988.9817019105 0 0 0 0 54929868.343017578 15860552.830107838 0 15860552.830107838 -25940722.785231411 0 0 0 0 46050776.371948242 -3696815.4229148924 0 -3696815.4229148924 -38518737.645967364 0 0 0 0 71747300.069702148 16168779.428862095 0 16168779.428862095 -43658498.560882688 0 0 0 0 49020063.597412109 -2194841.2677585185 0 -2194841.2677585185 -38560108.007891297 0 0 0 0 37917659.899139404 -54055211.274609327 0 -54055211.274609327 -76715968.577754438 0 0 0 0 35177309.92175293 -17495573.757446945 0 -17495573.757446945 -45994757.241446435 0 0 0 0 22432802.646606445 -34398066.30316627 0 -34398066.30316627 -42870948.544344544 0 0 0 0 54742460.925422668 -15647219.907162324 0 -15647219.907162324 -61262399.94666481 0 0 0 0 13178579.202575684 -30101858.728315204 0 -30101858.728315204 -29120020.451014519 0 0 0 0 19153242.68548584 -25950424.511515975 0 -25950424.511515975 -67838001.731749773 0 0 0 0 -50929720.022914886 -26520512.995286971 0 -26520512.995286971 -35803444.798027515 0 0 0 0 -1563597.6340596974 -787718.96154563874 0 -787718.96154563874 826423.69761819579 0 0 0 0 12951842.066752084 -7466752.9308414236 0 -7466752.9308414236 -2358377.6664328324 0 0 0 0 9399996.7424621582 -109333135.95339847 0 -109333135.95339847 39707020.551459312 0 0 0 0 9406751.2745666504 -20130123.642356396 0 -20130123.642356396 -3803493.0529805422 0 0 0 0 19549078.460388184 -19283113.187981963 0 -19283113.187981963 -20485399.532337606 0 0 0 0 27177257.575134277 -24628236.685401499 0 -24628236.685401499 -36096533.405089736 0 0 0 0 10423780.106658936 -20954049.727751553 0 -20954049.727751553 -16487258.781481683 0 0 0 0 34070631.311790466 -11352885.992801189 0 -11352885.992801189 -22548057.426101923 0 0 0 0 28434999.579559326 -11836600.937566698 0 -11836600.937566698 -22576217.004719973 0 0 0 0 31117026.697570801 -6254907.2902241349 0 -6254907.2902241349 -11042406.176559925 0 0 0 0 23987803.07371521 -7199120.0329364836 0 -7199120.0329364836 1228876.9444496632 0 0 0 0 25091473.135253906 -6457745.5730292201 0 -6457745.5730292201 -11049053.649304871 0 0 0 0 -66310727.99300766 2737534.0439057052 0 2737534.0439057052 -2294782.2818059921 0 0 0 0 14499567.420206189 -8168683.9017262533 0 -8168683.9017262533 -2373709.8247274812 0 0 0 0 25779692.904541016 -7013948.4907128215 0 -7013948.4907128215 -7493320.8279697001 0 0 0 0 -9913102.5650024414 27032234.284789085 0 27032234.284789085 -30876140.146659851 0 0 0 0 -65224968.212646484 12299836.596878052 0 12299836.596878052 21057577.665329933 0 0 0 0 20191125.505310059 -10279739.924095124 0 -10279739.924095124 -5413953.0567579269 0 0 0 0 -53948316.975982666 5222857.9248218536 0 5222857.9248218536 -16752553.993083715 0 0 0 0 -47050257.868423462 12143396.375303149 0 12143396.375303149 12267906.33675766 0 0 0 0 -44646237.311279297 13284819.89370203 0 13284819.89370203 -11718422.842224121 0 0 0 0 -6646991.2339172363 -22325321.587550163 0 -22325321.587550163 31988770.078911781 0 0 0 0 -5718238.8953857422 -57646177.840569019 0 -57646177.840569019 104820581.81003655 0 0 0 0 -62328055.736450195 17847393.837532043 0 17847393.837532043 12093894.027650833 0 0 0 0 11767747.013000488 -51074941.475038528 0 -51074941.475038528 11483992.992125988 0 0 0 0 51618791.707183838 -69920389.04699564 0 -69920389.04699564 18848881.03854847 0 0 0 0 47295477.308837891 -18312565.569564342 0 -18312565.569564342 -12742943.648433208 0 0 0 0 38504506.252441406 -85667954.49857688 0 -85667954.49857688 -4776.4723544120789 0 0 0 0 7151317.3142700195 -81800136.041255474 0 -81800136.041255474 52386708.215514898 0 0 0 0 48509528.904968262 -106917818.18537903 0 -106917818.18537903 35203243.554243088 0 0 0 0 35683503.678405762 -129479491.32795429 0 -129479491.32795429 108173130.79720783 0 0 0 0 131018639.78152466 -116351542.17128757 0 -116351542.17128757 173814591.67341244 0 0 0 0 248340125.17929077 -4646687.4129185677 0 -4646687.4129185677 -269285001.83093739 0 0 0 0 33329291.868774414 118860681.03422546 0 118860681.03422546 -155143514.57918215 0 0 0 0 230575253.78149414 -157939599.30315855 0 -157939599.30315855 -67839592.006124496 0 0 0 0 109909985.15258789 -176832460.00693274 0 -176832460.00693274 67817051.460583687 0 0 0 0 82857307.231811523 -16711176.753704071 0 -16711176.753704071 -135474516.08025408 0 0 0 0 54562307.476287842 -95414142.75483036 0 -95414142.75483036 -23344907.693129539 0 0 0 0 27571381.445068359 -33536097.476206303 0 -33536097.476206303 -60640312.883010864 0 0 0 0 93971199.594055176 -85751065.159736156 0 -85751065.159736156 -23512832.84643364 0 0 0 0 12315060.887145996 25405394.199006557 0 25405394.199006557 -77448733.023597479 0 0 0 0 32573821.001968384 -15842023.784286499 0 -15842023.784286499 -40216682.150327682 0 0 0 0 -72081145.22354126 72827444.315137386 0 72827444.315137386 -54944066.971935272 0 0 0 0 60181876.335632324 1792434.7565846443 0 1792434.7565846443 -71840111.929848671 0 0 0 0 -19521082.661392212 16140985.257338881 0 16140985.257338881 -28420674.957683563 0 0 0 0 -10002256.866455078 10593412.756658316 0 10593412.756658316 -28979539.086091995 0 0 0 0 3235729.5361633301 -7408581.735686779 0 -7408581.735686779 -37694471.942763329 0 0 0 0 1211051.7644330785 -90019.961011238396 0 -90019.961011238396 -504712.37543749297 0 0 0 0 44797282.555145264 47648995.568350792 0 47648995.568350792 -27244997.357093334 0 0 0 0 8992095.2059326172 -48382797.253558636 0 -48382797.253558636 -22013909.304512024 0 0 0 0 46876460.461791992 -79889172.179356098 0 -79889172.179356098 810085.87909787893 0 0 0 0 9474405.8226623535 -11864662.850221634 0 -11864662.850221634 982343.27960634232 0 0 0 0 16424307.911392212 10810755.827461243 0 10810755.827461243 -5237653.5159511566 0 0 0 0 1423922.6211344898 -3158566.7492758743 0 -3158566.7492758743 -880999.19765558606 0 0 0 0 -9231169.8947753906 -59592226.219345093 0 -59592226.219345093 27087418.321512699 0 0 0 0 19554139.066177368 -8347225.2129282951 0 -8347225.2129282951 -9996078.3771972656 0 0 0 0 4615037.1940095127 -1596067.4042672962 0 -1596067.4042672962 -1367919.7840657076 0 0 0 0 31875720.843215942 -8520257.8186879158 0 -8520257.8186879158 -9288523.2611951828 0 0 0 0 24975559.7293396 781976.23611447215 0 781976.23611447215 -12811884.704935759 0 0 0 0 10156242.826990634 -1445001.347175533 0 -1445001.347175533 -5452686.7158366079 0 0 0 0 10055684.935915843 -2231303.6368198916 0 -2231303.6368198916 -5785416.2754378542 0 0 0 0 25486331.963424683 -4588025.158371985 0 -4588025.158371985 -5458305.6973256469 0 0 0 0 26294492.537124634 -1746462.9841876626 0 -1746462.9841876626 -9353596.5301371217 0 0 0 0 29417044.765716553 2595831.4224156141 0 2595831.4224156141 -20232344.355142429 0 0 0 0 29728170.658218384 -3367224.3225207031 0 -3367224.3225207031 -16595505.685070276 0 0 0 0 29297081.40524292 3117599.8199651837 0 3117599.8199651837 -11712752.252760008 0 0 0 0 14522558.209640503 6299810.1646737307 0 6299810.1646737307 -9337272.1148509681 0 0 0 0 32203743.221588135 12255027.447098896 0 12255027.447098896 -19704541.793378159 0 0 0 0 42426796.286598206 9506816.9251094721 0 9506816.9251094721 -19026077.428860545 0 0 0 0 15138188.605773926 4971092.1666212007 0 4971092.1666212007 -386574.99333956093 0 0 0 0 28543666.799186707 18609022.166638885 0 18609022.166638885 -3719730.0759330392 0 0 0 0 29140745.455566406 19971782.222921573 0 19971782.222921573 1281136.7583987713 0 0 0 0 -2605407.941619873 -1417707.2331278175 0 -1417707.2331278175 -4951083.0878697298 0 0 0 0 66352226.953399658 -20180434.86367631 0 -20180434.86367631 -33655677.380861282 0 0 0 0 4945779.1702524126 -1397758.5349697843 0 -1397758.5349697843 -5393764.0606275061 0 0 0 0 12169905.333053589 10854635.008666076 0 10854635.008666076 -8349976.9122451842 0 0 0 0 -1283815.1561317444 33424950.001197338 0 33424950.001197338 -57814932.195878983 0 0 0 0 938773.71495047212 -581551.28398183733 0 -581551.28398183733 -56625.294241737574 0 0 0 0 12784904.68888855 -38313759.623057842 0 -38313759.623057842 -83236168.521303177 0 0 0 0 17126031.409393311 -9079612.5291185379 0 -9079612.5291185379 4926051.9114665985 0 0 0 0 -6482623.5961914062 -44827061.693557739 0 -44827061.693557739 10280982.40179491 0 0 0 0 -10842257.624786377 -17514385.99951148 0 -17514385.99951148 46598323.763275146 0 0 0 0 8256684.0279693604 -9224745.2247724533 0 -9224745.2247724533 10864204.613199234 0 0 0 0 27064445.408508301 -30986348.298267841 0 -30986348.298267841 14140675.057151794 0 0 0 0 -34029.646806970239 65260.569790489972 0 65260.569790489972 -141805.43527340738 0 0 0 0 -10338248.069122314 10439697.22811427 0 10439697.22811427 -4438286.9012676775 0 0 0 0 -13385972.059631348 4700778.0584611148 0 4700778.0584611148 -6850948.1577488184 0 0 0 0 3143475.8741858155 -1031817.7109118178 0 -1031817.7109118178 -5013684.0422947621 0 0 0 0 -445593.85877990723 6953581.0202028044 0 6953581.0202028044 -10080583.350364625 0 0 0 0 1873301.3261413574 588699.35080843791 0 588699.35080843791 -2236043.800370574 0 0 0 0 182205.35864257812 5609769.205016762 0 5609769.205016762 -17112903.13584742 0 0 0 0 -20957963.329589844 1799424.1234013289 0 1799424.1234013289 -16184719.200427588 0 0 0 0 1998482.9639282227 -861768.20141415671 0 -861768.20141415671 -25416113.672286302 0 0 0 0 753137.96078491211 -1251230.8670557924 0 -1251230.8670557924 -10825766.955312133 0 0 0 0 -13712730.666870117 -1933692.7355175912 0 -1933692.7355175912 -10353607.340783514 0 0 0 0 12918451.100746155 -9473768.6431722157 0 -9473768.6431722157 -11873072.201147258 0 0 0 0 5812392.1965942383 -1871880.8693500534 0 -1871880.8693500534 -7204364.9646803439 0 0 0 0 6815371.9293212891 -3019524.9871551245 0 -3019524.9871551245 -17328663.854706414 0 0 0 0 11056487.656188965 -2407827.0548382513 0 -2407827.0548382513 -14581443.268988837 0 0 0 0 -1257562.9306640625 -3028699.7446684204 0 -3028699.7446684204 -2986757.6019617841 0 0 0 0 2151523.7757873535 -709531.99704203755 0 -709531.99704203755 -11513130.065650553 0 0 0 0 2277477.5406075269 -2014849.5199779049 0 -2014849.5199779049 -2333931.0185747826 0 0 0 0 -8430803.388381958 4906183.2014528178 0 4906183.2014528178 -9243922.4242839441 0 0 0 0 -6789605.6447753906 -2295753.3444185816 0 -2295753.3444185816 -5461908.7963933274 0 0 0 0 -2605526.047668457 7883103.30359485 0 7883103.30359485 -8090311.5897725448 0 0 0 0 114901.7361831665 3929477.0152550293 0 3929477.0152550293 -21215177.401361458 0 0 0 0 -397720.22679138184 11019677.102178948 0 11019677.102178948 -16191529.041535191 0 0 0 0 -23895592.380508423 23665133.670209877 0 23665133.670209877 -28502587.510330796 0 0 0 0 -24744204.992919922 25772690.692190468 0 25772690.692190468 -31673845.585546367 0 0 0 0 -50412.182362943888 -227210.06665890664 0 -227210.06665890664 173560.57768608179 0 0 0 0 -6322870.6722717285 2201985.3859124817 0 2201985.3859124817 -33169901.422632575 0 0 0 0 9276923.8558349609 -10392293.940816265 0 -10392293.940816265 12718668.852747366 0 0 0 0 17910191.283233643 16189634.950235821 0 16189634.950235821 31612687.627016261 0 0 0 0 10756238.85534668 5200992.4772031009 0 5200992.4772031009 -7693872.4075994492 0 0 0 0 10955684.855499268 6664819.0002515912 0 6664819.0002515912 3000280.6180702001 0 0 0 0 16011806.787200928 -9619357.1436906457 0 -9619357.1436906457 2336207.3881573053 0 0 0 0 11597846.700073242 -4545152.3204842508 0 -4545152.3204842508 -8903675.6899935901 0 0 0 0 12326639.275283813 -3289165.0360822268 0 -3289165.0360822268 -7218194.2881106585 0 0 0 0 9792328.1045227051 -9170315.1042424291 0 -9170315.1042424291 -699243.35144102573 0 0 0 0 20282463.20324707 -15482601.935453929 0 -15482601.935453929 319541.57528291526 0 0 0 0 15187287.246124268 -11009398.256059185 0 -11009398.256059185 50996.344698615372 0 0 0 0 21714675.987005234 -9167223.4081164952 0 -9167223.4081164952 9843361.6516661961 0 0 0 0 119878.94231314957 27155.601824849844 0 27155.601824849844 -9623.3970377177702 0 0 0 0 20798061.578430176 -7524408.3390681986 0 -7524408.3390681986 -1381065.0643130122 0 0 0 0 9964801.0392456055 -14687792.086319167 0 -14687792.086319167 10738642.019634981 0 0 0 0 46008.696096017957 3796.3458846211433 0 3796.3458846211433 -8759.8422436521214 0 0 0 0 16381423.625404358 -3704620.6906482247 0 -3704620.6906482247 -3773252.9149461836 0 0 0 0 39767918.95533371 -9968789.0889088269 0 -9968789.0889088269 11668.43588606969 0 0 0 0 3977556.3452453613 4686622.9746385897 0 4686622.9746385897 426983.88135583885 0 0 0 0 11494651.117004395 -2796654.6741914428 0 -2796654.6741914428 -618798.81914393441 0 0 0 0 -1869371.4865875244 4550181.3570516547 0 4550181.3570516547 1463671.7160920687 0 0 0 0 -740842.70779418945 -768313.43824456632 0 -768313.43824456632 2452931.8403064758 0 0 0 0 5900960.7662353516 1396645.1625023074 0 1396645.1625023074 -5295428.6542597264 0 0 0 0 2134521.674041748 1516370.2655634806 0 1516370.2655634806 -6514714.0796612278 0 0 0 0 15715868.75213623 -4770644.4128755135 0 -4770644.4128755135 -2500981.1394769149 0 0 0 0 10904751.181182861 -16076501.459656633 0 -16076501.459656633 19031269.187668111 0 0 0 0 4459597.8268432617 -9226476.8362363391 0 -9226476.8362363391 -2519046.6552655408 0 0 0 0 7237141.5690612793 -8581851.8536507767 0 -8581851.8536507767 10775199.832579834 0 0 0 0 34158059.028713226 -8086028.9257730627 0 -8086028.9257730627 1559439.1198930861 0 0 0 0 29246355.118804932 -31263773.792120319 0 -31263773.792120319 14450244.792825919 0 0 0 0 28719238.818969727 -14803522.848389458 0 -14803522.848389458 4389.2425222121901 0 0 0 0 11923418.468933105 80864.644397978118 0 80864.644397978118 5878623.2855736827 0 0 0 0 8493753.2911987305 -4224903.8423105618 0 -4224903.8423105618 4184657.4236239726 0 0 0 0 -691707.40214538574 2966877.9108714797 0 2966877.9108714797 11882.841715178893 0 0 0 0 -243754.91441345215 2022284.7796432278 0 2022284.7796432278 -9781841.1101679243 0 0 0 0 -2365544.3109130859 5549672.5221179137 0 5549672.5221179137 -5074663.4324726844 0 0 0 0 2524011.8054652512 -2029501.6289976425 0 -2029501.6289976425 -1924325.5908477316 0 0 0 0 -2363133.1471252441 1110027.0425833464 0 1110027.0425833464 -2043153.1857199653 0 0 0 0 -3255785.5065002441 1486903.124705686 0 1486903.124705686 -7702.3524042418658 0 0 0 0 1618393.5567648932 -2089459.3134230599 0 -2089459.3134230599 1945203.8442917205 0 0 0 0 1163443.6965675354 -1798273.7946386952 0 -1798273.7946386952 11297226.662637413 0 0 0 0 532600.1158799082 -1699172.504839085 0 -1699172.504839085 2003100.7185640777 0 0 0 0 5565337.9779663086 -10475256.216230256 0 -10475256.216230256 -4686.320622285416 0 0 0 0 2048235.0205383301 -5281015.2034569057 0 -5281015.2034569057 7444306.486166792 0 0 0 0 4162131.135559082 -17331578.192811813 0 -17331578.192811813 10036808.66629879 0 0 0 0 438564.16936038807 -518659.84605444223 0 -518659.84605444223 -252901.19899773214 0 0 0 0 3004683.5407714844 -1740317.9075299781 0 -1740317.9075299781 16265014.909599494 0 0 0 0 -257901372.42195892 5242656.0114766359 0 5242656.0114766359 138529667.42862391 0 0 0 0 1714611.148503758 -4078093.8871789426 0 -4078093.8871789426 3375688.7586845928 0 0 0 0 6620436.067855835 -3976812.9068422066 0 -3976812.9068422066 816827.32811710238 0 0 0 0 2614399.4816009849 -1528735.9588594362 0 -1528735.9588594362 -801058.39662506361 0 0 0 0 4474697.4356994629 -4386784.3151869774 0 -4386784.3151869774 3089354.7168874741 0 0 0 0 2502901.9992218018 -6321180.908867836 0 -6321180.908867836 3637933.7364692688 0 0 0 0 -1900889.2079162598 -3815990.132379055 0 -3815990.132379055 6959582.4036626816 0 0 0 0 2161261.9660559595 -3279787.3558763638 0 -3279787.3558763638 2160806.2326005753 0 0 0 0 999311.33187866211 -2159641.0279006958 0 -2159641.0279006958 3057320.4204237461 0 0 0 0 4037115.2744598389 -5677079.3005952835 0 -5677079.3005952835 6264156.233707428 0 0 0 0 12592810.059936523 -11455729.837079525 0 -11455729.837079525 12511777.301790714 0 0 0 0 4789929.0347518921 -4216648.3063021898 0 -4216648.3063021898 5879957.4923696518 0 0 0 0 234887.10449778289 -469559.73754333705 0 -469559.73754333705 643594.83624941017 0 0 0 0 -1171608.4779052734 -4549733.2429404259 0 -4549733.2429404259 33387429.245908737 0 0 0 0 13080251.894493103 -20025195.462800056 0 -20025195.462800056 27208304.78352356 0 0 0 0 -2781820.9646606445 2141304.1561422348 0 2141304.1561422348 11700324.704048157 0 0 0 0 6517193.4081420898 -7803296.6614055634 0 -7803296.6614055634 10194007.728029251 0 0 0 0 7245063.9756011963 -8066914.5331418514 0 -8066914.5331418514 4439166.4101314545 0 0 0 0 6468270.5237045288 -7575507.1168823242 0 -7575507.1168823242 4637621.5350151062 0 0 0 0 1488820.742980957 -7937758.0982294083 0 -7937758.0982294083 10985484.036085129 0 0 0 0 613304.67893012613 -1775204.1843215898 0 -1775204.1843215898 2409213.1480476893 0 0 0 0 4303355.302520752 285347970.48113877 0 285347970.48113877 -37822109.235035002 0 0 0 0 136631127.56576538 27501024.186636686 0 27501024.186636686 105011541.25908172 0 0 0 0 880462614.30412292 101353769.17804369 0 101353769.17804369 -32661801.824864388 0 0 0 0 1232311.6506241709 13305.932739655487 0 13305.932739655487 -56941.690995763005 0 0 0 0 725803549.65444946 -247975065.32867956 0 -247975065.32867956 14384608.781258974 0 0 0 0 682829931.57998657 255884912.32555795 0 255884912.32555795 -181087783.09608033 0 0 0 0 1379421689.73349 21065032.411308356 0 21065032.411308356 -708778.60002398794 0 0 0 0 1302120134.752655 -254642257.28247553 0 -254642257.28247553 13990165.758600801 0 0 0 0 1493177188.0256958 -50440622.37635076 0 -50440622.37635076 -264741127.95894217 0 0 0 0 852657145.64705276 -14980107.71954637 0 -14980107.71954637 -219589385.83630967 0 0 0 0 1416166256.7146912 -202521606.62933242 0 -202521606.62933242 -164787366.36900413 0 0 0 0 1366200203.7064819 80267025.659171343 0 80267025.659171343 -176813378.92572951 0 0 0 0 650615636.08017731 -165968198.84241387 0 -165968198.84241387 -115077559.40261666 0 0 0 0 755409097.97937012 40887962.587216854 0 40887962.587216854 -108532338.08466363 0 0 0 0 770501115.30859375 23844004.847315401 0 23844004.847315401 194734380.8364957 0 0 0 0 759166146.87320328 111471865.79306811 0 111471865.79306811 -251961027.97487128 0 0 0 0 467566.90997184813 -940798.82756873593 0 -940798.82756873593 1767568.2628510371 0 0 0 0 3659072.0559082031 -4076836.9790668106 0 -4076836.9790668106 12888.613086076888 0 0 0 0 3836977.0885009766 -5222973.5630574664 0 -5222973.5630574664 7369086.6909285961 0 0 0 0 17447739.228881836 123407772.32857317 0 123407772.32857317 -129067963.52740842 0 0 0 0 15934835.216064453 119619506.83021033 0 119619506.83021033 93485684.650208473 0 0 0 0 388725005.05273438 -68773399.142497063 0 -68773399.142497063 72904394.234544873 0 0 0 0 -25125419.42350769 193946791.1911732 0 193946791.1911732 127291269.38466644 0 0 0 0 -74723889.397003174 -94637103.873272419 0 -94637103.873272419 -104868427.19531202 0 0 0 0 80958040.74357605 -240045452.95251203 0 -240045452.95251203 30560321.296701968 0 0 0 0 1037631.7511950582 534734.04903154075 0 534734.04903154075 537518.56432123831 0 0 0 0 902883219.48587036 621146455.42177176 0 621146455.42177176 -467508378.52674437 0 0 0 0 -4899916.9912719727 118045983.06865263 0 118045983.06865263 392284594.26271582 0 0 0 0 850556600.88064194 120735229.56369527 0 120735229.56369527 801114504.06028223 0 0 0 0 846612885.95257568 44393335.338391542 0 44393335.338391542 103200214.53672886 0 0 0 0 666538709.58427429 322961104.38864779 0 322961104.38864779 248065056.21221972 0 0 0 0 987800477.35336304 73892339.085238338 0 73892339.085238338 -108867840.74465799 0 0 0 0 601433012.39135742 -184800804.84039474 0 -184800804.84039474 15018065.940744519 0 0 0 0 1796623360.1943169 -554153788.35749125 0 -554153788.35749125 83320652.703489542 0 0 0 0 1601501927.4643555 516476009.23738837 0 516476009.23738837 209474889.92053366 0 0 0 0 2090927459.7547607 -211553093.64267969 0 -211553093.64267969 -19097550.925001144 0 0 0 0 1083005083.6665649 677967735.14950752 0 677967735.14950752 175558569.5306834 0 0 0 0 2130862.0081441551 -1043706.0949769616 0 -1043706.0949769616 54386.027407694841 0 0 0 0 2165784671.607357 86282647.632438421 0 86282647.632438421 252555530.23789597 0 0 0 0 79544212.873779297 93000146.101691365 0 93000146.101691365 -77925840.69657445 0 0 0 0 21283057.846984863 109101092.81303561 0 109101092.81303561 81624104.569634199 0 0 0 0 77699284.754364014 -314222440.3724916 0 -314222440.3724916 243006400.57689905 0 0 0 0 -19542635.027099609 54502994.989825487 0 54502994.989825487 243553582.74050689 0 0 0 0 79981556.48135376 -149462737.65365708 0 -149462737.65365708 275998893.65178204 0 0 0 0 497845601.37755585 -33927394.962187231 0 -33927394.962187231 112944097.02672505 0 0 0 0 685897197.79603767 52776223.282864809 0 52776223.282864809 -276760311.9204464 0 0 0 0 681563373.22598267 97286007.792038918 0 97286007.792038918 -202152056.15314293 0 0 0 0 290127589.32150459 -2230485.5389338732 0 -2230485.5389338732 -114679390.39592838 0 0 0 0 372831852.64464188 409766230.04285002 0 409766230.04285002 235633738.17344093 0 0 0 0 1114481566.5266418 78675960.789454937 0 78675960.789454937 -235830863.22120762 0 0 0 0 1892031917.3976746 326592503.377841 0 326592503.377841 -282879136.24929237 0 0 0 0 898903260.47171021 177035073.26093626 0 177035073.26093626 -266573261.74126172 0 0 0 0 1013618135.7756958 -35555003.933881283 0 -35555003.933881283 -172581468.15192699 0 0 0 0 643586491.73345947 -237811311.74669933 0 -237811311.74669933 -3161506.4006948471 0 0 0 0 1528618157.7076683 -842365457.96996152 0 -842365457.96996152 365479779.8429842 0 0 0 0 333111527.6210022 -154494180.81581545 0 -154494180.81581545 27170693.663417816 0 0 0 0 360851461.4777832 -105192436.54902458 0 -105192436.54902458 22781574.735060692 0 0 0 0 2813258.3234922737 698156.40777811781 0 698156.40777811781 953726.70787329553 0 0 0 0 1471626.2429247946 -1367975.6413791627 0 -1367975.6413791627 645084.51744017564 0 0 0 0 137763966.09228516 -94946931.940642834 0 -94946931.940642834 80045461.849421501 0 0 0 0 394906885.08894348 34484683.563807011 0 34484683.563807011 -40546698.704059601 0 0 0 0 538153387.33255005 -74523607.352811813 0 -74523607.352811813 -13771484.987734079 0 0 0 0 549790.49193342403 -581273.15461821109 0 -581273.15461821109 215429.26992056891 0 0 0 0 49861252.617492676 59044084.395910978 0 59044084.395910978 65201420.164567947 0 0 0 0 275731046.13580322 354583501.93204546 0 354583501.93204546 44256699.540447235 0 0 0 0 134043123.69543457 50493755.519695759 0 50493755.519695759 150993721.81719708 0 0 0 0 592544544.84848022 51911134.795773029 0 51911134.795773029 -185340122.79305553 0 0 0 0 586540615.65368652 11720919.029634953 0 11720919.029634953 137625655.42969894 0 0 0 0 895700641.00749588 171619391.0787245 0 171619391.0787245 -269456514.02165031 0 0 0 0 866896624.18101501 278798076.66218281 0 278798076.66218281 -24368349.03646946 0 0 0 0 597409735.94711304 -6012997.9632735252 0 -6012997.9632735252 250477538.47352409 0 0 0 0 1188212701.3884277 157067175.03410816 0 157067175.03410816 -281283507.35904598 0 0 0 0 757286893.24771118 68871046.589708328 0 68871046.589708328 -298712716.49811935 0 0 0 0 655334649.17614746 119850625.42365837 0 119850625.42365837 -231564662.69589043 0 0 0 0 17048954.950675964 -14957072.274662971 0 -14957072.274662971 9569851.8296470642 0 0 0 0 1430.7536891549826 32106.539246723056 0 32106.539246723056 465489.80547983851 0 0 0 0 -19796259.278839111 -31314194.000638962 0 -31314194.000638962 21416398.237497807 0 0 0 0 -19972787.054443359 -66945931.718855858 0 -66945931.718855858 22926168.010402679 0 0 0 0 23493495.068878174 -17905728.001419544 0 -17905728.001419544 -90335877.389180183 0 0 0 0 -26003038.59913063 44482048.083986998 0 44482048.083986998 -794770.58375740051 0 0 0 0 -42912542.793243408 -64642611.523870468 0 -64642611.523870468 1074547.6128835678 0 0 0 0 -188331.98236083984 -3753972.4545469284 0 -3753972.4545469284 41151192.685125351 0 0 0 0 -149391.50729370117 6609575.2498235703 0 6609575.2498235703 15039257.121199131 0 0 0 0 3665247.7394104004 144914.39600038528 0 144914.39600038528 112483.64133834839 0 0 0 0 3027566.6063842773 385582.69060516357 0 385582.69060516357 7087691.4198701382 0 0 0 0 458217.18888266385 -409330.91080953926 0 -409330.91080953926 1168340.5629545236 0 0 0 0 1699970.7273406982 -2177667.9231743813 0 -2177667.9231743813 2271696.7151880264 0 0 0 0 -7714331.6743469238 10811345.77859211 0 10811345.77859211 24903171.454493523 0 0 0 0 5724847.4317512512 6802362.4837632179 0 6802362.4837632179 26078734.015818596 0 0 0 0 -61933679.446624756 -32825621.394650459 0 -32825621.394650459 68187328.403661251 0 0 0 0 -1981083.4787216187 -1677358.8210895061 0 -1677358.8210895061 50930990.433732033 0 0 0 0 -47113333.084365845 -107889937.05330896 0 -107889937.05330896 -37207500.912362576 0 0 0 0 -49472874.192779541 -78104602.723112106 0 -78104602.723112106 154274747.63630962 0 0 0 0 -10094053.942657471 -56974857.4602561 0 -56974857.4602561 3690303.4643425941 0 0 0 0 -19611944.343902588 -33148085.765167713 0 -33148085.765167713 -31614047.973242283 0 0 0 0 -39301172.724899292 -71947481.731441975 0 -71947481.731441975 8819815.1116294861 0 0 0 0 -1306654.5289001465 -43348263.305812836 0 -43348263.305812836 28902406.488265038 0 0 0 0 21090556.200897217 -56984049.390832901 0 -56984049.390832901 -9036030.7085666656 0 0 0 0 -28868636.935760498 -23633079.218580723 0 -23633079.218580723 7417678.2092552185 0 0 0 0 29843559.196166992 -21841528.12491703 0 -21841528.12491703 6717866.4115812778 0 0 0 0 9160182.5908660889 -60891693.455672979 0 -60891693.455672979 209084.29513931274 0 0 0 0 66468054.316574097 -12822208.372871876 0 -12822208.372871876 -124032241.11561012 0 0 0 0 17977470.191092148 -3096330.1028261492 0 -3096330.1028261492 -1383096.4693069423 0 0 0 0 251479925.4597168 -246020770.92321014 0 -246020770.92321014 -81410066.827331543 0 0 0 0 -909889.47990431637 -547741.52114167809 0 -547741.52114167809 1738413.4716999233 0 0 0 0 -53901204.849121094 -36334027.481705666 0 -36334027.481705666 133892747.18171597 0 0 0 0 315109105.66467285 9619329.5243844986 0 9619329.5243844986 -28237439.09995079 0 0 0 0 -62314014.059875488 -68265504.679297447 0 -68265504.679297447 148475940.23799801 0 0 0 0 -25950351.746589661 -50780342.490649939 0 -50780342.490649939 86365861.042854309 0 0 0 0 8858540.7833709717 -60798469.811284542 0 -60798469.811284542 -212126792.99378109 0 0 0 0 13451651.376198187 -2752705.8722508531 0 -2752705.8722508531 -475930.80357056169 0 0 0 0 75777439.636070251 -28339370.140453577 0 -28339370.140453577 41284377.451723099 0 0 0 0 -39568046.532455444 -77604425.060191154 0 -77604425.060191154 199407959.53283316 0 0 0 0 1108343.3498535156 -78052998.625850379 0 -78052998.625850379 -29516340.739740372 0 0 0 0 -18658783.61114502 -76481865.140446663 0 -76481865.140446663 31842011.775422454 0 0 0 0 3744325.0461346507 -3070719.6303985678 0 -3070719.6303985678 -1659979.6791516552 0 0 0 0 17318741.522571564 -15560556.332863152 0 -15560556.332863152 -104024191.9123764 0 0 0 0 124928888.54534912 789207.02958965302 0 789207.02958965302 -5132590.5820741653 0 0 0 0 370788943.31304932 113342221.69620895 0 113342221.69620895 -33842594.311710358 0 0 0 0 190250.75018984079 -290342.07397068664 0 -290342.07397068664 -131341.98254511668 0 0 0 0 40307553.269073486 -70928176.376807213 0 -70928176.376807213 -68864484.608724594 0 0 0 0 45045777.761566162 -102828874.06951952 0 -102828874.06951952 -148491538.92798042 0 0 0 0 -73503503.206756592 -49935653.312302113 0 -49935653.312302113 -28638439.599695683 0 0 0 0 -1230217.0825061053 -1843678.3364700675 0 -1843678.3364700675 3270931.1627430473 0 0 0 0 130397596.16394806 17026510.914116859 0 17026510.914116859 -75740508.894253731 0 0 0 0 175257909.98362732 -2491189.4620232582 0 -2491189.4620232582 -165098940.28840256 0 0 0 0 169563881.02606201 65882426.989406586 0 65882426.989406586 -48997283.889564514 0 0 0 0 -62200571.843109131 9565960.2128648758 0 9565960.2128648758 47306863.139930725 0 0 0 0 1353828555.3679695 590869862.87531948 0 590869862.87531948 661356021.95188522 0 0 0 0 691699980.64219666 -3411225.7320384979 0 -3411225.7320384979 370814460.07779598 0 0 0 0 1025428812.209816 -420559849.19794846 0 -420559849.19794846 642002044.66197586 0 0 0 0 1406848411.3936768 -19877759.27299118 0 -19877759.27299118 -141873614.57077885 0 0 0 0 916346664.80341339 657808434.4832058 0 657808434.4832058 30213418.830636024 0 0 0 0 3183397.8586886525 -539784.04505577427 0 -539784.04505577427 77011.116831998457 0 0 0 0 1586353650.1074829 -333313636.67401934 0 -333313636.67401934 -181750488.93251896 0 0 0 0 148303320.13339233 -299907637.93764973 0 -299907637.93764973 872169699.23880577 0 0 0 0 96672948.091003418 46545786.826682568 0 46545786.826682568 245080499.33303642 0 0 0 0 8747315.2667086422 -1802059.9764189338 0 -1802059.9764189338 -61026.211722758482 0 0 0 0 285874947.81555176 -55068167.41868782 0 -55068167.41868782 -372733429.69442081 0 0 0 0 -130876438.32141113 -64110556.964661598 0 -64110556.964661598 402858251.66597718 0 0 0 0 3793296.9533467144 -2601075.4257338531 0 -2601075.4257338531 -1853483.2983877654 0 0 0 0 82017000.008575439 8673128.8882772923 0 8673128.8882772923 -361267465.8775444 0 0 0 0 144346306.89703369 -366551945.76366901 0 -366551945.76366901 323091085.73080921 0 0 0 0 150469376.52618408 -233002969.04669285 0 -233002969.04669285 65616389.531601906 0 0 0 0 243555846.91659546 -273285823.62366223 0 -273285823.62366223 291253163.75445509 0 0 0 0 -219238315.35580444 -227269805.51072979 0 -227269805.51072979 162408552.19868016 0 0 0 0 564308986.09622955 429478780.42707634 0 429478780.42707634 -684887788.44239426 0 0 0 0 1819932.5095704496 -1180020.1229090169 0 -1180020.1229090169 -896553.23129581474 0 0 0 0 456584631.27609253 -675976893.67292786 0 -675976893.67292786 910737914.80004215 0 0 0 0 1251623881.8828735 -63701159.064551353 0 -63701159.064551353 96477684.823582649 0 0 0 0 153809211.11526489 19295547.497200012 0 19295547.497200012 145634390.11456251 0 0 0 0 737829967.57887268 403739918.47493601 0 403739918.47493601 255607850.16851997 0 0 0 0 -11097497.987030029 249524212.10844982 0 249524212.10844982 15716619.822309494 0 0 0 0 731346761.8036499 369246170.80144548 0 369246170.80144548 11824285.954802513 0 0 0 0 241403605.41426468 -293283914.66701025 0 -293283914.66701025 -546563688.26212406 0 0 0 0 429648745.92359924 50380008.676989079 0 50380008.676989079 -259032821.91500902 0 0 0 0 1882088.0699582696 -2025994.3219814552 0 -2025994.3219814552 346325.47224628984 0 0 0 0 -96539279.516235352 -47524655.545655251 0 -47524655.545655251 -118184237.1255998 0 0 0 0 94287439.195159912 81606322.788529873 0 81606322.788529873 -116362872.26335311 0 0 0 0 -153111498.57351685 -321930471.83000946 0 -321930471.83000946 301170208.54901123 0 0 0 0 813263.79158350825 -1351520.7635196708 0 -1351520.7635196708 274652.37681378517 0 0 0 0 204300046.78421021 -531263206.05449367 0 -531263206.05449367 217003318.40812778 0 0 0 0 740584210.37359619 -431837552.71598053 0 -431837552.71598053 65715677.487903528 0 0 0 0 790511182.01739502 -401374120.24299145 0 -401374120.24299145 -56280149.850934029 0 0 0 0 388297702.80221558 -81718804.17191124 0 -81718804.17191124 -308371854.95220137 0 0 0 0 467295436.371521 -26889273.297401905 0 -26889273.297401905 -98688411.655134201 0 0 0 0 368004759.29882812 -125070246.00767827 0 -125070246.00767827 -145157517.48075199 0 0 0 0 188516951.82571411 -164292923.35382271 0 -164292923.35382271 -90491276.838385582 0 0 0 0 51672889.8983078 -154626959.08840793 0 -154626959.08840793 -79860858.405979633 0 0 0 0 77838248.790649414 -57175660.034630179 0 -57175660.034630179 -176225934.09980315 0 0 0 0 -28839652.644844055 55338071.112972856 0 55338071.112972856 -101408035.19002104 0 0 0 0 -93729309.652023315 -59198495.43179512 0 -59198495.43179512 -74476156.144659996 0 0 0 0 -20883998.351135254 -5358589.5638513565 0 -5358589.5638513565 -107768562.52654982 0 0 0 0 -134812019.36784363 -40189997.130461812 0 -40189997.130461812 -83048749.404008865 0 0 0 0 -66221494.379959106 -67041514.142041445 0 -67041514.142041445 -335217450.90019977 0 0 0 0 -9094311.3673400879 41542627.792479515 0 41542627.792479515 -212098136.68013501 0 0 0 0 146112053.54156494 -124184917.53441286 0 -124184917.53441286 -74238603.061427593 0 0 0 0 -19700230.635852814 2714548.9185068309 0 2714548.9185068309 -64348936.749461174 0 0 0 0 66832860.53062439 -78236238.208750963 0 -78236238.208750963 -43593587.132370472 0 0 0 0 157567669.09054565 -64614443.406765938 0 -64614443.406765938 -121942085.24176741 0 0 0 0 176076222.66400146 41513420.040160656 0 41513420.040160656 -101590522.23417473 0 0 0 0 160447430.84162903 22840828.245257854 0 22840828.245257854 -43537423.571489334 0 0 0 0 199589498.79203415 -11086126.455482841 0 -11086126.455482841 -133089218.43053436 0 0 0 0 81034599.76763916 14347393.965985298 0 14347393.965985298 -86572008.248837233 0 0 0 0 88054275.291168213 -13492342.389221191 0 -13492342.389221191 -131011610.21257997 0 0 0 0 -115070410.30496216 -96787115.203170776 0 -96787115.203170776 -237131974.20185471 0 0 0 0 47716133.063720703 -20721994.760573387 0 -20721994.760573387 -123594047.32664061 0 0 0 0 -103336181.81912231 -129865658.07756138 0 -129865658.07756138 -161076349.54231071 0 0 0 0 407685.97605762631 -135515.35537880659 0 -135515.35537880659 1034337.8708778489 0 0 0 0 -127583359.21139526 -79658534.865917206 0 -79658534.865917206 20940389.094604015 0 0 0 0 -77405075.011154175 -226931917.56720555 0 -226931917.56720555 -256218028.92373466 0 0 0 0 -37797477.173339844 -124844914.04037952 0 -124844914.04037952 -313599332.95364618 0 0 0 0 -66478685.916809082 -115768940.52017975 0 -115768940.52017975 -108853696.18524551 0 0 0 0 -26386283.908111572 96090516.423518181 0 96090516.423518181 21584927.104115963 0 0 0 0 773041666.13583374 -457160442.1159935 0 -457160442.1159935 201614406.61472988 0 0 0 0 452663147.76199341 224921322.91743469 0 224921322.91743469 -116994357.98935127 0 0 0 0 -106842.45271895826 -153677.14828032255 0 -153677.14828032255 818244.30263213534 0 0 0 0 -214697063.91223145 -402608849.5441227 0 -402608849.5441227 120029320.59502983 0 0 0 0 234543958.92300415 -593949923.91731358 0 -593949923.91731358 141722660.3876242 0 0 0 0 51893264.967193604 -291935492.81993723 0 -291935492.81993723 3397025.5777311325 0 0 0 0 720611379.22146606 -349921057.91891694 0 -349921057.91891694 -125544581.13412857 0 0 0 0 54790200.902038574 -53947508.781242371 0 -53947508.781242371 -86058934.159489393 0 0 0 0 -211774168.33196473 -78991489.234037846 0 -78991489.234037846 -84273966.087320328 0 0 0 0 -16111066.490661621 -259943097.4946866 0 -259943097.4946866 81680351.292849541 0 0 0 0 189601588.28212738 -317576405.64407289 0 -317576405.64407289 640116.5749797821 0 0 0 0 264311655.6535759 -87342642.281798005 0 -87342642.281798005 -53119064.35833931 0 0 0 0 252891652.68756104 -346768986.5610764 0 -346768986.5610764 -71237570.712828875 0 0 0 0 216924023.081604 -282808608.19072938 0 -282808608.19072938 -118955347.01174679 0 0 0 0 482616055.09965515 -257392361.67486441 0 -257392361.67486441 -118087955.84632838 0 0 0 0 567891261.77233887 84597281.479840517 0 84597281.479840517 55844409.319715053 0 0 0 0 267367876.52793884 -92293407.363482714 0 -92293407.363482714 -47566986.310122013 0 0 0 0 244263540.45502186 105855172.81865844 0 105855172.81865844 86150744.932563305 0 0 0 0 144856251.31828308 -5648439.4250371456 0 -5648439.4250371456 -38878343.745106697 0 0 0 0 207183571.3664856 -73649022.464135557 0 -73649022.464135557 99392998.876007006 0 0 0 0 -2426560.8458251953 -53527577.544515133 0 -53527577.544515133 77985148.654797554 0 0 0 0 -28205193.663146973 -23138448.159674406 0 -23138448.159674406 50444389.425524473 0 0 0 0 11844000.004667282 10846638.802922726 0 10846638.802922726 -88205294.264431 0 0 0 0 13562990.777755737 -693992.39707875252 0 -693992.39707875252 -15092736.462425232 0 0 0 0 102067936.22813416 51006519.746179104 0 51006519.746179104 3650637.7026109695 0 0 0 0 78199556.86164093 -26635047.436277866 0 -26635047.436277866 -49971043.465147495 0 0 0 0 13222678.747741699 38830585.073813915 0 38830585.073813915 -33533702.138328791 0 0 0 0 3124899.2224960327 27597456.153098106 0 27597456.153098106 -36893973.328474045 0 0 0 0 1377764.2722279727 -1637477.2335178908 0 -1637477.2335178908 -1254169.672932371 0 0 0 0 176055862.17149734 -61760972.919911027 0 -61760972.919911027 -37397019.10955143 0 0 0 0 779852.20206919312 -859923.64503771998 0 -859923.64503771998 -665550.54274691804 0 0 0 0 54131697.6434021 -22195586.926610947 0 -22195586.926610947 -58912163.79853344 0 0 0 0 33211510.516281128 -45177058.075655699 0 -45177058.075655699 -80488366.988721848 0 0 0 0 2139574.2973022461 42849622.34689045 0 42849622.34689045 -150106813.84162951 0 0 0 0 -15910798.025817871 -19932198.067187786 0 -19932198.067187786 -51868803.526460648 0 0 0 0 -20568750.5440979 36910242.231048346 0 36910242.231048346 -39752884.969521046 0 0 0 0 -244027965.9185791 -28467452.582931519 0 -28467452.582931519 -68682924.291790009 0 0 0 0 1300976.632812351 -1825162.0331139937 0 -1825162.0331139937 -1343808.3632309355 0 0 0 0 58167278.104705811 14377636.198410511 0 14377636.198410511 -95440875.625830173 0 0 0 0 -24109458.584606409 -97031198.703181818 0 -97031198.703181818 -183269837.789639 0 0 0 0 -303545169.93861389 -135632645.19366288 0 -135632645.19366288 -50452999.512789726 0 0 0 0 3590479.0143129379 1696181.312802501 0 1696181.312802501 240015.33595534973 0 0 0 0 -36863996.973205566 -52791076.094358414 0 -52791076.094358414 -39777738.672315478 0 0 0 0 -113628283.24606323 -54728136.627069473 0 -54728136.627069473 -7019515.7033295035 0 0 0 0 13522929.797757935 4453569.0840229392 0 4453569.0840229392 418310.69736771687 0 0 0 0 -223945794.45741272 -93681521.348360315 0 -93681521.348360315 13745921.511589538 0 0 0 0 -114490706.10312653 -68009274.873961121 0 -68009274.873961121 -71375841.688143253 0 0 0 0 116208537.43759155 28108301.062012941 0 28108301.062012941 -21548391.582681447 0 0 0 0 124943715.67858887 -2972571.4159663916 0 -2972571.4159663916 89035274.571551323 0 0 0 0 49428662.911109924 -39435206.104358196 0 -39435206.104358196 -80332909.023071289 0 0 0 0 29414260.401184082 -81125810.141158104 0 -81125810.141158104 -100568832.32281947 0 0 0 0 190343180.78437805 62958566.606531143 0 62958566.606531143 -233897115.68504477 0 0 0 0 250593148.07478333 99092969.542096138 0 99092969.542096138 -126127046.71326065 0 0 0 0 76233333.843232155 -45612095.632714033 0 -45612095.632714033 -2350539.6323661804 0 0 0 0 19636110.51783371 -21924664.817045212 0 -21924664.817045212 22695024.057197571 0 0 0 0 60209114.889732361 63149214.029556274 0 63149214.029556274 49799290.73147738 0 0 0 0 41093693.548351288 9287348.0283732563 0 9287348.0283732563 -25982795.135309696 0 0 0 0 41184670.98111061 -13176744.790411983 0 -13176744.790411983 -15703151.368418524 0 0 0 0 52399662.322926521 -34696257.581347525 0 -34696257.581347525 -41369319.515540123 0 0 0 0 -35410055.559936523 -46545701.86346674 0 -46545701.86346674 -1612045.7056102753 0 0 0 0 63433593.530749887 6384564.5327574164 0 6384564.5327574164 30115237.911083221 0 0 0 0 49255804.035308838 5619181.8069872856 0 5619181.8069872856 -25263142.635035515 0 0 0 0 1993987.5754394531 -6680107.2528543472 0 -6680107.2528543472 -19274504.326245308 0 0 0 0 39074125.613321558 -11008415.277380712 0 -11008415.277380712 -18081619.351696361 0 0 0 0 26435190.66583252 -54021146.231320858 0 -54021146.231320858 -61404113.544633865 0 0 0 0 46332584.198852539 -33569932.750054836 0 -33569932.750054836 -40622168.041617393 0 0 0 0 87973270.917930603 -137701623.54713559 0 -137701623.54713559 -56028392.167419434 0 0 0 0 -36164529.018913269 -103539148.88268757 0 -103539148.88268757 -100593487.03445625 0 0 0 0 836572.36178588867 -46874641.687783241 0 -46874641.687783241 -138403366.64765739 0 0 0 0 -70703968.140388489 -46248752.918515205 0 -46248752.918515205 -57681701.029876709 0 0 0 0 10309639.713165283 -14819167.015487671 0 -14819167.015487671 -114764270.32896757 0 0 0 0 24917588.460647583 -44285033.303472042 0 -44285033.303472042 -63689884.094517708 0 0 0 0 169029302.18704224 17793850.890414238 0 17793850.890414238 -162996849.25497627 0 0 0 0 110564053.8895874 -70370711.13105011 0 -70370711.13105011 94021237.446076632 0 0 0 0 32215441.05871582 15522244.188832283 0 15522244.188832283 25948598.900438309 0 0 0 0 41470390.579406738 42556567.516922951 0 42556567.516922951 -33464539.005090714 0 0 0 0 -18397141.484741211 -138615560.35871315 0 -138615560.35871315 110937609.47921371 0 0 0 0 725613.78366398811 -1081843.6683444809 0 -1081843.6683444809 -771178.83036415151 0 0 0 0 -16062702.02923584 -229916239.36234856 0 -229916239.36234856 10460346.613256454 0 0 0 0 -159592733.93704224 -202735131.72735691 0 -202735131.72735691 6367283.070807457 0 0 0 0 263743612.12069702 -1165925.1296720505 0 -1165925.1296720505 -31259142.315065384 0 0 0 0 913131.79017233849 164692.07016178966 0 164692.07016178966 -41623.905396264046 0 0 0 0 -84515982.81942749 -94952650.525531769 0 -94952650.525531769 -64677955.054217815 0 0 0 0 72328812.416564941 -10490783.099859238 0 -10490783.099859238 -4551088.8114904761 0 0 0 0 65900234.516662598 -47922992.385881424 0 -47922992.385881424 -19828814.854086876 0 0 0 0 163731700.22210693 13640844.528443336 0 13640844.528443336 -5241476.6594977081 0 0 0 0 99535838.243041992 -60277054.336993694 0 -60277054.336993694 14880729.17445755 0 0 0 0 75663860.406494141 -16267604.55994606 0 -16267604.55994606 -51158843.716347694 0 0 0 0 54257237.044998169 -35904647.993772507 0 -35904647.993772507 1182680.051448822 0 0 0 0 63836372.894714355 -40803793.54394722 0 -40803793.54394722 -21845572.587692261 0 0 0 0 98409211.307052612 -24182322.731357098 0 -24182322.731357098 -23685592.001689911 0 0 0 0 66439037.497749329 -51877598.342544317 0 -51877598.342544317 -3118470.0273704529 0 0 0 0 50704386.404174805 -7474760.6857700348 0 -7474760.6857700348 -3662337.9239149094 0 0 0 0 74188982.615249634 -8655943.375146389 0 -8655943.375146389 -4031350.5009880066 0 0 0 0 4234451.1209049672 -502238.39491614699 0 -502238.39491614699 -1454529.054875995 0 0 0 0 12264629.109672174 -178351.36916992068 0 -178351.36916992068 -3109323.6996112764 0 0 0 0 17299091.277526855 -5279753.2207100391 0 -5279753.2207100391 -5266173.2253652215 0 0 0 0 14649155.841552734 -5817478.3279781342 0 -5817478.3279781342 -4755259.5152168274 0 0 0 0 11394936.772140503 1261770.1652288437 0 1261770.1652288437 -7424547.6574151516 0 0 0 0 11574763.412841797 1921165.1811162233 0 1921165.1811162233 -5787585.4859318733 0 0 0 0 12729887.564520225 -2493952.9295036383 0 -2493952.9295036383 -4928932.2930666599 0 0 0 0 36048918.923706055 -22214342.225432396 0 -22214342.225432396 14956032.114683747 0 0 0 0 45190824.697479248 -34291440.604372025 0 -34291440.604372025 24400223.658863068 0 0 0 0 31251407.902618408 -34120723.312120438 0 -34120723.312120438 39557110.365306854 0 0 0 0 58184076.245147705 -54732989.107625008 0 -54732989.107625008 26524222.279438019 0 0 0 0 49087626.958648682 -41093542.696090698 0 -41093542.696090698 6183989.5675611496 0 0 0 0 49807269.690063477 -38861289.069137573 0 -38861289.069137573 13011535.372737885 0 0 0 0 -12663762.620117188 -85145643.072025299 0 -85145643.072025299 -103339379.90172493 0 0 0 0 12715304.245727539 -45059074.25353241 0 -45059074.25353241 -40059504.296103477 0 0 0 0 -89709020.298934937 -43224969.122477531 0 -43224969.122477531 9796465.4607715607 0 0 0 0 2033492.7158326134 -695427.76926057786 0 -695427.76926057786 -722157.03569146898 0 0 0 0 4107984.8182382286 -8021598.3003764749 0 -8021598.3003764749 2911461.3892655475 0 0 0 0 -5475051.2216339111 -21200550.428222656 0 -21200550.428222656 -13438138.294384956 0 0 0 0 -22459383.352844238 -32307420.522807121 0 -32307420.522807121 78868.563348770142 0 0 0 0 2249445.9970703125 -43523881.389900208 0 -43523881.389900208 -40273223.01050663 0 0 0 0 14764923.854980469 -13211901.040230751 0 -13211901.040230751 -10999.99276323244 0 0 0 0 3249106.4302215576 -31719202.357702255 0 -31719202.357702255 -5815530.0666131973 0 0 0 0 5631596.6345179453 -11661222.263385959 0 -11661222.263385959 3102957.8538589748 0 0 0 0 15931156.708984375 -7900012.3208022118 0 -7900012.3208022118 -7846543.5641803741 0 0 0 0 6798476.3051147461 -21930676.007506654 0 -21930676.007506654 -2458705.854598999 0 0 0 0 46220015.529846191 -7997996.8703919724 0 -7997996.8703919724 -12875492.842768159 0 0 0 0 -82442933.649047852 47250149.96292305 0 47250149.96292305 31755268.440880775 0 0 0 0 -31850767.50958252 66735557.05788511 0 66735557.05788511 50705526.452664495 0 0 0 0 694367.28656134009 -233318.61883271486 0 -233318.61883271486 -940169.51969495858 0 0 0 0 47137289.876708984 -35134615.520414174 0 -35134615.520414174 -15029988.551505804 0 0 0 0 28949548.777160645 -22814988.246065557 0 -22814988.246065557 -11560290.112461329 0 0 0 0 31849595.090019226 -38651878.403646812 0 -38651878.403646812 -11840476.908622742 0 0 0 0 64227145.038330078 -23434071.950233936 0 -23434071.950233936 -15426286.943751693 0 0 0 0 -10695246.99319458 -19983126.249136537 0 -19983126.249136537 -2339630.8377287388 0 0 0 0 2041938.9256962836 -1639683.5821269713 0 -1639683.5821269713 -1576492.8614197774 0 0 0 0 17116204.553405762 84747975.266761124 0 84747975.266761124 -44268847.43595624 0 0 0 0 8971604.2669380903 -3502125.1946296915 0 -3502125.1946296915 -7981622.1258608894 0 0 0 0 -132071241.19901276 -80168121.222273111 0 -80168121.222273111 61988212.716732025 0 0 0 0 64262335.376102448 -118788539.07085955 0 -118788539.07085955 -42881822.220352173 0 0 0 0 11224113.484558105 7429409.3838660717 0 7429409.3838660717 -38949.131303191185 0 0 0 0 6072577.0917053223 -335930.253262043 0 -335930.253262043 -2412722.8996167183 0 0 0 0 5037088.166007936 -581368.20256295428 0 -581368.20256295428 -4354084.1026137192 0 0 0 0 4547481.3244934082 -771265.29843139648 0 -771265.29843139648 -4030175.6615905762 0 0 0 0 9170653.234689571 -794528.92203279585 0 -794528.92203279585 -5165425.9306915319 0 0 0 0 7174342.1398620605 5853735.4954929352 0 5853735.4954929352 -8467676.1691627502 0 0 0 0 11841052.891425252 -1662630.7349555567 0 -1662630.7349555567 -3283377.2276005503 0 0 0 0 2651018.4656827599 -1163074.9831837639 0 -1163074.9831837639 -1683437.753751196 0 0 0 0 60486329.620330811 -16311183.466959 0 -16311183.466959 271632.04023742676 0 0 0 0 -5936858.9956512451 -4673207.4456865788 0 -4673207.4456865788 -6792499.1400179863 0 0 0 0 19752974.196716309 -479913.70955073833 0 -479913.70955073833 -7062259.0834176838 0 0 0 0 26982727.540466309 9049950.957883358 0 9049950.957883358 -524573.29657506943 0 0 0 0 32956903.180297852 -10924170.694944706 0 -10924170.694944706 -13452243.897591518 0 0 0 0 27280812.784759521 4906595.2082256945 0 4906595.2082256945 -4834135.4399469858 0 0 0 0 -6225199.6961669922 -6731286.7591295242 0 -6731286.7591295242 -25608966.697903633 0 0 0 0 -351326.16238799691 -2730098.3771326528 0 -2730098.3771326528 -426970.23980381899 0 0 0 0 1447967.9642515033 -1500743.1598125175 0 -1500743.1598125175 -2525964.652856248 0 0 0 0 16501040.01739502 -15124344.709657669 0 -15124344.709657669 -47379778.140654564 0 0 0 0 -31765385.424209595 14987806.942439318 0 14987806.942439318 -28513234.182824135 0 0 0 0 65439421.971908569 -5946736.4967258368 0 -5946736.4967258368 -17550643.197688583 0 0 0 0 46617096.442382812 5209889.5293629589 0 5209889.5293629589 -9355224.5945871174 0 0 0 0 130483215.72329712 -79582804.954381227 0 -79582804.954381227 -18159496.411961079 0 0 0 0 -16314934.359741211 296855.35697984695 0 296855.35697984695 -10895233.62702179 0 0 0 0 431485.80349175632 -1082435.3334012385 0 -1082435.3334012385 -582841.50781483308 0 0 0 0 13099474.906928763 -3775127.0097610401 0 -3775127.0097610401 -5653205.5010966444 0 0 0 0 4435135.906139493 -4023806.7376613682 0 -4023806.7376613682 -4248661.8109618602 0 0 0 0 1307659.5755615234 -3090304.1427848339 0 -3090304.1427848339 -8141780.7295541763 0 0 0 0 13098038.096510559 -2497249.1217744872 0 -2497249.1217744872 -6099802.6758087873 0 0 0 0 12871464.89345973 200000.52273289114 0 200000.52273289114 -5456676.3078122996 0 0 0 0 7756213.7573394775 -1266901.0888032913 0 -1266901.0888032913 -7357651.0940208435 0 0 0 0 1552615.1416625977 -12713416.677561522 0 -12713416.677561522 -21224218.571056366 0 0 0 0 6503315.3944091797 190605.38540744781 0 190605.38540744781 -8459353.9203824997 0 0 0 0 7023779.8606348932 -3199310.3913375139 0 -3199310.3913375139 -876074.67438449152 0 0 0 0 7040802.3015937805 -1063791.9598884583 0 -1063791.9598884583 -7588890.0519948006 0 0 0 0 1940873.0961914062 2245556.1180915833 0 2245556.1180915833 -16511735.256860256 0 0 0 0 6746118.8442382812 -2947929.2806138992 0 -2947929.2806138992 -597905.04932785034 0 0 0 0 2724388.8807373047 290475.18773174286 0 290475.18773174286 -16665605.220160127 0 0 0 0 6073051.4861888885 -259763.58119551837 0 -259763.58119551837 -6752838.863899231 0 0 0 0 12821172.423880294 -1429428.308100095 0 -1429428.308100095 -5647030.4759824509 0 0 0 0 3458792.2446722388 1951122.2251745583 0 1951122.2251745583 -4494648.3172074929 0 0 0 0 36703.80006878078 -36837.10930147022 0 -36837.10930147022 33938.608195212204 0 0 0 0 62562574.414886475 5326887.0962362289 0 5326887.0962362289 24078643.347352982 0 0 0 0 12674828.176589489 1183677.1316551194 0 1183677.1316551194 -4681001.8621760281 0 0 0 0 6717271.6042175293 -3091969.9630279541 0 -3091969.9630279541 -1313979.178150177 0 0 0 0 117556655.98809814 -64151420.55610466 0 -64151420.55610466 27646715.964733124 0 0 0 0 114515952.75622559 -113894612.51154709 0 -113894612.51154709 -51992866.650859833 0 0 0 0 947553.1173800528 676999.6331098564 0 676999.6331098564 -866151.18096792419 0 0 0 0 36799717.476013184 -26006918.294147491 0 -26006918.294147491 1351512.0511550903 0 0 0 0 9336569.9638011903 -7282905.4648790322 0 -7282905.4648790322 -2953939.6328207976 0 0 0 0 6215044.7716086432 -1768034.9332914278 0 -1768034.9332914278 -595381.85335482471 0 0 0 0 -15733837.295318604 1931113.1428947449 0 1931113.1428947449 29432771.705799103 0 0 0 0 22452762.177581787 4241004.1789474487 0 4241004.1789474487 27592878.971067429 0 0 0 0 -27174132.060668945 -7683449.5662097931 0 -7683449.5662097931 52864963.34204483 0 0 0 0 94425255.009399414 -13616288.589244843 0 -13616288.589244843 30260182.566114426 0 0 0 0 6976751.1618652344 287328.8054561615 0 287328.8054561615 -9290842.783572197 0 0 0 0 56329648.835159302 -32714433.307139874 0 -32714433.307139874 7605409.0001831055 0 0 0 0 -1843046.7761230469 -8294806.5575609207 0 -8294806.5575609207 4214363.9571037292 0 0 0 0 2534930.7852832228 -5903759.5746197412 0 -5903759.5746197412 -3049612.4153666808 0 0 0 0 20968669.274364568 -3041816.2688233331 0 -3041816.2688233331 -4697396.1146583986 0 0 0 0 8814868.9665527344 2824468.8313717842 0 2824468.8313717842 -16900678.435833931 0 0 0 0 3528907.0322723389 -334405.80618405342 0 -334405.80618405342 -7658542.736120224 0 0 0 0 14520260.026508227 -3080307.2305765124 0 -3080307.2305765124 -4997451.6573452139 0 0 0 0 21582557.652836308 -2742749.9818466334 0 -2742749.9818466334 -3351725.7139231712 0 0 0 0 12216125.543240443 -8601130.9023873806 0 -8601130.9023873806 -5298075.7260772502 0 0 0 0 -16733987.331481934 -22448922.933675766 0 -22448922.933675766 -9892755.1468706131 0 0 0 0 68064296.312225342 95577376.20532608 0 95577376.20532608 -186451205.33393478 0 0 0 0 26912915.265441895 -9804503.4731521606 0 -9804503.4731521606 -33221918.676152229 0 0 0 0 -19597367.511352539 258727786.24406052 0 258727786.24406052 5334043.9955177307 0 0 0 0 -113729445.03739929 226556228.70249462 0 226556228.70249462 281255840.19459534 0 0 0 0 -102021528.38024902 -14929266.485992432 0 -14929266.485992432 451251347.14856339 0 0 0 0 -25921770.553955078 17817856.245510101 0 17817856.245510101 89899636.970529556 0 0 0 0 33510485.578430176 -76978167.201841354 0 -76978167.201841354 78044167.099841118 0 0 0 0 247702859.4440918 -222997834.4079895 0 -222997834.4079895 215223304.65137863 0 0 0 0 -29528939.830200195 15386568.935744286 0 15386568.935744286 37186137.248344421 0 0 0 0 -47554092.32749939 5280540.9759292603 0 5280540.9759292603 165061693.51963997 0 0 0 0 -28004861.801696777 -16058009.511672974 0 -16058009.511672974 78289352.328731537 0 0 0 0 -15128892.175262451 -35198964.381668091 0 -35198964.381668091 73724611.535791874 0 0 0 0 -2537857.0389556885 -38006910.929495811 0 -38006910.929495811 36449605.350227356 0 0 0 0 -724562.35205078125 -48312381.388092041 0 -48312381.388092041 36045890.456641257 0 0 0 0 49701067.724563599 -43745520.41369915 0 -43745520.41369915 53769743.557350159 0 0 0 0 31994229.206665039 6635061.016699791 0 6635061.016699791 -51152530.91307354 0 0 0 0 188968681.78812599 -81497284.595573843 0 -81497284.595573843 -2821851.9094333649 0 0 0 0 70442051.690948486 97535071.130319595 0 97535071.130319595 -231298099.13303232 0 0 0 0 -43890822.339584351 32223318.611085892 0 32223318.611085892 -75554878.933784485 0 0 0 0 53826526.994361877 -33348183.93838644 0 -33348183.93838644 -45829238.543603897 0 0 0 0 -23154348.932403564 -35405297.051376343 0 -35405297.051376343 -37931029.14222908 0 0 0 0 19728744.066635132 -26503333.978865623 0 -26503333.978865623 -108033339.58302975 0 0 0 0 11161258.127960205 -32093356.870349407 0 -32093356.870349407 -37937623.803899765 0 0 0 0 7357448.4291687012 -8950744.3563594818 0 -8950744.3563594818 -13877651.65076828 0 0 0 0 26767065.797721863 -49446968.176900625 0 -49446968.176900625 -23180339.907087326 0 0 0 0 39787707.140655518 -23092497.237109184 0 -23092497.237109184 -61808027.638353348 0 0 0 0 40467347.421630859 -48602310.973662376 0 -48602310.973662376 -19029556.624694824 0 0 0 0 71384292.893218994 -57490537.625077248 0 -57490537.625077248 -25018875.224854469 0 0 0 0 66524215.878231049 -52519157.613419056 0 -52519157.613419056 1713332.7729225159 0 0 0 0 41870675.993835449 -29493261.152893066 0 -29493261.152893066 2433743.229183197 0 0 0 0 74598290.716442108 -28364554.787066251 0 -28364554.787066251 53321687.320213318 0 0 0 0 67203832.638305664 -54763333.463266373 0 -54763333.463266373 8053213.3925833702 0 0 0 0 75661102.961334229 -72004783.987203598 0 -72004783.987203598 31337175.722255707 0 0 0 0 67076666.389907837 -51909522.644043922 0 -51909522.644043922 1812404.4309921265 0 0 0 0 47410368.007843018 -45418257.43601799 0 -45418257.43601799 69408205.806335449 0 0 0 0 20174415.521575928 -20449799.760069847 0 -20449799.760069847 54688381.815887451 0 0 0 0 8030014.9910888672 4919989.99792099 0 4919989.99792099 7925812.5173411369 0 0 0 0 96295489.841217041 -97993848.91522789 0 -97993848.91522789 76865998.410686493 0 0 0 0 120534289.63400269 -87083877.719554901 0 -87083877.719554901 70888908.588476181 0 0 0 0 1477131.7369719967 -377153.43115284294 0 -377153.43115284294 121378.49548442289 0 0 0 0 74956722.16065979 -49028116.771459579 0 -49028116.771459579 22383499.400024414 0 0 0 0 74813965.356445312 -44334334.903126717 0 -44334334.903126717 36397562.125061035 0 0 0 0 15811070.335205078 -20970173.082193375 0 -20970173.082193375 39093731.374401093 0 0 0 0 17044103.612548828 -13806765.424894333 0 -13806765.424894333 53242019.378241539 0 0 0 0 -10856398.587417603 -33967664.223670006 0 -33967664.223670006 39797393.387477875 0 0 0 0 2074270.365737915 -16236099.094132423 0 -16236099.094132423 34283557.865133286 0 0 0 0 21912648.893951416 -39794146.540521622 0 -39794146.540521622 3708036.4831132889 0 0 0 0 33549305.746139526 -19054379.572536469 0 -19054379.572536469 40485809.264511108 0 0 0 0 5987625992.0832443 794597705.39603388 0 794597705.39603388 -330824057.79748642 0 0 0 0 5028445106.2957153 220232240.16211823 0 220232240.16211823 -126120644.87294143 0 0 0 0 2943649.7490493543 -1354724.1900771931 0 -1354724.1900771931 -235246.96845080762 0 0 0 0 5640701261.5407867 525810527.81604689 0 525810527.81604689 -65332709.717527509 0 0 0 0 -279607477.37747192 -151060659.42257202 0 -151060659.42257202 156962401.99320865 0 0 0 0 123402815.2022171 39848976.991814673 0 39848976.991814673 -105339636.44896817 0 0 0 0 5468581129.7253723 504841079.78774875 0 504841079.78774875 -30724188.414733425 0 0 0 0 5095295028.5089455 188005151.31332532 0 188005151.31332532 -273717008.67884499 0 0 0 0 100303564.97259521 29175933.021231174 0 29175933.021231174 -32077038.943647712 0 0 0 0 8092446.22702723 -3447166.2526674345 0 -3447166.2526674345 -657704.73116906069 0 0 0 0 -69440277.356124878 -50900420.86607711 0 -50900420.86607711 -8127858.9789578915 0 0 0 0 2775161423.4610291 -612742430.24954319 0 -612742430.24954319 562062527.07479692 0 0 0 0 14215078.877146818 -3357053.4138976708 0 -3357053.4138976708 -1875605.4318731965 0 0 0 0 -83729884.537155151 -54991617.284505367 0 -54991617.284505367 34759358.833510399 0 0 0 0 -33238581.588378906 -74130024.201321363 0 -74130024.201321363 -1468141.907866478 0 0 0 0 5432781312.9571686 480107750.31404394 0 480107750.31404394 -492414781.57094282 0 0 0 0 5837204149.4518127 741793994.73218393 0 741793994.73218393 -168485572.18599188 0 0 0 0 5689299679.9869385 243904833.12954652 0 243904833.12954652 -510947321.75221848 0 0 0 0 5496263640.2399139 466878530.09087402 0 466878530.09087402 -259498454.17826247 0 0 0 0 5801237580.1321259 383350829.31306267 0 383350829.31306267 349408135.45349175 0 0 0 0 5981130609.1746473 272253527.52596474 0 272253527.52596474 -131073003.04074845 0 0 0 0 5787129975.9194174 226634075.25814748 0 226634075.25814748 1385688939.7623453 0 0 0 0 5395627418.4893951 68950939.220859155 0 68950939.220859155 -218327.50102616593 0 0 0 0 4650661144.75 128051240.5199469 0 128051240.5199469 -224922096.44389409 0 0 0 0 4052652042.644455 584375945.37052035 0 584375945.37052035 -120399348.78805007 0 0 0 0 50460455.096508026 7694531.9886562349 0 7694531.9886562349 -6860342.826839095 0 0 0 0 8704788.1751690246 1990728.3960565999 0 1990728.3960565999 269549.43394378753 0 0 0 0 1984868862.7742767 949712946.6041702 0 949712946.6041702 1224355553.0663989 0 0 0 0 11826346.183943056 1967965.8942612782 0 1967965.8942612782 -935983.82739023888 0 0 0 0 36462794.10320282 2449458.2576307142 0 2449458.2576307142 -6212914.6881115884 0 0 0 0 25761264.73425293 6386903.1490459517 0 6386903.1490459517 437153.41406864097 0 0 0 0 6603122090.1906738 566017931.59405589 0 566017931.59405589 -562263002.26026928 0 0 0 0 3882406468.9291687 2723301260.6814318 0 2723301260.6814318 1118477048.0365658 0 0 0 0 3871614.518978864 -61016.677420969354 0 -61016.677420969354 64721.045494470192 0 0 0 0 6011960574.6239929 -1947654837.7594509 0 -1947654837.7594509 78748884.265128136 0 0 0 0 6351884812.76651 1034977243.4075875 0 1034977243.4075875 -91990325.166676402 0 0 0 0 50209648.045532227 23646227.899172783 0 23646227.899172783 -41517006.325975418 0 0 0 0 28303785.158576563 4429637.828462027 0 4429637.828462027 -3173304.148028309 0 0 0 0 -100090216.9828186 -113904539.92133045 0 -113904539.92133045 -130340528.18909264 0 0 0 0 806571288.54730225 28130116.740028381 0 28130116.740028381 -239306552.19990778 0 0 0 0 26907021.008419976 -849730.27683215472 0 -849730.27683215472 -2020631.2312282114 0 0 0 0 -74522859.708312988 339679367.31485891 0 339679367.31485891 69375099.480884552 0 0 0 0 -173820387.91342926 23646902.500102401 0 23646902.500102401 103012959.5291605 0 0 0 0 -463161952.87762451 -252586905.28450012 0 -252586905.28450012 -157134796.78900909 0 0 0 0 2544179.9118043184 376080.14320063591 0 376080.14320063591 -1008503.5498552052 0 0 0 0 -39081694.712112427 -177847196.88366657 0 -177847196.88366657 -23823288.559547156 0 0 0 0 17447093.247428894 1063837.1397308521 0 1063837.1397308521 -3137411.4177978635 0 0 0 0 10524117.29285939 2724295.7687823102 0 2724295.7687823102 -1938858.6962954933 0 0 0 0 35611808.987518311 16873740.257106006 0 16873740.257106006 -19580022.559108797 0 0 0 0 25299883.398864746 -3902854.3003679737 0 -3902854.3003679737 -1966011.1807276309 0 0 0 0 26314753.417160034 -410269.46978984866 0 -410269.46978984866 5722707.038692968 0 0 0 0 23215670.566467285 5747009.2276619012 0 5747009.2276619012 -6012495.9263571352 0 0 0 0 62976836.84866333 33255000.572932821 0 33255000.572932821 1849360.0585516319 0 0 0 0 4637774.952556476 2015238.7004192993 0 2015238.7004192993 454705.51615396317 0 0 0 0 12694256.147338867 -7538168.4389906833 0 -7538168.4389906833 -661261.6524002254 0 0 0 0 1691759.8871917725 -5252047.5150992163 0 -5252047.5150992163 -2421.212343103211 0 0 0 0 14376279.192443848 5675557.1616873192 0 5675557.1616873192 -2199384.9498638227 0 0 0 0 26980081.281021118 -6428807.3868676824 0 -6428807.3868676824 12436.682992584341 0 0 0 0 57011381.076721191 109737.86376644368 0 109737.86376644368 -23407992.276451569 0 0 0 0 43574002.618377686 14824540.156229606 0 14824540.156229606 269635.76680874091 0 0 0 0 94196562.708816528 52768659.080836594 0 52768659.080836594 13511028.661825996 0 0 0 0 2774272.9112637341 1596010.8384702876 0 1596010.8384702876 837278.95692794793 0 0 0 0 37428681.107543945 123432.01992964 0 123432.01992964 -5701961.3349418845 0 0 0 0 60114823.489654541 10562383.014346737 0 10562383.014346737 -49616336.627934687 0 0 0 0 40003181.443958282 2789689.1461072685 0 2789689.1461072685 -13171914.004058912 0 0 0 0 32801442.236843109 -17838357.218489971 0 -17838357.218489971 -17839008.160114616 0 0 0 0 40087672.895080566 4624464.918474488 0 4624464.918474488 -41923021.582234949 0 0 0 0 18771361.687957764 -8562330.2476995736 0 -8562330.2476995736 -16811985.777948 0 0 0 0 11710290.871398926 78212178.132995605 0 78212178.132995605 -84337446.167948991 0 0 0 0 24628425.216455579 2029900.9798116973 0 2029900.9798116973 -1025407.9992090021 0 0 0 0 79332308.40064621 14380860.56343776 0 14380860.56343776 -27186987.725828171 0 0 0 0 70293020.72580719 -8535454.3204117417 0 -8535454.3204117417 24775943.586921692 0 0 0 0 21986479.870644584 2582071.9342262261 0 2582071.9342262261 -373176.21635706734 0 0 0 0 -386118536.40576172 72405650.987136841 0 72405650.987136841 33925237.116048336 0 0 0 0 63562997.970367432 17930853.93775624 0 17930853.93775624 -2666297.7871971726 0 0 0 0 28468733.516174316 -10764030.707053579 0 -10764030.707053579 -25476837.95438081 0 0 0 0 -69711140.277180508 -75163458.032823116 0 -75163458.032823116 877221.35689139366 0 0 0 0 1704219.6417365819 312532.02762266248 0 312532.02762266248 -1077583.8271764915 0 0 0 0 -21276649.841400146 18997047.65828979 0 18997047.65828979 1008709.9457893372 0 0 0 0 2847241.9716242515 -461332.37473194301 0 -461332.37473194301 -305411.13591751305 0 0 0 0 -34204082.498504639 25941337.809727252 0 25941337.809727252 3759201.9621679783 0 0 0 0 83055649.100097656 29344674.226051152 0 29344674.226051152 17680633.371665955 0 0 0 0 -23455913.669189453 5530901.0898852348 0 5530901.0898852348 4811596.7413744926 0 0 0 0 -27886648.244354248 11900953.65391767 0 11900953.65391767 16607126.110877991 0 0 0 0 -50448354.176852226 -11592896.523942664 0 -11592896.523942664 7446493.7771406174 0 0 0 0 3322688.0483927652 2087186.4809121788 0 2087186.4809121788 -719036.01719384012 0 0 0 0 -52710961.674407959 12215883.581500173 0 12215883.581500173 9827560.9175103903 0 0 0 0 -33026537.503433228 27066500.538802341 0 27066500.538802341 30254057.566726059 0 0 0 0 57602039.511764526 47958087.581696004 0 47958087.581696004 -41918430.872415066 0 0 0 0 -98721569.048568726 66189442.937287711 0 66189442.937287711 14007439.655014366 0 0 0 0 -3178.4144113697112 -5867.145578533411 0 -5867.145578533411 1041173.1752223799 0 0 0 0 619881222.40361023 36420891.922555447 0 36420891.922555447 -143221764.76678586 0 0 0 0 201889670.64004517 -72860171.81905818 0 -72860171.81905818 33007176.224219799 0 0 0 0 125704484.8934021 89935712.65768528 0 89935712.65768528 58692796.164576411 0 0 0 0 99020860.968658447 19250365.468012691 0 19250365.468012691 44999151.759678751 0 0 0 0 6706270.8963165283 14588584.256623983 0 14588584.256623983 31522124.981763572 0 0 0 0 197684564.7220993 -8396107.4499627948 0 -8396107.4499627948 -26336285.915806293 0 0 0 0 1258823.0521462671 1581142.6470132619 0 1581142.6470132619 1935912.5842998526 0 0 0 0 6310436.6775825173 3168150.2075947821 0 3168150.2075947821 -6312640.2170053972 0 0 0 0 191893086.70825195 76894856.012852013 0 76894856.012852013 -11470682.550334528 0 0 0 0 145204990.15986633 -5270117.2397086024 0 -5270117.2397086024 -12504635.909854054 0 0 0 0 7848499.544052124 31661374.229724884 0 31661374.229724884 19174562.760457039 0 0 0 0 -3937187.1174316406 -3542153.2983057499 0 -3542153.2983057499 7057174.9717979431 0 0 0 0 -26206438.078994751 12780885.644796968 0 12780885.644796968 17025899.326126099 0 0 0 0 492925.57152666897 6183658.5890174657 0 6183658.5890174657 12098998.645185683 0 0 0 0 29219157.356864929 26195286.713417679 0 26195286.713417679 5177872.1043858528 0 0 0 0 26543952.223114014 14582761.218895197 0 14582761.218895197 5047082.3195285797 0 0 0 0 2967671.3198107556 3222137.2670643106 0 3222137.2670643106 10102624.690116266 0 0 0 0 288544358.07116699 -274715395.08049679 0 -274715395.08049679 464137645.76398468 0 0 0 0 14080596.941818237 32500638.73283565 0 32500638.73283565 18812838.405077934 0 0 0 0 -18672819.476928711 15045360.781139374 0 15045360.781139374 14972959.978208065 0 0 0 0 23786190.855987549 20230632.040690422 0 20230632.040690422 16887486.86486721 0 0 0 0 -24644452.290161133 18998375.792938709 0 18998375.792938709 24803887.801301956 0 0 0 0 -17140865.562561035 14493901.316491604 0 14493901.316491604 11317348.457437038 0 0 0 0 -16026314.501617432 9508388.1651704311 0 9508388.1651704311 5417260.7337818146 0 0 0 0 -29408787.68069458 -5893660.4177246094 0 -5893660.4177246094 815245.58784508705 0 0 0 0 141354745.81665039 131549857.78439331 0 131549857.78439331 119176998.94210815 0 0 0 0 445565.9792175293 20933581.501039505 0 20933581.501039505 -130992387.60525656 0 0 0 0 9727813.7979103923 -3359982.7314366139 0 -3359982.7314366139 -4514932.2720537558 0 0 0 0 523975432.47825623 369476714.58923721 0 369476714.58923721 448212927.78752136 0 0 0 0 382363742.6932373 71742338.643592834 0 71742338.643592834 14721766.906375885 0 0 0 0 42106586.061340332 47126128.620262146 0 47126128.620262146 -137513350.62754059 0 0 0 0 259588059.40106201 176131669.98721313 0 176131669.98721313 -14044325.616287231 0 0 0 0 95734384.497436523 -63299587.181678772 0 -63299587.181678772 -68154516.960929871 0 0 0 0 537701728.56292725 238752016.5334053 0 238752016.5334053 -28948066.147678375 0 0 0 0 658520444.28939819 160729179.77265167 0 160729179.77265167 -111911327.75869751 0 0 0 0 962431136.53137207 287123010.95137405 0 287123010.95137405 -202124940.12530422 0 0 0 0 1001759809.0493469 361876646.61975479 0 361876646.61975479 -98961498.784225464 0 0 0 0 798789775.90563965 327898510.59417152 0 327898510.59417152 -23208449.746948242 0 0 0 0 1037044815.3587646 335097859.56468964 0 335097859.56468964 -316632286.47517014 0 0 0 0 977403140.06109619 532106166.42127609 0 532106166.42127609 -103998945.41248322 0 0 0 0 923984231.8069458 561620847.65137863 0 561620847.65137863 278015623.33783722 0 0 0 0 936948964.40313721 423045174.3876152 0 423045174.3876152 -8674634.4784884453 0 0 0 0 936437963.20092773 385754257.48360062 0 385754257.48360062 -103669082.54532623 0 0 0 0 1077714628.1745605 957456338.98155785 0 957456338.98155785 541595561.29351997 0 0 0 0 1142149316.8995361 -349931658.57468414 0 -349931658.57468414 -52861077.108455658 0 0 0 0 82709416.484802246 -274926936.53658485 0 -274926936.53658485 -34602106.337001801 0 0 0 0 3231083.2337373495 -1087024.6111303829 0 -1087024.6111303829 -1286422.2279999871 0 0 0 0 1486155411.769104 700363047.24047089 0 700363047.24047089 13334310.95451355 0 0 0 0 1744351566.6471558 -1000805962.5300026 0 -1000805962.5300026 235569410.34584045 0 0 0 0 5408839.7426757812 98404284.291339874 0 98404284.291339874 -1045868.5941314697 0 0 0 0 79112255.923879385 97251411.630918175 0 97251411.630918175 -73387973.21912384 0 0 0 0 32941425.739990234 -12810642.041428566 0 -12810642.041428566 -98735010.596582413 0 0 0 0 -11106115.52142334 69932121.486107826 0 69932121.486107826 -33345666.282634735 0 0 0 0 157197.77810726315 -322028.16289780289 0 -322028.16289780289 -164026.5206434289 0 0 0 0 -9516573.3623504639 111146231.91802382 0 111146231.91802382 -3512784.7883930206 0 0 0 0 -2014860.6423950195 45975658.905133247 0 45975658.905133247 50942661.712399483 0 0 0 0 120594805.72460938 -166821002.63803577 0 -166821002.63803577 194098519.45796967 0 0 0 0 -3245201.0991210938 6002632.5944085121 0 6002632.5944085121 1793085.639995575 0 0 0 0 153817924.46159363 -5102422.6546478271 0 -5102422.6546478271 -37492902.070613861 0 0 0 0 21852605.487365723 -15469261.999655724 0 -15469261.999655724 -1820950.4222126007 0 0 0 0 85889129.367919922 -563705.6792640686 0 -563705.6792640686 -11642831.965338707 0 0 0 0 4651829.5713164127 469001.39134442061 0 469001.39134442061 -9302826.361278303 0 0 0 0 1336405.0996551439 -302536.93321601301 0 -302536.93321601301 -1329629.1400716035 0 0 0 0 5751209.1668701172 1019124.8171157837 0 1019124.8171157837 1551945.1494903564 0 0 0 0 -7184039.7899017334 -19678307.966076851 0 -19678307.966076851 -31301744.956941605 0 0 0 0 -26250261.897171021 39622028.745920181 0 39622028.745920181 -72646301.749065399 0 0 0 0 10318354.905029297 -22846981.035362244 0 -22846981.035362244 30733190.757751465 0 0 0 0 -77063.768983617425 -148104.7019001469 0 -148104.7019001469 -663893.58635789063 0 0 0 0 108591301.11022949 -67253604.93321228 0 -67253604.93321228 -122472568.19028854 0 0 0 0 90778882.466308594 -24629632.114055634 0 -24629632.114055634 -102529334.01950073 0 0 0 0 -98145121.49597168 -69839359.128608704 0 -69839359.128608704 -73630719.291381836 0 0 0 0 154214843.35980225 -65203188.709997177 0 -65203188.709997177 -110169350.61592865 0 0 0 0 82732858.775268555 -117152646.19225311 0 -117152646.19225311 -188293433.47967148 0 0 0 0 99849153.610328674 12822700.006283045 0 12822700.006283045 -8808788.8714523315 0 0 0 0 -137076324.17370605 -181411212.98232269 0 -181411212.98232269 -126459691.18835068 0 0 0 0 7272347.7877008328 -3717171.4302256405 0 -3717171.4302256405 -4753618.5624343054 0 0 0 0 -272131822.32202148 -125214425.28351974 0 -125214425.28351974 -48093159.698242188 0 0 0 0 8437796.3966522217 -1937710.7641906738 0 -1937710.7641906738 -1971099.1440429688 0 0 0 0 9531635.6749562025 -1272267.0548397787 0 -1272267.0548397787 -11735645.166134227 0 0 0 0 -105675010.05596924 -113131070.04382324 0 -113131070.04382324 -72030985.734603882 0 0 0 0 14209619.846017316 -4916303.6787931509 0 -4916303.6787931509 -9018766.808911521 0 0 0 0 3630794.5480922312 988369.18888824433 0 988369.18888824433 -7397359.772049129 0 0 0 0 7456594.2504724711 -4063318.3867068365 0 -4063318.3867068365 -2492053.1027759528 0 0 0 0 26218582.778045654 -11640697.810178876 0 -11640697.810178876 -20175636.889775753 0 0 0 0 10861232.468933105 5813753.9735372066 0 5813753.9735372066 12191214.577128887 0 0 0 0 171701254.83178711 5428256.1444320679 0 5428256.1444320679 -118214283.91558838 0 0 0 0 229474521.4118042 115302534.28951931 0 115302534.28951931 -44421822.678123474 0 0 0 0 3726611.1176757812 -6100725.9772872925 0 -6100725.9772872925 -16960704.796020508 0 0 0 0 12967360.459594727 -17043448.644268036 0 -17043448.644268036 -7732215.1845405102 0 0 0 0 3833394.0019062012 -627653.14760334417 0 -627653.14760334417 -5397672.5901099145 0 0 0 0 -3170977.1774902344 -9698788.2749958038 0 -9698788.2749958038 -13484144.147304535 0 0 0 0 57102679.032043457 10248829.013424873 0 10248829.013424873 -2754490.0025043488 0 0 0 0 18426825.845092773 5978399.5498981476 0 5978399.5498981476 1012494.864408493 0 0 0 0 22874684.466552734 -5942991.1015367508 0 -5942991.1015367508 -10745395.288633347 0 0 0 0 -9443827.2028198242 23694118.450391293 0 23694118.450391293 8637677.5603313446 0 0 0 0 221410.21136906743 21426.107162714005 0 21426.107162714005 -101365.08572563343 0 0 0 0 -10772920.477111816 -16963646.338785172 0 -16963646.338785172 -25181116.71308136 0 0 0 0 -416214.42064285278 -25130571.133375794 0 -25130571.133375794 -28198581.617091656 0 0 0 0 -1074987.2977294922 -19371069.050379515 0 -19371069.050379515 -7970834.8956365585 0 0 0 0 -4117086.3153686523 -7435787.9983363152 0 -7435787.9983363152 -14325394.698876143 0 0 0 0 2834780.626444757 -3426898.2785300165 0 -3426898.2785300165 625810.12903380883 0 0 0 0 21307212.259521484 -4123649.4299860001 0 -4123649.4299860001 -19415542.179195136 0 0 0 0 19065833.173065186 -30069670.286907792 0 -30069670.286907792 -15158490.264470816 0 0 0 0 -19530706.598022461 -25714910.032603025 0 -25714910.032603025 -23350598.920993924 0 0 0 0 4991032.3873253884 -1936269.7855283916 0 -1936269.7855283916 -10911835.566647734 0 0 0 0 41512356.647903442 -24295152.401364207 0 -24295152.401364207 -24535577.669383526 0 0 0 0 110756510.59866333 88575224.968701363 0 88575224.968701363 137095915.94841194 0 0 0 0 48725746.198547363 -8860306.4705655575 0 -8860306.4705655575 -29136164.631569624 0 0 0 0 2118575.708555311 1502949.5042460039 0 1502949.5042460039 1347630.9339098018 0 0 0 0 29984354.036018372 12757145.824591875 0 12757145.824591875 -94488704.21099472 0 0 0 0 316450283.81298828 -248999734.41697121 0 -248999734.41697121 153203404.67052078 0 0 0 0 1555348165.2072144 -81721245.965175629 0 -81721245.965175629 -35851989.845842838 0 0 0 0 1455320011.6154175 116631123.27796173 0 116631123.27796173 -86358224.023735046 0 0 0 0 874786789.61560059 -185593294.79889297 0 -185593294.79889297 -51362299.262514114 0 0 0 0 806410213.36026001 42171748.717199326 0 42171748.717199326 101937080.41625977 0 0 0 0 790745524.91247559 61548858.268753052 0 61548858.268753052 106753932.32296753 0 0 0 0 1108190001.0979614 131123428.33763313 0 131123428.33763313 32787056.259262085 0 0 0 0 75305143.483856201 -4650957.5463719368 0 -4650957.5463719368 270148450.14196014 0 0 0 0 426496659.652771 -26980132.18044281 0 -26980132.18044281 134817155.91811562 0 0 0 0 414020634.23468018 67060478.107589722 0 67060478.107589722 89657967.858921051 0 0 0 0 288522859.72259521 15758434.466060638 0 15758434.466060638 90956271.777471066 0 0 0 0 476073219.51202393 126011321.59560585 0 126011321.59560585 -45170111.304756165 0 0 0 0 772835638.09283447 72250820.465936661 0 72250820.465936661 12972036.600345612 0 0 0 0 753565680.63677979 84625504.468954086 0 84625504.468954086 171613118.43444824 0 0 0 0 491272305.05383301 80203346.346374512 0 80203346.346374512 35687663.589826584 0 0 0 0 756052691.13510132 63116159.800761223 0 63116159.800761223 -71782069.044281006 0 0 0 0 463815644.20446777 144592608.94310379 0 144592608.94310379 -64780398.123699188 0 0 0 0 820729307.74588013 199090883.09305096 0 199090883.09305096 -125461333.07281494 0 0 0 0 859901380.36602783 137005108.32166481 0 137005108.32166481 -128819152.87373352 0 0 0 0 688728785.95318604 225595173.17169571 0 225595173.17169571 -105914561.76737022 0 0 0 0 644693962.82571411 105830320.88393021 0 105830320.88393021 -123543043.954422 0 0 0 0 259836396.79650879 93163415.269126892 0 93163415.269126892 -26250654.589529991 0 0 0 0 397909158.67016602 16198776.580526352 0 16198776.580526352 -61205426.250053406 0 0 0 0 81594858.15316391 19087789.021728843 0 19087789.021728843 6263558.2251563072 0 0 0 0 2744294.8690758273 2320873.5987160876 0 2320873.5987160876 7282844.2619713983 0 0 0 0 1072906743.9092102 206815935.2807436 0 206815935.2807436 -170671449.70785141 0 0 0 0 1017742465.5153198 269281536.13950539 0 269281536.13950539 -240357610.74481583 0 0 0 0 1053740739.8934326 174065992.62666321 0 174065992.62666321 -196625764.17974854 0 0 0 0 924001700.51922607 264090449.03429031 0 264090449.03429031 -201349273.71132648 0 0 0 0 1016843571.9042358 131906440.95840454 0 131906440.95840454 -105917838.22915459 0 0 0 0 1006923102.7380981 78640122.156951427 0 78640122.156951427 148319803.18314362 0 0 0 0 870440037.96026611 155174580.4899826 0 155174580.4899826 -93273206.68914032 0 0 0 0 9282012.0875358023 -84552.967817656696 0 -84552.967817656696 -282107.00387816993 0 0 0 0 39261771.328048706 8269421.2013885975 0 8269421.2013885975 5888270.3586570546 0 0 0 0 4232801.9023873806 2056532.122943975 0 2056532.122943975 4606785.0603523869 0 0 0 0 1585304873.74646 502328224.16491508 0 502328224.16491508 -26804503.785369873 0 0 0 0 1328388385.9876938 552103820.24036217 0 552103820.24036217 186154618.49713516 0 0 0 0 939603404.31811523 316645216.01942825 0 316645216.01942825 381642399.49526405 0 0 0 0 39086823.287963867 7408778.3314706087 0 7408778.3314706087 1673082.6446638107 0 0 0 0 -70325849.61665225 297614678.08800852 0 297614678.08800852 -47896952.520406723 0 0 0 0 1579782098.7150269 470808485.00924397 0 470808485.00924397 101415453.65745163 0 0 0 0 20071923.383973345 4122426.8242369699 0 4122426.8242369699 51365.211510525995 0 0 0 0 33036730.218200684 6450013.4640827775 0 6450013.4640827775 928923.83248480258 0 0 0 0 -106807700.36479187 247435601.49553299 0 247435601.49553299 91744755.392141342 0 0 0 0 8266.8456965088844 -194456.79078103602 0 -194456.79078103602 1474194.2849470563 0 0 0 0 2400044467.3676147 313348186.55111694 0 313348186.55111694 -112854992.41354752 0 0 0 0 1965908119.9799194 60932105.193508148 0 60932105.193508148 -13254774.868077278 0 0 0 0 1767579638.0778198 1055746461.4651713 0 1055746461.4651713 471453616.81707001 0 0 0 0 46467.450353324413 298720.60660660872 0 298720.60660660872 220414.98204062003 0 0 0 0 2264926244.4932251 557303014.9013195 0 557303014.9013195 -466429902.48615623 0 0 0 0 1951408574.4166565 480215838.54652643 0 480215838.54652643 344834999.45835066 0 0 0 0 7862655.340076074 -689184.28386663646 0 -689184.28386663646 3240083.0025259648 0 0 0 0 23370964.653640747 1175093.653878659 0 1175093.653878659 2145331.4587867707 0 0 0 0 1871468049.1206055 740565957.80127895 0 740565957.80127895 -149756603.07701695 0 0 0 0 697831311.27160645 589505501.52494621 0 589505501.52494621 232125583.47811604 0 0 0 0 31623841.924789429 -2132302.8027405404 0 -2132302.8027405404 -849694.61695307493 0 0 0 0 11334535.078094482 -15314752.285227831 0 -15314752.285227831 -17092970.643161505 0 0 0 0 8237413.5105074868 643697.6483720541 0 643697.6483720541 -303866.86191370251 0 0 0 0 36310045.655029297 6047565.0703185499 0 6047565.0703185499 -2834512.2016170025 0 0 0 0 -5347863.7890930176 -38429098.603592843 0 -38429098.603592843 -28131995.599083766 0 0 0 0 52492691.797180176 22380593.909741871 0 22380593.909741871 -22123112.52530697 0 0 0 0 2507215.8169247098 268106.20521757752 0 268106.20521757752 -74254.188023191746 0 0 0 0 2658375.7765689567 -442872.03214368969 0 -442872.03214368969 554507.11243742926 0 0 0 0 -31110790.557144165 -109417336.05506793 0 -109417336.05506793 -70460214.817982346 0 0 0 0 -6054836.4739685059 -27628066.080761336 0 -27628066.080761336 -64825172.464786738 0 0 0 0 91481984.85333252 -7441209.1368000656 0 -7441209.1368000656 -81840159.007159531 0 0 0 0 177682007.49105835 31366890.039274536 0 31366890.039274536 -520211.58643591718 0 0 0 0 57678553.835525513 -123409903.63703851 0 -123409903.63703851 -128976392.02637458 0 0 0 0 1158205141.96875 -164710198.64958072 0 -164710198.64958072 -179272949.217089 0 0 0 0 44975951.590026855 24959306.109528445 0 24959306.109528445 -32710321.66120737 0 0 0 0 21839821.081512451 -13112061.838449419 0 -13112061.838449419 -2863237.2096253829 0 0 0 0 186287254.58957672 -114840554.44433418 0 -114840554.44433418 -69430199.942139268 0 0 0 0 207047482.53087616 -195689764.6494534 0 -195689764.6494534 162637767.3351059 0 0 0 0 84289458.152954102 -97422646.816146791 0 -97422646.816146791 703017.25338304334 0 0 0 0 822517761.54559326 598864317.84563327 0 598864317.84563327 525560152.18741715 0 0 0 0 692875.60569233447 -474716.08483494818 0 -474716.08483494818 -1672721.8472347022 0 0 0 0 2074385939.0540161 447026130.45693493 0 447026130.45693493 -586178165.41012836 0 0 0 0 375252459.5680542 239260162.79749513 0 239260162.79749513 406735897.89520001 0 0 0 0 -176499666.13633728 111874217.2139205 0 111874217.2139205 38867491.753403127 0 0 0 0 116845263.04251099 187713954.86606032 0 187713954.86606032 -115167583.32968166 0 0 0 0 120608462.43370914 120415383.11522478 0 120415383.11522478 155042741.84157893 0 0 0 0 91661196.743179321 54363170.380960971 0 54363170.380960971 -50454652.36501193 0 0 0 0 46677857.839813232 31012288.571996331 0 31012288.571996331 -45721620.356440097 0 0 0 0 1263400250.6716156 100854750.45741463 0 100854750.45741463 -100005549.1607008 0 0 0 0 210601311.88684082 -288679128.01342964 0 -288679128.01342964 23621524.015958786 0 0 0 0 2295421.5945569854 -1119312.4630507752 0 -1119312.4630507752 -5859899.0554725556 0 0 0 0 -129341589.36033249 -106060119.2871691 0 -106060119.2871691 118493939.533041 0 0 0 0 39907793.532331467 27944439.18843852 0 27944439.18843852 -24895973.142922878 0 0 0 0 19772541.378509521 -41444175.687252998 0 -41444175.687252998 -64209930.929666996 0 0 0 0 34209113.384796143 12562306.604118347 0 12562306.604118347 -62178375.381689787 0 0 0 0 33751138.928710938 10300427.686123252 0 10300427.686123252 -47913979.260112286 0 0 0 0 -156448.42726802826 -121374.28961101174 0 -121374.28961101174 -224331.97124725417 0 0 0 0 3086454.7134253681 -2786444.9376155734 0 -2786444.9376155734 269025.51840146095 0 0 0 0 -29677787.716278076 -64377201.022150993 0 -64377201.022150993 -75383072.906899214 0 0 0 0 -36006876.463623047 -45589327.529408216 0 -45589327.529408216 -36319637.33798027 0 0 0 0 -31071498.906784058 8543487.3111975193 0 8543487.3111975193 -13631240.158513546 0 0 0 0 20752117.765457153 -19351842.949472368 0 -19351842.949472368 -83469397.257269382 0 0 0 0 30882604.919616699 -50535432.12932837 0 -50535432.12932837 -123436262.56815195 0 0 0 0 -13057400.613220215 -28758330.967051268 0 -28758330.967051268 -107160903.52832794 0 0 0 0 -83706782.299926758 -23736449.789926529 0 -23736449.789926529 -97084605.08106184 0 0 0 0 -9284525.7473754883 -73996240.286747336 0 -73996240.286747336 -94830145.137738228 0 0 0 0 20160085.532958984 -16729417.368369818 0 -16729417.368369818 -78805230.106692314 0 0 0 0 875699.8368690908 -124760.72119564563 0 -124760.72119564563 -615263.37986494286 0 0 0 0 -345794.76544189453 -8051327.3428711891 0 -8051327.3428711891 9875080.4066728354 0 0 0 0 151266178.11668396 253100696.80335593 0 253100696.80335593 157810314.69618797 0 0 0 0 45703507.73815918 -8579125.024872303 0 -8579125.024872303 39290583.100588322 0 0 0 0 -34190000.533569336 27027231.941000462 0 27027231.941000462 28483116.593325615 0 0 0 0 81002052.361846924 -67937617.758129478 0 -67937617.758129478 27671628.323804855 0 0 0 0 161229522.88049316 -81490461.427122951 0 -81490461.427122951 19790245.507007122 0 0 0 0 190289630.72235107 -19174170.639278889 0 -19174170.639278889 272491.32744193077 0 0 0 0 -112411907.4646225 -193188733.99282739 0 -193188733.99282739 -62110416.563763261 0 0 0 0 1425325.1915458888 -1562856.5890512019 0 -1562856.5890512019 808033.04601443326 0 0 0 0 -134988609.28384399 -43180203.05541718 0 -43180203.05541718 -62929000.362008095 0 0 0 0 -10019357.40700531 -178002909.78365877 0 -178002909.78365877 -99279390.545114756 0 0 0 0 59961671.817451477 114763.39291366935 0 114763.39291366935 -97460486.671267509 0 0 0 0 -88158100.245605469 -71009746.320349813 0 -71009746.320349813 -78293579.340870857 0 0 0 0 85349342.434936523 -95452770.014430523 0 -95452770.014430523 -88468296.692568064 0 0 0 0 -20316769.45249176 -115479508.92492099 0 -115479508.92492099 -57777625.887500286 0 0 0 0 54398261.643218994 19859999.284216672 0 19859999.284216672 -64377705.85150063 0 0 0 0 63744942.483001709 20066331.006535888 0 20066331.006535888 -65886893.508332491 0 0 0 0 195831712.03942871 -271778893.61679351 0 -271778893.61679351 151803400.92965066 0 0 0 0 178512298.71905518 39182437.723692 0 39182437.723692 -67885704.560464114 0 0 0 0 503022924.20788574 -33919204.069435775 0 -33919204.069435775 -51630786.596258856 0 0 0 0 213802647.30352783 -168535244.41153809 0 -168535244.41153809 -45834737.500518203 0 0 0 0 -64822129.19732666 -88492063.335298881 0 -88492063.335298881 -41360664.279593036 0 0 0 0 -128306852.30976868 -192328321.94687378 0 -192328321.94687378 332509174.72814137 0 0 0 0 -38104659.99609375 -163640639.34100825 0 -163640639.34100825 128143254.6285398 0 0 0 0 -187660452.23415375 -85431124.389976621 0 -85431124.389976621 184147337.81254113 0 0 0 0 -284112387.66424561 -36223864.323048353 0 -36223864.323048353 176148970.72994107 0 0 0 0 99335512.710876465 18748313.022611991 0 18748313.022611991 -87919587.669765651 0 0 0 0 869256.60871440172 -336192.99075514358 0 -336192.99075514358 23625.655559788669 0 0 0 0 335856368.48178101 -129887200.61716662 0 -129887200.61716662 -318583.49832434015 0 0 0 0 -129957939.12414551 40643052.102453873 0 40643052.102453873 404753.895670395 0 0 0 0 540212244.68823242 -142464415.91932583 0 -142464415.91932583 -314977610.05636597 0 0 0 0 -90709072.240875244 28941011.275708586 0 28941011.275708586 -72815825.032630086 0 0 0 0 2096588.4209455997 -361920.1175483712 0 -361920.1175483712 -49712.218803842487 0 0 0 0 -33314511.418106079 -42210899.74656409 0 -42210899.74656409 -88075.187693787389 0 0 0 0 405092.92101055384 -495100.28740675002 0 -495100.28740675002 398353.47040030384 0 0 0 0 -205900283.99583817 7214798.7537995577 0 7214798.7537995577 142787280.21594453 0 0 0 0 405025.84283773601 -325113.00660474598 0 -325113.00660474598 -6057.0951342689805 0 0 0 0 837966700.61279297 -20433490.49579978 0 -20433490.49579978 -270750140.80184293 0 0 0 0 634730335.77905273 -480912682.45601511 0 -480912682.45601511 298647541.22376454 0 0 0 0 331423220.3918457 192122889.39526951 0 192122889.39526951 28171678.774227142 0 0 0 0 165683436.69711304 -179047217.98200282 0 -179047217.98200282 103316090.55769229 0 0 0 0 162839277.57998657 41100559.762996972 0 41100559.762996972 136618216.97253156 0 0 0 0 -288124652.40488148 65231681.946606569 0 65231681.946606569 112022964.11385143 0 0 0 0 -344230974.11010742 -425638921.47708786 0 -425638921.47708786 122526565.03508717 0 0 0 0 27905893.729888916 -304575998.30732286 0 -304575998.30732286 147310241.40603948 0 0 0 0 -475029837.36401367 57790329.839690626 0 57790329.839690626 214923280.29407716 0 0 0 0 100483274.64025879 34636516.934200525 0 34636516.934200525 215135784.57362255 0 0 0 0 -126399728.59042358 -161519123.00029528 0 -161519123.00029528 245501688.72447562 0 0 0 0 23943579.315093994 -65987378.751636982 0 -65987378.751636982 250165828.98078892 0 0 0 0 48855498.79548645 -79759225.682031631 0 -79759225.682031631 24482747.98571825 0 0 0 0 4609809.2542114258 80499143.186277151 0 80499143.186277151 43524382.289952755 0 0 0 0 179973700.77498627 19378458.553829342 0 19378458.553829342 -143722943.34007359 0 0 0 0 272052338.10864258 -102731965.05045557 0 -102731965.05045557 -76404458.154908895 0 0 0 0 238197668.79415894 222483583.44095087 0 222483583.44095087 31935917.726268649 0 0 0 0 1279999.9787818175 -818417.749901779 0 -818417.749901779 -574817.12971551949 0 0 0 0 -44020322.790008545 31501619.054183245 0 31501619.054183245 -2993805.2426102161 0 0 0 0 74775981.348022461 -43358249.032714844 0 -43358249.032714844 316578831.8307147 0 0 0 0 276816770.42939758 218713619.67094874 0 218713619.67094874 -124293425.04839897 0 0 0 0 35733315.311126709 8331784.0690397024 0 8331784.0690397024 51010973.550235033 0 0 0 0 15342285.059265137 -27889938.364228249 0 -27889938.364228249 -130883121.9178248 0 0 0 0 4434081.3754128516 -2711110.5180688202 0 -2711110.5180688202 590315.67708562349 0 0 0 0 12917536.024350166 12968496.026866928 0 12968496.026866928 -5191591.061662674 0 0 0 0 61524326.60005188 -231999388.28039122 0 -231999388.28039122 -204208864.94100094 0 0 0 0 139754984.01657104 130555749.10831594 0 130555749.10831594 -30949440.216777802 0 0 0 0 2847194.1594499703 -1885873.6039833426 0 -1885873.6039833426 -2236919.5014594947 0 0 0 0 5183004.6994480789 -3753285.0023411736 0 -3753285.0023411736 920928.31587960979 0 0 0 0 10910826.353561401 -889798.26318049431 0 -889798.26318049431 -22517828.120096445 0 0 0 0 24535072.692131042 -9418116.377748251 0 -9418116.377748251 12279095.816018105 0 0 0 0 123822591.3894043 -20038582.338814259 0 -20038582.338814259 -63895619.156094313 0 0 0 0 97067377.108764648 37555308.351723194 0 37555308.351723194 103568446.06973839 0 0 0 0 133145456.6184082 65761073.668236732 0 65761073.668236732 20836818.723669052 0 0 0 0 1766372.8442784697 -884853.63528729975 0 -884853.63528729975 -1126387.2578060208 0 0 0 0 85043651.62878418 43340698.930073738 0 43340698.930073738 24072137.409827232 0 0 0 0 -2169408.3960723877 -1922031.8487253189 0 -1922031.8487253189 -9436871.4672374725 0 0 0 0 -2314760.4649658203 -6935749.4499912262 0 -6935749.4499912262 -6943343.3001785278 0 0 0 0 101505075.97360229 28332605.138912916 0 28332605.138912916 20832191.344073296 0 0 0 0 3937815.5366579294 -717170.48706042022 0 -717170.48706042022 -4040323.7606949215 0 0 0 0 91353772.776855469 45585303.441993713 0 45585303.441993713 -6176624.3616914749 0 0 0 0 42311390.626647949 36279903.703075409 0 36279903.703075409 25316615.694378853 0 0 0 0 92658329.640180588 35304710.17986393 0 35304710.17986393 2770936.9398860931 0 0 0 0 52008199.177307129 29477847.474640608 0 29477847.474640608 772775.75318717957 0 0 0 0 81394148.0415802 33669259.619098663 0 33669259.619098663 4326289.7134275436 0 0 0 0 102198987.65039062 20085218.872080803 0 20085218.872080803 -280041.9776058197 0 0 0 0 108625231.99835205 46221067.845943928 0 46221067.845943928 9577424.8967146873 0 0 0 0 8475422.3871459961 -40574538.968500137 0 -40574538.968500137 -310257853.64956665 0 0 0 0 5033891.9814258814 -2595062.3942629695 0 -2595062.3942629695 -515922.87126217969 0 0 0 0 92726538.09854126 36424747.46198225 0 36424747.46198225 1931837.68490839 0 0 0 0 93419931.700286865 34184424.942372799 0 34184424.942372799 4053492.7014846802 0 0 0 0 88195128.909385681 79135646.105718136 0 79135646.105718136 58745870.832454681 0 0 0 0 84312458.652877808 34924149.022829533 0 34924149.022829533 27119188.581896782 0 0 0 0 86721485.669811726 45998165.553716458 0 45998165.553716458 1269072.3973731995 0 0 0 0 -150515919.44424438 -280219999.47654581 0 -280219999.47654581 -149384519.04661942 0 0 0 0 263020360.99621582 119115632.42463017 0 119115632.42463017 26271608.491530418 0 0 0 0 2768207.0447780192 -1393394.6265349239 0 -1393394.6265349239 -255322.8726706421 0 0 0 0 -200954066.79940796 -224339156.58460879 0 -224339156.58460879 -20694501.048397064 0 0 0 0 -158746508.53289795 -318951825.97795486 0 -318951825.97795486 -253563740.8444519 0 0 0 0 -251370948.17837524 -204093945.02964211 0 -204093945.02964211 94071051.119146109 0 0 0 0 206668045.85002899 20008849.319159508 0 20008849.319159508 -294209326.12036514 0 0 0 0 196648757.03189087 28866860.700451851 0 28866860.700451851 -26991689.117594719 0 0 0 0 622219893.72665405 -124973361.34446526 0 -124973361.34446526 -14432014.836849213 0 0 0 0 90695994.320526123 -45701714.626723289 0 -45701714.626723289 -134422675.67998314 0 0 0 0 365192909.35269165 -253891383.47346354 0 -253891383.47346354 -272055384.65561104 0 0 0 0 -376602123.60342407 -421430779.44904995 0 -421430779.44904995 -302907392.67103004 0 0 0 0 1248792.0209017321 -1195001.2130466774 0 -1195001.2130466774 -865059.13640152849 0 0 0 0 528304012.53015137 287649692.37620926 0 287649692.37620926 262976464.34707975 0 0 0 0 64469688.620819092 -76701749.581208706 0 -76701749.581208706 542440428.92336273 0 0 0 0 31826325.361785889 41987836.79093504 0 41987836.79093504 159933553.624192 0 0 0 0 -90799412.382293701 -132142516.37964344 0 -132142516.37964344 -26135281.379624844 0 0 0 0 -90549106.235321045 -179207442.89457583 0 -179207442.89457583 67559251.579463959 0 0 0 0 -118662060.03033447 -151633229.35327244 0 -151633229.35327244 -223000603.5946579 0 0 0 0 -177638679.00082397 -42158800.331790924 0 -42158800.331790924 -81235068.501350403 0 0 0 0 -153577891.45495605 -181422568.43485737 0 -181422568.43485737 -22869715.428153992 0 0 0 0 -174959000.25048828 -62104884.854839325 0 -62104884.854839325 2129416.6017313004 0 0 0 0 -142895720.84539795 -94575193.876391411 0 -94575193.876391411 31920125.001788139 0 0 0 0 -174459571.70991492 -108039237.70679179 0 -108039237.70679179 -213478.49980163574 0 0 0 0 -186661762.89266968 -38049268.611727715 0 -38049268.611727715 117600853.14764023 0 0 0 0 -180604956.63249207 -49818102.439368486 0 -49818102.439368486 37068736.668441772 0 0 0 0 -169490721.34960938 -52228443.025865555 0 -52228443.025865555 37345303.813741684 0 0 0 0 -149032708.33572388 -59692658.985358238 0 -59692658.985358238 254887313.69683456 0 0 0 0 -27550648.638916016 131909588.47197342 0 131909588.47197342 185699239.72891474 0 0 0 0 -75886070.487815857 19919890.317372561 0 19919890.317372561 -11722998.41368103 0 0 0 0 20994659.468078613 174498094.80758476 0 174498094.80758476 112909467.04075241 0 0 0 0 348985.55116108782 342362.41138850152 0 342362.41138850152 -205646.65659742244 0 0 0 0 16361517.588974237 -8376806.6922264621 0 -8376806.6922264621 -37358997.23718071 0 0 0 0 -149284488.34274292 99201607.113918304 0 99201607.113918304 56869171.200126648 0 0 0 0 -23433260.94593811 84834671.990879536 0 84834671.990879536 -57935744.647161484 0 0 0 0 -8614849.9108276367 23933921.79679203 0 23933921.79679203 -39809052.03612113 0 0 0 0 291894102.14242554 124768458.01073647 0 124768458.01073647 -273945940.58300209 0 0 0 0 65854184.590637207 -82698653.385286331 0 -82698653.385286331 -308147741.11399722 0 0 0 0 120908791.04924011 74267104.324193478 0 74267104.324193478 71997209.753973007 0 0 0 0 123522850.27043533 100768210.86735588 0 100768210.86735588 301865849.22873688 0 0 0 0 445007822.105896 357896721.44549894 0 357896721.44549894 47307801.81193161 0 0 0 0 557916875.8460083 196080721.2414484 0 196080721.2414484 63971394.333427429 0 0 0 0 694921901.00839233 403914403.69900417 0 403914403.69900417 -2584850.5563576221 0 0 0 0 634869932.8820343 318999960.60831594 0 318999960.60831594 -121467765.86756992 0 0 0 0 460171955.26036835 480242410.0473516 0 480242410.0473516 334229755.29065228 0 0 0 0 25241.811362370849 92641.675775654614 0 92641.675775654614 56322.623723940458 0 0 0 0 254928006.10037231 211598930.97372627 0 211598930.97372627 203202491.75707245 0 0 0 0 354327995.89474487 212525998.21472788 0 212525998.21472788 96172612.06284523 0 0 0 0 347856851.13964844 99724106.471237183 0 99724106.471237183 73304169.068683624 0 0 0 0 1001318564.0065918 280796278.83366013 0 280796278.83366013 627966391.26091003 0 0 0 0 1554423072.4889832 256105040.99374342 0 256105040.99374342 -258764109.73859787 0 0 0 0 321332690.57385254 188134817.82601404 0 188134817.82601404 91970472.689653397 0 0 0 0 -37966.706621341407 224422.6083849147 0 224422.6083849147 522996.05661793053 0 0 0 0 903825243.25587463 571026461.09232497 0 571026461.09232497 -127961708.96982861 0 0 0 0 477230529.69256592 -277329947.56426907 0 -277329947.56426907 26048933.191186905 0 0 0 0 985802.09295198321 -951189.46316407807 0 -951189.46316407807 178831.13884788239 0 0 0 0 161108443.84983826 -178908772.29822922 0 -178908772.29822922 25336977.229795456 0 0 0 0 607271123.18510437 38085745.681771994 0 38085745.681771994 -231391012.82729053 0 0 0 0 -224659.5717350468 453175.99833358079 0 453175.99833358079 834600.50601095613 0 0 0 0 463057353.68757629 155459082.42594615 0 155459082.42594615 -171082471.63874102 0 0 0 0 464366031.09854126 154013432.31221199 0 154013432.31221199 -244254719.18974185 0 0 0 0 317115148.21270752 208184000.90359688 0 208184000.90359688 101647078.25802422 0 0 0 0 414790566.47862244 111492258.1762042 0 111492258.1762042 -116345968.96854424 0 0 0 0 304011775.83279419 2593218.2714102268 0 2593218.2714102268 -195641696.6954087 0 0 0 0 333041520.24224854 -17258620.080310822 0 -17258620.080310822 -242943622.82274771 0 0 0 0 282610832.66970825 120207639.59672785 0 120207639.59672785 167578326.11898899 0 0 0 0 251551198.51196289 62901237.352352381 0 62901237.352352381 94184019.653841019 0 0 0 0 104783200.25604248 127852154.54273129 0 127852154.54273129 195699653.95486641 0 0 0 0 133839065.77938843 27615307.232314825 0 27615307.232314825 84551051.959596157 0 0 0 0 308404084.84680176 118174955.80363369 0 118174955.80363369 117386667.40870774 0 0 0 0 311467232.77282715 160948354.76537275 0 160948354.76537275 67547604.247413635 0 0 0 0 380351709.03735352 219360406.3893292 0 219360406.3893292 77923175.801230431 0 0 0 0 301890223.79382324 188758890.12083244 0 188758890.12083244 81691644.472595215 0 0 0 0 377027669.43380737 145366744.52404213 0 145366744.52404213 98310458.23009491 0 0 0 0 332455958.57498169 198618767.14588833 0 198618767.14588833 72443260.312438965 0 0 0 0 297277482.26623535 160732541.60808563 0 160732541.60808563 74677736.260981321 0 0 0 0 294454330.72848511 171389251.07144213 0 171389251.07144213 42955875.682518005 0 0 0 0 165707668.62158203 117528302.94023132 0 117528302.94023132 56854035.923126221 0 0 0 0 186454812.48864746 11415069.652330399 0 11415069.652330399 -16105018.474256516 0 0 0 0 237795143.24468994 106227715.20191193 0 106227715.20191193 41235318.080432892 0 0 0 0 289651831.73706055 125391110.17818928 0 125391110.17818928 -3820310.0753421783 0 0 0 0 263311574.37710571 161811632.88719845 0 161811632.88719845 75416151.082956314 0 0 0 0 282113200.08984375 172733760.80109429 0 172733760.80109429 172754589.09993076 0 0 0 0 -86196383.594515324 -30200572.827437926 0 -30200572.827437926 110273525.21711922 0 0 0 0 450373306.00360107 98388134.864485741 0 98388134.864485741 15051935.068153381 0 0 0 0 -228813.47457379918 666651.75165876001 0 666651.75165876001 113665.96802913956 0 0 0 0 403710853.7489624 205161535.64954567 0 205161535.64954567 47649062.334451675 0 0 0 0 -1899403.9501328245 1731663.2665626481 0 1731663.2665626481 261102.36628681468 0 0 0 0 373527685.45275879 108632607.20172882 0 108632607.20172882 -167969803.20215607 0 0 0 0 -9913.2878032922745 62014.394010834396 0 62014.394010834396 -87771.622854447924 0 0 0 0 1560615.5278616941 1022010.5505077019 0 1022010.5505077019 -2088338.2854817566 0 0 0 0 1764345.1583690643 806831.1618475765 0 806831.1618475765 -1076689.4798545837 0 0 0 0 213829015.29025269 115331134.55181789 0 115331134.55181789 70565557.371483922 0 0 0 0 53968455.601715088 75410365.210925102 0 75410365.210925102 89214092.878011703 0 0 0 0 3928049.942283392 738957.31959361956 0 738957.31959361956 -1933863.6749620307 0 0 0 0 148814778.35864258 146102404.15419769 0 146102404.15419769 76536255.535709381 0 0 0 0 234498510.77087402 110666109.33810234 0 110666109.33810234 40546590.836654663 0 0 0 0 271197116.33184814 165723235.17649651 0 165723235.17649651 80247997.958328724 0 0 0 0 228120953.43451691 134505552.12632096 0 134505552.12632096 72063390.254735947 0 0 0 0 274860753.36801147 161585664.47128868 0 161585664.47128868 78303039.620077133 0 0 0 0 212858067.3817749 108119091.18572617 0 108119091.18572617 94912149.87117362 0 0 0 0 209086213.93496704 152908519.42467022 0 152908519.42467022 141829653.44285774 0 0 0 0 313910223.15893555 203224450.96030378 0 203224450.96030378 101741830.51075745 0 0 0 0 13298507.221460819 4030044.6219665259 0 4030044.6219665259 -311098.16285514832 0 0 0 0 1308794.4563765659 780819.22679069638 0 780819.22679069638 -586051.84404367581 0 0 0 0 907310.24074085057 572130.03040970117 0 572130.03040970117 -787161.31678106915 0 0 0 0 -8049249.3963586092 23297116.650858209 0 23297116.650858209 -40749179.718764305 0 0 0 0 1643607.4884748012 4981950.8621633276 0 4981950.8621633276 -430243.41886349302 0 0 0 0 4564512.2399597168 1731667.214050293 0 1731667.214050293 1729583.3076381981 0 0 0 0 9317872.2504882812 3857934.2475748062 0 3857934.2475748062 1648756.3343482316 0 0 0 0 23010170.785629272 29188986.041800022 0 29188986.041800022 4419032.0603415966 0 0 0 0 -1391088.950378418 -6368773.0002043247 0 -6368773.0002043247 25000667.686613083 0 0 0 0 -9572868.436126709 2471777.3623132706 0 2471777.3623132706 32710258.815341949 0 0 0 0 143951412.99609375 68060687.832649231 0 68060687.832649231 -47927874.74010849 0 0 0 0 2963340.0943603516 -73461636.090439796 0 -73461636.090439796 -55115957.983196259 0 0 0 0 -136280382.88452148 -30799305.600391388 0 -30799305.600391388 24029847.750058174 0 0 0 0 -52945206.882957458 162583834.38383555 0 162583834.38383555 -51126660.452613831 0 0 0 0 -13953089.263938904 -14066195.67260623 0 -14066195.67260623 2138218.7264289856 0 0 0 0 6154519.9567260742 1769228.8247795105 0 1769228.8247795105 330192.01889038086 0 0 0 0 6415216.2920227051 3194458.1878452301 0 3194458.1878452301 298621.93584060669 0 0 0 0 8483207.7548828125 236681.20380020142 0 236681.20380020142 -862392.87251663208 0 0 0 0 6156055.6070556641 1929002.9587287903 0 1929002.9587287903 725693.20317173004 0 0 0 0 416574.32681265473 -28600.504889957607 0 -28600.504889957607 -154951.71128458716 0 0 0 0 67309176.357177734 15276246.142389297 0 15276246.142389297 -3730964.0894014835 0 0 0 0 1069809.2736667246 1993807.5875650272 0 1993807.5875650272 -1492021.18507348 0 0 0 0 613414.58440379798 3665082.9163219258 0 3665082.9163219258 -2701597.8928370643 0 0 0 0 2451005.8338928223 953528.07338237762 0 953528.07338237762 -1217612.6271820068 0 0 0 0 -1649129.3050171211 3365029.4057815224 0 3365029.4057815224 -594501.52338261437 0 0 0 0 -14194853.221740723 48830487.31755352 0 48830487.31755352 -11443998.118692398 0 0 0 0 2739498.6990814209 -21599305.320734978 0 -21599305.320734978 -59748770.964296341 0 0 0 0 19214585.516723633 63619588.850131989 0 63619588.850131989 -6631341.1369018555 0 0 0 0 46447468.820487976 75833182.657825828 0 75833182.657825828 151501456.57424068 0 0 0 0 15761785.048034668 101626940.02108097 0 101626940.02108097 217683458.86836529 0 0 0 0 8723238.9836654663 19438333.455497384 0 19438333.455497384 111136979.78333473 0 0 0 0 -17915421.768753052 11496747.821648121 0 11496747.821648121 195782059.88282013 0 0 0 0 957209.53924560547 29896722.051280022 0 29896722.051280022 107614480.76794124 0 0 0 0 45790427.900024414 57373478.894233227 0 57373478.894233227 -21800614.65455246 0 0 0 0 69659.80148435384 4612243.1072019711 0 4612243.1072019711 -5512605.9119469346 0 0 0 0 1714963.3102338612 1461588.41442753 0 1461588.41442753 -2368048.6427431842 0 0 0 0 -304887183.55670166 -24692012.280928612 0 -24692012.280928612 -14955005.917372227 0 0 0 0 -357999100.68762207 202343555.86407852 0 202343555.86407852 -114428492.78712273 0 0 0 0 -546431894.77246094 277340688.97943544 0 277340688.97943544 -32881193.52530098 0 0 0 0 -252001526.74072266 -486385517.98505402 0 -486385517.98505402 145710081.14413071 0 0 0 0 102380595.57501221 -357487908.1594429 0 -357487908.1594429 13892909.740427017 0 0 0 0 -718972786.88723755 -9872334.4988822937 0 -9872334.4988822937 395639669.73147964 0 0 0 0 279491965.70370483 -295705332.66332865 0 -295705332.66332865 -42178539.020997763 0 0 0 0 141814600.32647705 12687716.731611729 0 12687716.731611729 101860693.3646481 0 0 0 0 6243074.6775512695 -12439776.600676537 0 -12439776.600676537 140890658.38476992 0 0 0 0 80181014.386123657 39050195.335168839 0 39050195.335168839 176406055.37065506 0 0 0 0 874376.86987304688 44130887.101142406 0 44130887.101142406 240629293.15259171 0 0 0 0 -17227195.64956665 -21828706.488582134 0 -21828706.488582134 285830297.58371067 0 0 0 0 885686335.39672852 629370947.90226555 0 629370947.90226555 129015089.65888596 0 0 0 0 243970050.95728302 284449054.66812658 0 284449054.66812658 57674612.277130127 0 0 0 0 592937019.0098877 357112800.32401085 0 357112800.32401085 -17751337.305407524 0 0 0 0 548477611.08612061 -109303338.83099747 0 -109303338.83099747 -174170056.57947731 0 0 0 0 338099491.76448059 -702610891.25850773 0 -702610891.25850773 368120465.01849174 0 0 0 0 1393500844.5811768 -88373215.701782227 0 -88373215.701782227 -182530336.45496607 0 0 0 0 3204875426.720871 -502692551.06692505 0 -502692551.06692505 -718304018.30602741 0 0 0 0 618793072.08947754 678133733.73220158 0 678133733.73220158 1180620423.5926104 0 0 0 0 286891300.30847168 -37847588.41324234 0 -37847588.41324234 -357601009.24466133 0 0 0 0 -596760984.76242065 356802255.57003498 0 356802255.57003498 640622431.92113113 0 0 0 0 150054.68372111768 593723.57849702239 0 593723.57849702239 3026463.7104530493 0 0 0 0 -652039790.58812714 228208700.14282584 0 228208700.14282584 145049902.9290638 0 0 0 0 101509942.60623169 500807911.97031116 0 500807911.97031116 192953765.5993309 0 0 0 0 -20497904.227813721 37198690.940084457 0 37198690.940084457 -317570626.94557643 0 0 0 0 985169925.90264893 388171613.36201286 0 388171613.36201286 242821110.37764931 0 0 0 0 80409897.547851562 327336881.96032619 0 327336881.96032619 -397690795.86232948 0 0 0 0 1051094.8639271455 484467.96447838843 0 484467.96447838843 -1563960.8772107931 0 0 0 0 -576720130.20799255 229241476.14640236 0 229241476.14640236 479379178.2606926 0 0 0 0 1283297025.6266174 299686762.24757099 0 299686762.24757099 -1194862950.6309013 0 0 0 0 1004028051.3812561 -685497087.8405714 0 -685497087.8405714 439203704.04043961 0 0 0 0 367932098.05545044 277670288.21940613 0 277670288.21940613 -76521599.639276505 0 0 0 0 433378770.08662415 -245411256.73492718 0 -245411256.73492718 -151862319.72485161 0 0 0 0 3439350.9107018821 2516917.394875519 0 2516917.394875519 -5149078.0643131156 0 0 0 0 -232947766.83926392 54595083.922623634 0 54595083.922623634 166421296.21592331 0 0 0 0 916937440.24533081 -84926521.369379997 0 -84926521.369379997 -113313178.06226349 0 0 0 0 1719608293.1688385 -400272093.12246037 0 -400272093.12246037 -170568787.45867157 0 0 0 0 1304302.0230701715 3653112.7424840704 0 3653112.7424840704 8321316.6438588034 0 0 0 0 -305303496.83084106 393973871.46197701 0 393973871.46197701 268385643.5695765 0 0 0 0 783804243.04455566 -221680709.35355186 0 -221680709.35355186 229755070.45795059 0 0 0 0 827999316.94226074 18309564.015676498 0 18309564.015676498 64540387.696173668 0 0 0 0 778028476.8526001 -73966230.405404091 0 -73966230.405404091 -95459521.983825684 0 0 0 0 814246868.36917114 -3179470.2195186615 0 -3179470.2195186615 -106137100.69980431 0 0 0 0 837342690.02391052 -94853426.696286917 0 -94853426.696286917 -139538072.88344193 0 0 0 0 459965895.99937439 -112980379.74640751 0 -112980379.74640751 21884489.751180649 0 0 0 0 899500400.58198547 -100374102.05355406 0 -100374102.05355406 -139571162.8562088 0 0 0 0 770491225.65963745 -264686251.31716824 0 -264686251.31716824 73352490.645927429 0 0 0 0 2945512.8663002178 5114398.3293690234 0 5114398.3293690234 -755127.59710212797 0 0 0 0 -7729221.4067230225 -17885799.965270042 0 -17885799.965270042 -75918511.757518768 0 0 0 0 408843420.9739418 86377283.633906126 0 86377283.633906126 -49593196.414035797 0 0 0 0 357417003.20146179 -76298602.939626694 0 -76298602.939626694 -70907091.85285759 0 0 0 0 577669899.89398193 126903317.36404419 0 126903317.36404419 -44827402.341916084 0 0 0 0 3509629.6904750466 7231774.6819941401 0 7231774.6819941401 -745419.35261048377 0 0 0 0 8123620.7062530518 -659064.59911394119 0 -659064.59911394119 -4092407.6346969604 0 0 0 0 3567587.6003112793 -7258718.3320026398 0 -7258718.3320026398 -6292651.2605416775 0 0 0 0 8008012.4717407227 5259329.4217858315 0 5259329.4217858315 3477936.1658210754 0 0 0 0 1185503.3282165527 -1043194.8519039154 0 -1043194.8519039154 2694073.6634668112 0 0 0 0 -38116007.006698608 86826508.634492397 0 86826508.634492397 -98467701.573455811 0 0 0 0 31627772.748291016 3307700.9048471451 0 3307700.9048471451 -30817775.536904335 0 0 0 0 3620692.2076046579 4440045.2895774096 0 4440045.2895774096 -7781540.5930114277 0 0 0 0 320263187.22711182 -322754382.89192104 0 -322754382.89192104 339384403.85237694 0 0 0 0 259376805.88088989 72834489.568162918 0 72834489.568162918 -253972640.362463 0 0 0 0 -14122544.808044434 -57020653.007916927 0 -57020653.007916927 -104349937.87886143 0 0 0 0 -44210789.975646973 -1186658.9046278 0 -1186658.9046278 -24120281.804590225 0 0 0 0 -110367639.11602783 -131591734.15113258 0 -131591734.15113258 -15482367.51641798 0 0 0 0 191754986.73313522 -184948597.00555301 0 -184948597.00555301 -32221370.450941086 0 0 0 0 -165582750.39776611 -123621800.98561573 0 -123621800.98561573 -14472922.909287453 0 0 0 0 845128.44986850023 -389895.80213139206 0 -389895.80213139206 -96931.331476381049 0 0 0 0 -46057497.180908203 381603585.84095001 0 381603585.84095001 240276156.49310684 0 0 0 0 129059285.10897827 223363831.75882721 0 223363831.75882721 63727255.016255379 0 0 0 0 22878947.724273682 23659078.372228861 0 23659078.372228861 163174483.19653702 0 0 0 0 253011510.99380493 253044536.73639202 0 253044536.73639202 -6218450.9376716614 0 0 0 0 2850266.0471202256 2852559.0812770054 0 2852559.0812770054 -7914185.0880618542 0 0 0 0 201624085.55227661 86987395.548431396 0 86987395.548431396 -87605929.800945401 0 0 0 0 -87404933.798315048 -31477697.603047729 0 -31477697.603047729 155934205.53767395 0 0 0 0 93529174.43145752 -36033642.009296417 0 -36033642.009296417 6436124.5130623579 0 0 0 0 107114242.75629807 14989826.002533436 0 14989826.002533436 29076037.184906006 0 0 0 0 1133476812.3860474 207571578.95684814 0 207571578.95684814 -2708177.1382713318 0 0 0 0 1743597600.5753174 -22699157.293619156 0 -22699157.293619156 -442772701.0847168 0 0 0 0 1263412979.9168091 210261058.9748745 0 210261058.9748745 -528299784.37000275 0 0 0 0 111722163.80490112 255444753.16098595 0 255444753.16098595 102542314.01629066 0 0 0 0 1320692260.5135803 -537431555.5384388 0 -537431555.5384388 -64246114.989444733 0 0 0 0 -26387906.608978271 175704541.28482246 0 175704541.28482246 65051647.269886017 0 0 0 0 1307077.405692704 1665654.8634423018 0 1665654.8634423018 -279762.42719675787 0 0 0 0 17859317.834075928 -31313607.61082077 0 -31313607.61082077 -69136323.989208221 0 0 0 0 191753724.48858643 51559705.946990967 0 51559705.946990967 -40646675.41109848 0 0 0 0 -23235528.3697052 1667502.8631954193 0 1667502.8631954193 10333642.031187057 0 0 0 0 1211247399.2687721 337913017.78375804 0 337913017.78375804 -149116643.36860657 0 0 0 0 3673877.6150878146 8490502.0187549442 0 8490502.0187549442 12403515.776401516 0 0 0 0 -563486255.67121887 51842765.209002495 0 51842765.209002495 406550194.80015564 0 0 0 0 352002970.93969727 -398557248.65987778 0 -398557248.65987778 355786328.86783409 0 0 0 0 1048156926.0732117 888055611.30152512 0 888055611.30152512 -626809405.5399828 0 0 0 0 -2376557.7407542616 3160718.2444275692 0 3160718.2444275692 13736601.74347385 0 0 0 0 -6565990.6850891113 17839259.092926502 0 17839259.092926502 9125977.6690263748 0 0 0 0 -25381048.559776306 21033721.251813889 0 21033721.251813889 26195207.916320801 0 0 0 0 -5848424.2522735596 4953752.8168182373 0 4953752.8168182373 17034387.759929657 0 0 0 0 43572116.395233154 33353126.058436394 0 33353126.058436394 20881707.14500618 0 0 0 0 45871410.263495445 64096789.734749436 0 64096789.734749436 33279265.067037582 0 0 0 0 7214355.9210273325 456534.9229188934 0 456534.9229188934 -6546911.8946777284 0 0 0 0 39947091.749771118 10331086.840529919 0 10331086.840529919 14285179.980130196 0 0 0 0 17877762.916858673 48261946.127577066 0 48261946.127577066 45773673.261609077 0 0 0 0 -20690358.630493164 19310472.808766842 0 19310472.808766842 20455301.785254478 0 0 0 0 -1990197.6506958008 9517407.6178693771 0 9517407.6178693771 20272612.721434131 0 0 0 0 -28965692.342605591 13695402.171445847 0 13695402.171445847 -1004841.0166940689 0 0 0 0 -23763617.957931519 5325585.4799432755 0 5325585.4799432755 12278750.889400959 0 0 0 0 -2519410.5063896179 51916606.273139775 0 51916606.273139775 -26437632.420726776 0 0 0 0 55552080.576263428 37203475.425162911 0 37203475.425162911 -34771679.437186241 0 0 0 0 -91090701.798812866 -5059784.0752163529 0 -5059784.0752163529 -5819994.1339650154 0 0 0 0 -32853037.67754364 99887188.906644613 0 99887188.906644613 -57733914.159351349 0 0 0 0 66794956.246337891 -40303139.302865744 0 -40303139.302865744 -177081655.75204468 0 0 0 0 13812786.234313965 -53704698.093253613 0 -53704698.093253613 -75838201.559584618 0 0 0 0 31964288.365409851 65234863.606475592 0 65234863.606475592 18980905.911542892 0 0 0 0 -42515694.376449585 2721248.9599394798 0 2721248.9599394798 15799044.846848726 0 0 0 0 4683311.1615663692 4897396.5416320562 0 4897396.5416320562 -1340565.2765935175 0 0 0 0 899579.61987911165 10039672.259002961 0 10039672.259002961 20904087.353941053 0 0 0 0 138194896.27670288 250362614.6790514 0 250362614.6790514 69866930.453224182 0 0 0 0 908635285.76789093 -49636580.492496014 0 -49636580.492496014 -112034193.3095665 0 0 0 0 1971506.9049034379 7266329.6348684058 0 7266329.6348684058 14244799.887477387 0 0 0 0 -82440343.08682251 45029100.101851463 0 45029100.101851463 49162998.261463642 0 0 0 0 -88292687.803771973 75404848.383810043 0 75404848.383810043 -107292652.36004448 0 0 0 0 -12228759.341918945 23619598.61926198 0 23619598.61926198 -222158151.18206072 0 0 0 0 -234637512.58480835 -7833749.3202830255 0 -7833749.3202830255 -175145358.57901046 0 0 0 0 31180739.76940918 104542386.74079239 0 104542386.74079239 -138494437.11134696 0 0 0 0 -10922903.340232849 14732441.517718852 0 14732441.517718852 -174243747.48869324 0 0 0 0 47787136.232196808 -121720588.05200294 0 -121720588.05200294 -262136207.25618052 0 0 0 0 2385604.1251449063 -231358.32036605477 0 -231358.32036605477 -1858275.9751342593 0 0 0 0 224020850.30664062 96659403.97339654 0 96659403.97339654 -270985757.35031503 0 0 0 0 55312591.299713135 11438882.262659073 0 11438882.262659073 -277812254.02151299 0 0 0 0 392204742.24707031 -69600690.320934355 0 -69600690.320934355 -551229628.4692142 0 0 0 0 78539169.372589111 54596772.883599281 0 54596772.883599281 173142855.82961464 0 0 0 0 91841179.530029297 138315607.52489567 0 138315607.52489567 -52726001.082748413 0 0 0 0 70665524.055686951 17617256.95857358 0 17617256.95857358 36299055.725915909 0 0 0 0 2195952.9807325304 2706529.7688745577 0 2706529.7688745577 -1029538.4445174831 0 0 0 0 -12675017.177856445 227423775.94784927 0 227423775.94784927 266786631.7580595 0 0 0 0 79769838.171905518 350396574.33819723 0 350396574.33819723 -169380194.15078735 0 0 0 0 38418849.255828857 266753180.80883741 0 266753180.80883741 186452847.76198673 0 0 0 0 -19477477.848846436 74182915.701629639 0 74182915.701629639 27585871.35091877 0 0 0 0 81039606.220245361 35571949.399910927 0 35571949.399910927 -70740699.324671745 0 0 0 0 81211726.145754337 41049722.334797189 0 41049722.334797189 25643190.362485886 0 0 0 0 -156105576.41390991 66882406.389686108 0 66882406.389686108 124141307.62937546 0 0 0 0 106943220.75450134 42677939.02417016 0 42677939.02417016 36148455.138225555 0 0 0 0 108724723.47225952 68676239.661267281 0 68676239.661267281 52552547.061878204 0 0 0 0 111974414.71031189 53122657.692923546 0 53122657.692923546 79049097.835853577 0 0 0 0 99524554.57975769 69156801.556678772 0 69156801.556678772 59109145.844133377 0 0 0 0 116332353.73854065 136205304.75526524 0 136205304.75526524 81049720.744953156 0 0 0 0 154049678.36935425 69098420.646455765 0 69098420.646455765 45935634.744908333 0 0 0 0 245460805.56219864 268273505.65677428 0 268273505.65677428 195937882.84901619 0 0 0 0 47307655.533874512 50584467.294065475 0 50584467.294065475 45166461.617847443 0 0 0 0 48588755.719857693 18657707.01217255 0 18657707.01217255 23818541.281929016 0 0 0 0 91786298.597381592 39479201.19481945 0 39479201.19481945 44770288.885721207 0 0 0 0 51354946.389312744 56383431.592313766 0 56383431.592313766 44862227.051548004 0 0 0 0 38932544.360275269 49111167.846506596 0 49111167.846506596 18309031.932603836 0 0 0 0 74185827.883644104 29697249.666388035 0 29697249.666388035 27015892.782272339 0 0 0 0 85515441.264343262 51929281.481826782 0 51929281.481826782 39025807.055026054 0 0 0 0 -14570461.785133362 16573514.375288963 0 16573514.375288963 39759351.325050354 0 0 0 0 71113700.80947876 5995981.6005573273 0 5995981.6005573273 -26614521.397527695 0 0 0 0 5724286.4541783631 4755687.5276859161 0 4755687.5276859161 -972438.96239235997 0 0 0 0 73551146.485244751 27882524.473409653 0 27882524.473409653 4851092.199221611 0 0 0 0 91263057.934967041 2669278.6382359266 0 2669278.6382359266 -214447164.56249547 0 0 0 0 -467064141.30639648 -136586826.86981511 0 -136586826.86981511 154850057.37682378 0 0 0 0 -208895825.50004578 30608751.574470937 0 30608751.574470937 5418427.6028853655 0 0 0 0 -108265972.11294556 165416725.04926488 0 165416725.04926488 -169586502.06313968 0 0 0 0 48095068.53515625 10969330.844029903 0 10969330.844029903 -30605323.946967125 0 0 0 0 167872233.34452057 99376094.221813679 0 99376094.221813679 -154743096.79370832 0 0 0 0 47378985.109649658 -101309412.42413807 0 -101309412.42413807 -228119498.77845621 0 0 0 0 1800077.9580500871 1443652.2683834136 0 1443652.2683834136 -837937.98870254075 0 0 0 0 80008632.554534912 98769113.158069372 0 98769113.158069372 140147519.48346281 0 0 0 0 420463866.5803833 -61001694.116059095 0 -61001694.116059095 -143689892.51391095 0 0 0 0 24833611.069137573 -5650942.6781935692 0 -5650942.6781935692 -90921902.250568449 0 0 0 0 32414396.580871582 -2111347.8994247913 0 -2111347.8994247913 -15729929.898916483 0 0 0 0 4289901.8578930497 3714811.3130824845 0 3714811.3130824845 -1130087.6244003286 0 0 0 0 -1468106.2261047363 84706512.605382025 0 84706512.605382025 50942458.333374977 0 0 0 0 5684111.5728149414 -6825899.6682853699 0 -6825899.6682853699 -7389565.1102542877 0 0 0 0 82263497.415985107 -11926720.751301289 0 -11926720.751301289 -43939689.236327171 0 0 0 0 51963011.69619751 11934827.98464191 0 11934827.98464191 -39117080.5131073 0 0 0 0 -18722899.478485107 34656365.566665649 0 34656365.566665649 -46413338.979322433 0 0 0 0 10831310.220713139 7951127.9917269722 0 7951127.9917269722 -281844.36243247776 0 0 0 0 14981734.755844116 -6199700.6675691605 0 -6199700.6675691605 -7781030.9147644043 0 0 0 0 1760242.2666190881 255183.58540824056 0 255183.58540824056 -10377.191446037497 0 0 0 0 25061352.744812012 -827474.51013469696 0 -827474.51013469696 -7856529.389790535 0 0 0 0 8384665.3393388838 5158847.8141088486 0 5158847.8141088486 6615684.863086639 0 0 0 0 28838047.41626358 -22834504.410957441 0 -22834504.410957441 35193941.615024567 0 0 0 0 34813937.075317383 27881290.708703995 0 27881290.708703995 149977773.03682959 0 0 0 0 28677215.399765015 17228836.390787125 0 17228836.390787125 4454951.8847427368 0 0 0 0 -10155102.35760498 5981451.3846188784 0 5981451.3846188784 24074880.978370667 0 0 0 0 4699712921.9632874 -1939120657.0892947 0 -1939120657.0892947 107872273.02935767 0 0 0 0 3348710460.8354034 -2150331019.0396004 0 -2150331019.0396004 686280121.82490551 0 0 0 0 4265999175.2274475 -1613081320.6305854 0 -1613081320.6305854 -132258908.66559391 0 0 0 0 4401338.6262921952 -233796.4015507251 0 -233796.4015507251 -2248593.3185179136 0 0 0 0 53880688.992080688 26810577.392014861 0 26810577.392014861 1236283.4003458023 0 0 0 0 3157642696.7226715 -1661026503.8805537 0 -1661026503.8805537 254613403.43741637 0 0 0 0 66120454.231002808 -12372853.954178095 0 -12372853.954178095 -12301577.257874012 0 0 0 0 22320626.559369646 91638.258383858949 0 91638.258383858949 101590.20028162235 0 0 0 0 29483065.588409424 1372990.7693538666 0 1372990.7693538666 -7483594.4194436073 0 0 0 0 -17869317.608276367 -378446.64982891083 0 -378446.64982891083 -2322828.7556419373 0 0 0 0 36876445.304016113 1793727.4503030777 0 1793727.4503030777 -12436303.659350395 0 0 0 0 40357773.881225586 14180680.787908554 0 14180680.787908554 1697809.1927056313 0 0 0 0 12345508.573547363 3164349.0627641678 0 3164349.0627641678 -1196973.2994890213 0 0 0 0 8749701.6025039852 4181852.7481982447 0 4181852.7481982447 5360283.7095795125 0 0 0 0 1834287863.4694519 -1394059926.8697462 0 -1394059926.8697462 2170545819.2389836 0 0 0 0 3134287.3636474609 15934266.583319187 0 15934266.583319187 14337039.118928909 0 0 0 0 5978208269.9756699 -3612994812.7846808 0 -3612994812.7846808 787899249.26963055 0 0 0 0 2883931945.9518738 -2956642788.0443721 0 -2956642788.0443721 1337758042.0890951 0 0 0 0 4325452017.1218567 -2812105250.4362073 0 -2812105250.4362073 1125236630.244251 0 0 0 0 9732217.9865221754 -421307.74391415343 0 -421307.74391415343 -5088328.4673691792 0 0 0 0 1523875773.3588333 -3325188821.0630522 0 -3325188821.0630522 4726830207.8574867 0 0 0 0 8890177.0726439208 6734320.3137883674 0 6734320.3137883674 1119854.2684515663 0 0 0 0 5966958238.5879517 1015591.3720296466 0 1015591.3720296466 -3539086.5968665872 0 0 0 0 10054754.992774963 75536830.085551381 0 75536830.085551381 2401516780.0377593 0 0 0 0 3736194.8480122536 468081.54020380974 0 468081.54020380974 1927809.8460758706 0 0 0 0 1779812095.5679169 2861622299.8671327 0 2861622299.8671327 2248519762.461906 0 0 0 0 5705456.1183931231 7392016.5826569404 0 7392016.5826569404 -1092519.1768522961 0 0 0 0 19585179.183135986 25135247.916636467 0 25135247.916636467 15542448.578436673 0 0 0 0 48508156.525024414 9962829.5744395256 0 9962829.5744395256 -10531847.196194649 0 0 0 0 45089914.369659424 18934932.338693142 0 18934932.338693142 -2397749.2157640457 0 0 0 0 5977098956.9860916 2795236148.0673666 0 2795236148.0673666 -77154498.061594486 0 0 0 0 5108736182.3986664 1751345392.1991088 0 1751345392.1991088 110317889.30566591 0 0 0 0 3666166.1435974389 -350635.29826342687 0 -350635.29826342687 -2424498.4037131555 0 0 0 0 89429202.441131592 6349670.8894376755 0 6349670.8894376755 -108315849.91617203 0 0 0 0 61137120.168712616 36413220.858373642 0 36413220.858373642 -146034591.56147909 0 0 0 0 7049386.325592041 -10965690.303237677 0 -10965690.303237677 17545369.458128452 0 0 0 0 7028008.0756621286 -542484.61950656027 0 -542484.61950656027 -5106164.855118027 0 0 0 0 78220240.063262939 75913848.41962719 0 75913848.41962719 10009719.746032119 0 0 0 0 3578475009.0701904 741388596.84194279 0 741388596.84194279 -8006274.869192332 0 0 0 0 604507407.52001572 -462856630.35638136 0 -462856630.35638136 49100185.550007224 0 0 0 0 617795171.96740723 223297832.70922869 0 223297832.70922869 64211932.902248323 0 0 0 0 2761864717.2087708 769127682.57537556 0 769127682.57537556 -8533009.4770894721 0 0 0 0 3361454199.0008621 141413144.53289866 0 141413144.53289866 -98546465.426704586 0 0 0 0 3670225488.6878757 935014641.5054611 0 935014641.5054611 -257380305.79587933 0 0 0 0 5267981095.7027416 1189127528.7483842 0 1189127528.7483842 -337425124.53947783 0 0 0 0 4588372207.1129684 1071755206.535529 0 1071755206.535529 -256106042.99224937 0 0 0 0 84157852.929969788 -1149205082.110425 0 -1149205082.110425 1697768255.2812939 0 0 0 0 3986256.2616483537 2681350.3319641333 0 2681350.3319641333 -856427.0791021206 0 0 0 0 4022432364.1392365 -2025317845.5085027 0 -2025317845.5085027 354436753.14216614 0 0 0 0 3710868667.2161407 -3318490055.9005513 0 -3318490055.9005513 1965155186.4799018 0 0 0 0 489099486.50874329 -624106411.12399769 0 -624106411.12399769 1365560661.5175753 0 0 0 0 2564544450.5098572 -742741559.33694363 0 -742741559.33694363 -212867669.93826103 0 0 0 0 813000554.18723297 -1206454268.1318665 0 -1206454268.1318665 332045203.71896172 0 0 0 0 589227100.78192139 -1039752223.4674053 0 -1039752223.4674053 1993557498.9486089 0 0 0 0 1675972584.6889496 -2225820307.7986732 0 -2225820307.7986732 2271328641.0732851 0 0 0 0 1552254517.7082443 -2145087218.6256194 0 -2145087218.6256194 2572129427.5978355 0 0 0 0 1344095283.4925995 -2396401622.5812988 0 -2396401622.5812988 2764972377.7936478 0 0 0 0 3947571215.2369232 -4448005413.8498592 0 -4448005413.8498592 4025675653.873991 0 0 0 0 5147065458.5639191 -3674406789.1528397 0 -3674406789.1528397 1830360547.6924803 0 0 0 0 6097883711.5911407 -5010517719.6581974 0 -5010517719.6581974 2218096219.0809603 0 0 0 0 5988242266.5363274 -3237902818.2125406 0 -3237902818.2125406 1955410700.9472342 0 0 0 0 8006323670.5316315 -1459322198.7969012 0 -1459322198.7969012 3498217193.5615258 0 0 0 0 5702893465.9273453 -3142203281.5439649 0 -3142203281.5439649 2552683444.3442907 0 0 0 0 5385359155.3321419 -3901151415.1006117 0 -3901151415.1006117 1282524656.6707091 0 0 0 0 4910655615.0722733 -3360111330.108181 0 -3360111330.108181 3090119126.752965 0 0 0 0 6645226159.9759483 -3296774596.0487232 0 -3296774596.0487232 1682754986.7991304 0 0 0 0 4338255554.6024017 -3820632167.404882 0 -3820632167.404882 3090844509.9712324 0 0 0 0 5547991149.5537262 -3153438362.0030193 0 -3153438362.0030193 34523656.811189234 0 0 0 0 3163247582.3171768 -866743412.41680455 0 -866743412.41680455 50965572.575550079 0 0 0 0 921640606.93044281 1552875799.5546103 0 1552875799.5546103 3132696609.9183846 0 0 0 0 3346652.2875020117 696225.10759026371 0 696225.10759026371 10118766.271057876 0 0 0 0 979756010.68454075 1778606925.2962737 0 1778606925.2962737 1275113570.8894196 0 0 0 0 389479103.00231934 754170819.14571381 0 754170819.14571381 813388001.99024963 0 0 0 0 903175534.73819733 384336607.37666321 0 384336607.37666321 -536866456.46440125 0 0 0 0 1116851635.7480173 1181010799.4569921 0 1181010799.4569921 372434015.8478241 0 0 0 0 -267929759.33247948 1664987260.1406126 0 1664987260.1406126 3578201381.2143993 0 0 0 0 127940423.72622681 1141471171.6968307 0 1141471171.6968307 1482707472.8337097 0 0 0 0 513607500.29379654 910548360.54632187 0 910548360.54632187 742220842.53839111 0 0 0 0 -550929834.23269272 679421155.83507156 0 679421155.83507156 2077727912.8552742 0 0 0 0 -553149136.8654232 707117753.16313744 0 707117753.16313744 2004129462.9042835 0 0 0 0 -216775237.42252541 294087982.67026138 0 294087982.67026138 765046037.78050232 0 0 0 0 -17214381.996734619 284271951.72063446 0 284271951.72063446 475006796.46710205 0 0 0 0 -32769505.180221558 593129932.33171844 0 593129932.33171844 1240488434.718956 0 0 0 0 154956593.99593353 248090640.03160477 0 248090640.03160477 439640849.11683655 0 0 0 0 19803682.979030609 -28516204.509361267 0 -28516204.509361267 158583417.09520721 0 0 0 0 -31677714.211088181 -81767283.372249603 0 -81767283.372249603 259623725.83699036 0 0 0 0 -24298681.301319122 162902292.18924713 0 162902292.18924713 793676942.16875648 0 0 0 0 -53867867.272449493 -59098381.117191851 0 -59098381.117191851 144104887.64177132 0 0 0 0 270948351.16004181 568268216.53163934 0 568268216.53163934 164199905.942972 0 0 0 0 10915567.855310038 39681.992454386316 0 39681.992454386316 25282564.091788556 0 0 0 0 -760668507.82043839 -212120233.50351334 0 -212120233.50351334 291595350.57302856 0 0 0 0 -25309811.046699524 -443716913.96761322 0 -443716913.96761322 -133034513.13618279 0 0 0 0 -185182881.41014862 -233209894.58207703 0 -233209894.58207703 -72311650.2409935 0 0 0 0 23300933.583216827 -3110948.400602337 0 -3110948.400602337 34525767.321388945 0 0 0 0 143411541.79389954 122833046.17016006 0 122833046.17016006 -56722343.347583771 0 0 0 0 -165995796.15379333 18137041.061393738 0 18137041.061393738 -75610008.386550903 0 0 0 0 -72297054.061729431 -219089642.59350586 0 -219089642.59350586 -128952182.77084351 0 0 0 0 -38892878.199206829 -90541582.10461998 0 -90541582.10461998 261897010.91941833 0 0 0 0 -165455504.5327034 -23999884.516899109 0 -23999884.516899109 224289214.43595886 0 0 0 0 -82138516.150344849 -253003874.5947113 0 -253003874.5947113 39894547.74042511 0 0 0 0 65750760.362557039 -9067363.0231312104 0 -9067363.0231312104 14572381.343041383 0 0 0 0 108820946.57475281 72279479.784934998 0 72279479.784934998 -53851156.437725067 0 0 0 0 42925367.626811504 -173385830.10938835 0 -173385830.10938835 -303301525.27736664 0 0 0 0 34319977.90422821 20693851.887771368 0 20693851.887771368 42147609.50257349 0 0 0 0 16261285.506080091 7969883.9703831645 0 7969883.9703831645 11481843.263153695 0 0 0 0 17940446.621311709 7516747.6630187109 0 7516747.6630187109 15555529.638712741 0 0 0 0 16533412.653579712 -111466104.70431519 0 -111466104.70431519 -51284854.301025391 0 0 0 0 37441872.464065023 -5619660.3753436152 0 -5619660.3753436152 21831735.896103032 0 0 0 0 4758362.0410614014 909212.72704315186 0 909212.72704315186 -3884822.6179504395 0 0 0 0 32666179.513633408 118817.46153957769 0 118817.46153957769 1808993.0696627442 0 0 0 0 27466137.993150339 8167771.9180350024 0 8167771.9180350024 16638346.620316392 0 0 0 0 -1172858.1708374023 -1266687.2047424316 0 -1266687.2047424316 7912362.7683792114 0 0 0 0 24626766.984316289 1466668.9623433314 0 1466668.9623433314 26440995.01769631 0 0 0 0 -954269.95944976807 -3796122.8611106873 0 -3796122.8611106873 6865278.0992279053 0 0 0 0 853781749.02928162 459391737.68307161 0 459391737.68307161 -21625061.96406538 0 0 0 0 12295501.452116929 4902101.5959807308 0 4902101.5959807308 22447636.824300691 0 0 0 0 176639150.42481995 48278593.075640142 0 48278593.075640142 -66049737.833216742 0 0 0 0 -102280822.5247097 72989514.829075992 0 72989514.829075992 55351461.399473548 0 0 0 0 12823703.431725908 8931372.3056937605 0 8931372.3056937605 -3746505.4326643166 0 0 0 0 14594758.179502636 -857696.299580805 0 -857696.299580805 8985644.1675519031 0 0 0 0 -222136570.62697601 449057378.03098965 0 449057378.03098965 -664936543.87947369 0 0 0 0 102423919.22073364 -140185812.00796083 0 -140185812.00796083 41507436.145157851 0 0 0 0 15058485.481048584 -21501647.676692776 0 -21501647.676692776 628446715.70082641 0 0 0 0 -342245013.58478546 302411974.99280167 0 302411974.99280167 1760008890.9479008 0 0 0 0 403847547.23846436 1002395438.3366432 0 1002395438.3366432 -205748288.29968262 0 0 0 0 5978588129.1821899 -1698306377.173506 0 -1698306377.173506 -404246539.77855295 0 0 0 0 6381623348.9740067 -3141093173.0669804 0 -3141093173.0669804 3952698101.5488639 0 0 0 0 6409220408.6150513 65636784.482082248 0 65636784.482082248 -307332979.27491027 0 0 0 0 4871545.2209209874 -1104422.2069157511 0 -1104422.2069157511 4058850.4479602925 0 0 0 0 807627191.14035034 -1915735268.2100353 0 -1915735268.2100353 3841441701.2391257 0 0 0 0 5215616.3073214591 3386770.8673239108 0 3386770.8673239108 18999844.966614742 0 0 0 0 4468529039.1802292 -2766578062.0445356 0 -2766578062.0445356 1072540759.8452953 0 0 0 0 461551045.16849518 389448737.78211415 0 389448737.78211415 306132138.53083861 0 0 0 0 1916886226.2660675 3227825898.4975085 0 3227825898.4975085 3472486802.4584947 0 0 0 0 5974923727.1064453 2590749092.3460898 0 2590749092.3460898 -265066645.71563104 0 0 0 0 101757953.1641922 160902927.79963499 0 160902927.79963499 532843214.95348847 0 0 0 0 804655331.05296326 342301153.07668638 0 342301153.07668638 464844124.29617774 0 0 0 0 1400549269.1095276 1210332796.531611 0 1210332796.531611 949994005.12363768 0 0 0 0 1206744237.3439083 -38945972.237991482 0 -38945972.237991482 -216145139.13540101 0 0 0 0 3570507192.5652313 1112896288.9856591 0 1112896288.9856591 -412998243.56120145 0 0 0 0 1787352325.9676437 798659187.79717231 0 798659187.79717231 -191045835.41482496 0 0 0 0 2086903231.4277649 409643086.88745737 0 409643086.88745737 -394611803.1922977 0 0 0 0 5985449920.2528687 1019690189.6638659 0 1019690189.6638659 -1291160641.5841136 0 0 0 0 3558108714.141037 1410296982.8511546 0 1410296982.8511546 -775498442.45382464 0 0 0 0 3751839870.8735886 -152870752.87637305 0 -152870752.87637305 -1204162703.1442058 0 0 0 0 2318615760.9091339 -357162683.5480997 0 -357162683.5480997 -384790660.06350875 0 0 0 0 3507752801.1524429 655188873.71924782 0 655188873.71924782 -545004553.73984301 0 0 0 0 3404538748.0601196 -1674887187.2847266 0 -1674887187.2847266 246449372.36861774 0 0 0 0 1609430687.7468491 84182908.613666058 0 84182908.613666058 12925722.420476913 0 0 0 0 5983380355.1670055 -651689030.27007842 0 -651689030.27007842 -1169785201.6118147 0 0 0 0 3541523705.7399902 -1375093600.9680219 0 -1375093600.9680219 -157799455.99339271 0 0 0 0 26289463.858306885 14209667.291934967 0 14209667.291934967 30542833.751647949 0 0 0 0 62158056.190727234 52229866.134789467 0 52229866.134789467 32235906.885562897 0 0 0 0 6708332.3167050704 5610742.3859677613 0 5610742.3859677613 14431526.49324898 0 0 0 0 3409481.9575805664 16263610.600330353 0 16263610.600330353 33556348.262378693 0 0 0 0 955610666.37120819 -482413761.22157466 0 -482413761.22157466 170586805.1326783 0 0 0 0 36232844.549972534 16286698.966684341 0 16286698.966684341 9469282.0848617554 0 0 0 0 73130945.103210449 51828128.329662323 0 51828128.329662323 26693892.296758652 0 0 0 0 75996609.241594315 54183572.544997931 0 54183572.544997931 20597080.949615479 0 0 0 0 123605212.23260498 87954229.671451569 0 87954229.671451569 43279987.377597809 0 0 0 0 11680275.899017334 700648.19709396362 0 700648.19709396362 37026997.815040588 0 0 0 0 778438520.04508209 204425792.93019634 0 204425792.93019634 295838275.35959423 0 0 0 0 8660391.4463272355 5216968.3489106745 0 5216968.3489106745 20652165.123184152 0 0 0 0 162989330.72624588 -28587854.463328362 0 -28587854.463328362 1465164.2053833008 0 0 0 0 81802200.551193237 36616560.159650803 0 36616560.159650803 17745660.934345603 0 0 0 0 9666780.9332449492 3502079.4606964141 0 3502079.4606964141 1028383.0982379019 0 0 0 0 48092180.426498413 72534042.871549606 0 72534042.871549606 60882451.613502502 0 0 0 0 120893246.50262451 24249548.047380447 0 24249548.047380447 -2493140.5607901216 0 0 0 0 14880026.190494863 5472861.4905893579 0 5472861.4905893579 24669269.356300563 0 0 0 0 24302215.851125747 13907731.975434801 0 13907731.975434801 -3443005.9831324741 0 0 0 0 83229253.6114254 26124921.011111975 0 26124921.011111975 27823312.935180664 0 0 0 0 65000447.280441284 60273356.971755981 0 60273356.971755981 73083632.221382141 0 0 0 0 7380982.8427583054 4189599.6755803917 0 4189599.6755803917 -1165746.8811961189 0 0 0 0 -6926448.6689453125 18698167.874996185 0 18698167.874996185 39788958.918218613 0 0 0 0 165132116.2131958 192439905.04258347 0 192439905.04258347 65430468.510790825 0 0 0 0 109635527.00628281 23573225.201069832 0 23573225.201069832 -1986966.4931640625 0 0 0 0 52896467.860137939 96432237.303344727 0 96432237.303344727 -61020383.542144775 0 0 0 0 81869271.97543335 132589660.06157684 0 132589660.06157684 72581228.983127594 0 0 0 0 56724058.850639343 36463127.678982258 0 36463127.678982258 31733438.904064178 0 0 0 0 75317636.6572752 58880053.523212433 0 58880053.523212433 33135221.105773926 0 0 0 0 113489214.96022034 77371964.209848404 0 77371964.209848404 36092630.521289825 0 0 0 0 65342834.430343628 46382935.977207184 0 46382935.977207184 42950991.752710342 0 0 0 0 117842273.34684467 115200223.52250051 0 115200223.52250051 74843884.015113831 0 0 0 0 88769936.0440979 76576553.197505951 0 76576553.197505951 67105761.022674561 0 0 0 0 73368929.695194244 72475649.266962051 0 72475649.266962051 86122596.114082336 0 0 0 0 99712366.072753906 77615565.063303947 0 77615565.063303947 52475774.753814697 0 0 0 0 62816951.301246643 41196190.892334938 0 41196190.892334938 40078577.665279388 0 0 0 0 94298019.175048828 76687019.682319641 0 76687019.682319641 51489854.218410492 0 0 0 0 243139160.60061646 97197125.181747437 0 97197125.181747437 77089971.136749268 0 0 0 0 178824279.74784851 79169207.003419876 0 79169207.003419876 82622430.276321411 0 0 0 0 372574882.7237854 180591857.36854744 0 180591857.36854744 77150641.767838955 0 0 0 0 175376113.79779053 86406782.204423904 0 86406782.204423904 68503262.817965508 0 0 0 0 99709277.417429686 76703697.990524665 0 76703697.990524665 109980901.57685471 0 0 0 0 131089372.16033936 107438579.17376328 0 107438579.17376328 91822315.010256767 0 0 0 0 163861742.7207489 44732652.798221588 0 44732652.798221588 101463712.85251617 0 0 0 0 399482284.06086731 68446187.987577438 0 68446187.987577438 77600101.158283234 0 0 0 0 312730010.28393555 24197888.957324982 0 24197888.957324982 108594626.40261459 0 0 0 0 172116958.39865112 -9685570.6599578857 0 -9685570.6599578857 111943362.99182129 0 0 0 0 320788675.06558228 13768577.237110138 0 13768577.237110138 26779255.853988647 0 0 0 0 155354129.41998291 91698031.388523102 0 91698031.388523102 43149267.405174255 0 0 0 0 77876018.653289795 65140248.172622681 0 65140248.172622681 58201819.003612518 0 0 0 0 60088671.326980591 -6751221.5172271729 0 -6751221.5172271729 -157787494.4050293 0 0 0 0 106170171.2973938 139146894.83411026 0 139146894.83411026 -15065620.476875305 0 0 0 0 152129417.62586212 4528906.7321562767 0 4528906.7321562767 -120232419.85665894 0 0 0 0 23328289.513122559 70263912.611791611 0 70263912.611791611 -129153036.92372894 0 0 0 0 -113672495.25715637 241057828.99941444 0 241057828.99941444 -278016310.62872314 0 0 0 0 536370782.23873901 517950288.62901306 0 517950288.62901306 143028920.59892273 0 0 0 0 322347232.71181488 173946848.93584061 0 173946848.93584061 -272364044.12767792 0 0 0 0 838682097.77966309 -130030285.26673508 0 -130030285.26673508 -375137902.13436508 0 0 0 0 -99316573.924021721 133360743.37693787 0 133360743.37693787 -353962834.76073456 0 0 0 0 408311507.40689731 -253600138.86588049 0 -253600138.86588049 163734851.16823578 0 0 0 0 567037149.97142076 21135960.498403549 0 21135960.498403549 -1338789621.75 0 0 0 0 100971329.89976092 -5056203.7037079148 0 -5056203.7037079148 -1688876.2619898943 0 0 0 0 159702217.02374268 71668909.560195923 0 71668909.560195923 -345089347.80633545 0 0 0 0 84323688.808964372 -6729432.5574802123 0 -6729432.5574802123 4736220.1046580533 0 0 0 0 141591794.70663643 -573052381.26493835 0 -573052381.26493835 -328051620.23955536 0 0 0 0 163725367.3722229 34729720.191665649 0 34729720.191665649 -225993494.32684708 0 0 0 0 332344540.51986074 -118983469.71530914 0 -118983469.71530914 -1035132943.8297143 0 0 0 0 -78246377.856637239 -261809662.60306549 0 -261809662.60306549 -83860797.076889038 0 0 0 0 113354157.22416878 -258056748.49866486 0 -258056748.49866486 -83930407.542862654 0 0 0 0 -95967875.036456585 -446391476.12862968 0 -446391476.12862968 557752306.48451996 0 0 0 0 252765519.22861624 -279817742.02609634 0 -279817742.02609634 -219034937.57473564 0 0 0 0 104200946.86107445 -503481123.26322174 0 -503481123.26322174 486782904.03440857 0 0 0 0 474712137.42268753 -608268464.49172592 0 -608268464.49172592 481767168.21466827 0 0 0 0 -202730952.47606409 -596234316.58171391 0 -596234316.58171391 1554036686.1933365 0 0 0 0 -190217199.11176133 -494519561.24076843 0 -494519561.24076843 1308858051.6448669 0 0 0 0 244600860.6526413 -894741480.31563187 0 -894741480.31563187 1489638272.3636055 0 0 0 0 -153783092.26378441 -168674797.25234604 0 -168674797.25234604 663762742.05315399 0 0 0 0 -166706770.24000168 -102578563.72097397 0 -102578563.72097397 1025221917.0630569 0 0 0 0 -670399321.86028445 -248008170.71616364 0 -248008170.71616364 1567320202.9559669 0 0 0 0 -263919347.85021448 350957235.30580616 0 350957235.30580616 1368052414.4908905 0 0 0 0 -1077300233.4477749 598530019.35223389 0 598530019.35223389 2673148589.5748405 0 0 0 0 -724042249.23745728 180438023.63441849 0 180438023.63441849 1647261333.5588799 0 0 0 0 -695896716.63445902 39947204.03810215 0 39947204.03810215 2340998308.8500214 0 0 0 0 -1436351001.2801986 170102651.08057404 0 170102651.08057404 2326957580.6250467 0 0 0 0 -931606805.59954262 -334258130.76854706 0 -334258130.76854706 2461434477.7870445 0 0 0 0 -469750539.08206022 -740930557.68302917 0 -740930557.68302917 2645566845.9144058 0 0 0 0 -1148694990.8064504 -294549835.2746067 0 -294549835.2746067 2759127578.4490967 0 0 0 0 -894557975.36220765 -765897501.67198348 0 -765897501.67198348 3740487043.6183472 0 0 0 0 3497020532.8931675 -270049315.62155533 0 -270049315.62155533 419302598.39267731 0 0 0 0 -130355484.53361511 -1555521114.4189873 0 -1555521114.4189873 4555729396.4736938 0 0 0 0 1813574685.8723679 -2646774520.6572914 0 -2646774520.6572914 3272462031.3531113 0 0 0 0 1121142887.0911674 -1681222503.5560226 0 -1681222503.5560226 1963234624.4385262 0 0 0 0 552318301.5673027 779593217.490242 0 779593217.490242 835166124.33084869 0 0 0 0 1639922200.2650986 -2811625587.9902649 0 -2811625587.9902649 -651603549.0783329 0 0 0 0 708330127.99850464 253658051.17275238 0 253658051.17275238 613055355.73924255 0 0 0 0 743047841.74254417 137064736.92354393 0 137064736.92354393 222598255.86772156 0 0 0 0 1721003841.1440392 -63092777.121643066 0 -63092777.121643066 155683248.2290554 0 0 0 0 839777816.11542892 -1110341674.5420589 0 -1110341674.5420589 1158004051.3604355 0 0 0 0 235094567.51895523 -859077379.6451025 0 -859077379.6451025 1472794945.4314423 0 0 0 0 -176309684.70398331 88396664.772687912 0 88396664.772687912 134872097.13215637 0 0 0 0 -75602973.656646729 92322113.212341309 0 92322113.212341309 33269092.831413269 0 0 0 0 136733685.47480583 594557002.07923126 0 594557002.07923126 677694426.42524719 0 0 0 0 -327618440.98983765 172740781.35782623 0 172740781.35782623 294635279.07500029 0 0 0 0 -261952333.05158424 -322866120.0069437 0 -322866120.0069437 -221041762.73276138 0 0 0 0 5248414.4728335887 -6322322.0402529687 0 -6322322.0402529687 2083097.6078085261 0 0 0 0 -707579278.52237701 -126386174.67759323 0 -126386174.67759323 719331263.27826655 0 0 0 0 -87787516.373214722 -18757465.271362305 0 -18757465.271362305 165089126.50858212 0 0 0 0 8276609.4992424399 1533329.3327815272 0 1533329.3327815272 -943903.70729771722 0 0 0 0 -78994932.865329742 -10792557.804553509 0 -10792557.804553509 5598359.0011558533 0 0 0 0 910457161.14073181 194724178.96694565 0 194724178.96694565 -1048010469.6272755 0 0 0 0 232673115.00689697 111604410.66702271 0 111604410.66702271 69493277.267120361 0 0 0 0 762658582.58539581 -125435869.07851601 0 -125435869.07851601 -691981921.01023865 0 0 0 0 -172786946.19538879 -259910041.67248917 0 -259910041.67248917 -268011152.15066528 0 0 0 0 3925336.3541575787 -679158.83674008399 0 -679158.83674008399 -1310718.574897103 0 0 0 0 974639152.40623474 -856035034.60618591 0 -856035034.60618591 -783742486.98838234 0 0 0 0 -2568459.1143525466 -7048722.6207021512 0 -7048722.6207021512 2373390.7908935789 0 0 0 0 457969377.31749058 -1275164598.557291 0 -1275164598.557291 742125729.35214233 0 0 0 0 -386094671.0530014 31792.076515197754 0 31792.076515197754 845603233.41618347 0 0 0 0 45421726.658895329 -7466179.9306664802 0 -7466179.9306664802 -1569744.6105328687 0 0 0 0 1683480730.0118637 2538209025.9465961 0 2538209025.9465961 2822222094.4440613 0 0 0 0 1115063883.2011414 1178042629.2945137 0 1178042629.2945137 194076812.10691833 0 0 0 0 -8793606.0926055908 34504331.53011322 0 34504331.53011322 34470685.453155518 0 0 0 0 11804084.111991882 44364192.603107452 0 44364192.603107452 14682617.740066528 0 0 0 0 -7268719.9313278198 60520181.788936615 0 60520181.788936615 9916878.9314880371 0 0 0 0 -45285257.222076416 45005296.950439453 0 45005296.950439453 31669260.846580505 0 0 0 0 81325034.836621031 -15627554.315109707 0 -15627554.315109707 -13419842.308710519 0 0 0 0 -22520287.297439575 77146886.958961487 0 77146886.958961487 4113596.5314044952 0 0 0 0 107050758.60948181 58344476.687469482 0 58344476.687469482 -95524262.148742676 0 0 0 0 -581238427.94537354 -522102145.5421257 0 -522102145.5421257 -270164655.42095947 0 0 0 0 1095027579.1418076 487023356.63240337 0 487023356.63240337 -476689025.19805908 0 0 0 0 2558426716.6399231 1149399130.5105667 0 1149399130.5105667 -973646094.30288696 0 0 0 0 988856972.13983154 93004656.692199707 0 93004656.692199707 -1298210669.6863823 0 0 0 0 466937055.6280365 -1397149758.1978264 0 -1397149758.1978264 -1460893595.6328506 0 0 0 0 3345401349.2248383 -637619250.96059418 0 -637619250.96059418 -2682176935.3470154 0 0 0 0 463709477.89002991 172861321.45005035 0 172861321.45005035 -560362757.00536346 0 0 0 0 719152670.47362518 16664445.200344086 0 16664445.200344086 -596654141.48728561 0 0 0 0 751228384.71935272 -47378313.362251282 0 -47378313.362251282 -751638217.21858215 0 0 0 0 25516049.648148824 -5998338.7986141574 0 -5998338.7986141574 -13342496.690709811 0 0 0 0 205302251.37113571 -113036111.16479874 0 -113036111.16479874 -512403489.67543793 0 0 0 0 64563025.727787018 2762462.8508720398 0 2762462.8508720398 16853442.247966766 0 0 0 0 79972130.757749856 -12303764.961123891 0 -12303764.961123891 -8676308.3144333065 0 0 0 0 93776344.504495218 1425645.496483976 0 1425645.496483976 -18611686.322419602 0 0 0 0 45030617.960906982 -2708653.5613803864 0 -2708653.5613803864 -18241438.800161719 0 0 0 0 127854371.25888723 -822164.60052420199 0 -822164.60052420199 -18290659.731820185 0 0 0 0 142828180.91055298 -56578320.285453796 0 -56578320.285453796 -207393495.32780004 0 0 0 0 62331321.050842285 127856758.77895355 0 127856758.77895355 -195238887.10948944 0 0 0 0 116498306.33683936 -29136168.507580765 0 -29136168.507580765 -21056341.915108483 0 0 0 0 -27665641.307144165 151165497.83909988 0 151165497.83909988 -58532709.741729736 0 0 0 0 -16164067.89163208 101455257.71400833 0 101455257.71400833 33387237.694259942 0 0 0 0 15536837.512016296 504720826.51240921 0 504720826.51240921 235370962.39324093 0 0 0 0 -23063204.748893023 189832506.48466086 0 189832506.48466086 -211301801.31258392 0 0 0 0 115199272.08812198 -3522827.592642609 0 -3522827.592642609 -8102891.0165092219 0 0 0 0 234059508.60751343 -43249785.380958557 0 -43249785.380958557 -409374972.26799536 0 0 0 0 258051071.11745453 325110338.45755386 0 325110338.45755386 -759218829.08168817 0 0 0 0 161051768.89440918 57959059.786586761 0 57959059.786586761 -197446138.94528198 0 0 0 0 272655388.43936157 -124041742.52108765 0 -124041742.52108765 -99957962.491630554 0 0 0 0 123563156.39569092 -168461201.27970886 0 -168461201.27970886 -72990077.308395386 0 0 0 0 98473847.022155762 -153960949.58443069 0 -153960949.58443069 -34829295.191749573 0 0 0 0 118293044.20101929 -116120370.93501282 0 -116120370.93501282 -1925781.2100906372 0 0 0 0 22724571.362670898 -93697775.482654572 0 -93697775.482654572 225321984.8371315 0 0 0 0 243899269.32046509 -252243943.81171799 0 -252243943.81171799 98547083.55405426 0 0 0 0 662953.94509986043 -1184998.4627358764 0 -1184998.4627358764 -1234820.1690181568 0 0 0 0 132919196.46273804 9198277.8465304375 0 9198277.8465304375 -25186219.221570969 0 0 0 0 22014487.621970832 -11084652.577505946 0 -11084652.577505946 -10110255.829209812 0 0 0 0 340791786.42398071 -3019818.0460548401 0 -3019818.0460548401 35330271.809860229 0 0 0 0 570889086.94204712 -219245664.70032501 0 -219245664.70032501 79336755.664993286 0 0 0 0 453090072.8420105 -246595206.73550034 0 -246595206.73550034 209834312.37263107 0 0 0 0 314649919.73330688 13549138.743322372 0 13549138.743322372 40824137.945030212 0 0 0 0 640619204.68218994 -127406819.05144119 0 -127406819.05144119 92294466.216178894 0 0 0 0 9851595.2158203125 105752371.81869507 0 105752371.81869507 -87079145.398113251 0 0 0 0 614057078.44539261 -242155099.71005726 0 -242155099.71005726 75519821.335174561 0 0 0 0 1616505.1957127154 407268.44672012329 0 407268.44672012329 -1665082.6226834524 0 0 0 0 212299912.95706177 18137220.666745186 0 18137220.666745186 -32386942.921474934 0 0 0 0 8492857.2331492975 6378307.2982013822 0 6378307.2982013822 -20123162.352335803 0 0 0 0 -32884916.187263489 -141762004.53325725 0 -141762004.53325725 -136713407.35212708 0 0 0 0 257015834.17364502 -68917831.445379257 0 -68917831.445379257 -285005692.54158783 0 0 0 0 62810027.90776825 114875663.88524866 0 114875663.88524866 -171368002.39904785 0 0 0 0 391078398.44090271 197222162.79021406 0 197222162.79021406 -143476403.70479965 0 0 0 0 583361177.04223633 47763659.157361984 0 47763659.157361984 -92195595.549808502 0 0 0 0 424884047.99386597 216321897.91535187 0 216321897.91535187 -168372588.91144753 0 0 0 0 242894796.84262085 38263774.53967151 0 38263774.53967151 -146032273.09004366 0 0 0 0 1334307.1043395996 205898309.69145107 0 205898309.69145107 -156569838.23251629 0 0 0 0 174180099.71466064 -73428656.007397175 0 -73428656.007397175 -28783779.192964554 0 0 0 0 9664661.5644960776 -1677997.0756016523 0 -1677997.0756016523 -887344.08531996678 0 0 0 0 107008684.56201935 123705148.62077439 0 123705148.62077439 -423015255.24230385 0 0 0 0 2330877.9788056165 5887540.0072160661 0 5887540.0072160661 -11810805.034489576 0 0 0 0 14899187.998632431 324246575.91475564 0 324246575.91475564 -336383111.23557949 0 0 0 0 -28151847.617370605 463926523.34342098 0 463926523.34342098 -615023619.00563431 0 0 0 0 -275932849.1558075 269340937.94384885 0 269340937.94384885 -67318202.973061651 0 0 0 0 122977316.92077637 -12426388.869604945 0 -12426388.869604945 245500235.80345392 0 0 0 0 209400882.21634865 -32526467.685875729 0 -32526467.685875729 -35698643.326523781 0 0 0 0 29993215.341079712 114185498.01644759 0 114185498.01644759 -118253367.37672365 0 0 0 0 -47796475.799606323 58119349.473540813 0 58119349.473540813 -51396071.633053564 0 0 0 0 40528410.864242554 55303998.08968699 0 55303998.08968699 -74149720.733461618 0 0 0 0 50296110.759460449 36949597.874873877 0 36949597.874873877 -56941092.556254715 0 0 0 0 67347427.793380737 40918413.641128898 0 40918413.641128898 -77603622.198680878 0 0 0 0 34812554.696388572 -9880005.5149121657 0 -9880005.5149121657 -1731579.9556922112 0 0 0 0 127155307.87997437 -65590909.442191601 0 -65590909.442191601 -420632.99066114426 0 0 0 0 124114345.68861771 -51300692.575038791 0 -51300692.575038791 -36664154.795523643 0 0 0 0 122212144.71380615 -125648642.85507202 0 -125648642.85507202 17351067.608810425 0 0 0 0 41962747.514666751 -18297443.816161245 0 -18297443.816161245 -22257410.521098334 0 0 0 0 139219596.81277466 -133006215.69953346 0 -133006215.69953346 -59027757.294586182 0 0 0 0 54430412.321098328 -95218764.592146873 0 -95218764.592146873 8573983.9716491699 0 0 0 0 -2702078.6337976456 -4763391.2858711686 0 -4763391.2858711686 765656.04407040123 0 0 0 0 44727032.60017395 106885963.16360676 0 106885963.16360676 -8819312.3580667973 0 0 0 0 56882038.289352417 48149886.572553158 0 48149886.572553158 -79570078.651146412 0 0 0 0 31129468.750149727 18574440.728902742 0 18574440.728902742 -17867152.465138953 0 0 0 0 119570267.55555725 5018946.3518822789 0 5018946.3518822789 -209837533.31184784 0 0 0 0 79851486.495109558 83399913.636079818 0 83399913.636079818 -99654497.016070843 0 0 0 0 25543765.361404419 200278509.7806859 0 200278509.7806859 168508530.34828091 0 0 0 0 187155990.03385162 -5939215.329959631 0 -5939215.329959631 -202232369.71109962 0 0 0 0 13719495.877691716 3274815.9751048591 0 3274815.9751048591 -5028782.4900143407 0 0 0 0 -11387765.458312988 -43392994.713810682 0 -43392994.713810682 -82615710.142482281 0 0 0 0 202714575.09231567 -210017057.97919619 0 -210017057.97919619 -206195944.95414487 0 0 0 0 116733014.72665405 -232333560.83812159 0 -232333560.83812159 -179732605.64851332 0 0 0 0 -294579.40687203407 336341.89696210623 0 336341.89696210623 471242.75637042127 0 0 0 0 427872909.28393555 265001234.80579484 0 265001234.80579484 87599887.660957381 0 0 0 0 401840433.48414612 150264868.27684665 0 150264868.27684665 -84226428.331446469 0 0 0 0 336684549.60858917 2574223.9861130714 0 2574223.9861130714 -319590522.17484331 0 0 0 0 639975061.69688416 -32939476.665384412 0 -32939476.665384412 -317655641.97144997 0 0 0 0 158953985.54556274 -32994231.948592365 0 -32994231.948592365 -226006425.76909444 0 0 0 0 140076213.46315384 -146636990.54752272 0 -146636990.54752272 -188471518.72325897 0 0 0 0 335028096.51800537 -36677946.38921988 0 -36677946.38921988 -162179160.89418569 0 0 0 0 366787335.82737732 -146024132.46630776 0 -146024132.46630776 -251108165.71369356 0 0 0 0 323433704.71231079 -110669585.81993735 0 -110669585.81993735 -193948682.09768814 0 0 0 0 -3147846.0667114258 224065624.21529293 0 224065624.21529293 -144504460.46168166 0 0 0 0 1047871553.6797485 -280532693.9871757 0 -280532693.9871757 -226148335.02317283 0 0 0 0 933402970.25785255 453351230.48474669 0 453351230.48474669 -102068541.70265114 0 0 0 0 1017059691.9139633 -879639149.29439247 0 -879639149.29439247 -712501499.53515959 0 0 0 0 1263342921.3265076 220484003.19157255 0 220484003.19157255 -61442485.086821556 0 0 0 0 4238723.3935599923 591323.64239459112 0 591323.64239459112 -1165797.277699607 0 0 0 0 245359167.60444641 -326984225.88137078 0 -326984225.88137078 31066747.843787193 0 0 0 0 409515645.40631104 759245415.78184986 0 759245415.78184986 882376449.20407438 0 0 0 0 40888209.613922119 187443891.83152628 0 187443891.83152628 546865001.37930346 0 0 0 0 341563241.44790649 359032888.17856169 0 359032888.17856169 -226540921.57760239 0 0 0 0 -52174076.481292725 -4512767.4971208572 0 -4512767.4971208572 -382808169.90786505 0 0 0 0 -134823664.26013184 -1052205808.738252 0 -1052205808.738252 -272984200.07578707 0 0 0 0 28080621.956244379 9759860.0551041029 0 9759860.0551041029 -8374795.7114184918 0 0 0 0 -472522606.11380005 -121716645.44279814 0 -121716645.44279814 -135686391.27925301 0 0 0 0 26134048.562474325 7382853.0654318184 0 7382853.0654318184 -9152013.2680483479 0 0 0 0 91603152.53125 -373096322.72152376 0 -373096322.72152376 -301415731.97770023 0 0 0 0 103910600.24977559 -18197541.516020704 0 -18197541.516020704 -226382.08929789037 0 0 0 0 74538435.114294767 -110328230.64741278 0 -110328230.64741278 309516246.01735687 0 0 0 0 92632672.489837646 -13584997.675672293 0 -13584997.675672293 -184887392.23490322 0 0 0 0 -63903537.03515625 155567237.54097176 0 155567237.54097176 -1201314956.8763046 0 0 0 0 84596389.451014042 46020112.767578796 0 46020112.767578796 -44831542.929074429 0 0 0 0 152268950.88381958 48579815.48551178 0 48579815.48551178 620330990.61366272 0 0 0 0 168237901.91758537 98547360.62720871 0 98547360.62720871 -166847469.48444748 0 0 0 0 23087761.077066541 -6289859.1019349098 0 -6289859.1019349098 231517738.36375237 0 0 0 0 -49981332.316169739 183466755.96765137 0 183466755.96765137 -137992549.12374067 0 0 0 0 176126491.50759888 -76200660.836719513 0 -76200660.836719513 136342538.53183746 0 0 0 0 120797894.44327259 171302908.56022406 0 171302908.56022406 44477714.935943604 0 0 0 0 160752255.68742371 107432649.45279312 0 107432649.45279312 -130579883.69477844 0 0 0 0 -62013046.789405823 65762712.511829376 0 65762712.511829376 124163537.90114784 0 0 0 0 119098027.3346851 15562360.463688422 0 15562360.463688422 -4286392.3482517926 0 0 0 0 203629039.2040863 -32416034.973314285 0 -32416034.973314285 254899030.99977112 0 0 0 0 135518459.44434738 203623823.82130241 0 203623823.82130241 179708527.89413452 0 0 0 0 280607698.84304047 219725612.95632195 0 219725612.95632195 -572835121.19214439 0 0 0 0 368531851.26036072 -149944248.60964203 0 -149944248.60964203 144072467.86421728 0 0 0 0 386434088.30562592 68406944.793319702 0 68406944.793319702 76031530.621459961 0 0 0 0 13508342.648733117 7247043.1637717877 0 7247043.1637717877 -9906318.219330512 0 0 0 0 -13967698.764640808 98205090.987194061 0 98205090.987194061 295881347.8107729 0 0 0 0 178706797.69034576 120255958.58053017 0 120255958.58053017 43436275.469825745 0 0 0 0 125416023.7717056 -2033089.7706565885 0 -2033089.7706565885 -3730724.7901946078 0 0 0 0 259645670.33331299 -5464552.8030433655 0 -5464552.8030433655 -71856456.06817317 0 0 0 0 166403094.16475677 184617019.97847748 0 184617019.97847748 -206511862.58572578 0 0 0 0 116223419.45232391 104100818.12957215 0 104100818.12957215 -226106110.09291267 0 0 0 0 112974230.02445602 413162200.14032173 0 413162200.14032173 -53049936.684566498 0 0 0 0 482477940.72377014 272318738.17928696 0 272318738.17928696 -214297403.47089386 0 0 0 0 395732867.94012451 388015966.9716568 0 388015966.9716568 -236011156.80217171 0 0 0 0 427127602.16229248 593018735.70340729 0 593018735.70340729 -284224930.47891998 0 0 0 0 14624530.505302429 262794735.85243607 0 262794735.85243607 -48206416.090705872 0 0 0 0 -210563189.64086914 177595959.86639404 0 177595959.86639404 -73008542.208503723 0 0 0 0 16674421.599726994 8137557.8623425895 0 8137557.8623425895 843035.428628942 0 0 0 0 99424606.330478668 127491023.57954597 0 127491023.57954597 -459320011.23136902 0 0 0 0 202675269.73742867 223475974.3884716 0 223475974.3884716 -865479955.28178024 0 0 0 0 -535997473.52497101 17331723.633163452 0 17331723.633163452 -109294063.84172821 0 0 0 0 5223668.3460931182 3585630.7295944197 0 3585630.7295944197 1015200.2991247522 0 0 0 0 278364278.0594101 -426786666.05278778 0 -426786666.05278778 482571531.65393448 0 0 0 0 437828975.49078369 670687497.04684448 0 670687497.04684448 318244893.75443268 0 0 0 0 642738682.75631714 -314716982.33491898 0 -314716982.33491898 -183928286.2630806 0 0 0 0 337421649.7010498 -159137521.52534866 0 -159137521.52534866 74268776.625068665 0 0 0 0 339227039.90430355 -161249985.3485446 0 -161249985.3485446 -29091333.914142609 0 0 0 0 135121463.44815826 -79012915.032569885 0 -79012915.032569885 -52624145.22649765 0 0 0 0 27827691.133296266 11012109.908967724 0 11012109.908967724 -1320574.7095372323 0 0 0 0 60537435.927001953 27834960.219913483 0 27834960.219913483 -104058446.55541611 0 0 0 0 113433974.51965427 160236209.18545723 0 160236209.18545723 -643231890.47576523 0 0 0 0 195395599.02445984 -26998985.650409698 0 -26998985.650409698 -331224665.60765076 0 0 0 0 -94826972.998298645 5591978.3581085205 0 5591978.3581085205 -332664139.78536606 0 0 0 0 -73023342.413650513 338641641.01266098 0 338641641.01266098 -442965500.67805481 0 0 0 0 220751797.74539185 73731318.052131653 0 73731318.052131653 -48855644.895294189 0 0 0 0 75000747.31463623 63562320.80745697 0 63562320.80745697 -3376722.5608329773 0 0 0 0 24158256.940841675 38947454.74646759 0 38947454.74646759 -354529.46664047241 0 0 0 0 75353736.394989014 26072972.06734848 0 26072972.06734848 -29035888.903614044 0 0 0 0 23250997.573472977 30450725.638260603 0 30450725.638260603 -35797434.44103241 0 0 0 0 75751671.369407654 63299885.092248917 0 63299885.092248917 -35633057.540454865 0 0 0 0 113960774.04631042 14363028.877161026 0 14363028.877161026 -44225953.137695312 0 0 0 0 436238115.42479706 -26153601.394227982 0 -26153601.394227982 -172913699.43294525 0 0 0 0 418130832.45952606 -56829911.8931427 0 -56829911.8931427 -93522384.542324066 0 0 0 0 501114831.84230042 -48999438.671607971 0 -48999438.671607971 -355015273.34585953 0 0 0 0 499366045.45710754 33280097.111467361 0 33280097.111467361 -167140391.52371216 0 0 0 0 471606530.83782959 -49024555.031955719 0 -49024555.031955719 -50003896.030521393 0 0 0 0 476886033.29438925 14992224.88648057 0 14992224.88648057 -149461745.49198151 0 0 0 0 583865360.73910522 28719502.670684814 0 28719502.670684814 -102550936.39238358 0 0 0 0 395305213.50405884 -69478474.94777298 0 -69478474.94777298 -50256530.105636597 0 0 0 0 231679146.29356956 1291842.2921667099 0 1291842.2921667099 -80012606.738632202 0 0 0 0 449592047.05110168 -6134714.3848342896 0 -6134714.3848342896 -93074449.965984344 0 0 0 0 444390772.9415741 84902987.520534515 0 84902987.520534515 -77847602.146263123 0 0 0 0 265171051.17372131 60257232.991413116 0 60257232.991413116 -13357730.787902832 0 0 0 0 559028583.51282501 174091060.76697922 0 174091060.76697922 -24002552.842510223 0 0 0 0 693479052.133461 -69014682.7780056 0 -69014682.7780056 -26534653.848892212 0 0 0 0 313479827.18383789 -7012224.9919052124 0 -7012224.9919052124 126309212.08135796 0 0 0 0 543750002.48303223 -833658016.69819641 0 -833658016.69819641 93329240.068824768 0 0 0 0 1017663231.7408142 -350256804.83790588 0 -350256804.83790588 -42016600.81281662 0 0 0 0 572493019.88514709 -199658727.51927567 0 -199658727.51927567 31673207.225524902 0 0 0 0 804399037.88861847 -76889900.286018372 0 -76889900.286018372 -234890297.86277771 0 0 0 0 4303671.5302838497 3878889.0820560604 0 3878889.0820560604 3893517.6833093651 0 0 0 0 1389420426.2918167 -895557568.08180809 0 -895557568.08180809 -3605133.4418563843 0 0 0 0 486703212.17121696 596668553.17747879 0 596668553.17747879 1309124622.939064 0 0 0 0 2122187714.2737732 -164085206.53998947 0 -164085206.53998947 -252358928.04775238 0 0 0 0 569357832.21600342 -272732119.09062767 0 -272732119.09062767 107382515.60535336 0 0 0 0 980011985.43666077 1096731744.8096523 0 1096731744.8096523 429019996.77238464 0 0 0 0 1319107.0848934203 -1428801.0646935776 0 -1428801.0646935776 -852885.33504510485 0 0 0 0 376596203.24362183 -1335918260.9036636 0 -1335918260.9036636 1852026131.1161766 0 0 0 0 282738376.86925125 76486420.382701874 0 76486420.382701874 -53989121.79706955 0 0 0 0 1102766.7265459076 -9338485.9726402313 0 -9338485.9726402313 -3585629.542068834 0 0 0 0 6230744.9653017223 4076466.6157126762 0 4076466.6157126762 -3424787.1398015162 0 0 0 0 2676614.5266265869 -4320838.5401306152 0 -4320838.5401306152 -26408790.861412048 0 0 0 0 -2449706.0043029785 79313862.451015472 0 79313862.451015472 49818174.220989227 0 0 0 0 254098523.50782776 101763532.31963682 0 101763532.31963682 -25890574.316085815 0 0 0 0 -6667008.6470336914 -42630498.472923279 0 -42630498.472923279 -100756769.79434967 0 0 0 0 6968996.5419348627 2363801.0022654235 0 2363801.0022654235 -5953518.2548351754 0 0 0 0 -11836474.054952621 -23391154.250841141 0 -23391154.250841141 -48638567.757743835 0 0 0 0 -73941.416931152344 25312292.964393616 0 25312292.964393616 3971004.5157012939 0 0 0 0 -19810192.804588318 -57828026.892976999 0 -57828026.892976999 -71000030.830062866 0 0 0 0 6591650.1077880859 -4929960.1467456818 0 -4929960.1467456818 -24027445.843839645 0 0 0 0 2265196.8152885437 -4669326.0600821972 0 -4669326.0600821972 -21370680.67506218 0 0 0 0 4767772.1288253292 -8877527.7529344 0 -8877527.7529344 -5976889.7741604662 0 0 0 0 132104506.96113205 45098006.170507908 0 45098006.170507908 55567156.771717072 0 0 0 0 -69722126.219726562 -57519501.917087555 0 -57519501.917087555 460022268.65188217 0 0 0 0 31357381.40004921 -186474000.07463264 0 -186474000.07463264 492406932.8602066 0 0 0 0 846284554.45472717 120898821.4371624 0 120898821.4371624 607046645.95210838 0 0 0 0 273072917.95176315 -466931853.59641957 0 -466931853.59641957 1275726378.212925 0 0 0 0 175652969.31122589 -160483837.23758602 0 -160483837.23758602 469721082.81235886 0 0 0 0 -19327727.762107849 -276098627.06977177 0 -276098627.06977177 464578952.60644913 0 0 0 0 20962707.766136169 -320030119.35816288 0 -320030119.35816288 635146247.0288105 0 0 0 0 731359099.17266083 -526700924.57917309 0 -526700924.57917309 186555680.76233006 0 0 0 0 725791124.19411469 -430898667.57782173 0 -430898667.57782173 66003326.273788452 0 0 0 0 254753362.59282732 -247853231.81527832 0 -247853231.81527832 8398486.152589798 0 0 0 0 997500512.50406647 -56326535.611481667 0 -56326535.611481667 6901380.3898825645 0 0 0 0 1057531324.0877051 -574722635.59189248 0 -574722635.59189248 -81019780.55017662 0 0 0 0 1343341509.5658798 -922596940.42780495 0 -922596940.42780495 394254242.98095608 0 0 0 0 684087145.73708344 -485299289.76407909 0 -485299289.76407909 327490236.79977083 0 0 0 0 1346954469.3464093 208894202.27334532 0 208894202.27334532 1050159506.3022194 0 0 0 0 2385986.3669910096 1742470.2534841169 0 1742470.2534841169 1079197.4012170192 0 0 0 0 1342788683.2500076 -1357758498.8732176 0 -1357758498.8732176 943651544.15682793 0 0 0 0 1279765051.94207 -269998406.18572044 0 -269998406.18572044 -133100155.38086319 0 0 0 0 1040990307.8806915 -811598487.12466621 0 -811598487.12466621 -245587757.38358688 0 0 0 0 199390205.85679626 -666434776.71559906 0 -666434776.71559906 507428746.60159302 0 0 0 0 1552752247.0362854 -1243988073.5967655 0 -1243988073.5967655 47417162.977146149 0 0 0 0 2258909690.1540298 -1352328042.4500303 0 -1352328042.4500303 332339277.16950607 0 0 0 0 928584993.16744995 -833615015.66075897 0 -833615015.66075897 749466389.29219913 0 0 0 0 -654413182.89245605 58861225.579008102 0 58861225.579008102 1003636845.1289635 0 0 0 0 461411.93461897888 1136981.8677026816 0 1136981.8677026816 4542893.4541073013 0 0 0 0 1128749.1608791663 776461.55153694004 0 776461.55153694004 10419345.135400971 0 0 0 0 -87750751.459503174 -208231621.73734951 0 -208231621.73734951 776672628.1328249 0 0 0 0 1201282973.5184517 -558243841.5976758 0 -558243841.5976758 -63202258.310983658 0 0 0 0 746505014.46074915 -42272147.940261781 0 -42272147.940261781 -209217672.57349777 0 0 0 0 2497473538.7661285 -1231293920.8454952 0 -1231293920.8454952 -448557230.63495255 0 0 0 0 -689592372.37749147 6588476.2450176589 0 6588476.2450176589 1069234745.7389662 0 0 0 0 917169491.43714142 -1553744423.5670464 0 -1553744423.5670464 1462935647.3787756 0 0 0 0 2621972.092882067 -1050956.3051128797 0 -1050956.3051128797 8976367.4897206649 0 0 0 0 452201445.27670288 65162871.731006682 0 65162871.731006682 21668665.502759457 0 0 0 0 -233814319.65214539 10152893.017814636 0 10152893.017814636 181105779.20359612 0 0 0 0 -73562366.664642334 134209776.75831032 0 134209776.75831032 155484454.31196976 0 0 0 0 361820211.56999207 154705628.72738171 0 154705628.72738171 14643501.12425518 0 0 0 0 5652035.4578897767 -5214942.0583297554 0 -5214942.0583297554 123071.83400445091 0 0 0 0 4479632346.8137703 -2697725052.2288923 0 -2697725052.2288923 1609507967.2456646 0 0 0 0 2159793174.4249573 317270158.73451698 0 317270158.73451698 -971296971.88535142 0 0 0 0 3349190768.558075 -3245454377.906868 0 -3245454377.906868 1805908543.0264971 0 0 0 0 2633160837.1140823 -644395442.19081044 0 -644395442.19081044 1874729491.2718031 0 0 0 0 3317676081.3820267 -108378766.46405315 0 -108378766.46405315 1007089633.4966905 0 0 0 0 4246286112.5070019 -2806691927.6183772 0 -2806691927.6183772 1894666527.3395715 0 0 0 0 1734780552.778801 -878736127.37396145 0 -878736127.37396145 757187441.70896959 0 0 0 0 1985328740.1290779 -276517521.24477696 0 -276517521.24477696 -372632034.72196531 0 0 0 0 590243351.64702606 479739695.9364748 0 479739695.9364748 44678677.869775295 0 0 0 0 2629849460.5417366 -736823897.23697662 0 -736823897.23697662 51994734.282530785 0 0 0 0 1333753589.8134918 -721187241.15884686 0 -721187241.15884686 152559335.9751339 0 0 0 0 1123487281.5255699 -905594419.06324482 0 -905594419.06324482 258769276.89935875 0 0 0 0 1500960907.8008881 -864595694.34762096 0 -864595694.34762096 262919024.69173384 0 0 0 0 1148251085.8364639 -848341209.54086971 0 -848341209.54086971 391030019.4676857 0 0 0 0 695671189.79445648 -898069218.70089722 0 -898069218.70089722 386786042.62973166 0 0 0 0 631957273.03186417 -691983774.5608139 0 -691983774.5608139 558099304.30709457 0 0 0 0 660655584.32144928 -794980263.13199806 0 -794980263.13199806 580870373.36855793 0 0 0 0 779236652.74994278 -563337696.69203663 0 -563337696.69203663 371066618.39528465 0 0 0 0 1535054287.5815697 -437279845.38062096 0 -437279845.38062096 390673933.72839165 0 0 0 0 616427639.68960571 -852581411.89287376 0 -852581411.89287376 1478457539.9593916 0 0 0 0 856145683.2674942 -1894732068.9919834 0 -1894732068.9919834 1281848994.2230263 0 0 0 0 331223604.34596252 -784288043.57571983 0 -784288043.57571983 810776109.05611801 0 0 0 0 578555956.36380005 806753552.66026306 0 806753552.66026306 674849328.16003847 0 0 0 0 301795646.65234947 -532533220.19194031 0 -532533220.19194031 343952088.03717804 0 0 0 0 4400941.705564037 3903175.154443901 0 3903175.154443901 3211802.1192477755 0 0 0 0 1085011822.1077194 -984763956.73664188 0 -984763956.73664188 294851981.32324219 0 0 0 0 969541343.26014709 -586385343.69465637 0 -586385343.69465637 -244151959.54098511 0 0 0 0 2470739.4844614714 1789494.1836697627 0 1789494.1836697627 374660.23030248657 0 0 0 0 915599825.42216492 -1025680247.0769749 0 -1025680247.0769749 299636801.60801315 0 0 0 0 316653626.97343445 -36317874.354827881 0 -36317874.354827881 70987579.206485748 0 0 0 0 360604368.42280674 -257616790.20441723 0 -257616790.20441723 471993282.48149872 0 0 0 0 414049884.57417297 -90575368.153518677 0 -90575368.153518677 225756498.8858757 0 0 0 0 47103719.258056641 12601009.835063934 0 12601009.835063934 316754330.81095123 0 0 0 0 470460498.25647736 148640463.49642181 0 148640463.49642181 -534493479.32958984 0 0 0 0 -432557708.27236938 528470343.99797058 0 528470343.99797058 -183579214.62693787 0 0 0 0 431159817.56005478 128411762.74777889 0 128411762.74777889 -1448216849.7433167 0 0 0 0 411229001.59692383 31505475.538280487 0 31505475.538280487 -316676521.79853058 0 0 0 0 -412122654.27930778 -753641022.9491775 0 -753641022.9491775 647346913.77171326 0 0 0 0 -288845297.89613438 656783403.51554704 0 656783403.51554704 -406905345.81320572 0 0 0 0 184665290.52442932 -785288350.45063019 0 -785288350.45063019 -272284252.10540867 0 0 0 0 413884393.98942566 -276074389.83788872 0 -276074389.83788872 659923017.86703062 0 0 0 0 -316384671.03591919 -510462945.3768158 0 -510462945.3768158 661037812.36048889 0 0 0 0 60656380.394073486 -226595214.43156052 0 -226595214.43156052 486475196.73292923 0 0 0 0 -103707357.155509 -632604465.12962914 0 -632604465.12962914 1662300078.2671814 0 0 0 0 514103494.51679611 -1089137019.0709782 0 -1089137019.0709782 451639214.83972931 0 0 0 0 382478843.23703766 -984262000.3134613 0 -984262000.3134613 940384941.13530731 0 0 0 0 1047155635.3841248 -1164136600.2071381 0 -1164136600.2071381 459164778.64994812 0 0 0 0 729586124.94695663 -827704478.3063345 0 -827704478.3063345 471926380.61128998 0 0 0 0 142208775.50240326 -569155057.90346432 0 -569155057.90346432 518308934.1035881 0 0 0 0 -720054984.53672028 238135002.04735947 0 238135002.04735947 -467592499.32098198 0 0 0 0 1638186291.4114914 -1376586104.21175 0 -1376586104.21175 -243236696.80073929 0 0 0 0 1135585174.7230797 -896665248.76537323 0 -896665248.76537323 -1219371.997604847 0 0 0 0 1266976491.3475037 -1935615061.6240082 0 -1935615061.6240082 1392772195.3945084 0 0 0 0 228267807.696558 -1700689151.5562248 0 -1700689151.5562248 3851581843.9944687 0 0 0 0 2477380154.9419823 -2818970217.9261475 0 -2818970217.9261475 1195630612.4680557 0 0 0 0 1899687.7530238777 -3982548.6154997554 0 -3982548.6154997554 1478785.3490345376 0 0 0 0 2075539696.7324333 -948615437.41424537 0 -948615437.41424537 -1666091890.8646774 0 0 0 0 -1644950.3022134015 -4224293.1284010531 0 -4224293.1284010531 8976985.5725083128 0 0 0 0 1520928556.7996004 -3158906320.7349396 0 -3158906320.7349396 783175430.15070343 0 0 0 0 -1262387579.6587741 874113206.00561428 0 874113206.00561428 2415405754.2103615 0 0 0 0 -1091440067.3219504 189078177.18077183 0 189078177.18077183 3837820042.2867656 0 0 0 0 -790054105.81901836 173790334.68694496 0 173790334.68694496 -50619063.090190262 0 0 0 0 -1269304673.8827019 -182062216.39853287 0 -182062216.39853287 2611843483.1988907 0 0 0 0 -1445783.8518093815 -8842979.7814325262 0 -8842979.7814325262 16379628.189984597 0 0 0 0 -1883389340.6086588 -2392572796.5984302 0 -2392572796.5984302 -102773963.49525605 0 0 0 0 -1542799852.6662145 -1409798645.8067346 0 -1409798645.8067346 -120232338.81906319 0 0 0 0 -193629359.53432083 -786842982.1254158 0 -786842982.1254158 -235299686.29186678 0 0 0 0 -875137986.21533322 -129761157.53208888 0 -129761157.53208888 1281264028.5829868 0 0 0 0 -632413523.33546829 -1651499647.1193976 0 -1651499647.1193976 2719090827.7007542 0 0 0 0 536178859.60978699 -1078647780.6721592 0 -1078647780.6721592 1096980123.8381357 0 0 0 0 -426510467.7621994 -253776948.44775057 0 -253776948.44775057 522258002.25860596 0 0 0 0 1215666865.8793106 -656456383.55883503 0 -656456383.55883503 -240892658.01203728 0 0 0 0 1211715474.8772478 -1011404649.2490296 0 -1011404649.2490296 156440704.18454361 0 0 0 0 1139580472.3936768 -879483932.17752075 0 -879483932.17752075 146660420.82467437 0 0 0 0 537560906.37438679 -1043222338.8915405 0 -1043222338.8915405 527270604.30253601 0 0 0 0 1154614578.4419136 -1359170368.970674 0 -1359170368.970674 683543767.00234222 0 0 0 0 1772955563.4772167 -1949260214.6850195 0 -1949260214.6850195 591579894.46593761 0 0 0 0 990975048.13339615 -1507421234.0689478 0 -1507421234.0689478 602942839.99849772 0 0 0 0 557663908.77501869 -1958696043.4157267 0 -1958696043.4157267 1482590307.522851 0 0 0 0 -278881841.90544891 -1830708064.9876246 0 -1830708064.9876246 1598276675.1222944 0 0 0 0 3668275288.185761 -2223080291.2662458 0 -2223080291.2662458 506424246.87028599 0 0 0 0 1170286891.9101696 -3153081074.7207317 0 -3153081074.7207317 2056905836.5333247 0 0 0 0 -802700335.89403534 -641458412.51044655 0 -641458412.51044655 2184573528.2480927 0 0 0 0 241903277.31968212 -933198625.34925652 0 -933198625.34925652 -1234250796.6092625 0 0 0 0 9084736.1948183198 -18134840.232105676 0 -18134840.232105676 2593059.4661109075 0 0 0 0 2597339.2424585335 -3688902.3769841511 0 -3688902.3769841511 2968262.6552332137 0 0 0 0 474603212.4101243 -1201797770.3687868 0 -1201797770.3687868 -2854974167.6039929 0 0 0 0 12798446.842116129 -14410232.039897803 0 -14410232.039897803 138580.76017499133 0 0 0 0 -508175164.04527354 -713403262.75691652 0 -713403262.75691652 334738547.44636583 0 0 0 0 -221471477.54629976 -2229822370.2596302 0 -2229822370.2596302 1639429144.6929116 0 0 0 0 7471236.9430217743 -1904989692.3698392 0 -1904989692.3698392 208695264.02495676 0 0 0 0 -602444354.72694206 -1325244780.0779965 0 -1325244780.0779965 1224961418.8459499 0 0 0 0 -161150965.36498642 -1995060968.0859027 0 -1995060968.0859027 1641171935.3207679 0 0 0 0 475409997.80696821 -3331614574.838192 0 -3331614574.838192 3651334163.2402258 0 0 0 0 3244144864.3609447 -452251421.39089203 0 -452251421.39089203 716042089.88710332 0 0 0 0 2996739095.0565715 -2860785284.9820237 0 -2860785284.9820237 1190270440.5000846 0 0 0 0 3643510328.1486835 -1184324566.9339271 0 -1184324566.9339271 -230513987.324485 0 0 0 0 521143031.92156839 -1222201982.4878988 0 -1222201982.4878988 111761503.55506206 0 0 0 0 -416915359.50197768 -183909912.61026204 0 -183909912.61026204 -1822638489.5647078 0 0 0 0 1293502687.3037758 -1946507281.8432813 0 -1946507281.8432813 -939925270.25196123 0 0 0 0 810685054.29868555 335990075.00090712 0 335990075.00090712 -1043968843.0265164 0 0 0 0 2541042198.0134726 -217108786.29959583 0 -217108786.29959583 -2108048540.2645819 0 0 0 0 -1299322656.2775197 385158741.62765646 0 385158741.62765646 -2115437049.3506012 0 0 0 0 1036596025.9779034 -1275829454.0889354 0 -1275829454.0889354 -5128080125.6512461 0 0 0 0 13092046.662895491 -9932322.6403408796 0 -9932322.6403408796 -1036080.9566678095 0 0 0 0 5771245969.9801846 -522964548.48747945 0 -522964548.48747945 -1528064746.1637013 0 0 0 0 5784347348.5056438 154289725.39263892 0 154289725.39263892 -3677808477.8630257 0 0 0 0 3290583824.0260878 1821256613.1535659 0 1821256613.1535659 -4764899108.6779146 0 0 0 0 6123393.1635762891 -3486261.9442111561 0 -3486261.9442111561 -662020.77352508099 0 0 0 0 701937872.21246719 -1019755696.9094806 0 -1019755696.9094806 1192707740.5000789 0 0 0 0 2764816019.3262691 1597909124.1147778 0 1597909124.1147778 -2710158524.2578964 0 0 0 0 5205550935.247489 129073126.61957374 0 129073126.61957374 -1905518829.067929 0 0 0 0 5985791980.2556162 432620233.25176495 0 432620233.25176495 -2803183192.0478439 0 0 0 0 4008481666.9948711 608595784.90349245 0 608595784.90349245 -1449871319.9458029 0 0 0 0 5982540459.4669962 -911617903.8512007 0 -911617903.8512007 -369298257.8141886 0 0 0 0 4304267756.5667763 -592599812.68533766 0 -592599812.68533766 561559015.99341547 0 0 0 0 5985396768.5846291 -1645554572.0033171 0 -1645554572.0033171 1035550903.4778031 0 0 0 0 4657700285.3235188 -2097841961.6204667 0 -2097841961.6204667 1659533411.3838046 0 0 0 0 3768700498.4816246 -1554915687.2251077 0 -1554915687.2251077 2217475956.5202761 0 0 0 0 3477143323.2643452 -3076976530.0078287 0 -3076976530.0078287 1983875805.2894835 0 0 0 0 3521739991.0822582 -2258495808.3381386 0 -2258495808.3381386 -2169487013.5086741 0 0 0 0 -1186677592.6487288 -903507177.8188448 0 -903507177.8188448 4743253141.9407845 0 0 0 0 -789999.50157651817 -4497258.0724697951 0 -4497258.0724697951 8609196.6025968902 0 0 0 0 4744566915.4714031 -2295404036.909142 0 -2295404036.909142 2071181755.547235 0 0 0 0 6027075900.6084538 -2252367244.5748467 0 -2252367244.5748467 240533619.90553856 0 0 0 0 -1933242947.3632178 -710900119.62796545 0 -710900119.62796545 2422185663.0611305 0 0 0 0 1129406213.8113232 -1001645977.4503222 0 -1001645977.4503222 3164502507.0103703 0 0 0 0 -63663402.295310974 496702367.26109505 0 496702367.26109505 1537204848.6625843 0 0 0 0 383705422.43479729 -2024366418.7101181 0 -2024366418.7101181 7612054789.6948338 0 0 0 0 4351890457.0454941 -3554191465.3647861 0 -3554191465.3647861 5782877154.062068 0 0 0 0 5579581782.126894 -1061971753.0094841 0 -1061971753.0094841 4418790579.4721756 0 0 0 0 5982270840.8210335 -2493980477.3864102 0 -2493980477.3864102 3511054832.3820615 0 0 0 0 4921105232.786171 -3334354003.187108 0 -3334354003.187108 2897483969.0344009 0 0 0 0 5726071086.1621437 -1632943160.5490608 0 -1632943160.5490608 1735457850.7609289 0 0 0 0 90132476.268432617 -48883282.040035248 0 -48883282.040035248 106888475.18696058 0 0 0 0 89579814.679016113 -65578308.113243103 0 -65578308.113243103 81463055.171691895 0 0 0 0 58712103.319229126 -74425899.992118835 0 -74425899.992118835 81684329.034653127 0 0 0 0 161072230.55783081 -68343476.720012665 0 -68343476.720012665 41916811.865310669 0 0 0 0 175110431.0921669 -39036764.771698952 0 -39036764.771698952 46715031.381484985 0 0 0 0 178524717.26535034 -51499386.446777344 0 -51499386.446777344 41855720.10723877 0 0 0 0 149570442.19928741 -40465673.053880692 0 -40465673.053880692 48208911.917030334 0 0 0 0 128824610.5206604 -50129464.244880676 0 -50129464.244880676 75403477.846637726 0 0 0 0 90390315.115830302 -71179677.590214282 0 -71179677.590214282 65459091.099693298 0 0 0 0 165284627.91586304 -37834805.33745575 0 -37834805.33745575 41987214.70372963 0 0 0 0 39933984.389732361 -2504621.8801383972 0 -2504621.8801383972 -17148149.964099884 0 0 0 0 75691625.029394776 -630040.45568312611 0 -630040.45568312611 -8226161.6033206992 0 0 0 0 133854307.47512817 -31787333.421455383 0 -31787333.421455383 45464986.539480209 0 0 0 0 94480111.556930542 -50185980.303462982 0 -50185980.303462982 -34372743.26958847 0 0 0 0 56574821.878700256 4765903.9577331543 0 4765903.9577331543 -46542971.911132812 0 0 0 0 -33118935.596557617 75821927.08026886 0 75821927.08026886 -60666795.283604622 0 0 0 0 -17122104.339294434 -56665408.434497833 0 -56665408.434497833 -46201508.939976215 0 0 0 0 -22767362.436569214 -30776645.22170639 0 -30776645.22170639 -154785675.8407135 0 0 0 0 -52296279.073516846 -66679277.147125244 0 -66679277.147125244 -175696072.09007263 0 0 0 0 66094887.136614799 -83828749.695446372 0 -83828749.695446372 -60326934.759103775 0 0 0 0 11496532.417785645 -126604100.15981293 0 -126604100.15981293 -360851118.31982422 0 0 0 0 21703441.364837646 114444446.61053467 0 114444446.61053467 -134140489.58003616 0 0 0 0 113204419.51849365 69199663.856239319 0 69199663.856239319 -296169967.20488739 0 0 0 0 103200298.3550415 -14411771.182857513 0 -14411771.182857513 107762607.41467774 0 0 0 0 97287838.02154541 -30584344.253730774 0 -30584344.253730774 64647602.222259521 0 0 0 0 75384151.924849421 -26068062.470017876 0 -26068062.470017876 -15014554.506147848 0 0 0 0 43072606.954872131 -34034837.68581295 0 -34034837.68581295 208086947.90221977 0 0 0 0 82249689.511372238 -8950061.52239687 0 -8950061.52239687 -19642556.709810752 0 0 0 0 63799912.654907227 -28403983.932294846 0 -28403983.932294846 -79664340.03800869 0 0 0 0 130997484.84558105 -122264292.51758242 0 -122264292.51758242 -251815300.7728405 0 0 0 0 59322944.753381819 -37569612.509167045 0 -37569612.509167045 -10567559.595517475 0 0 0 0 98139472.826425821 -6154966.8621224388 0 -6154966.8621224388 -36629535.243638232 0 0 0 0 74439604.805107117 176624116.43712342 0 176624116.43712342 300356621.4214592 0 0 0 0 52012171.739517212 -100250053.83748245 0 -100250053.83748245 115487235.36632156 0 0 0 0 45072551.85496521 -70466726.248161316 0 -70466726.248161316 180899102.3058033 0 0 0 0 89423317.111885071 -66338784.966135025 0 -66338784.966135025 47591717.701683044 0 0 0 0 -51570034.197998047 -112964702.58626652 0 -112964702.58626652 38140696.94475174 0 0 0 0 -379296061.89134598 202353579.37411737 0 202353579.37411737 41981728.842082977 0 0 0 0 177848302.54998779 22229995.780744553 0 22229995.780744553 79451790.02829361 0 0 0 0 171134625.15815735 149901488.74158669 0 149901488.74158669 -599938334.68272018 0 0 0 0 82759901.278320312 7962406.2336864471 0 7962406.2336864471 -427180643.840415 0 0 0 0 -185256627.12943077 -322419654.93687153 0 -322419654.93687153 -275456177.75385666 0 0 0 0 75843832.497924805 9422623.1953964233 0 9422623.1953964233 -91687340.917243958 0 0 0 0 164962822.24499512 -98952670.352918625 0 -98952670.352918625 -222717325.04376221 0 0 0 0 102144486.36471558 -118648578.20944309 0 -118648578.20944309 3133095.8255157471 0 0 0 0 210007004.50650024 -78990442.400920868 0 -78990442.400920868 -55223992.743188858 0 0 0 0 170581947.00349045 -62274964.873222351 0 -62274964.873222351 -37587842.491508484 0 0 0 0 243919262.9484787 -79736996.37628746 0 -79736996.37628746 -78972068.894039154 0 0 0 0 291580973.85462952 18433601.922979355 0 18433601.922979355 -6243005.0396261215 0 0 0 0 235855639.07911682 119915696.38489342 0 119915696.38489342 41609234.576300144 0 0 0 0 82486485.679740906 2907772.263048172 0 2907772.263048172 16997546.380775452 0 0 0 0 215652539.75684357 -22465512.09654808 0 -22465512.09654808 -2546381.4420814514 0 0 0 0 26164738.492944874 410683.38920050114 0 410683.38920050114 -4489395.2850704789 0 0 0 0 208731908.45251465 -34186466.600271225 0 -34186466.600271225 -22275064.792572021 0 0 0 0 224588710.87651062 -47644248.544812202 0 -47644248.544812202 -14626942.759010315 0 0 0 0 36829459.670673244 34837544.604496524 0 34837544.604496524 10840959.787436344 0 0 0 0 12011634.504081726 260360517.06365013 0 260360517.06365013 156164577.71642685 0 0 0 0 223189828.92710876 -69719596.838577271 0 -69719596.838577271 -108614169.83413887 0 0 0 0 281338916.97978783 -118690411.93120241 0 -118690411.93120241 -112665720.1889534 0 0 0 0 15036961.512052853 -436882.16086019203 0 -436882.16086019203 -3653096.9756088853 0 0 0 0 -13672523.569637299 101513577.12830448 0 101513577.12830448 -14879356.258132935 0 0 0 0 147967.74250793457 62845892.136310577 0 62845892.136310577 -37516313.685292244 0 0 0 0 4270252.3933410645 79739030.936130524 0 79739030.936130524 31609981.854370117 0 0 0 0 -66513868.034606934 51933907.813810349 0 51933907.813810349 53861632.491470337 0 0 0 0 -19702809.312095642 28765065.445520401 0 28765065.445520401 110198190.83032036 0 0 0 0 -18562238.283355713 42918834.804607391 0 42918834.804607391 24495952.175388336 0 0 0 0 41594957.815562904 32323577.548732605 0 32323577.548732605 7330993.6454607192 0 0 0 0 96657726.858032227 32585986.59035778 0 32585986.59035778 27873219.549346924 0 0 0 0 -68205452.002506495 70333774.285978675 0 70333774.285978675 34905595.94871521 0 0 0 0 17925495.43977356 61696384.463447571 0 61696384.463447571 -35278549.047737122 0 0 0 0 109347.40018256009 26135527.491505619 0 26135527.491505619 4016387.45986332 0 0 0 0 -42646765.788330078 60862491.681880951 0 60862491.681880951 12102839.434532166 0 0 0 0 32307971.29366684 32375152.327001572 0 32375152.327001572 -3569760.7307357788 0 0 0 0 26261750.356056213 42613065.965019226 0 42613065.965019226 -14016817.999912262 0 0 0 0 -15661872.10168457 58431844.66371727 0 58431844.66371727 1460271.8965244293 0 0 0 0 -3493804.3768692017 -17387211.017818451 0 -17387211.017818451 -40629385.463306427 0 0 0 0 142030753.98946381 -2610730.650182724 0 -2610730.650182724 -7024880.9201660156 0 0 0 0 87096092.437072754 -29605010.260276794 0 -29605010.260276794 30286847.84389019 0 0 0 0 187876133.36736679 -36158382.711702347 0 -36158382.711702347 39405938.247993469 0 0 0 0 16432682.333609559 734999.67065747641 0 734999.67065747641 -6904816.7725116294 0 0 0 0 184635425.41716766 -82967764.752459526 0 -82967764.752459526 42374956.197822571 0 0 0 0 242852149.81217957 -58313579.290641785 0 -58313579.290641785 -17334096.856579781 0 0 0 0 43110761.767774448 -6806398.4071995169 0 -6806398.4071995169 -350279.46756148711 0 0 0 0 91025087.193328857 13799530.020927429 0 13799530.020927429 21249492.317073822 0 0 0 0 130123008.65092468 7781389.4744415283 0 7781389.4744415283 -4445607.1993408203 0 0 0 0 47214296.12086916 7596699.4455433264 0 7596699.4455433264 -4324918.2565656565 0 0 0 0 21532532.351873398 969516.60255002975 0 969516.60255002975 -5177165.5106239319 0 0 0 0 32361988.892150607 9872177.8441895954 0 9872177.8441895954 505807.49011261389 0 0 0 0 19220777.178323746 -2456707.5171966553 0 -2456707.5171966553 -9193695.5573768616 0 0 0 0 20560259.53467226 2864715.7235202789 0 2864715.7235202789 -13588914.286561012 0 0 0 0 24209115.673894882 8978019.8333835602 0 8978019.8333835602 -16648637.948970795 0 0 0 0 25546409.16655159 4971746.0191650391 0 4971746.0191650391 -23091347.575737 0 0 0 0 16609116.196188396 -3031553.7818824342 0 -3031553.7818824342 -889604.87156779133 0 0 0 0 45585597.983301736 46733490.450749353 0 46733490.450749353 -7828905.5202292446 0 0 0 0 23657900.102145672 11262971.240617752 0 11262971.240617752 -11535251.494360447 0 0 0 0 75738293.879676819 -31132516.468816757 0 -31132516.468816757 50994822.619789124 0 0 0 0 47372331.802352339 -7394862.9837719975 0 -7394862.9837719975 -9888364.4913174361 0 0 0 0 46851882.51052402 -5805302.5331747085 0 -5805302.5331747085 -13234319.275698613 0 0 0 0 102078287.2326889 -2146177.6579456329 0 -2146177.6579456329 -19942874.680953979 0 0 0 0 14903588.858921051 -1235995.3562049866 0 -1235995.3562049866 -13861429.133773804 0 0 0 0 48309383.219709888 -994313.66399208084 0 -994313.66399208084 -700909.97520064749 0 0 0 0 121296606.48101807 -34960041.535629272 0 -34960041.535629272 -51478025.339981079 0 0 0 0 168468470.77779007 -52893306.224379063 0 -52893306.224379063 -65891720.383453369 0 0 0 0 86076502.563339233 3175600.2470664978 0 3175600.2470664978 -8894938.4657592773 0 0 0 0 159783733.97602081 -89262930.660903931 0 -89262930.660903931 -35677469.576534271 0 0 0 0 28810251.073128507 -3086401.2293123202 0 -3086401.2293123202 -6384645.9631405566 0 0 0 0 68951972.175003052 -7679087.7181549072 0 -7679087.7181549072 -9417525.5077631474 0 0 0 0 85918523.195512414 -5213721.9734318554 0 -5213721.9734318554 -3500754.498550415 0 0 0 0 42263441.715386376 -2812490.3169294223 0 -2812490.3169294223 -3048222.5384590793 0 0 0 0 29006962.639357097 5908261.3462623209 0 5908261.3462623209 -4704321.7581772637 0 0 0 0 141171644.16181183 -29100081.118499756 0 -29100081.118499756 -14600199.979195595 0 0 0 0 7434044.2283187807 755509.26445352845 0 755509.26445352845 -2724589.6417886429 0 0 0 0 103540587.86518478 -10094713.239955902 0 -10094713.239955902 -34178319.240409851 0 0 0 0 60581257.76738739 1299481.2516822815 0 1299481.2516822815 -36698245.25327301 0 0 0 0 24536701.34160614 -7762318.0926856995 0 -7762318.0926856995 16143774.579246521 0 0 0 0 154304311.66268921 -50035198.529918671 0 -50035198.529918671 -28082492.972816467 0 0 0 0 154394274.41912079 -4350221.1736545563 0 -4350221.1736545563 -84284259.250278473 0 0 0 0 100113936.62728882 -346030.15381622314 0 -346030.15381622314 -78511550.544960022 0 0 0 0 78065177.752689362 28551021.231460571 0 28551021.231460571 -110518728.46634674 0 0 0 0 32981980.075101614 27936714.491535902 0 27936714.491535902 -32256652.99319458 0 0 0 0 104752962.55281067 15216366.478860855 0 15216366.478860855 -47274454.529464722 0 0 0 0 97716571.50667572 -10708306.712612152 0 -10708306.712612152 -43430194.061843872 0 0 0 0 8551986.8704986572 45736351.555919647 0 45736351.555919647 53984209.570241928 0 0 0 0 18917155.526176453 40663329.937423706 0 40663329.937423706 1609598.8214149475 0 0 0 0 20166672.272132874 43207887.269191742 0 43207887.269191742 6391235.5789527893 0 0 0 0 5294252.3922805786 27858780.341733932 0 27858780.341733932 18578333.797885895 0 0 0 0 7456099.2502059937 23950119.860725403 0 23950119.860725403 8302277.5288066864 0 0 0 0 12262446.042610168 34929434.454494476 0 34929434.454494476 824309.39796829224 0 0 0 0 10560124.972946167 37976788.375034332 0 37976788.375034332 25369831.310148239 0 0 0 0 6072375.5585670471 57064010.723705292 0 57064010.723705292 9531124.0850372314 0 0 0 0 -8422649.7983627319 2329701.6543617249 0 2329701.6543617249 17609037.146783829 0 0 0 0 9732073.8383598328 28011006.227615356 0 28011006.227615356 14816312.286762238 0 0 0 0 18611279.177734513 5470605.8959202655 0 5470605.8959202655 -1490521.4025958665 0 0 0 0 9481060.9449157715 -5188002.7109489441 0 -5188002.7109489441 29059900.177597046 0 0 0 0 9705787.810005188 15429418.949583054 0 15429418.949583054 12736397.226688385 0 0 0 0 8112111.1945171356 43077673.900489807 0 43077673.900489807 60266027.971191406 0 0 0 0 -212938482.98204041 68510899.073982239 0 68510899.073982239 -52846236.727005005 0 0 0 0 332256.05351243913 4994665.8181846412 0 4994665.8181846412 2446830.6348124985 0 0 0 0 -47114318.91765213 173858825.75382423 0 173858825.75382423 -132057307.39991379 0 0 0 0 14638286.697902679 -31313394.052192688 0 -31313394.052192688 -188210726.25885773 0 0 0 0 17686756.282348633 -21668606.847247124 0 -21668606.847247124 -1970027.005317688 0 0 0 0 35022546.740779877 9055167.8817310333 0 9055167.8817310333 -121193924.13768768 0 0 0 0 1726966.8792294972 394340.85608106479 0 394340.85608106479 -659103.89356241003 0 0 0 0 2555726.5596072972 -2413035.4830910563 0 -2413035.4830910563 -2059085.2112835506 0 0 0 0 -30669516.613067627 966984.88125228882 0 966984.88125228882 46309876.831882 0 0 0 0 -78284674.467308044 85761791.066278458 0 85761791.066278458 -65622688.094749451 0 0 0 0 62068889.342269897 -47254888.743953705 0 -47254888.743953705 -2061416.3236370087 0 0 0 0 -90563618.327444077 -121577196.5992316 0 -121577196.5992316 -3817216.6003265381 0 0 0 0 -865293.996925354 44198555.914482117 0 44198555.914482117 -189401301.8072319 0 0 0 0 -857674.53852510452 -63978836.207374573 0 -63978836.207374573 -82053984.514717102 0 0 0 0 383800853.09709167 -37394723.664840698 0 -37394723.664840698 -91602579.591239929 0 0 0 0 265834407.5012207 220903271.1410675 0 220903271.1410675 -57738428.441587925 0 0 0 0 15706168.923334122 88670458.770915031 0 88670458.770915031 35790250.014404297 0 0 0 0 153849800.15085602 -55064628.290178299 0 -55064628.290178299 -38352476.672431946 0 0 0 0 55880675.790328979 -58719885.461896896 0 -58719885.461896896 27603124.418292999 0 0 0 0 184465593.25455856 -172426102.19604874 0 -172426102.19604874 116320778.60786438 0 0 0 0 598972.67223761976 -343177.36683856323 0 -343177.36683856323 -388130.48254911974 0 0 0 0 67581626.82742691 -20647782.118644714 0 -20647782.118644714 -97592649.320301056 0 0 0 0 89159784.656551361 100224331.08603764 0 100224331.08603764 -102895595.13185501 0 0 0 0 242506268.39944458 -35722112.383224487 0 -35722112.383224487 -29474666.531356812 0 0 0 0 43530236.88561859 -15582852.403536739 0 -15582852.403536739 -13416982.857676208 0 0 0 0 63359485.625549316 -53531786.78287366 0 -53531786.78287366 4437873.6361916661 0 0 0 0 88977065.924442291 71435510.93379572 0 71435510.93379572 35371906.483874321 0 0 0 0 216384123.59390259 50133218.268818498 0 50133218.268818498 -30804172.918096781 0 0 0 0 -138712450.26573181 -45395868.513119817 0 -45395868.513119817 -47086495.570730209 0 0 0 0 -118253912.40237427 -98988475.279216275 0 -98988475.279216275 36311387.71642077 0 0 0 0 -98359150.078216553 -82248988.514972329 0 -82248988.514972329 -20164951.118678093 0 0 0 0 -47627466.003585815 -93090668.025436491 0 -93090668.025436491 -36687607.066012681 0 0 0 0 45458233.65137583 -17896237.561942756 0 -17896237.561942756 -11267402.775315851 0 0 0 0 -118036824.92126465 -98999555.501069665 0 -98999555.501069665 -5030300.7317897081 0 0 0 0 137848882.78407288 6417228.2524013519 0 6417228.2524013519 -18009210.112809181 0 0 0 0 -15335627.2394104 -64807871.719818115 0 -64807871.719818115 -58404038.605102539 0 0 0 0 31597427.776517399 8604815.3967147619 0 8604815.3967147619 932619.79700319143 0 0 0 0 33603525.136592984 51749502.107535183 0 51749502.107535183 -67297557.104812622 0 0 0 0 77351460.325286865 -180884595.55328369 0 -180884595.55328369 -3382171.3902854919 0 0 0 0 7282685.2665106282 -1668974.5741805499 0 -1668974.5741805499 -637286.11295744963 0 0 0 0 23973346.278984368 4376856.1653960105 0 4376856.1653960105 -25808.401539023966 0 0 0 0 -50924998.924846649 -122325388.28847313 0 -122325388.28847313 32400842.177268982 0 0 0 0 77490025.394927979 -50792930.373355865 0 -50792930.373355865 -93940575.968925476 0 0 0 0 -23935333.298294067 -130108867.867136 0 -130108867.867136 -69877099.62530899 0 0 0 0 60670886.390000477 -12201981.590555891 0 -12201981.590555891 -8703006.3517209329 0 0 0 0 114338003.11924934 -273563.05253219604 0 -273563.05253219604 -8290214.4345550537 0 0 0 0 184842725.75370979 61757049.446184635 0 61757049.446184635 -32172328.966030121 0 0 0 0 -230901972.56577301 -181116467.32817841 0 -181116467.32817841 -92739828.912883759 0 0 0 0 7529683.4170579426 1281620.6893377304 0 1281620.6893377304 -48281.467632213607 0 0 0 0 -203892743.80044174 -88154778.406277657 0 -88154778.406277657 17799743.613739014 0 0 0 0 132094190.97160339 -17030148.968101501 0 -17030148.968101501 -58566457.497779846 0 0 0 0 -23059974.255599976 -100327129.17314911 0 -100327129.17314911 105068938.14605713 0 0 0 0 -34332817.489952087 -46748185.102848053 0 -46748185.102848053 -71672657.789505005 0 0 0 0 62153264.822509766 -113660026.1008997 0 -113660026.1008997 -154799408.48134971 0 0 0 0 87876337.656906128 -169517721.16091347 0 -169517721.16091347 -141825278.09492445 0 0 0 0 -21764204.953460693 -120929417.66845131 0 -120929417.66845131 -43072595.560045838 0 0 0 0 41303042.597518921 -143107381.05806822 0 -143107381.05806822 75862843.270941496 0 0 0 0 42052433.713394165 -144668660.4599005 0 -144668660.4599005 -36431676.695328221 0 0 0 0 -46783994.969623566 -103212024.03551199 0 -103212024.03551199 68923080.591479689 0 0 0 0 33919652.610870361 -48547829.499644473 0 -48547829.499644473 4401765.3649104834 0 0 0 0 53185187.730422974 -80538116.135213286 0 -80538116.135213286 37912600.614334852 0 0 0 0 93856492.859474182 -4797827.1866878495 0 -4797827.1866878495 162541858.29647622 0 0 0 0 223712361.777771 -179459874.82668471 0 -179459874.82668471 8760082.9920022488 0 0 0 0 109897084.55328369 -202478081.32217824 0 -202478081.32217824 127247746.55619079 0 0 0 0 187909241.87910461 -39887726.331097484 0 -39887726.331097484 156430225.43021464 0 0 0 0 734229992.71586609 -148818456.56933635 0 -148818456.56933635 127591098.61447847 0 0 0 0 232643687.57765198 19305880.632908195 0 19305880.632908195 435207793.4937129 0 0 0 0 641130.1615433991 -499053.85675987601 0 -499053.85675987601 1006144.5026629516 0 0 0 0 689412213.59921265 479814639.99117869 0 479814639.99117869 425307692.56670392 0 0 0 0 50026638.889434814 -372038819.28805357 0 -372038819.28805357 -34622349.878593802 0 0 0 0 211063332.68519592 286340344.79850543 0 286340344.79850543 258177002.89977694 0 0 0 0 130211315.40272522 123800120.87448871 0 123800120.87448871 249361091.67211449 0 0 0 0 474404437.03448486 -59892950.339697897 0 -59892950.339697897 -76781972.088221073 0 0 0 0 57322069.80921936 -125841592.01531625 0 -125841592.01531625 -217487564.84673643 0 0 0 0 219537303.39144897 -173317522.50294542 0 -173317522.50294542 -235621415.62124839 0 0 0 0 156355474.81506348 -122835179.08333719 0 -122835179.08333719 -38770867.273850679 0 0 0 0 75222867.211700439 -166398709.12242982 0 -166398709.12242982 -46541101.109238863 0 0 0 0 121226780.03614807 17627663.637813926 0 17627663.637813926 -93672631.823454857 0 0 0 0 -887677454.99673462 -515064994.33040321 0 -515064994.33040321 48150003.104732752 0 0 0 0 -46927864.615608215 -68952823.088809818 0 -68952823.088809818 -279034556.74513775 0 0 0 0 165080219.775177 -68105788.756925702 0 -68105788.756925702 -267714680.48520133 0 0 0 0 -389155591.46884155 -347608937.19380593 0 -347608937.19380593 -312529975.0366621 0 0 0 0 -200479413.04325867 16574359.512350759 0 16574359.512350759 -187822734.92167559 0 0 0 0 67673457.006896973 -98603005.454189539 0 -98603005.454189539 -237766034.82404017 0 0 0 0 128742263.1843338 225652942.17219424 0 225652942.17219424 114780948.297822 0 0 0 0 123428545.03141785 -156796424.6197505 0 -156796424.6197505 -233294983.82712913 0 0 0 0 829323.54586156458 1133790.368089661 0 1133790.368089661 833103.19840445765 0 0 0 0 2765519.468334347 -909232.62825250253 0 -909232.62825250253 2004243.0976952233 0 0 0 0 165378073.91088867 25958198.879112124 0 25958198.879112124 -6785182.5724970102 0 0 0 0 7469685.3025970459 116275953.11860955 0 116275953.11860955 -44237719.591850042 0 0 0 0 210872267.23635864 25050829.540474415 0 25050829.540474415 -36613530.904387474 0 0 0 0 -23860689.213256836 121518959.31671071 0 121518959.31671071 -70935889.491056919 0 0 0 0 103531741.16057777 300518181.28222102 0 300518181.28222102 288927240.18820333 0 0 0 0 5980412.7558540106 -376486.28790998831 0 -376486.28790998831 2177344.9193730471 0 0 0 0 6549154.7473381162 3575925.490111351 0 3575925.490111351 302570.44675403996 0 0 0 0 155622237.45929718 242315641.4928478 0 242315641.4928478 -41617377.498292446 0 0 0 0 12461918.906107083 2213625.0069917254 0 2213625.0069917254 439533.37517909752 0 0 0 0 101867460.96327209 280202274.95326763 0 280202274.95326763 117144555.91474581 0 0 0 0 -19711687.015106201 -62670954.197854519 0 -62670954.197854519 37799812.456936032 0 0 0 0 148722235.18667603 -157206096.62276506 0 -157206096.62276506 -38634515.171726227 0 0 0 0 86901191.298736572 131348226.73663568 0 131348226.73663568 -33358092.051481247 0 0 0 0 -496638829.39562988 424005700.77623546 0 424005700.77623546 714167543.40999246 0 0 0 0 165401984.77199888 -20680956.865122795 0 -20680956.865122795 -157956342.86238098 0 0 0 0 138907264.20913696 145221625.07432938 0 145221625.07432938 -140148635.2267797 0 0 0 0 43822453.732772827 -3433649.0309638977 0 -3433649.0309638977 241596869.88584709 0 0 0 0 227787319.78056335 76261396.283495665 0 76261396.283495665 -401770761.60392499 0 0 0 0 95324285.809132919 -5550107.2993767988 0 -5550107.2993767988 -525584.0975951755 0 0 0 0 63513868.355581284 -121361900.43481445 0 -121361900.43481445 50229259.048870087 0 0 0 0 75822909.559631824 -99222452.667120695 0 -99222452.667120695 98506049.837060928 0 0 0 0 204450247.74269104 17116301.30458802 0 17116301.30458802 -508286602.12574124 0 0 0 0 86758931.304548323 -3931007.8988883276 0 -3931007.8988883276 -1272166.7959631286 0 0 0 0 90417940.559043884 -8986636.7665481567 0 -8986636.7665481567 -13950144.078540802 0 0 0 0 111666149.61273575 -22048262.049669266 0 -22048262.049669266 -118847299.15830612 0 0 0 0 58943077.822813034 -87457274.651789665 0 -87457274.651789665 -36064839.947841644 0 0 0 0 89602671.404897213 -16076845.4605093 0 -16076845.4605093 -128399787.59398651 0 0 0 0 75278895.277626038 -17248077.196638107 0 -17248077.196638107 -109465322.7564373 0 0 0 0 96986604.65404129 29200221.75500679 0 29200221.75500679 -269172388.57321548 0 0 0 0 68603379.154993057 16268662.343593597 0 16268662.343593597 -270342325.92056656 0 0 0 0 170216910.57979441 -53615289.367168427 0 -53615289.367168427 -145754994.32388687 0 0 0 0 44610474.684829712 -11775914.879718781 0 -11775914.879718781 -132382794.6639986 0 0 0 0 97084614.767059326 -23578802.316856384 0 -23578802.316856384 -314319618.57124329 0 0 0 0 106754672.48294994 31179443.847379208 0 31179443.847379208 -364926586.86341858 0 0 0 0 -20963752.501766205 65711103.388023376 0 65711103.388023376 -237402327.5411377 0 0 0 0 8195135.210950017 129438025.74677277 0 129438025.74677277 -355060877.17622375 0 0 0 0 117576699.0833416 123046761.60486984 0 123046761.60486984 -510236228.55485535 0 0 0 0 39209165.81555751 12014253.078692663 0 12014253.078692663 -7062020.7194317169 0 0 0 0 6684465.1036214828 53645989.575630188 0 53645989.575630188 -144414859.09591293 0 0 0 0 110960.2700843811 -64740042.359680176 0 -64740042.359680176 -337111172.87249756 0 0 0 0 26513036.553024292 -70772544.151432037 0 -70772544.151432037 -84526298.104263783 0 0 0 0 45079466.097961426 -27413398.189123154 0 -27413398.189123154 -76503672.666218281 0 0 0 0 6001854.7973899841 -63198676.648327827 0 -63198676.648327827 -80192098.421609879 0 0 0 0 30258072.716217041 -79449568.857437611 0 -79449568.857437611 -225337789.33386284 0 0 0 0 43630529.722614288 -46577786.846858978 0 -46577786.846858978 -27823855.87881279 0 0 0 0 68416063.618121743 -10980466.516495898 0 -10980466.516495898 -5024556.9703632491 0 0 0 0 211383868.72828674 -63091386.337926626 0 -63091386.337926626 -499101475.63884115 0 0 0 0 237447088.89243317 26858941.462560415 0 26858941.462560415 -505340462.411268 0 0 0 0 77776872.249872014 -5219345.4850705871 0 -5219345.4850705871 -2539334.7888577352 0 0 0 0 86289584.699131012 -64677499.985038757 0 -64677499.985038757 15539240.032012105 0 0 0 0 81293827.987705231 -20989656.327102661 0 -20989656.327102661 -53345891.405284882 0 0 0 0 85596142.673416138 -42930343.632766724 0 -42930343.632766724 -72521587.170635223 0 0 0 0 92093560.824676514 -52212839.580734253 0 -52212839.580734253 -68735040.756473541 0 0 0 0 85406256.883247375 -23304868.955055237 0 -23304868.955055237 -80377392.541465759 0 0 0 0 72930099.537734985 -33187114.046943665 0 -33187114.046943665 -86828744.978427887 0 0 0 0 69442855.538039088 -4012177.8392380318 0 -4012177.8392380318 -32428329.154322144 0 0 0 0 470609631.83291626 47611131.413724899 0 47611131.413724899 -85956148.104057312 0 0 0 0 48582057.488174438 -31106830.061933517 0 -31106830.061933517 -71645823.767185211 0 0 0 0 66109295.339918137 -49258002.074384212 0 -49258002.074384212 -86994403.266304016 0 0 0 0 285146941.36710358 490983197.31293488 0 490983197.31293488 134714063.78390121 0 0 0 0 76342006.325496167 -6664095.7757506538 0 -6664095.7757506538 -31111589.33913292 0 0 0 0 451702048.20888519 152407242.0925169 0 152407242.0925169 -403830605.02687836 0 0 0 0 136564054.07003784 59178428.015296936 0 59178428.015296936 51705706.527872562 0 0 0 0 -175762455.94784927 369731984.43536854 0 369731984.43536854 120330327.50121689 0 0 0 0 144173509.44307709 16127998.392132759 0 16127998.392132759 -219186529.58479309 0 0 0 0 155589743.17958069 118879846.08878326 0 118879846.08878326 -234337443.48164368 0 0 0 0 -346363252.26351929 -696006264.59986591 0 -696006264.59986591 73022184.421099663 0 0 0 0 2775598.7012745664 1638313.2167319208 0 1638313.2167319208 -6048919.2506176494 0 0 0 0 173510364.49014282 -137749712.96105957 0 -137749712.96105957 -563326839.414608 0 0 0 0 172995121.32661819 -215498527.11374569 0 -215498527.11374569 959220554.71757507 0 0 0 0 801530759.52655029 300704322.27762032 0 300704322.27762032 -136751174.15235513 0 0 0 0 695465644.30163574 -506109157.54832649 0 -506109157.54832649 -76664590.598819733 0 0 0 0 27374146.988800049 -115433942.54413414 0 -115433942.54413414 -124061116.87625313 0 0 0 0 831549278.01192999 -583602710.53913271 0 -583602710.53913271 -13087623.018928528 0 0 0 0 888453266.10395813 425154125.09345436 0 425154125.09345436 -51353700.010036469 0 0 0 0 86080779.006660461 6769692.7205123901 0 6769692.7205123901 -92086994.248901367 0 0 0 0 7132495.1433867067 -11997176.121537207 0 -11997176.121537207 -10814509.601457039 0 0 0 0 68804254.751547307 1856416.4197135288 0 1856416.4197135288 -32989323.027106557 0 0 0 0 30261252.669036865 -76595205.251317978 0 -76595205.251317978 -47941849.792789459 0 0 0 0 92738740.268108368 10499895.189126015 0 10499895.189126015 -142682959.4645462 0 0 0 0 -9770021.9861183167 -47423433.008530617 0 -47423433.008530617 -85288258.182100296 0 0 0 0 4842294.8277344704 -7401787.6649797279 0 -7401787.6649797279 -13904060.737094883 0 0 0 0 40217148.899500132 15639431.458494846 0 15639431.458494846 -18570004.339676902 0 0 0 0 73780302.554550171 -23100461.747457504 0 -23100461.747457504 -67800964.950439453 0 0 0 0 105817716.56805229 -57578123.359269023 0 -57578123.359269023 -33411049.669834137 0 0 0 0 358727672.36470795 440019453.82015991 0 440019453.82015991 313377324.60868835 0 0 0 0 -261745939.18008423 -34743178.762252808 0 -34743178.762252808 -57857724.931806564 0 0 0 0 156530411.68478394 14862764.196643829 0 14862764.196643829 -231327156.05678749 0 0 0 0 2275827.0898108184 -1140492.8102454317 0 -1140492.8102454317 -4408443.8308994435 0 0 0 0 125826237.65275574 142672426.80631065 0 142672426.80631065 44253178.283578873 0 0 0 0 403729079.72714233 229116481.41814423 0 229116481.41814423 -53800018.183742523 0 0 0 0 393659752.76137543 138082822.19478798 0 138082822.19478798 -157086399.21818542 0 0 0 0 270531180.77886963 -97931389.908910275 0 -97931389.908910275 5630911.6503753662 0 0 0 0 414198594.65490723 73026995.281616211 0 73026995.281616211 -73449344.057315826 0 0 0 0 60038708.418334961 38969631.257958412 0 38969631.257958412 -161116444.23137093 0 0 0 0 15237770.560121037 176652.38393068686 0 176652.38393068686 -15220938.814580757 0 0 0 0 46247576.067020416 17838387.024505615 0 17838387.024505615 -55220220.133506775 0 0 0 0 39861181.994247437 2925054.9188938141 0 2925054.9188938141 5796316.4127178192 0 0 0 0 182268672.81794739 1069663697.5225658 0 1069663697.5225658 -675481289.99563408 0 0 0 0 -297228601.35260773 -103243633.58382225 0 -103243633.58382225 146681832.17291069 0 0 0 0 621805.6856495291 -68733.953531675041 0 -68733.953531675041 -3074725.8933713017 0 0 0 0 163844112.15512085 178658365.83745766 0 178658365.83745766 119866790.58512878 0 0 0 0 415077093.91117263 193191731.01287955 0 193191731.01287955 -106876887.09326553 0 0 0 0 767546851.23933411 157502478.59165764 0 157502478.59165764 -156308897.09606743 0 0 0 0 578050812.82592773 630244347.60462761 0 630244347.60462761 29743807.445671082 0 0 0 0 626987919.21559143 -196712801.56468964 0 -196712801.56468964 -18589625.659474134 0 0 0 0 2174134.946201995 303903.0893420428 0 303903.0893420428 -1950753.1400044346 0 0 0 0 178314403.83538818 142058357.43694115 0 142058357.43694115 -71442340.850070953 0 0 0 0 229483617.57385254 98614715.418296814 0 98614715.418296814 -226903631.92213058 0 0 0 0 334984285.44338989 -210313066.11980247 0 -210313066.11980247 256745974.15628266 0 0 0 0 375040943.44789124 389191467.47755241 0 389191467.47755241 295868772.54018402 0 0 0 0 6280929.8048459291 4176511.6292705163 0 4176511.6292705163 -11343322.383659314 0 0 0 0 -177017521.47373962 31893156.923501968 0 31893156.923501968 205965730.12283516 0 0 0 0 -175233957.27226257 -227923432.51583672 0 -227923432.51583672 -60628369.039170265 0 0 0 0 61511175.90807724 11957478.495509148 0 11957478.495509148 -21983543.996505737 0 0 0 0 230492349.99046707 -28512521.246109962 0 -28512521.246109962 -124692034.07489395 0 0 0 0 5133943.2609405518 -40022484.845081329 0 -40022484.845081329 38369016.818721771 0 0 0 0 40837662.727935791 -42275848.831647873 0 -42275848.831647873 -485858.2829246521 0 0 0 0 23945497.955238342 -21416993.39538765 0 -21416993.39538765 -22356510.430892944 0 0 0 0 15983087.169250488 46571161.345609665 0 46571161.345609665 54551709.514797211 0 0 0 0 -341425163.27470398 -66831771.576312065 0 -66831771.576312065 36688480.438123703 0 0 0 0 90564755.186538696 256199818.8142643 0 256199818.8142643 -314230721.38264465 0 0 0 0 418516199.49850464 240742205.99901962 0 240742205.99901962 -228663084.02328873 0 0 0 0 175976898.55899048 117558262.83120346 0 117558262.83120346 -131109083.11691368 0 0 0 0 211688966.99688721 32828404.691492081 0 32828404.691492081 -197803393.79756546 0 0 0 0 227417674.88050842 12849353.704069138 0 12849353.704069138 -492051753.92477036 0 0 0 0 20912280.472824097 21737285.993282318 0 21737285.993282318 -47966139.487792969 0 0 0 0 1777241.4055786133 9961477.7776565552 0 9961477.7776565552 -17197507.972106934 0 0 0 0 7861700.0823841095 -2970283.7301545143 0 -2970283.7301545143 -71134946.09186554 0 0 0 0 12818374.25478363 23436270.353233337 0 23436270.353233337 -39734494.708824158 0 0 0 0 17200168.465492249 56885094.029287338 0 56885094.029287338 -32812972.886234283 0 0 0 0 12448018.69543457 51481351.069221497 0 51481351.069221497 -38723693.390443802 0 0 0 0 -32970954.060653687 60595505.622184753 0 60595505.622184753 -60567715.36133945 0 0 0 0 9257488.7196407318 -51604161.076004028 0 -51604161.076004028 -29801256.104522705 0 0 0 0 45879366.135864258 44682763.977104187 0 44682763.977104187 -60857871.525276184 0 0 0 0 20772425.403198242 15131115.315418243 0 15131115.315418243 -129694190.395298 0 0 0 0 -6814256.2036209106 -29993223.834337234 0 -29993223.834337234 -62052958.485118866 0 0 0 0 4536355.2879974674 5500983.4424112216 0 5500983.4424112216 -4256511.8159633204 0 0 0 0 7905693.4397125244 29917241.267299652 0 29917241.267299652 -46635898.321193695 0 0 0 0 -39206788.554382324 84416499.540294647 0 84416499.540294647 -70502939.595542908 0 0 0 0 62862366.318006516 -877493.63543510437 0 -877493.63543510437 -68841837.593517303 0 0 0 0 37818594.295410156 66136202.046855927 0 66136202.046855927 -115028039.44769669 0 0 0 0 28517766.392663531 23843586.965022802 0 23843586.965022802 -927891.55876847636 0 0 0 0 23371316.36756897 20037325.88205719 0 20037325.88205719 -59234298.951467514 0 0 0 0 30777624.058933295 -2470861.2368329866 0 -2470861.2368329866 -18519756.35145909 0 0 0 0 -68753560.456703186 -44992574.683524132 0 -44992574.683524132 -21261241.391555786 0 0 0 0 54631298.94829616 10820595.143098455 0 10820595.143098455 -19054576.394298907 0 0 0 0 10628084.312416077 6565050.983502388 0 6565050.983502388 -23115591.606019974 0 0 0 0 30083264.137054443 18287952.204814911 0 18287952.204814911 -48181746.282137871 0 0 0 0 29339913.083196774 -2978105.7086720997 0 -2978105.7086720997 -26387423.242421292 0 0 0 0 32150995.337478638 -3960904.7476606369 0 -3960904.7476606369 -30286108.327620029 0 0 0 0 35903837.224052429 9819044.9015197754 0 9819044.9015197754 -43779867.409892082 0 0 0 0 20923304.275025241 5996996.4865651894 0 5996996.4865651894 -15699517.230865147 0 0 0 0 45162227.485263824 -39752387.700323105 0 -39752387.700323105 -41855803.111406326 0 0 0 0 9382705.8602905273 4054237.8391227722 0 4054237.8391227722 -11130982.014259338 0 0 0 0 2103249.6309643015 -6417129.0248991903 0 -6417129.0248991903 -12511200.172587799 0 0 0 0 250082387.27185059 -180948933.22262001 0 -180948933.22262001 -1476672223.2913904 0 0 0 0 -259168081.80706787 1459604040.6853466 0 1459604040.6853466 651374632.0212574 0 0 0 0 1992276970.6230392 -1471722044.8120904 0 -1471722044.8120904 -781479584.53599167 0 0 0 0 -1190986868.5727081 -770619012.99587059 0 -770619012.99587059 1601197998.0443802 0 0 0 0 -1450268216.1320648 -52682900.612160683 0 -52682900.612160683 356316086.83369064 0 0 0 0 8759365.8250198364 -2649846.6740674973 0 -2649846.6740674973 -9418379.8849048615 0 0 0 0 14418725.047766987 -6153763.5410046726 0 -6153763.5410046726 -15460372.166622391 0 0 0 0 -323498541.78137207 -128004144.41485596 0 -128004144.41485596 -464620320.12426758 0 0 0 0 2064240.2807312012 -2354415.0626833439 0 -2354415.0626833439 -15894731.887704849 0 0 0 0 17264413.673325934 200131.79693910852 0 200131.79693910852 -11923467.671323469 0 0 0 0 5874102.5129394531 -1127737.5478422791 0 -1127737.5478422791 -6632464.3596554995 0 0 0 0 5592252.6155980378 -2182796.1112141646 0 -2182796.1112141646 -17651148.883569442 0 0 0 0 7772920.9901455119 -688573.76997176558 0 -688573.76997176558 -12980365.72410389 0 0 0 0 14676707.282826619 4035618.2530845143 0 4035618.2530845143 -9617801.3226853237 0 0 0 0 10375805.366348267 4731584.8026008606 0 4731584.8026008606 -11223044.895069122 0 0 0 0 9753011.0832519531 4184605.6480045319 0 4184605.6480045319 -11446851.879002571 0 0 0 0 7876841.3901586086 8886129.0237180237 0 8886129.0237180237 -19787941.531464905 0 0 0 0 7694106.2547302246 4419260.5551147461 0 4419260.5551147461 -6323195.502052784 0 0 0 0 5276586.6316158473 -4503743.6312959939 0 -4503743.6312959939 -11823600.731421605 0 0 0 0 4678032.1515533701 2777679.9636841472 0 2777679.9636841472 -6095813.3832000718 0 0 0 0 4392860.9494686127 -1060198.0404539108 0 -1060198.0404539108 -13211219.505140305 0 0 0 0 -2570693.4443283081 -5382359.7798099518 0 -5382359.7798099518 -37977849.35776329 0 0 0 0 7648564.7525939941 -3542620.3471393585 0 -3542620.3471393585 -21284651.112244129 0 0 0 0 6001686.3245570585 -1098372.7735000029 0 -1098372.7735000029 -8697617.9264375754 0 0 0 0 5281427.112663269 -4274408.0763001442 0 -4274408.0763001442 -17727506.054029465 0 0 0 0 1097452.0521822423 -2453635.5920102643 0 -2453635.5920102643 -3363913.2922411505 0 0 0 0 10511997.554473877 -12002504.604976654 0 -12002504.604976654 -65275293.979032516 0 0 0 0 12478428.973304749 -14936193.390287399 0 -14936193.390287399 -89811931.841236115 0 0 0 0 -105004846.39472961 -223191976.0366478 0 -223191976.0366478 535362857.80435658 0 0 0 0 -53021335.444610596 -281864447.10768509 0 -281864447.10768509 271447600.50680923 0 0 0 0 -17084603.773323059 -26491491.801577568 0 -26491491.801577568 11317951.706283569 0 0 0 0 24994192.380249023 -28985677.190776825 0 -28985677.190776825 -1246716.0756149292 0 0 0 0 7856106.8315232173 -8697997.511329079 0 -8697997.511329079 -9742099.417091826 0 0 0 0 -57002016.876785278 -188757963.30031013 0 -188757963.30031013 285054758.46316147 0 0 0 0 37951588.521514893 -51901280.254810333 0 -51901280.254810333 -65543139.500572205 0 0 0 0 -109328102.25184631 -134019849.98100281 0 -134019849.98100281 -99168376.706710815 0 0 0 0 2223551.8849108964 -413707.32863501087 0 -413707.32863501087 -3110146.0990695506 0 0 0 0 17698730.376998901 -78675104.038734436 0 -78675104.038734436 22411571.27091217 0 0 0 0 367410897.74497986 -215336562.00531387 0 -215336562.00531387 48395692.338951111 0 0 0 0 10948264.475692749 -352656488.81827164 0 -352656488.81827164 308461893.25553513 0 0 0 0 371433230.70220947 -563686996.5229187 0 -563686996.5229187 368555765.29948902 0 0 0 0 86509920.532493591 81540916.356964111 0 81540916.356964111 152101017.25876808 0 0 0 0 -55342617.322189331 -18470569.507143021 0 -18470569.507143021 82034206.674489975 0 0 0 0 102268772.02607727 19053848.44858551 0 19053848.44858551 -159735239.1737175 0 0 0 0 7406420.8309761658 -10404069.961182926 0 -10404069.961182926 -14670700.195204224 0 0 0 0 200124416.38251495 -12868910.447727203 0 -12868910.447727203 -149727460.40325165 0 0 0 0 3267597004.0330505 1559732696.1207695 0 1559732696.1207695 -1608513375.0212994 0 0 0 0 72469743.735961914 -14394014.759860992 0 -14394014.759860992 -42884660.601497173 0 0 0 0 14160996.507992826 -6682189.3002516739 0 -6682189.3002516739 -11389863.414333256 0 0 0 0 32188349.151107788 24111658.366345406 0 24111658.366345406 81321433.170055389 0 0 0 0 6381328.921040982 -10594796.179588299 0 -10594796.179588299 -26612346.269865811 0 0 0 0 2087457.2249237113 -8188753.8737962358 0 -8188753.8737962358 -20460574.995415688 0 0 0 0 328304176.85689163 -99273120.722840309 0 -99273120.722840309 -146884803.36823273 0 0 0 0 174411547.29539871 -346804619.03045559 0 -346804619.03045559 209655350.11353302 0 0 0 0 457536690.6537323 -413560924.2938509 0 -413560924.2938509 163074285.83590508 0 0 0 0 432466160.69999695 -265038929.17447186 0 -265038929.17447186 -168484727.11424255 0 0 0 0 514227059.47145081 49640743.336595535 0 49640743.336595535 122988314.94468212 0 0 0 0 276040621.15540314 -515563800.85516739 0 -515563800.85516739 474653458.2645359 0 0 0 0 -166440629.57429504 -528110012.78246593 0 -528110012.78246593 661796405.94446373 0 0 0 0 -1354121.173849605 320580.92303760722 0 320580.92303760722 2890217.8719407627 0 0 0 0 -654702727.85619354 -339077515.15422058 0 -339077515.15422058 595756315.30409384 0 0 0 0 661660695.09669495 -502414628.62836885 0 -502414628.62836885 -14453860.387903214 0 0 0 0 256337286.20393372 -267639557.27678394 0 -267639557.27678394 -284964634.77207756 0 0 0 0 -397194594.31347656 64995928.554849625 0 64995928.554849625 179037216.43289089 0 0 0 0 -331593830.28875732 -251999327.90138435 0 -251999327.90138435 556245304.21747684 0 0 0 0 5771974.041557312 -223995243.12944484 0 -223995243.12944484 384929035.36672211 0 0 0 0 -77957655.970016479 154291530.01726627 0 154291530.01726627 -163622416.42543316 0 0 0 0 -108921948.64459229 36541414.07035923 0 36541414.07035923 -14770420.117722511 0 0 0 0 2359437.7711251304 2696058.635838978 0 2696058.635838978 -3119979.5281506525 0 0 0 0 9832533.4767103419 91156.940693639219 0 91156.940693639219 -937440.72795007564 0 0 0 0 9522665.6922302246 1387591.7464942932 0 1387591.7464942932 -12352042.206977844 0 0 0 0 9002650.4272003174 1862559.5036220551 0 1862559.5036220551 -10025505.409744263 0 0 0 0 10002893.397468567 -1188791.8581089973 0 -1188791.8581089973 -12827151.982498169 0 0 0 0 9979108.8322906494 -1586650.7104978561 0 -1586650.7104978561 -5808700.8793106079 0 0 0 0 11973253.731150024 -4579196.3365049893 0 -4579196.3365049893 -2695299.668647063 0 0 0 0 10302839.415344238 -2698847.4210529327 0 -2698847.4210529327 -8699022.7353000641 0 0 0 0 7335309.5862731934 -1799958.7721557617 0 -1799958.7721557617 -10391104.766551971 0 0 0 0 12899747.41061797 -2666561.1784925461 0 -2666561.1784925461 -3897300.6632860787 0 0 0 0 7032817.000213623 770961.78053665161 0 770961.78053665161 -11633188.152900696 0 0 0 0 5129622.3565826416 4528353.6154918671 0 4528353.6154918671 -17863059.019691467 0 0 0 0 10880238.951660156 -5756480.1979141235 0 -5756480.1979141235 -21393904.615945816 0 0 0 0 486801.90161977708 -86337.037502989173 0 -86337.037502989173 -212588.95324954204 0 0 0 0 265326684.18154907 -82031359.333023071 0 -82031359.333023071 -338511277.89766359 0 0 0 0 7174020.1239013672 8202002.6734828949 0 8202002.6734828949 -20733117.440567017 0 0 0 0 6850914.7324295044 5153668.1349945068 0 5153668.1349945068 -20733291.29013443 0 0 0 0 12937501.593708962 -1744163.0181636848 0 -1744163.0181636848 -1792019.9542961363 0 0 0 0 8762854.6764919683 10625319.676086307 0 10625319.676086307 -6868466.8561018724 0 0 0 0 145320340.01199341 137242947.86311626 0 137242947.86311626 -170020156.86521149 0 0 0 0 111888306.9173584 -19832764.561091423 0 -19832764.561091423 -71836785.452156067 0 0 0 0 -538089268.6188736 45496404.048284054 0 45496404.048284054 263863917.52013779 0 0 0 0 -1390174877.0037842 1598020078.9785652 0 1598020078.9785652 -1125829584.7984161 0 0 0 0 -198431.35122478008 1034293.2958119335 0 1034293.2958119335 -391400.71523658559 0 0 0 0 819895102.57849121 534030677.69832993 0 534030677.69832993 220803637.6055088 0 0 0 0 -723498254.33816528 -1330323470.2678776 0 -1330323470.2678776 55446471.297599792 0 0 0 0 2153707022.1696777 -584076134.40342712 0 -584076134.40342712 80136511.816360474 0 0 0 0 -391196107.96458435 357060782.41303539 0 357060782.41303539 955824727.75297976 0 0 0 0 148408222.31103516 -300055298.14105225 0 -300055298.14105225 696252356.38723755 0 0 0 0 5353474.2283086032 -1842529.6627389546 0 -1842529.6627389546 -3489050.6346066319 0 0 0 0 7646642.094957076 3877756.8750817515 0 3877756.8750817515 -894980.12808122672 0 0 0 0 147425569.37582397 52047593.46767807 0 52047593.46767807 56376061.303970337 0 0 0 0 -2049195710.198082 -4436720143.5877323 0 -4436720143.5877323 2444367828.4555206 0 0 0 0 2748448445.8771515 -378759183.94323349 0 -378759183.94323349 -198063686.064888 0 0 0 0 244926742.94674683 335072310.77221107 0 335072310.77221107 226569780.25083733 0 0 0 0 421812948.80175781 29484087.03106308 0 29484087.03106308 -75012672.91101265 0 0 0 0 921638057.43028259 110165921.96333313 0 110165921.96333313 -192048060.52754593 0 0 0 0 413528520.41140747 -264715994.27917099 0 -264715994.27917099 -196988990.56411266 0 0 0 0 435871247.3364563 -81482418.94088459 0 -81482418.94088459 -250105198.77999687 0 0 0 0 410994348.92733765 -15412730.138817787 0 -15412730.138817787 -203565824.63462126 0 0 0 0 -21782220.930969238 176546061.37917709 0 176546061.37917709 -204442527.49969864 0 0 0 0 169503681.32681274 -77204115.505311012 0 -77204115.505311012 -159108414.83992386 0 0 0 0 301763727.39876556 -62178257.414376259 0 -62178257.414376259 -170539229.1246109 0 0 0 0 290046598.61547852 -128386284.71608734 0 -128386284.71608734 -165917896.9459641 0 0 0 0 316636909.5266571 -38232695.440346718 0 -38232695.440346718 -240741213.22937012 0 0 0 0 286844225.71104431 -246744257.97245884 0 -246744257.97245884 -272946604.12444639 0 0 0 0 320458289.01202393 -135194060.03447294 0 -135194060.03447294 -29232494.850511551 0 0 0 0 148245106.5075531 -95382584.77319479 0 -95382584.77319479 51471631.634203911 0 0 0 0 207121870.22897148 7614089.5282570124 0 7614089.5282570124 -25651175.929861069 0 0 0 0 163532638.65166664 70660918.882691383 0 70660918.882691383 -550413252.75204468 0 0 0 0 -150825005.05090332 -278891528.95750713 0 -278891528.95750713 -254723041.32247543 0 0 0 0 72336864.59469986 169754103.73217869 0 169754103.73217869 -507194362.90084839 0 0 0 0 -15248978.363311768 183174486.55830622 0 183174486.55830622 -348478549.24245644 0 0 0 0 186292848.57579041 -126869602.90908146 0 -126869602.90908146 -786799909.25100422 0 0 0 0 294521712.40991211 417054046.03709698 0 417054046.03709698 360231684.19043875 0 0 0 0 388337139.86352539 223022341.31233978 0 223022341.31233978 124645067.25448036 0 0 0 0 120021743.1058569 157578715.74788678 0 157578715.74788678 385113402.70293999 0 0 0 0 149917422.55148315 -95638024.453227997 0 -95638024.453227997 -73192403.65688324 0 0 0 0 40998039.113311768 -22872262.317857742 0 -22872262.317857742 -57361110.421402931 0 0 0 0 25650180.196350098 13248167.332437515 0 13248167.332437515 -44595816.347789764 0 0 0 0 -7077684.7354125977 -41172337.918193817 0 -41172337.918193817 -41880679.270985603 0 0 0 0 360711388.34988403 -322159543.40431595 0 -322159543.40431595 5478653.7262039185 0 0 0 0 8324907.7630647868 -1527577.5678458959 0 -1527577.5678458959 -3518662.3786003012 0 0 0 0 420650599.29034424 324947672.88898087 0 324947672.88898087 253413772.82353973 0 0 0 0 -27076248.670593262 13926365.480669022 0 13926365.480669022 -177451717.58245468 0 0 0 0 463588079.06591797 196310894.64395905 0 196310894.64395905 -216306059.00688934 0 0 0 0 170359.97476059943 -258594.01679919194 0 -258594.01679919194 48938.262546413578 0 0 0 0 799899866.10302734 -772756203.17407036 0 -772756203.17407036 451746219.92481232 0 0 0 0 -90391912.286712646 421100020.19402885 0 421100020.19402885 -512401428.33599472 0 0 0 0 -107760286.53042603 966259904.34943771 0 966259904.34943771 -523832110.55294037 0 0 0 0 342226187.83946228 -148076017.65543556 0 -148076017.65543556 -231209284.04326248 0 0 0 0 510248602.9592514 127880897.40859938 0 127880897.40859938 -788144371.78102875 0 0 0 0 426896742.95532227 164389638.44384384 0 164389638.44384384 -227419850.0237236 0 0 0 0 409967393.98722839 452062803.6761446 0 452062803.6761446 55274987.968688965 0 0 0 0 375768606.80479431 284983176.76623344 0 284983176.76623344 151294533.51694489 0 0 0 0 476210369.45172119 360147258.61764336 0 360147258.61764336 -165620665.429142 0 0 0 0 73069631.924865723 37533429.353243351 0 37533429.353243351 -12513910.670676231 0 0 0 0 10033467.733978271 20283393.599678516 0 20283393.599678516 6191286.1627292633 0 0 0 0 10396266.201721191 -9663922.5594902039 0 -9663922.5594902039 -2216929.8191599846 0 0 0 0 25859595.874893188 -9278799.0386047363 0 -9278799.0386047363 -45596881.852283478 0 0 0 0 -131738082.07315063 162772510.04271317 0 162772510.04271317 -173305128.8470192 0 0 0 0 22844030.376281738 -16615643.714075089 0 -16615643.714075089 -26170535.083433151 0 0 0 0 9674148.6302313954 -531036.31576372962 0 -531036.31576372962 -1974973.3418157184 0 0 0 0 9598260.3980064392 5736919.5208320618 0 5736919.5208320618 -27666074.728965759 0 0 0 0 2325385.500255093 784022.04984723032 0 784022.04984723032 -2903789.092826169 0 0 0 0 4747907.5098816156 3381146.4098672792 0 3381146.4098672792 -8949905.8074513189 0 0 0 0 28707616.983068466 15815539.478184819 0 15815539.478184819 -19121955.320085526 0 0 0 0 110456643.77198792 5481531.9901485443 0 5481531.9901485443 -9763021.52551651 0 0 0 0 11641792.507859007 -542800.40430821013 0 -542800.40430821013 -2592713.004316886 0 0 0 0 127056280.01660156 -115149411.06819534 0 -115149411.06819534 -750832280.6068306 0 0 0 0 157872915.77320862 -815309.667345047 0 -815309.667345047 -745633706.62960815 0 0 0 0 246930058.20257568 -28841928.189914703 0 -28841928.189914703 -740356083.49599457 0 0 0 0 198778115.15310669 39997786.38401413 0 39997786.38401413 -1081366827.7822418 0 0 0 0 249267861.1857605 -110266971.6324234 0 -110266971.6324234 -809283268.05792236 0 0 0 0 173205589.58023071 39594017.958490372 0 39594017.958490372 -390535467.84395599 0 0 0 0 174507595.31019592 -142366214.40480423 0 -142366214.40480423 -795308446.62861252 0 0 0 0 -102598041.06506348 -211412985.00193024 0 -211412985.00193024 -386253770.40733337 0 0 0 0 149416292.30622864 -15321395.927614212 0 -15321395.927614212 -830158767.28171539 0 0 0 0 38159063.232635498 -320524338.47304153 0 -320524338.47304153 -661272305.92969513 0 0 0 0 236906633.44610596 204133086.51746941 0 204133086.51746941 -822817264.45261765 0 0 0 0 -140272580.93414307 381311028.99729538 0 381311028.99729538 -289179136.3196907 0 0 0 0 484099869.69822693 173116873.15011787 0 173116873.15011787 -220287770.58003235 0 0 0 0 117436386.71983337 -165267282.20464325 0 -165267282.20464325 409495522.73269653 0 0 0 0 89011228.46307373 127490682.43616104 0 127490682.43616104 -90277719.374671936 0 0 0 0 402375294.59249878 519018020.38740921 0 519018020.38740921 210884965.15445709 0 0 0 0 -100448411.16051483 503848423.01714706 0 503848423.01714706 880471309.66300678 0 0 0 0 108596296.19442749 -41363053.517944336 0 -41363053.517944336 -324486175.14312363 0 0 0 0 -14938474.689086914 163417438.07167435 0 163417438.07167435 276545262.06357574 0 0 0 0 -15575988.865081787 458141427.24871063 0 458141427.24871063 336767017.74540424 0 0 0 0 191772429.42703247 532897967.82799911 0 532897967.82799911 -26014166.158318996 0 0 0 0 34177911.8384552 93644859.800185204 0 93644859.800185204 -79953432.566596985 0 0 0 0 43422856.003173828 296189044.00510788 0 296189044.00510788 -387314084.48838806 0 0 0 0 1814761.5562873296 -2146773.9896390289 0 -2146773.9896390289 -971257.64083602279 0 0 0 0 -171237808.46810913 343887338.1880722 0 343887338.1880722 -95576481.234436035 0 0 0 0 9227132.5414066315 182650.64023256302 0 182650.64023256302 -4541967.6277046204 0 0 0 0 12885013.662725568 1911571.1441109423 0 1911571.1441109423 -6303852.5906520486 0 0 0 0 809376.76039609313 -872657.94855301082 0 -872657.94855301082 -85306.57790335035 0 0 0 0 -219817249.49203491 -6538981.6043491364 0 -6538981.6043491364 -4779252.0117321014 0 0 0 0 111114428.72967529 240462538.56839848 0 240462538.56839848 -378333158.69396973 0 0 0 0 149960759.39108276 -112541078.89350033 0 -112541078.89350033 -12941321.163524628 0 0 0 0 241177549.70889282 27685974.831222534 0 27685974.831222534 100924891.71840131 0 0 0 0 199357553.47674561 236092339.14674759 0 236092339.14674759 -180272370.98622513 0 0 0 0 432318729.1059227 -59615650.647690296 0 -59615650.647690296 -477742664.05001068 0 0 0 0 209502652.70607376 435337968.0646677 0 435337968.0646677 92856843.822811127 0 0 0 0 6073583.0012338683 -644434.99654435739 0 -644434.99654435739 -3451417.4441938046 0 0 0 0 -1473452.2177429199 -2618222.5156021118 0 -2618222.5156021118 7419814.201259613 0 0 0 0 5241798.8618927002 -8620641.8094329834 0 -8620641.8094329834 -18375655.60452652 0 0 0 0 915020.6530456543 -14109347.909927368 0 -14109347.909927368 8801141.5018091202 0 0 0 0 12482365.609415248 -4443221.6896867864 0 -4443221.6896867864 -3160631.2463294789 0 0 0 0 10814059.893356323 -1722429.9703636169 0 -1722429.9703636169 -7620916.462064743 0 0 0 0 4568406.8726501465 273577.37616729736 0 273577.37616729736 -8028966.6437072754 0 0 0 0 -19514071.440414429 -14928656.53351593 0 -14928656.53351593 13913146.078098297 0 0 0 0 20014748.445911407 5458274.8123373985 0 5458274.8123373985 -41537996.614746094 0 0 0 0 5358639.5762426723 -2009223.604642503 0 -2009223.604642503 -314052.56756104156 0 0 0 0 1711189.8187324349 -481840.69407160208 0 -481840.69407160208 -169568.52354562655 0 0 0 0 -49079307.913269043 92315984.293449402 0 92315984.293449402 -106512960.69922638 0 0 0 0 -26298070.109100342 49542181.179828644 0 49542181.179828644 -31018110.403114319 0 0 0 0 -21289106.874679565 31795739.198982239 0 31795739.198982239 -19690717.772216797 0 0 0 0 21994968.234283447 55628695.383670807 0 55628695.383670807 -74184430.409545898 0 0 0 0 -16473806.787601471 64379938.602165222 0 64379938.602165222 -66398390.434989929 0 0 0 0 -3841653.8939819336 41846078.302177429 0 41846078.302177429 -49935534.132793427 0 0 0 0 -2794011.1296081543 45122210.764039993 0 45122210.764039993 -75671626.344490051 0 0 0 0 10929245.688466839 29024.143349275459 0 29024.143349275459 -2903121.5809751358 0 0 0 0 -1599779.4851989746 26054048.816822052 0 26054048.816822052 -54084329.660755157 0 0 0 0 -53220.596206665039 22992324.580259323 0 22992324.580259323 -56803285.175262451 0 0 0 0 9774419.2731933594 -19198407.415233612 0 -19198407.415233612 -21282325.707754135 0 0 0 0 2373085.3362884521 -27175100.086475372 0 -27175100.086475372 -1155624.2812519073 0 0 0 0 6931127.6985760182 -152531.85493623 0 -152531.85493623 -1227214.0258422075 0 0 0 0 35934741.939807892 24587889.311208725 0 24587889.311208725 -49999234.839996338 0 0 0 0 -1845044.1331481934 -38662073.038860321 0 -38662073.038860321 -62707694.115082741 0 0 0 0 -42839346.712158203 15435094.235530853 0 15435094.235530853 40132812.624336243 0 0 0 0 102997988.10430908 -4724831.2772216797 0 -4724831.2772216797 -194115835.12622833 0 0 0 0 2574052.4607346207 707245.72847102676 0 707245.72847102676 -1873605.2483236976 0 0 0 0 -159552564.10943604 -105479607.59477234 0 -105479607.59477234 80426420.655906677 0 0 0 0 69659303.434150696 10587219.535112381 0 10587219.535112381 -93011673.869966507 0 0 0 0 184737369.02324677 -66643537.184415817 0 -66643537.184415817 -119837204.18183136 0 0 0 0 -65065336.54107666 -14834561.605144501 0 -14834561.605144501 -130384622.87683105 0 0 0 0 62907693.267311096 32897134.191759109 0 32897134.191759109 -105616113.3106308 0 0 0 0 42754972.575942993 -16778118.395675659 0 -16778118.395675659 -157055979.99915695 0 0 0 0 -8335239.3620033264 6318741.3292393684 0 6318741.3292393684 -90416179.79851532 0 0 0 0 39787583.929290771 27030755.280261993 0 27030755.280261993 -107410762.18988991 0 0 0 0 21385686.543319702 73088695.502351761 0 73088695.502351761 -16441599.412731171 0 0 0 0 78516088.581634521 54952762.024888992 0 54952762.024888992 -87314983.090866089 0 0 0 0 13704656.508644104 58286796.170759201 0 58286796.170759201 -17478489.056926727 0 0 0 0 219751372.66389465 92890974.406112671 0 92890974.406112671 -63498731.181980133 0 0 0 0 143184163.32796097 -13052685.41586256 0 -13052685.41586256 -12041147.909290314 0 0 0 0 255601158.99568176 40674825.919963837 0 40674825.919963837 -72887534.546127319 0 0 0 0 102531635.4560318 81307216.047338486 0 81307216.047338486 -141441841.73436737 0 0 0 0 -33677039.449508667 153680742.47616768 0 153680742.47616768 -202337964.42236328 0 0 0 0 -574476375.21541595 -371978505.98919678 0 -371978505.98919678 -299185948.61325932 0 0 0 0 -108788312.32610321 90440455.250629425 0 90440455.250629425 110772980.12563324 0 0 0 0 -111680503.24509335 113197210.57880497 0 113197210.57880497 7621070.2297668457 0 0 0 0 725528.75047703832 392439.05100538582 0 392439.05100538582 -1790862.4922910407 0 0 0 0 30322001.131439209 -163139015.44952011 0 -163139015.44952011 92344156.803067446 0 0 0 0 -9207840.8646965027 -18050356.19080925 0 -18050356.19080925 -188095173.96598053 0 0 0 0 -8762808.568321228 826963.60133123398 0 826963.60133123398 -26595217.448669434 0 0 0 0 -4844346.1850585938 32281494.277511597 0 32281494.277511597 -98235128.911088943 0 0 0 0 -4922678.4780883789 41497002.667219162 0 41497002.667219162 -54371881.32128334 0 0 0 0 343936211.26211548 78312843.476270676 0 78312843.476270676 -169582998.31243134 0 0 0 0 272768667.49831009 249798320.69779778 0 249798320.69779778 12515260.973430634 0 0 0 0 318940137.29190063 77717389.993350983 0 77717389.993350983 -166480333.18341827 0 0 0 0 40544127.729690552 99375578.017425537 0 99375578.017425537 -71930723.74654007 0 0 0 0 46537948.852218628 141482296.84734344 0 141482296.84734344 -111126285.70536232 0 0 0 0 218655131.15266418 120298164.92445374 0 120298164.92445374 -118563162.73547173 0 0 0 0 -144931692.48589325 191679912.15595436 0 191679912.15595436 -49887743.466384888 0 0 0 0 -70871502.010726929 -490398.64765357971 0 -490398.64765357971 -62439874.88885498 0 0 0 0 334657927.38696671 82538787.678341866 0 82538787.678341866 -164589858.27886963 0 0 0 0 255290332.27486801 37148744.911645889 0 37148744.911645889 -162318895.76940155 0 0 0 0 358108852.4785614 -4334605.2077255249 0 -4334605.2077255249 -128835947.19738007 0 0 0 0 11448735.045631655 1288295.8210364953 0 1288295.8210364953 -2113394.9001533426 0 0 0 0 116586521.13907623 -17096863.745649338 0 -17096863.745649338 -99570652.179775238 0 0 0 0 435188157.31998062 14064939.387918949 0 14064939.387918949 -64397156.594207764 0 0 0 0 280413270.38014221 -15436460.135887146 0 -15436460.135887146 36184534.478536606 0 0 0 0 3241290.9400294367 521656.1760163568 0 521656.1760163568 -675667.12862658873 0 0 0 0 289285413.79760933 -121364059.89422131 0 -121364059.89422131 -163620403.0691452 0 0 0 0 582343586.54875946 132380798.65202141 0 132380798.65202141 -74463635.286224365 0 0 0 0 -180849299.90708923 -314908959.89266586 0 -314908959.89266586 -124197339.16697311 0 0 0 0 613186141.09009933 424070378.45325422 0 424070378.45325422 247124894.8609314 0 0 0 0 900646711.95534515 -311107356.7220192 0 -311107356.7220192 -416931154.39191818 0 0 0 0 -59675710.641784668 -217808395.57897186 0 -217808395.57897186 50661544.518650055 0 0 0 0 -23890917.918457031 -115044361.42799377 0 -115044361.42799377 74701586.028587341 0 0 0 0 41574874.232391357 -152890138.27609253 0 -152890138.27609253 -165461439.21344233 0 0 0 0 275542862.46350098 440589386.88265228 0 440589386.88265228 818776822.64276314 0 0 0 0 2547270.6878376678 133972.40718527045 0 133972.40718527045 -354440.96327137202 0 0 0 0 365703153.64401245 543810618.97559738 0 543810618.97559738 875774091.95464325 0 0 0 0 271197179.46835327 182557890.9403286 0 182557890.9403286 363994909.97478485 0 0 0 0 183908846.67797852 262834350.75535583 0 262834350.75535583 937000544.0424509 0 0 0 0 396153006.47927856 46658462.774627686 0 46658462.774627686 437075891.98612213 0 0 0 0 928062628.7773819 45382300.25232029 0 45382300.25232029 137789971.4713974 0 0 0 0 538549922.48019409 -366908909.0818882 0 -366908909.0818882 263861304.05691528 0 0 0 0 466296503.29406738 475447434.44675827 0 475447434.44675827 692022100.79280853 0 0 0 0 460511248.25288391 -157431073.25375557 0 -157431073.25375557 -198208092.68661499 0 0 0 0 386534416.56660461 -124481014.23429108 0 -124481014.23429108 128126455.69293022 0 0 0 0 267863406.53182983 -56900976.255084991 0 -56900976.255084991 646933045.25906372 0 0 0 0 249533902.88356781 59362938.635918379 0 59362938.635918379 45272880.603713989 0 0 0 0 99717963.823898315 60460091.179088593 0 60460091.179088593 146484167.12690544 0 0 0 0 28029611.175430298 183444032.13413429 0 183444032.13413429 54936181.083869934 0 0 0 0 -28465920.817550659 112603064.05863571 0 112603064.05863571 21871562.203224182 0 0 0 0 -8115936.7683410645 63888051.40788269 0 63888051.40788269 105103533.92957497 0 0 0 0 40720768.522010803 109115073.91089153 0 109115073.91089153 -23200621.449539185 0 0 0 0 236917519.8661499 95617663.553035736 0 95617663.553035736 -53223160.295436859 0 0 0 0 703607085.47605896 182286521.334095 0 182286521.334095 -43747734.893579483 0 0 0 0 37858664.143386841 417130788.14379501 0 417130788.14379501 299764779.33042908 0 0 0 0 671659281.96295166 -277492491.7165947 0 -277492491.7165947 -680542569.15066147 0 0 0 0 752402245.56678772 -62958495.828926086 0 -62958495.828926086 -178163501.45746183 0 0 0 0 2815640.3635201603 1743795.673346004 0 1743795.673346004 -1581563.4161774125 0 0 0 0 415460522.31619263 870921332.37641716 0 870921332.37641716 1313113709.4759712 0 0 0 0 1203733461.480978 700787821.36572194 0 700787821.36572194 179125522.18479538 0 0 0 0 1048118334.0584717 -150147867.79738045 0 -150147867.79738045 -40444753.241664886 0 0 0 0 146043393.68457031 73621305.141376495 0 73621305.141376495 -96522286.431091309 0 0 0 0 -102012670.17871094 -149377602.75769806 0 -149377602.75769806 178249131.14660263 0 0 0 0 278572249.04045105 -229496129.92811394 0 -229496129.92811394 446894946.39589691 0 0 0 0 128203595.55853271 25249459.596389771 0 25249459.596389771 -518978288.7535553 0 0 0 0 -87284467.166473389 225710697.4359169 0 225710697.4359169 -109000734.89243698 0 0 0 0 295292847.68942261 312027430.08862305 0 312027430.08862305 93582711.637084961 0 0 0 0 250137490.08957291 106604129.99561191 0 106604129.99561191 -66957438.261283875 0 0 0 0 101735391.50827026 81181173.127479553 0 81181173.127479553 375899725.29031372 0 0 0 0 194002854.36871338 111038360.86558151 0 111038360.86558151 -527610828.99449921 0 0 0 0 62066426.958862305 -239870819.47190857 0 -239870819.47190857 -373477836.56149292 0 0 0 0 403114733.24103546 63979209.428991318 0 63979209.428991318 -217753818.41881561 0 0 0 0 126184582.55328369 -189705096.79072189 0 -189705096.79072189 85114338.256114006 0 0 0 0 116614299.10128784 -621075827.65969467 0 -621075827.65969467 -879284033.16432571 0 0 0 0 161642406.74931669 118572785.13912594 0 118572785.13912594 -777254657.70691681 0 0 0 0 7476825.1429444626 4506745.5643230937 0 4506745.5643230937 -4650451.9111280218 0 0 0 0 16894840.805114746 20422789.175209045 0 20422789.175209045 -1286113904.8995585 0 0 0 0 195600730.87023926 -223327710.41242599 0 -223327710.41242599 -1293867115.9390373 0 0 0 0 205675048.09979248 310588504.3156395 0 310588504.3156395 296353888.38492203 0 0 0 0 -395647337.55807495 58512509.34059906 0 58512509.34059906 -775635319.25006104 0 0 0 0 -91859903.999938965 -256791887.7172699 0 -256791887.7172699 -825549983.49786758 0 0 0 0 1321957.1546769291 -17397.636994995177 0 -17397.636994995177 -1212623.7601040695 0 0 0 0 -307766179.55874634 -688646489.14526367 0 -688646489.14526367 -1592975723.4651489 0 0 0 0 -80260257.403900146 -38625554.451194763 0 -38625554.451194763 -750421522.74023438 0 0 0 0 -37030236.497497559 200667444.36134338 0 200667444.36134338 -1464611948.3517866 0 0 0 0 21206298.565307617 -165042785.57067108 0 -165042785.57067108 -658395119.1958046 0 0 0 0 -193081767.58935547 298096548.2855835 0 298096548.2855835 -744135947.27578735 0 0 0 0 151916092.39813805 250547691.29171658 0 250547691.29171658 245129030.93647766 0 0 0 0 229358072.59616089 245544913.46782684 0 245544913.46782684 142447994.80993652 0 0 0 0 386374489.65499878 335520513.78916168 0 335520513.78916168 75285651.92470932 0 0 0 0 355890480.30299377 374579705.32003403 0 374579705.32003403 41452431.829013824 0 0 0 0 285526186.14633179 316067354.40126038 0 316067354.40126038 227358985.20464325 0 0 0 0 246615293.10614777 349369107.87787533 0 349369107.87787533 321991165.20814514 0 0 0 0 446105203.03039551 509054964.40841484 0 509054964.40841484 219200768.00217438 0 0 0 0 371702161.11894226 311334692.02294731 0 311334692.02294731 240950103.55653954 0 0 0 0 419456393.49232483 353378492.37537384 0 353378492.37537384 46911321.742198944 0 0 0 0 367761721.56893921 347268423.9690237 0 347268423.9690237 216491676.22307205 0 0 0 0 442271615.01373291 353068370.89889717 0 353068370.89889717 20999600.961237907 0 0 0 0 271828441.65270996 276769369.31097412 0 276769369.31097412 75750562.568855286 0 0 0 0 155797422.04792786 -169032054.03162956 0 -169032054.03162956 -76115865.783723831 0 0 0 0 119920896.16156006 64368971.949302673 0 64368971.949302673 -321203599.13340759 0 0 0 0 148127447.06228638 -155918153.07881165 0 -155918153.07881165 -73145181.914916992 0 0 0 0 37427571.620513916 -260844614.14227295 0 -260844614.14227295 28604280.058135986 0 0 0 0 155861315.36077881 -300775856.32774353 0 -300775856.32774353 36493025.159137726 0 0 0 0 268520647.6325531 -210486658.2047348 0 -210486658.2047348 -59832884.402709961 0 0 0 0 220727350.1869278 -128415560.0511837 0 -128415560.0511837 127882581.17584229 0 0 0 0 120824414.21337891 350333019.57880211 0 350333019.57880211 221899107.30201721 0 0 0 0 571233509.89582825 463213743.9910326 0 463213743.9910326 -167477785.41950607 0 0 0 0 418860695.78442383 -192070825.67167664 0 -192070825.67167664 -132273850.37002182 0 0 0 0 -2142452.5271858796 2667611.9053199366 0 2667611.9053199366 1928183.4961939063 0 0 0 0 169182594.41664982 189914368.20944333 0 189914368.20944333 9086005.8485870361 0 0 0 0 280831803.30764771 139125363.42915821 0 139125363.42915821 -79250183.319034338 0 0 0 0 1278834.9946662113 23228315.056032863 0 23228315.056032863 -27662898.415569335 0 0 0 0 -112107337.53977203 110784861.59941483 0 110784861.59941483 -35297931.954551697 0 0 0 0 -12065200.052383423 302863236.77327728 0 302863236.77327728 241125213.64665985 0 0 0 0 165864685.80130386 343997013.98273087 0 343997013.98273087 245751520.29528809 0 0 0 0 -3033895.3158353567 25538493.27730561 0 25538493.27730561 -23801592.015503965 0 0 0 0 59663825.319030762 204929057.34089661 0 204929057.34089661 367667655.56048584 0 0 0 0 171927213.18166208 166906964.65295887 0 166906964.65295887 -64613650.966842651 0 0 0 0 119420518.44259644 -143707291.1890316 0 -143707291.1890316 -74684029.08133316 0 0 0 0 70728129.964668274 378113792.30430222 0 378113792.30430222 -202373221.09487534 0 0 0 0 251505735.32247496 142219056.99287462 0 142219056.99287462 -353367182.36212921 0 0 0 0 82290200.363147736 -5274643.4202051163 0 -5274643.4202051163 -45157186.873252869 0 0 0 0 142110710.58547974 87902941.538715363 0 87902941.538715363 -55712685.830852509 0 0 0 0 267507839.1076355 50425284.305557251 0 50425284.305557251 -85281211.395812988 0 0 0 0 174392500.77605438 52475537.024402618 0 52475537.024402618 -62803409.37538147 0 0 0 0 185172268.48231316 10894467.61573267 0 10894467.61573267 -83674575.461791992 0 0 0 0 270367182.28131104 -69241898.847229004 0 -69241898.847229004 -222834995.8732872 0 0 0 0 166656875.02568054 -67319809.960781097 0 -67319809.960781097 125037243.84522247 0 0 0 0 340210749.55951691 252957231.53140926 0 252957231.53140926 523253004.85608101 0 0 0 0 480623095.15309143 326749436.63046932 0 326749436.63046932 219940147.81190968 0 0 0 0 151454023.62213135 -117978154.72344971 0 -117978154.72344971 107594167.82865334 0 0 0 0 -2180767.9595199674 15362417.36365395 0 15362417.36365395 -27516316.899983689 0 0 0 0 392344052.92662048 410163037.7969265 0 410163037.7969265 277004772.58193946 0 0 0 0 14862018.806810446 2388746.510982221 0 2388746.510982221 -11872781.643879928 0 0 0 0 71486587.350463867 102230052.8887558 0 102230052.8887558 35640836.601928711 0 0 0 0 -335692727.11473083 -26256627.843777657 0 -26256627.843777657 421237510.2931242 0 0 0 0 -1111030583.8796387 198547728.62363815 0 198547728.62363815 367566732.77304316 0 0 0 0 746829040.86102295 -102611880.00753593 0 -102611880.00753593 120572208.16184235 0 0 0 0 -453703585.44815445 281441864.74271536 0 281441864.74271536 40250898.878105164 0 0 0 0 -1169416648.2321396 -618468252.50261116 0 -618468252.50261116 856884955.44515038 0 0 0 0 688382214.46984863 -74026711.719511986 0 -74026711.719511986 -270722209.23331833 0 0 0 0 959835548.84240723 56007679.798592567 0 56007679.798592567 -626983085.28093755 0 0 0 0 -330043468.49446106 897325445.92220879 0 897325445.92220879 -529971018.25977898 0 0 0 0 -1267887.9226088449 9628690.4900528528 0 9628690.4900528528 -22472797.017589308 0 0 0 0 -90605895.188568115 820775691.49890995 0 820775691.49890995 -1717305980.6673374 0 0 0 0 -9576345.9911117554 -13086356.517244339 0 -13086356.517244339 93452143.366088867 0 0 0 0 130338767.07115173 48598541.58864975 0 48598541.58864975 4591311.0594177246 0 0 0 0 161111934.4118576 225983611.12504578 0 225983611.12504578 167117670.10527039 0 0 0 0 105375287.88566589 273292186.6955328 0 273292186.6955328 414227116.16603088 0 0 0 0 156442561.05487061 255082778.03952408 0 255082778.03952408 296404349.5263443 0 0 0 0 178971363.62687683 275829588.45918655 0 275829588.45918655 169461051.4054184 0 0 0 0 201500875.52816772 272965052.41629791 0 272965052.41629791 123289961.29677582 0 0 0 0 -1376222880.5812225 -282396649.75115013 0 -282396649.75115013 375744946.96336365 0 0 0 0 -563046.52911483496 1588407.1025574803 0 1588407.1025574803 -3121220.1425012005 0 0 0 0 -771684.93000027537 5157794.5440281332 0 5157794.5440281332 -13947296.896505309 0 0 0 0 170905587.21789932 202682020.58875728 0 202682020.58875728 250833336.12375641 0 0 0 0 134838267.73573017 326345031.89850664 0 326345031.89850664 701116272.39573288 0 0 0 0 215506327.58072662 96172742.293977737 0 96172742.293977737 295710530.53239441 0 0 0 0 175684430.68251038 145362987.5633316 0 145362987.5633316 252609376.91017532 0 0 0 0 118203648.6384201 28541690.266750336 0 28541690.266750336 140427762.2873764 0 0 0 0 117183577.37689066 173703319.54201484 0 173703319.54201484 283401318.33467102 0 0 0 0 209004672.57218933 394634786.14393044 0 394634786.14393044 464496582.68960571 0 0 0 0 134356691.39079285 246545943.06493807 0 246545943.06493807 567725581.2513504 0 0 0 0 152777153.06829834 202208444.50888443 0 202208444.50888443 256401024.03684425 0 0 0 0 202613345.72621155 325506434.70674801 0 325506434.70674801 839501983.08786011 0 0 0 0 353412365.02322769 692476995.45450878 0 692476995.45450878 666861193.42608643 0 0 0 0 393049275.66030312 610767651.60824275 0 610767651.60824275 343886199.52711296 0 0 0 0 247368571.26037598 555304029.9197855 0 555304029.9197855 492179174.52530098 0 0 0 0 242386952.25250244 570125138.81105471 0 570125138.81105471 462653146.59791231 0 0 0 0 242978933.89025879 538948963.80511761 0 538948963.80511761 343308114.77020645 0 0 0 0 160735491.52603912 362093412.8765583 0 362093412.8765583 538640469.46534729 0 0 0 0 196871798.58299255 374166520.56791496 0 374166520.56791496 368189747.9070549 0 0 0 0 171662064.94759369 339482237.26116753 0 339482237.26116753 351763660.29499435 0 0 0 0 245100505.17480469 311764792.10589981 0 311764792.10589981 308594297.13579464 0 0 0 0 280254655.77955627 418670660.1311264 0 418670660.1311264 399756784.77575111 0 0 0 0 223984191.45217896 267333069.82224655 0 267333069.82224655 280599382.029953 0 0 0 0 304890962.07321167 176223622.26674652 0 176223622.26674652 229024231.43807983 0 0 0 0 418466690.95193481 194489596.21543884 0 194489596.21543884 231812244.27115917 0 0 0 0 376534501.40805054 308589164.00792694 0 308589164.00792694 291256479.70769501 0 0 0 0 279621698.46821594 369792966.22194481 0 369792966.22194481 253795142.09006119 0 0 0 0 658975294.17272949 299021314.9379406 0 299021314.9379406 119446798.98851395 0 0 0 0 650029563.67787457 542073102.60923409 0 542073102.60923409 -78489039.840652466 0 0 0 0 490197262.29678345 588628066.87657166 0 588628066.87657166 96026420.798545837 0 0 0 0 453269239.79740524 426330183.56856346 0 426330183.56856346 232831837.44515228 0 0 0 0 349106723.13867188 556786083.84573555 0 556786083.84573555 141244942.70617676 0 0 0 0 443422786.98959351 476666211.48714066 0 476666211.48714066 -23945863.369758606 0 0 0 0 435444941.97828674 615747576.38650322 0 615747576.38650322 138520468.47637939 0 0 0 0 219885967.38208008 822767451.907444 0 822767451.907444 110598231.8865366 0 0 0 0 493974962.08602905 776775218.21593571 0 776775218.21593571 -361594660.31552505 0 0 0 0 260639406.24364853 580546981.09049082 0 580546981.09049082 378776054.4746151 0 0 0 0 270747826.64993286 509701534.63716888 0 509701534.63716888 325020058.45183372 0 0 0 0 348633394.08084106 530465382.38502216 0 530465382.38502216 279822135.81554794 0 0 0 0 248673248.28968811 621900229.53702068 0 621900229.53702068 242962990.51778603 0 0 0 0 168799098.06430817 648886237.49494672 0 648886237.49494672 485062518.72447753 0 0 0 0 203781232.21710205 616962066.20635271 0 616962066.20635271 366728052.22376442 0 0 0 0 93327459.031356812 739427103.6917963 0 739427103.6917963 378162574.82326883 0 0 0 0 66696470.657666206 561985379.1344713 0 561985379.1344713 733041696.97276688 0 0 0 0 229846600.72344971 881985272.99421549 0 881985272.99421549 403857292.05177307 0 0 0 0 273617977.99983215 689000627.84006977 0 689000627.84006977 381448019.37454224 0 0 0 0 150842865.17240143 436277850.91138625 0 436277850.91138625 275786778.10243464 0 0 0 0 96521692.851982117 492291830.6223731 0 492291830.6223731 589740394.25831747 0 0 0 0 282616267.20158386 512481315.12470055 0 512481315.12470055 186783774.23522401 0 0 0 0 246575318.05856323 386142719.15313244 0 386142719.15313244 246181243.19729686 0 0 0 0 305608344.98025131 582756600.74729061 0 582756600.74729061 336381990.11007881 0 0 0 0 277261657.9720993 560339862.37685871 0 560339862.37685871 397412636.14116287 0 0 0 0 869804846.70259476 469299917.70633888 0 469299917.70633888 84496862.800780058 0 0 0 0 1000809576.4213753 489205312.67143095 0 489205312.67143095 -11082069.224714756 0 0 0 0 900991484.61148071 421105701.71073091 0 421105701.71073091 -20864081.391038358 0 0 0 0 847910141.40097046 298797268.89653945 0 298797268.89653945 28283477.434041262 0 0 0 0 849081687.36233521 171354305.74794841 0 171354305.74794841 -150582751.75684625 0 0 0 0 991138608.7305603 280167488.62520528 0 280167488.62520528 -102358313.5120436 0 0 0 0 983410829.66646433 87951208.407752588 0 87951208.407752588 -291937827.14957857 0 0 0 0 1043042080.3995972 312664588.94849408 0 312664588.94849408 -170660932.9114213 0 0 0 0 1242554418.542572 447315003.50045109 0 447315003.50045109 -88080059.691851854 0 0 0 0 1106684279.2702332 477161421.69421101 0 477161421.69421101 11526346.525410175 0 0 0 0 1136702639.9678421 217677132.09268951 0 217677132.09268951 -147070656.01022339 0 0 0 0 1342427924.1007538 504342190.08119917 0 504342190.08119917 348205305.83897591 0 0 0 0 1444024495.4230042 324002632.67411709 0 324002632.67411709 45846635.068824768 0 0 0 0 1278483680.4092712 413480283.32783484 0 413480283.32783484 -2379628.8302724361 0 0 0 0 1470641061.0765991 525860948.85049438 0 525860948.85049438 17941454.351964712 0 0 0 0 814223374.8399806 464912812.39446086 0 464912812.39446086 84179875.612164259 0 0 0 0 1320446028.9143372 675352482.23737097 0 675352482.23737097 120492907.32885718 0 0 0 0 63485401.293563843 402087629.83900881 0 402087629.83900881 509969938.60175419 0 0 0 0 824127699.56710815 678858176.55128896 0 678858176.55128896 157717416.90020323 0 0 0 0 1139524834.9291458 526461916.20962876 0 526461916.20962876 -23276580.312953234 0 0 0 0 1449826894.8868866 599637192.88110304 0 599637192.88110304 584744286.0892415 0 0 0 0 1656954.2977617159 183961.54509384185 0 183961.54509384185 -4379667.329411556 0 0 0 0 623405316.30885315 271742980.47014904 0 271742980.47014904 578062333.64325428 0 0 0 0 273361518.32240295 393790848.35404158 0 393790848.35404158 853754277.45651889 0 0 0 0 396315692.82539368 649525245.64485741 0 649525245.64485741 709222920.85888767 0 0 0 0 1459077595.9166718 686403944.92942142 0 686403944.92942142 205946693.48371315 0 0 0 0 1008893883.2838745 -328454886.36286736 0 -328454886.36286736 -459894774.78462219 0 0 0 0 -431488885.18719482 903968476.00505257 0 903968476.00505257 529377211.59246635 0 0 0 0 1275242.0077843666 2579832.856574636 0 2579832.856574636 -9854939.2600662839 0 0 0 0 846478196.4868021 513729901.66452318 0 513729901.66452318 199144098.65232301 0 0 0 0 839883381.66650391 451994767.15096313 0 451994767.15096313 81345702.030072212 0 0 0 0 711394102.91601562 380907897.00488925 0 380907897.00488925 212476456.81222773 0 0 0 0 760009596.43574524 372191435.35361034 0 372191435.35361034 326273776.75353289 0 0 0 0 757261535.27058411 404405816.00102687 0 404405816.00102687 146205643.38978672 0 0 0 0 -3221707706.5163879 977438156.30472565 0 977438156.30472565 1801467135.3345108 0 0 0 0 -2708145633.6660919 -2450987690.0172367 0 -2450987690.0172367 -893335821.65943909 0 0 0 0 37802707.304046631 1291510431.0871086 0 1291510431.0871086 -110143284.9643364 0 0 0 0 68833686.706436157 188947002.19714928 0 188947002.19714928 -773430621.73046494 0 0 0 0 167316.38996633887 1140926.053543251 0 1140926.053543251 -4888685.6752742957 0 0 0 0 1002745693.7467041 518672321.86540776 0 518672321.86540776 61321233.058098793 0 0 0 0 -678430.41934430599 3886820.1042466424 0 3886820.1042466424 -8742620.8052829318 0 0 0 0 920184215.33810425 305834968.11959457 0 305834968.11959457 132169313.17228031 0 0 0 0 664132041.86512756 359812174.93302727 0 359812174.93302727 90072008.010454178 0 0 0 0 700506445.90057373 301338255.19009972 0 301338255.19009972 181398351.40656042 0 0 0 0 816914259.97206116 414659087.10016918 0 414659087.10016918 58789656.777752876 0 0 0 0 689669459.27667236 350297154.26422405 0 350297154.26422405 71177756.019999385 0 0 0 0 699917246.07235718 357869168.56217813 0 357869168.56217813 -23137907.696666718 0 0 0 0 537822703.13174438 287873487.61608028 0 287873487.61608028 73212946.267250299 0 0 0 0 456255116.46200562 275746845.61744022 0 275746845.61744022 77492991.282722473 0 0 0 0 550206797.93966675 259285695.66526222 0 259285695.66526222 -28434449.724740982 0 0 0 0 410351068.45718384 203166295.90296459 0 203166295.90296459 88209617.47521925 0 0 0 0 456313645.76992798 159299438.97533321 0 159299438.97533321 -35466577.351739883 0 0 0 0 658389261.48324585 155036680.55480194 0 155036680.55480194 96958273.720656395 0 0 0 0 628131561.91539001 233451858.45671403 0 233451858.45671403 81323440.657337189 0 0 0 0 786503447.91387177 287796173.8340975 0 287796173.8340975 83769126.026904583 0 0 0 0 556090298.74552917 223447612.3513639 0 223447612.3513639 137162135.64249039 0 0 0 0 901221922.24304199 2097344.0330530405 0 2097344.0330530405 -63222050.003688574 0 0 0 0 876875179.63786316 132238281.8909322 0 132238281.8909322 -98045983.892315865 0 0 0 0 641956372.59365845 -42504386.694629669 0 -42504386.694629669 134903241.8346138 0 0 0 0 440907766.55911255 -725878.57562637329 0 -725878.57562637329 127187968.43290186 0 0 0 0 471296512.41390991 47043273.695217133 0 47043273.695217133 -537859.8874168396 0 0 0 0 622211666.5045166 -544723751.88521922 0 -544723751.88521922 225109196.09221077 0 0 0 0 236420403.45236206 239829034.94891977 0 239829034.94891977 -626993488.26851273 0 0 0 0 -349733699.62324524 34984592.426340103 0 34984592.426340103 104606017.48207283 0 0 0 0 290212519.24526978 -216347676.81096745 0 -216347676.81096745 -823653875.86615229 0 0 0 0 196671299.65759277 -70641953.598405838 0 -70641953.598405838 -50962844.830714226 0 0 0 0 288350396.7159729 109225528.46483803 0 109225528.46483803 -15504293.181114912 0 0 0 0 350697935.46307373 160285167.47575474 0 160285167.47575474 -292526052.0874958 0 0 0 0 522121046.18826294 254890181.67890739 0 254890181.67890739 -180480051.69154739 0 0 0 0 334597807.91699219 268210195.7029686 0 268210195.7029686 -27018718.355692863 0 0 0 0 198158138.88520813 116511204.56699228 0 116511204.56699228 -126538114.61748695 0 0 0 0 315659572.65396118 69657966.770905018 0 69657966.770905018 -359282170.64271545 0 0 0 0 14312343.419616699 -52541527.565999031 0 -52541527.565999031 -228761980.62321091 0 0 0 0 -151852807.93774414 -44703611.592740059 0 -44703611.592740059 -229466967.69738293 0 0 0 0 176186799.28820801 -44442816.69173336 0 -44442816.69173336 -378714202.68228054 0 0 0 0 4440075.5941308737 1969000.7775988257 0 1969000.7775988257 -1960413.0071874296 0 0 0 0 -224631388.17376709 -509956405.90977192 0 -509956405.90977192 -508173707.35978222 0 0 0 0 -19760984.489822388 56384957.954984188 0 56384957.954984188 113806204.51947117 0 0 0 0 20480967.443069458 9617215.2898688316 0 9617215.2898688316 -10294434.657644272 0 0 0 0 3918427.3392177224 1197977.9548076307 0 1197977.9548076307 -1540647.9723209012 0 0 0 0 1446327.8635535762 848437.94251823053 0 848437.94251823053 -2537472.1871899925 0 0 0 0 714525776.31333923 162773680.72634792 0 162773680.72634792 -66773869.745838165 0 0 0 0 920806314.14835358 157890920.25682878 0 157890920.25682878 -316364108.74115753 0 0 0 0 772102400.35031128 282366169.57412529 0 282366169.57412529 133789204.5828166 0 0 0 0 762830393.73138428 466265298.44020462 0 466265298.44020462 198685858.11144066 0 0 0 0 978832101.19604492 315580277.13564873 0 315580277.13564873 -181327513.95919418 0 0 0 0 802853322.33505249 341131271.82060337 0 341131271.82060337 -159036460.97790718 0 0 0 0 440008953.67416382 308944067.21034145 0 308944067.21034145 -78380382.483057499 0 0 0 0 704124782.97612 391590334.05466318 0 391590334.05466318 -115924609.90010834 0 0 0 0 829137478.96818542 414623255.62078261 0 414623255.62078261 -37364084.933200836 0 0 0 0 739375840.88551331 326044261.27116156 0 326044261.27116156 2492020.8622894287 0 0 0 0 475972719.01812744 287976827.81915569 0 287976827.81915569 -2550120.6103005409 0 0 0 0 477255195.60079956 287141902.82768822 0 287141902.82768822 -132901925.31594849 0 0 0 0 11689002.682067871 -40869972.455523491 0 -40869972.455523491 -67564527.964447021 0 0 0 0 254885013.98019409 402810466.44721985 0 402810466.44721985 208730023.77949905 0 0 0 0 878425722.86882019 588684839.63942814 0 588684839.63942814 -38871798.135435104 0 0 0 0 950388130.95422363 943111687.15776348 0 943111687.15776348 568655112.06833458 0 0 0 0 1071239813.2861023 354854452.54594994 0 354854452.54594994 -264471607.45804405 0 0 0 0 1068601828.3415985 342289291.53927135 0 342289291.53927135 -311071388.86527634 0 0 0 0 1775125218.3729858 130811784.20155144 0 130811784.20155144 -690158271.71585464 0 0 0 0 1735714398.5439148 680612303.51913261 0 680612303.51913261 -302288710.26825064 0 0 0 0 960642718.33963013 16062600.987224579 0 16062600.987224579 -329286712.58031273 0 0 0 0 1200514409.0435181 221126341.51007557 0 221126341.51007557 -332197735.53136444 0 0 0 0 2127480.5724087656 1059736.4262959387 0 1059736.4262959387 -772768.38798342971 0 0 0 0 4272761.7825373486 514169.13249091804 0 514169.13249091804 -2948253.6016796902 0 0 0 0 890091297.97338867 233345943.84381485 0 233345943.84381485 -973581745.86504364 0 0 0 0 2140078961.7320557 110764547.44778061 0 110764547.44778061 -988446123.30869007 0 0 0 0 1088217071.1043701 1275875314.6355267 0 1275875314.6355267 824941336.2887001 0 0 0 0 2146510598.8384399 635329940.33100414 0 635329940.33100414 -55727234.414203644 0 0 0 0 -467905754.08575439 41268208.115154266 0 41268208.115154266 291155098.49468422 0 0 0 0 839914111.97257996 -848225449.44338226 0 -848225449.44338226 -193388844.04738426 0 0 0 0 836355361.77212524 -77378339.32572937 0 -77378339.32572937 -129421022.28710651 0 0 0 0 34574591.217132568 -326784577.17197609 0 -326784577.17197609 37013478.623535156 0 0 0 0 3190260.3039960712 1850681.5065719932 0 1850681.5065719932 -5911216.4826513166 0 0 0 0 708586276.44360352 879704371.26639557 0 879704371.26639557 941755934.3869915 0 0 0 0 483990080.12149048 26744439.846393585 0 26744439.846393585 169351948.52895069 0 0 0 0 336017821.10221863 467557515.43635178 0 467557515.43635178 332985457.58638763 0 0 0 0 27332263.84487915 24916722.787063122 0 24916722.787063122 47681935.639015198 0 0 0 0 34007805.868400574 83912323.049337864 0 83912323.049337864 -106806420.44213867 0 0 0 0 48592551.309120178 79994733.707793236 0 79994733.707793236 2923690.7239990234 0 0 0 0 3148671.1412041411 1278147.2239577211 0 1278147.2239577211 -4457671.9510767516 0 0 0 0 -425825228.70721436 99735068.406863213 0 99735068.406863213 -27199112.492852926 0 0 0 0 46718801.648513794 -13691755.828158379 0 -13691755.828158379 -17208832.979257584 0 0 0 0 8292267.1922302246 -221495.42609024048 0 -221495.42609024048 18079820.889976501 0 0 0 0 -199196.45791625977 15530809.099306107 0 15530809.099306107 -10139765.852070808 0 0 0 0 -13647372.878867149 -64628541.784116745 0 -64628541.784116745 -140768453.3975687 0 0 0 0 4859162.0811640918 -629495.04510463402 0 -629495.04510463402 -2396497.3398602465 0 0 0 0 -50478662.137298584 101988314.66283083 0 101988314.66283083 61557162.942257881 0 0 0 0 11230752.186676025 9894613.9746451378 0 9894613.9746451378 107437048.54890442 0 0 0 0 978349858.72555542 230401127.34895229 0 230401127.34895229 137225202.15850925 0 0 0 0 18044787.851466179 -348464836.70974052 0 -348464836.70974052 -75250434.95840168 0 0 0 0 1973971.6746996716 -213843.14747477695 0 -213843.14747477695 -1059351.7009838582 0 0 0 0 308240713.81336975 53270206.549963951 0 53270206.549963951 172085635.16656399 0 0 0 0 381523613.57669067 -240326791.68368816 0 -240326791.68368816 -36795800.276330471 0 0 0 0 118645871.63825989 -236864359.99165583 0 -236864359.99165583 117497446.83545685 0 0 0 0 898920.72994123772 -5647417.8145411536 0 -5647417.8145411536 -15082880.134641567 0 0 0 0 450612584.72705841 -230286164.53632188 0 -230286164.53632188 65514893.187293053 0 0 0 0 623612984.43452454 -14738461.869797707 0 -14738461.869797707 -76998407.260066986 0 0 0 0 5680736.9260864258 45690349.747495651 0 45690349.747495651 311458108.57083535 0 0 0 0 1007665.0038520023 -2848831.9429637864 0 -2848831.9429637864 -9659038.422236409 0 0 0 0 1005728286.9936371 -389399458.4115988 0 -389399458.4115988 -50414490.658931732 0 0 0 0 1061487207.0267296 -315977182.00736344 0 -315977182.00736344 -23261237.812195778 0 0 0 0 1045927.9849928208 -791804.03052084148 0 -791804.03052084148 -4353334.185246693 0 0 0 0 732557979.29547119 75808779.459021807 0 75808779.459021807 -8628506.8444268703 0 0 0 0 429293565.75691223 185422088.93135834 0 185422088.93135834 -25169315.232470512 0 0 0 0 407507434.96917725 136196189.41034842 0 136196189.41034842 -99846472.967193127 0 0 0 0 521839776.36875916 79108847.029259205 0 79108847.029259205 -159314575.95173359 0 0 0 0 355482676.22512817 -55409620.087299824 0 -55409620.087299824 -99693686.105302334 0 0 0 0 472950453.50496292 -429688922.89470243 0 -429688922.89470243 -280661254.89814758 0 0 0 0 917163101.93527222 -289934207.61568832 0 -289934207.61568832 -240343378.56091595 0 0 0 0 268506980.80337524 -357152969.67071152 0 -357152969.67071152 -258170972.00165105 0 0 0 0 250845015.3112793 -750419603.95359516 0 -750419603.95359516 -498263964.92331886 0 0 0 0 505438702.2940979 -797216757.39719677 0 -797216757.39719677 -731541623.84383202 0 0 0 0 358441317.41448975 -840921810.73131561 0 -840921810.73131561 -431534423.41707802 0 0 0 0 403694742.21682739 -348234459.98045349 0 -348234459.98045349 -987927900.6558857 0 0 0 0 397840242.99264526 -381801583.53777695 0 -381801583.53777695 -230922586.93382072 0 0 0 0 1281632.7934523076 283399.78217583662 0 283399.78217583662 -417229.3662925642 0 0 0 0 66330426.555580139 -181957042.84252572 0 -181957042.84252572 494810503.30167103 0 0 0 0 145137331.75976562 133289473.06864738 0 133289473.06864738 220986666.46757841 0 0 0 0 491144870.11228943 -575464963.9837532 0 -575464963.9837532 43802574.449953079 0 0 0 0 28434531.158813477 8965837.9049458504 0 8965837.9049458504 -159656003.24119377 0 0 0 0 893435908.509552 -285576838.33219004 0 -285576838.33219004 -80572603.311160445 0 0 0 0 624321392.58821797 -182697074.61048675 0 -182697074.61048675 494700060.68681526 0 0 0 0 798388838.05038452 90171584.67193222 0 90171584.67193222 -54424905.086400032 0 0 0 0 -279469352.82502747 -350743790.8442049 0 -350743790.8442049 -26434264.928554535 0 0 0 0 -1861398.4602231868 111541.94035639986 0 111541.94035639986 4826540.6926642228 0 0 0 0 -336765628.34894562 -540264741.82644176 0 -540264741.82644176 -33795899.384386063 0 0 0 0 -120830571.99100876 -135804182.89639759 0 -135804182.89639759 6107155.4508895874 0 0 0 0 -132037162.41708374 -166030764.74705267 0 -166030764.74705267 -88798428.143205404 0 0 0 0 347230038.6950531 -242890947.96389008 0 -242890947.96389008 -128735123.11725092 0 0 0 0 344493069.92358398 -323761295.2601676 0 -323761295.2601676 186637179.1134491 0 0 0 0 665361511.43127441 -296154636.20786762 0 -296154636.20786762 -113490294.68247223 0 0 0 0 751046977.85250092 -464792291.07520652 0 -464792291.07520652 106132011.46572495 0 0 0 0 760633958.00344849 -172702651.25686646 0 -172702651.25686646 52461655.910274923 0 0 0 0 639302389.82079697 -389025759.21117949 0 -389025759.21117949 -41742758.863455772 0 0 0 0 541555634.64052582 -181431086.5264284 0 -181431086.5264284 -2263118.6143875122 0 0 0 0 706569694.89877319 -503095972.75207663 0 -503095972.75207663 160499808.21247029 0 0 0 0 2349999.6569580887 765725.10802138224 0 765725.10802138224 16788.981175743043 0 0 0 0 151986835.16160583 -158248275.51685584 0 -158248275.51685584 172092040.93986952 0 0 0 0 -7257859.3093109131 -31277205.652060032 0 -31277205.652060032 -43000282.818690777 0 0 0 0 -87869137.050014973 -109747134.84867999 0 -109747134.84867999 -94741776.070967674 0 0 0 0 781343.11791331321 897265.32093018666 0 897265.32093018666 4866.0743205356412 0 0 0 0 612561967.3533783 -266945759.21866131 0 -266945759.21866131 66564236.056732178 0 0 0 0 -96559657.820159912 -319486560.1192522 0 -319486560.1192522 30427404.348367691 0 0 0 0 -4513872.3701896667 -110206101.43303984 0 -110206101.43303984 -292472797.92938995 0 0 0 0 -28795248.752708435 -37778353.005098052 0 -37778353.005098052 -31148568.216441207 0 0 0 0 5755322.8825025558 -4518015.6689898726 0 -4518015.6689898726 -2212750.0215271218 0 0 0 0 373287805.76045227 -145582877.60323429 0 -145582877.60323429 150625361.19570923 0 0 0 0 -377137814.17759705 -412991517.12842667 0 -412991517.12842667 -486714101.32835412 0 0 0 0 -489753505.7205658 -313406836.69737148 0 -313406836.69737148 -101682160.33300161 0 0 0 0 887185704.77447128 -630381067.56844521 0 -630381067.56844521 524265028.52983159 0 0 0 0 959089770.51119614 -574598976.50914669 0 -574598976.50914669 223391261.88542867 0 0 0 0 834290525.01318359 -700873706.06721687 0 -700873706.06721687 424928997.40753555 0 0 0 0 59866414.594642639 -252995412.57057834 0 -252995412.57057834 353866385.51459694 0 0 0 0 231621005.1607132 32690926.020811737 0 32690926.020811737 -115177001.82971191 0 0 0 0 5431949.7514437214 -6534826.9378141854 0 -6534826.9378141854 -2759547.5162129896 0 0 0 0 -67602477.495361328 -66073930.337364435 0 -66073930.337364435 299362816.19309092 0 0 0 0 3887206.3437515991 -3998229.5404264405 0 -3998229.5404264405 -3437200.2847681339 0 0 0 0 -77645035.467051506 -87594247.67394419 0 -87594247.67394419 -80145406.342092991 0 0 0 0 300162170.79199219 -319503058.87285185 0 -319503058.87285185 214925936.08170867 0 0 0 0 10867681.490542978 -1969043.4204009185 0 -1969043.4204009185 -3316743.6523307832 0 0 0 0 403961657.1313324 -218114521.30658603 0 -218114521.30658603 134052758.6779449 0 0 0 0 35656802.67729187 -172167975.17943585 0 -172167975.17943585 -41320897.305501938 0 0 0 0 466881718.20689392 -113239883.1456857 0 -113239883.1456857 -104152330.45817608 0 0 0 0 -492648793.3589654 -235218423.2638416 0 -235218423.2638416 2589869.6111245155 0 0 0 0 437219678.81047058 -483584281.76069987 0 -483584281.76069987 -161281850.84132528 0 0 0 0 1840563.2976568311 -4191086.7371814586 0 -4191086.7371814586 113843.10701546847 0 0 0 0 444567320.4637363 -392952402.32450491 0 -392952402.32450491 405120544.67549723 0 0 0 0 756218683.42367554 -731705495.79640937 0 -731705495.79640937 526684143.2542001 0 0 0 0 584544470.30403137 -156048925.13705361 0 -156048925.13705361 -39812891.502421424 0 0 0 0 1338636865.9272766 -604949354.96683264 0 -604949354.96683264 105799582.95202482 0 0 0 0 1415880037.4116745 -1194831432.9515605 0 -1194831432.9515605 600009180.49576044 0 0 0 0 970326061.72616577 -576141624.77338266 0 -576141624.77338266 549181339.92391241 0 0 0 0 179289820.38031006 -369643831.40491033 0 -369643831.40491033 -562537384.72822869 0 0 0 0 -89747900.283050537 -117581901.757514 0 -117581901.757514 -439011886.46214962 0 0 0 0 761205374.04979706 153927264.75080472 0 153927264.75080472 -36483376.039353848 0 0 0 0 392707218.48312378 110185563.2759254 0 110185563.2759254 -37834387.379755169 0 0 0 0 -594706596.03930664 -1138380113.5690861 0 -1138380113.5690861 -359871061.51703417 0 0 0 0 1370191010.0822144 91686983.644337893 0 91686983.644337893 -120622191.63064051 0 0 0 0 1476474.0356477797 -1308035.5453154072 0 -1308035.5453154072 -305882.95955573604 0 0 0 0 -783458932.68314362 -511223966.7839843 0 -511223966.7839843 25813795.039611816 0 0 0 0 -215177250.28152466 -631502552.31185627 0 -631502552.31185627 -342023053.05078459 0 0 0 0 116483489.20074463 -109152793.23057342 0 -109152793.23057342 -168358307.09048653 0 0 0 0 -629330914.13368225 -232980720.23967242 0 -232980720.23967242 -60134598.221578598 0 0 0 0 123701663.04858398 -114768630.08593082 0 -114768630.08593082 -181865231.20988971 0 0 0 0 336822955.15687561 161367286.66189933 0 161367286.66189933 93384260.428674698 0 0 0 0 -52155132.648679733 -329077782.59216297 0 -329077782.59216297 121512922.22981071 0 0 0 0 398631229.51620483 416229067.3962658 0 416229067.3962658 -14262365.666170001 0 0 0 0 1327903275.7571259 -1252429864.5867167 0 -1252429864.5867167 1060706093.5264313 0 0 0 0 3822518.9544176757 -580005.4317715764 0 -580005.4317715764 -960546.82431480591 0 0 0 0 2755544782.8223877 262265068.05162525 0 262265068.05162525 -862688460.72376251 0 0 0 0 471124021.03056335 -126491913.85922706 0 -126491913.85922706 -439933123.10926086 0 0 0 0 1685524972.4025116 135302953.18141985 0 135302953.18141985 -385454948.65489304 0 0 0 0 211060122.21185303 -486782466.51096052 0 -486782466.51096052 -341448467.29828739 0 0 0 0 357629620.85798645 -133349233.81248212 0 -133349233.81248212 -122677038.12050927 0 0 0 0 1319614934.4133606 -1599780950.3128695 0 -1599780950.3128695 1213161901.8177915 0 0 0 0 235685.57551106811 -380147.04498916864 0 -380147.04498916864 -653541.5988318203 0 0 0 0 1242282180.1722336 -463507075.6486305 0 -463507075.6486305 -621376350.56996369 0 0 0 0 -10217122.87487793 -351778520.23096609 0 -351778520.23096609 -200136962.49612349 0 0 0 0 1231315105.3899174 -475633250.28518575 0 -475633250.28518575 -349958160.34207952 0 0 0 0 1555203551.7249899 -944994445.37552929 0 -944994445.37552929 -126227166.57850027 0 0 0 0 451651536.99530029 -300128195.8033458 0 -300128195.8033458 -234543895.23456651 0 0 0 0 1738107595.4017181 205244847.18284392 0 205244847.18284392 -182133833.81155303 0 0 0 0 -525619916.3903228 -1127967131.1465397 0 -1127967131.1465397 161736347.37484026 0 0 0 0 1353871.0153767467 -1220009.7166623808 0 -1220009.7166623808 -62473.353653879371 0 0 0 0 -518183449.76599121 97711523.478307486 0 97711523.478307486 106529863.16355801 0 0 0 0 -326791454.5738678 -110187741.66356397 0 -110187741.66356397 143844308.14837432 0 0 0 0 438893270.81052399 -382234310.40767711 0 -382234310.40767711 143608278.34601068 0 0 0 0 21769398.81741333 274862741.49421287 0 274862741.49421287 -529598862.33060932 0 0 0 0 543248334.92242432 -167343413.64850569 0 -167343413.64850569 -245338965.18170142 0 0 0 0 2776736.1146707535 -2511863.921157293 0 -2511863.921157293 -331268.05500267853 0 0 0 0 559137596.08462524 -107150586.56991976 0 -107150586.56991976 -633235470.48982275 0 0 0 0 130140854.78678894 -355445731.9669649 0 -355445731.9669649 -275747016.96107304 0 0 0 0 -19179428.951690674 -390501277.64675927 0 -390501277.64675927 -366093875.52935982 0 0 0 0 847048049.78634644 133346552.88541746 0 133346552.88541746 -268662723.06795591 0 0 0 0 781654564.5640564 -1265847.5285947993 0 -1265847.5285947993 -251846655.03197533 0 0 0 0 510868650.14453125 -171036330.07257366 0 -171036330.07257366 -325698929.17559385 0 0 0 0 899011739.90765381 51082831.064455271 0 51082831.064455271 -426480082.9498105 0 0 0 0 1120505193.6956787 267091631.79395747 0 267091631.79395747 -251801899.04900545 0 0 0 0 863782509.42749023 25024043.866907358 0 25024043.866907358 -240445099.66353464 0 0 0 0 1071904042.3040771 239721702.35918713 0 239721702.35918713 -167454992.57670069 0 0 0 0 559875067.65600586 69055944.220766634 0 69055944.220766634 -210012952.42404747 0 0 0 0 960665556.86727905 245183933.72466135 0 245183933.72466135 -69717491.732041478 0 0 0 0 856694265.00128174 -55007076.113027334 0 -55007076.113027334 -194516726.27353334 0 0 0 0 1136191496.5624695 136522425.02521205 0 136522425.02521205 -42492868.891493797 0 0 0 0 1339361077.109436 339022519.08242416 0 339022519.08242416 35828759.615508318 0 0 0 0 1583475950.67099 472428941.69905853 0 472428941.69905853 354909300.16473198 0 0 0 0 1252430487.2326355 219302008.32965899 0 219302008.32965899 545728932.86068153 0 0 0 0 1329586326.0951538 241213346.59576178 0 241213346.59576178 255749939.06164041 0 0 0 0 1001360437.8177795 97224479.384664774 0 97224479.384664774 246754547.33012676 0 0 0 0 1358101363.1740875 74153881.768237829 0 74153881.768237829 657817073.36437798 0 0 0 0 891156912.58004761 191397968.19699669 0 191397968.19699669 651689263.40254259 0 0 0 0 1833475172.7819824 450899708.02311468 0 450899708.02311468 544790276.77364099 0 0 0 0 1775967374.6642761 402125248.91951871 0 402125248.91951871 1133007455.4265842 0 0 0 0 1641960235.3260345 564862258.01662993 0 564862258.01662993 936280438.53297353 0 0 0 0 1485728883.4099884 -191908878.31594038 0 -191908878.31594038 560574256.78752768 0 0 0 0 1128306278.663681 -12059292.607476562 0 -12059292.607476562 1024800606.7481484 0 0 0 0 613807744.41282654 -157922943.01400244 0 -157922943.01400244 654429043.04507136 0 0 0 0 1109473078.3739014 -126197703.2452417 0 -126197703.2452417 182767298.36213207 0 0 0 0 897444622.21560669 -781105606.72523856 0 -781105606.72523856 -92096999.413040996 0 0 0 0 510330239.42941284 -42308302.003657103 0 -42308302.003657103 292219239.71600717 0 0 0 0 1085389458.8338852 -520609535.80236578 0 -520609535.80236578 266517997.70584726 0 0 0 0 1219480756.8360443 -223394160.44819719 0 -223394160.44819719 7711287.7354110479 0 0 0 0 1227735387.9840088 253478072.38566238 0 253478072.38566238 559236565.35952115 0 0 0 0 1232034208.0084381 356088105.64457071 0 356088105.64457071 331801944.90442353 0 0 0 0 754040563.25558472 -2765776.2455685139 0 -2765776.2455685139 564429728.17118979 0 0 0 0 1375168434.7583771 -26589005.623649359 0 -26589005.623649359 291016826.21473408 0 0 0 0 1846738497.5647736 674741460.55247068 0 674741460.55247068 573156044.50938475 0 0 0 0 2015148530.8458023 750339235.48836029 0 750339235.48836029 251715406.87404919 0 0 0 0 2060242668.609314 838366190.65200043 0 838366190.65200043 388181816.82876754 0 0 0 0 2989773551.9042969 1680662228.7257123 0 1680662228.7257123 905166581.86849141 0 0 0 0 3544562791.5386353 219315719.92781162 0 219315719.92781162 1137737252.9408455 0 0 0 0 1578533434.4808273 602100565.31041539 0 602100565.31041539 1953222953.5503335 0 0 0 0 1741029845.848175 637503781.36230111 0 637503781.36230111 826249438.37820923 0 0 0 0 1730212994.9874573 -1275723411.6668215 0 -1275723411.6668215 458065412.27361643 0 0 0 0 1391480188.2537308 -1190940950.2131345 0 -1190940950.2131345 446965118.43836188 0 0 0 0 1241021691.2380676 -1091487494.8784482 0 -1091487494.8784482 611715077.98716068 0 0 0 0 1645758386.8435516 -929636210.30526745 0 -929636210.30526745 339649247.58728379 0 0 0 0 455355.86822224921 -794367.59229271114 0 -794367.59229271114 857780.72879454133 0 0 0 0 1707295723.0673218 -911933823.24093127 0 -911933823.24093127 344609632.04117978 0 0 0 0 990485.82201851951 -2930025.2834008113 0 -2930025.2834008113 1605036.3725521544 0 0 0 0 -1305341689.8330231 -199777802.2409578 0 -199777802.2409578 286015996.85614461 0 0 0 0 -1887538417.7621613 -206429333.01163638 0 -206429333.01163638 466652768.55024201 0 0 0 0 324634501.67346382 -599113817.45214903 0 -599113817.45214903 -240800242.52117777 0 0 0 0 1177463688.7350044 -902297720.68745732 0 -902297720.68745732 217316643.59009957 0 0 0 0 1493158813.9772491 -793490288.53361773 0 -793490288.53361773 170823097.59339333 0 0 0 0 1499195291.5040894 -974167418.53644228 0 -974167418.53644228 164187417.67489219 0 0 0 0 3882428028.6330285 -1524598591.8358073 0 -1524598591.8358073 137406002.13595533 0 0 0 0 1524535002.1195831 -1530563045.4605803 0 -1530563045.4605803 587553657.74117017 0 0 0 0 1409926299.5441666 -1010640250.668083 0 -1010640250.668083 149337963.71434116 0 0 0 0 1337218308.4968567 -746340893.97942019 0 -746340893.97942019 -637348700.35611248 0 0 0 0 815117700.88397217 -1143538110.8463602 0 -1143538110.8463602 33239068.977925539 0 0 0 0 1493124945.5866632 -922968707.51615179 0 -922968707.51615179 44552536.390437603 0 0 0 0 1071806071.7167358 -1325499105.7135043 0 -1325499105.7135043 648956831.24557149 0 0 0 0 53349312.726341248 -25390062.815146208 0 -25390062.815146208 5651685.6315975189 0 0 0 0 4678847.8677786291 -391120.72929913551 0 -391120.72929913551 -537314.93742549978 0 0 0 0 46111412.314712524 -6360558.258574605 0 -6360558.258574605 26229587.481511116 0 0 0 0 858261390.04101562 -105019248.50172353 0 -105019248.50172353 -14460076.839860916 0 0 0 0 743542573.24699402 -466294280.40193558 0 -466294280.40193558 -64690359.527441025 0 0 0 0 1445880329.7580414 -1028342447.8037332 0 -1028342447.8037332 -74794269.058646202 0 0 0 0 1068749737.7424011 -724748402.43800163 0 -724748402.43800163 116667198.54629803 0 0 0 0 1248998102.2755127 -637138299.70444584 0 -637138299.70444584 -91850048.660936832 0 0 0 0 519670320.77128601 -456575517.79909515 0 -456575517.79909515 374080002.55931187 0 0 0 0 1346012621.9566765 -946104872.51651323 0 -946104872.51651323 211433589.62599277 0 0 0 0 1805203460.2029419 -761472051.34909344 0 -761472051.34909344 168980221.61534047 0 0 0 0 1758557050.8258057 -880888383.56713533 0 -880888383.56713533 9236434.9115481377 0 0 0 0 2037909383.7827148 -691763790.03565502 0 -691763790.03565502 108011451.06025958 0 0 0 0 1758567795.3352652 -790334475.9761728 0 -790334475.9761728 140988037.09719563 0 0 0 0 2816903338.9537506 -738935924.2127924 0 -738935924.2127924 72266292.657848835 0 0 0 0 1855261346.7768536 -941136499.34676039 0 -941136499.34676039 294711953.25177002 0 0 0 0 4478386351.1233521 -1007744367.9307771 0 -1007744367.9307771 157787289.71198845 0 0 0 0 7687209.5606345981 -2005344.7701836368 0 -2005344.7701836368 -1083996.1222414114 0 0 0 0 1103357834.3056717 -1671533242.511734 0 -1671533242.511734 1776605544.2782803 0 0 0 0 968809840.07841492 -1073470833.374815 0 -1073470833.374815 636293265.32163239 0 0 0 0 13230577.344465032 885207.71320069581 0 885207.71320069581 -6616393.5036225626 0 0 0 0 10156656.506256104 454456.47218370438 0 454456.47218370438 -3554408.5771980286 0 0 0 0 12499986.613472179 -2388905.1703894958 0 -2388905.1703894958 -5883860.6823116438 0 0 0 0 16999443.400260925 -3171319.2668122053 0 -3171319.2668122053 -14287681.216500282 0 0 0 0 377657154.12864685 58411880.41305542 0 58411880.41305542 428104581.66878295 0 0 0 0 14845669.218734741 -5867656.217813015 0 -5867656.217813015 -12088256.461890936 0 0 0 0 14794231.576202393 -2082141.3117446899 0 -2082141.3117446899 -7520182.2191472054 0 0 0 0 17690232.182914734 -5995268.3019378185 0 -5995268.3019378185 -5582972.0216627121 0 0 0 0 13312804.701428846 1432816.4889641106 0 1432816.4889641106 -7066445.2188243438 0 0 0 0 1582076373.347702 491500157.84240294 0 491500157.84240294 195622992.47564316 0 0 0 0 2243471677.0923004 934544673.36890137 0 934544673.36890137 118777724.75767851 0 0 0 0 2195269265.3331909 734576721.7846266 0 734576721.7846266 -48256798.677907944 0 0 0 0 2181971239.3787079 701483342.35453403 0 701483342.35453403 252271885.20157337 0 0 0 0 2039571361.2459102 36591900.091305107 0 36591900.091305107 277167183.84377623 0 0 0 0 2467114001.1905823 86335678.228479385 0 86335678.228479385 97444059.38912487 0 0 0 0 2964278989.9685516 192415296.44856358 0 192415296.44856358 110311835.17561436 0 0 0 0 2809355868.7466278 519884649.99228191 0 519884649.99228191 166248220.467942 0 0 0 0 2105449492.7014771 622694267.51670361 0 622694267.51670361 172005402.70976925 0 0 0 0 2548190606.4939957 236087115.58355284 0 236087115.58355284 289411200.4770937 0 0 0 0 3532758361.5235291 379285598.74800968 0 379285598.74800968 310204085.80990744 0 0 0 0 3794949384.9710274 928286198.55370975 0 928286198.55370975 1328148382.0884342 0 0 0 0 3104185459.8566742 -337677421.59455872 0 -337677421.59455872 2920274212.0321465 0 0 0 0 2651397821.1418362 455875649.17389661 0 455875649.17389661 340801647.36626816 0 0 0 0 3083592110.7793274 -43686114.772483826 0 -43686114.772483826 707208924.46400833 0 0 0 0 2617805414.5594177 290056211.38694191 0 290056211.38694191 1398649211.8538628 0 0 0 0 2398539278.0299988 109011624.4222765 0 109011624.4222765 830244194.15167522 0 0 0 0 2198395896.9503021 450970658.32417154 0 450970658.32417154 463116734.41046906 0 0 0 0 2178803820.6105042 539838139.97164488 0 539838139.97164488 632358000.308218 0 0 0 0 2183571565.5598335 576021485.25039196 0 576021485.25039196 21025720.499184608 0 0 0 0 2479296.4732898995 2307076.216412589 0 2307076.216412589 13959427.376121024 0 0 0 0 1389932853.8402252 395430501.91318226 0 395430501.91318226 493673593.85119247 0 0 0 0 2524562769.6261749 712268113.59692287 0 712268113.59692287 -105427150.23645782 0 0 0 0 661311.1916885376 11965479.519825697 0 11965479.519825697 10478237.558647633 0 0 0 0 10703845.594730377 6671145.8957564235 0 6671145.8957564235 12908077.338162422 0 0 0 0 10450761.098083496 8343508.9801845551 0 8343508.9801845551 4592749.5746908188 0 0 0 0 16654412.105697632 10359509.649591923 0 10359509.649591923 3006396.6659407616 0 0 0 0 25598053.915939331 13978963.383337498 0 13978963.383337498 -10489316.15791893 0 0 0 0 18380620.121154785 12952717.675264359 0 12952717.675264359 632248.15278720856 0 0 0 0 14235462.835006714 18646283.156019211 0 18646283.156019211 9435326.8200426102 0 0 0 0 44409337.575256348 106290878.97484684 0 106290878.97484684 4957683.9090805054 0 0 0 0 -60862128.27684021 12340941.223683834 0 12340941.223683834 29828647.993710041 0 0 0 0 2536407.0362824574 2762623.6374785975 0 2762623.6374785975 12799237.802921113 0 0 0 0 76059606.547485352 -99918566.322444916 0 -99918566.322444916 46118563.51494503 0 0 0 0 1696808.0103016347 232687.54728693515 0 232687.54728693515 21291.206680502743 0 0 0 0 124744941.0351944 -12108945.098425388 0 -12108945.098425388 -8908759.7988491058 0 0 0 0 125172933.04359436 124456558.19275522 0 124456558.19275522 -81754390.600245953 0 0 0 0 3531521.6794749051 5402908.0084263235 0 5402908.0084263235 11327927.517387418 0 0 0 0 -77686943.396713257 -102879689.5841136 0 -102879689.5841136 88124882.933647633 0 0 0 0 10243982.788856946 15764538.037018716 0 15764538.037018716 16393051.173170328 0 0 0 0 16838770.241714478 49551609.827442169 0 49551609.827442169 -126330995.57761121 0 0 0 0 -102247349.85215759 13639847.094860077 0 13639847.094860077 91728153.655754089 0 0 0 0 -59473303.491699219 -88692676.321792603 0 -88692676.321792603 118197176.44940281 0 0 0 0 -52822811.545036316 64354207.767692804 0 64354207.767692804 -3328554.7634544373 0 0 0 0 51743055.386810303 10168442.308645248 0 10168442.308645248 14180520.113052368 0 0 0 0 -26655890.132553101 7706183.478102684 0 7706183.478102684 42484833.424636841 0 0 0 0 -31095927.763442993 -4214938.9382963181 0 -4214938.9382963181 19821568.835755587 0 0 0 0 2986980.1302234083 2544958.250797689 0 2544958.250797689 1896122.5478262454 0 0 0 0 29764816.85786438 18009939.039685011 0 18009939.039685011 456012.1445350647 0 0 0 0 36027396.025735199 5807682.5782277957 0 5807682.5782277957 1058425.6942570666 0 0 0 0 40679572.911941528 -6203676.8066267967 0 -6203676.8066267967 12931961.194137573 0 0 0 0 336501866.53488159 -195556862.31934041 0 -195556862.31934041 25214046.593029216 0 0 0 0 -21350999.025909424 52910420.23151207 0 52910420.23151207 9987953.7948109508 0 0 0 0 -27151710.192382812 -45678794.800889969 0 -45678794.800889969 -16527967.976102591 0 0 0 0 26022434.248062074 2488363.0421286225 0 2488363.0421286225 3182539.2728286735 0 0 0 0 232318538.70922852 221313904.60056102 0 221313904.60056102 -77094471.234086752 0 0 0 0 -22004128.051483154 113316458.27801442 0 113316458.27801442 36162052.107352018 0 0 0 0 35782591.738693237 2242792.4640979767 0 2242792.4640979767 -3599038.7969264984 0 0 0 0 45576407.310974121 -12868934.753401756 0 -12868934.753401756 -8073560.4532299042 0 0 0 0 6805638.2586447448 1650361.1237289086 0 1650361.1237289086 -1125420.5999651402 0 0 0 0 7451119.7750799954 3963672.1211475879 0 3963672.1211475879 5644545.2323695216 0 0 0 0 6511534.193321228 -1098178.2551823854 0 -1098178.2551823854 -2638003.0755608082 0 0 0 0 16014239.01499939 1046397.6550250053 0 1046397.6550250053 -1422286.620642662 0 0 0 0 14651665.131765902 -5198091.3161910623 0 -5198091.3161910623 -8526003.3762531187 0 0 0 0 212189955.13916016 56583623.87180829 0 56583623.87180829 -57939068.352410793 0 0 0 0 219121408.21588326 99524340.765852049 0 99524340.765852049 -61783326.832039833 0 0 0 0 220826632.11466789 61651484.183415018 0 61651484.183415018 -55948464.178840637 0 0 0 0 53698505.34753418 10384571.716772079 0 10384571.716772079 -11678147.866212517 0 0 0 0 36792597.164031982 -51383886.287979126 0 -51383886.287979126 -2014455.8082256317 0 0 0 0 -8584964.9768676758 3302770.5675823689 0 3302770.5675823689 6574129.4520330429 0 0 0 0 21280817.880981445 -95229194.044348717 0 -95229194.044348717 12093934.923633069 0 0 0 0 94114249.573364258 -36770965.609790683 0 -36770965.609790683 -29879165.294895649 0 0 0 0 81517262.375305176 -37749533.175968647 0 -37749533.175968647 -29947539.9317379 0 0 0 0 243061554.17480469 7246553.8209993839 0 7246553.8209993839 -138020444.17991924 0 0 0 0 358062602.04772949 -11866589.67214632 0 -11866589.67214632 -148294227.5578351 0 0 0 0 396082439.98132324 -104640965.184618 0 -104640965.184618 -217013828.74547672 0 0 0 0 251332815.78198242 -152896497.49414539 0 -152896497.49414539 9592307.2554130554 0 0 0 0 406641416.05114746 46699494.563974023 0 46699494.563974023 -207219147.63625717 0 0 0 0 38549945.152282715 -119246901.71034718 0 -119246901.71034718 -174310503.03714955 0 0 0 0 413133605.00241852 138273874.72951296 0 138273874.72951296 -113343016.08408034 0 0 0 0 5061845.2990360707 2937590.4496539906 0 2937590.4496539906 787934.98233396001 0 0 0 0 522473637.55285645 -441424652.59385586 0 -441424652.59385586 -193908380.91092825 0 0 0 0 402775571.65457153 -89720683.483208895 0 -89720683.483208895 -356013362.58889389 0 0 0 0 362957960.21325684 -10299305.303668976 0 -10299305.303668976 -277373594.04067421 0 0 0 0 334573366.74987793 101675686.25510347 0 101675686.25510347 -79459226.045588017 0 0 0 0 91544285.54800415 7402392.438959837 0 7402392.438959837 -54887127.461394072 0 0 0 0 311221661.53485107 34012144.63214922 0 34012144.63214922 -309131908.76760101 0 0 0 0 153115276.76913452 114153077.44145203 0 114153077.44145203 25203217.616960526 0 0 0 0 53438522.151489258 36450738.869496107 0 36450738.869496107 -36240992.357341051 0 0 0 0 96370516.418487549 83113216.26738143 0 83113216.26738143 5684695.6888723373 0 0 0 0 133070904.03860474 50923848.860639572 0 50923848.860639572 -109142466.97242022 0 0 0 0 53632973.759429932 41423521.387270212 0 41423521.387270212 -27346465.028026462 0 0 0 0 73861147.480743408 31938228.41906184 0 31938228.41906184 -35775168.774269819 0 0 0 0 77020773.503204346 22872102.161412239 0 22872102.161412239 -31310130.181730509 0 0 0 0 75538960.296024323 21698932.046833768 0 21698932.046833768 -30327384.232965469 0 0 0 0 16260885.750603735 9739328.6270138696 0 9739328.6270138696 2969723.316736551 0 0 0 0 137079142.45556641 -11833455.105960608 0 -11833455.105960608 82663644.246401966 0 0 0 0 9349736.6819554865 5962452.6538466215 0 5962452.6538466215 -1162065.3360174845 0 0 0 0 350483304.96200562 41785120.728542358 0 41785120.728542358 -29371856.661717892 0 0 0 0 334409357.47412109 26706312.242093936 0 26706312.242093936 34681457.778060794 0 0 0 0 325733080.43395996 140277967.55949336 0 140277967.55949336 -89531646.359247804 0 0 0 0 330234130.16802979 106862173.78724091 0 106862173.78724091 23127930.496172547 0 0 0 0 22197818.996902466 32065939.785971642 0 32065939.785971642 3295400.3686485291 0 0 0 0 -8651947.5442276001 41206863.605273083 0 41206863.605273083 -14695631.978469133 0 0 0 0 21412767.594572067 21405005.394325256 0 21405005.394325256 -84147.755279541016 0 0 0 0 20301456.48625806 14655608.536564667 0 14655608.536564667 5602641.5836642943 0 0 0 0 -6143483.7716178894 64388183.790854201 0 64388183.790854201 23438575.763733864 0 0 0 0 30772828.096794128 13849303.311962344 0 13849303.311962344 2306347.2170168394 0 0 0 0 19559725.902183533 28310634.540719032 0 28310634.540719032 32916231.456367493 0 0 0 0 8722737.1628875732 8693182.9999065399 0 8693182.9999065399 9033741.9494357109 0 0 0 0 -4657924.006729126 -4711139.5365514755 0 -4711139.5365514755 32306571.492385864 0 0 0 0 1014286.6610031128 -10541804.571022987 0 -10541804.571022987 2680523.1135139465 0 0 0 0 3094008.2758026123 -6878109.9922609329 0 -6878109.9922609329 5535823.4611778259 0 0 0 0 3009799.1467571259 4834563.6221515536 0 4834563.6221515536 -6846430.9714241028 0 0 0 0 3486251.8223266602 9934411.2154741287 0 9934411.2154741287 18743148.725570679 0 0 0 0 266923.34338378906 -15828826.493728638 0 -15828826.493728638 -3479150.82396698 0 0 0 0 166539741.10162354 118141746.32902145 0 118141746.32902145 1412371.4180345535 0 0 0 0 13856394.974240936 6324602.2009387091 0 6324602.2009387091 -2465657.4212535042 0 0 0 0 42868364.941478953 6038254.3275100514 0 6038254.3275100514 -4993545.0738138855 0 0 0 0 -4288297.6194458008 -12945244.716001511 0 -12945244.716001511 6118320.2599391937 0 0 0 0 -17226461.418487549 -79117304.301272392 0 -79117304.301272392 -59622871.019884109 0 0 0 0 -2515467.0993728638 -9474764.4955711365 0 -9474764.4955711365 8641142.5082397461 0 0 0 0 40752658.417774633 -3209609.2195456959 0 -3209609.2195456959 -10552933.786443491 0 0 0 0 60956803.149841309 16353928.465415955 0 16353928.465415955 2803761.1903686523 0 0 0 0 91451282.815093994 15128363.155692995 0 15128363.155692995 57609144.296166398 0 0 0 0 46711917.036575317 33725427.201835632 0 33725427.201835632 24309728.278354645 0 0 0 0 25895185.901199341 202532201.901214 0 202532201.901214 59437909.572235703 0 0 0 0 34764547.353485242 12900510.758252891 0 12900510.758252891 -3329184.9147468321 0 0 0 0 52331948.378631592 16006478.132805109 0 16006478.132805109 5497989.6791086197 0 0 0 0 36618473.879689679 7069009.4995965809 0 7069009.4995965809 -7376171.2408346739 0 0 0 0 81881145.246948242 49312217.576424122 0 49312217.576424122 26742394.855617046 0 0 0 0 73610251.632263184 33607852.202194214 0 33607852.202194214 24243910.735336304 0 0 0 0 20393003.231425297 20792841.875377148 0 20792841.875377148 12056436.190326298 0 0 0 0 17067175.68371582 5779076.1925773621 0 5779076.1925773621 -4806790.0625 0 0 0 0 34009702.84428601 17349658.909102552 0 17349658.909102552 5966903.7052021958 0 0 0 0 31846933.94203531 19228237.120604157 0 19228237.120604157 3053162.705850631 0 0 0 0 21796703.957224462 4014935.7785661966 0 4014935.7785661966 334908.20162633806 0 0 0 0 63879648.704406738 34312367.61631012 0 34312367.61631012 30435780.316375732 0 0 0 0 110670704.60194397 35148254.815803528 0 35148254.815803528 29719541.668151855 0 0 0 0 4538301.9827326015 358444.01139788702 0 358444.01139788702 -3579949.927478049 0 0 0 0 74204130.464477539 37600999.030727386 0 37600999.030727386 42482702.489097595 0 0 0 0 154520664.46421814 64497887.646587372 0 64497887.646587372 9529469.4650268555 0 0 0 0 20469532.919830322 4241099.0754356384 0 4241099.0754356384 -6408584.5115203857 0 0 0 0 25188589.007736649 16902964.907874081 0 16902964.907874081 11634387.986875651 0 0 0 0 40910533.247196801 6917461.0553350113 0 6917461.0553350113 -10166555.019631516 0 0 0 0 15842155.025359314 8536738.8332838193 0 8536738.8332838193 -698166.24929466844 0 0 0 0 61037344.993133545 26691445.460802078 0 26691445.460802078 29096174.608564377 0 0 0 0 59683008.268310547 32147610.836187363 0 32147610.836187363 22785449.980102539 0 0 0 0 21590316.398412228 -31123208.978206992 0 -31123208.978206992 -112059691.97506714 0 0 0 0 86107038.434967041 77705789.512821198 0 77705789.512821198 37703530.46711731 0 0 0 0 112247776.04772949 43111233.158660889 0 43111233.158660889 7587723.2962760925 0 0 0 0 -36376101.825408936 6803275.7629623413 0 6803275.7629623413 -13333505.561836243 0 0 0 0 66706828.193984985 -20952480.329574585 0 -20952480.329574585 -126605982.10590363 0 0 0 0 155663715.721138 28371945.24354744 0 28371945.24354744 80932614.895885468 0 0 0 0 126013528.87678528 90239388.289043427 0 90239388.289043427 21217472.573379517 0 0 0 0 148950526.45549011 48095023.117944717 0 48095023.117944717 38003129.641144753 0 0 0 0 155310688.53204823 76177035.50972569 0 76177035.50972569 22706023.752426147 0 0 0 0 12718953.586792063 1285927.2382900305 0 1285927.2382900305 -6011819.9427569341 0 0 0 0 87910858.523712158 -14907815.949260712 0 -14907815.949260712 -124049177.64949417 0 0 0 0 -72998673.558929443 -180418608.49475098 0 -180418608.49475098 -4644408.5191764832 0 0 0 0 35845253.892936707 -56935632.968550682 0 -56935632.968550682 233203109.11963272 0 0 0 0 131277668.1003952 32322197.662145615 0 32322197.662145615 101401350.61145401 0 0 0 0 43928893.523330688 -79038332.778244019 0 -79038332.778244019 74557299.569438934 0 0 0 0 151310811.52306747 74572438.679652214 0 74572438.679652214 -13907763.53635788 0 0 0 0 44488760.215091094 -4498781.3303827234 0 -4498781.3303827234 -4205344.7613736317 0 0 0 0 54475225.894306183 -49795936.256767273 0 -49795936.256767273 17288579.185581207 0 0 0 0 93356326.988552094 41775488.918905258 0 41775488.918905258 27688465.494255066 0 0 0 0 179045751.67367554 39152114.69909668 0 39152114.69909668 20894938.377178192 0 0 0 0 7721053.8934746161 -305456.07349475846 0 -305456.07349475846 -1282862.3016113825 0 0 0 0 245125700.49238205 177191898.44349718 0 177191898.44349718 3669877.3928108215 0 0 0 0 172555606.06318665 49567137.927623749 0 49567137.927623749 9270826.0889949799 0 0 0 0 176400776.3079834 57645481.584657669 0 57645481.584657669 -2006220.023018837 0 0 0 0 180381973.91403198 49581354.958269119 0 49581354.958269119 2454729.3600921631 0 0 0 0 158833085.88725471 57776279.748924017 0 57776279.748924017 -34394139.868034363 0 0 0 0 173027492.00652313 110597063.24635005 0 110597063.24635005 68065506.858196259 0 0 0 0 169164258.74045563 139705754.75952625 0 139705754.75952625 43400434.204345703 0 0 0 0 178124447.91177368 123974529.67574406 0 123974529.67574406 69737516.18170166 0 0 0 0 9525662.2225159556 -1293732.5685260929 0 -1293732.5685260929 -6512061.4290275378 0 0 0 0 238868524.07148743 129585771.04923248 0 129585771.04923248 24081838.053491592 0 0 0 0 250397414.74200439 77929098.180467606 0 77929098.180467606 96527800.106483459 0 0 0 0 239498137.70477867 347849028.60699689 0 347849028.60699689 351720681.18050671 0 0 0 0 4679451.0338337049 -1215448.3159403875 0 -1215448.3159403875 -3793930.9616436679 0 0 0 0 151559108.5983429 207948659.71395588 0 207948659.71395588 35773952.006993294 0 0 0 0 49151466.858840942 72167488.971307755 0 72167488.971307755 526463274.7405079 0 0 0 0 46063994.996520996 181509783.3393116 0 181509783.3393116 247894107.62921906 0 0 0 0 -80462094.423828125 34726810.883646011 0 34726810.883646011 272510136.38832474 0 0 0 0 -45065176.112045288 160377512.12378788 0 160377512.12378788 149310350.92664337 0 0 0 0 13378225.063182831 59237516.748609543 0 59237516.748609543 304633299.44816971 0 0 0 0 72695026.54524231 272380978.39600086 0 272380978.39600086 427430898.52325535 0 0 0 0 58832146.93371582 128897031.98547363 0 128897031.98547363 174394622.36621499 0 0 0 0 102946457.67008972 454179508.85009241 0 454179508.85009241 513253707.51036167 0 0 0 0 102490848.6266799 525424565.47306454 0 525424565.47306454 783802580.65373516 0 0 0 0 4121990.3744354248 263691823.80138445 0 263691823.80138445 589109090.32126522 0 0 0 0 85658213.539291382 310108229.43034267 0 310108229.43034267 523800243.32097477 0 0 0 0 91846451.963165283 212615189.80865788 0 212615189.80865788 777436811.82119083 0 0 0 0 505655609.49404907 636865093.32110739 0 636865093.32110739 823910751.28360558 0 0 0 0 200069035.71130371 307595654.32839394 0 307595654.32839394 1104989771.6539574 0 0 0 0 260301363.3105011 317440978.63100719 0 317440978.63100719 699709316.46681595 0 0 0 0 129232515.57559204 77262428.814662933 0 77262428.814662933 709179663.17189407 0 0 0 0 121317977.07881165 208556824.3497982 0 208556824.3497982 967540098.97294235 0 0 0 0 384649594.89649963 381195311.697855 0 381195311.697855 863278722.11401939 0 0 0 0 243034146.94766235 193563662.50343704 0 193563662.50343704 594288601.10144043 0 0 0 0 255609796.42138672 -24710533.433448792 0 -24710533.433448792 421021099.67543602 0 0 0 0 134068501.34433746 178208517.11946583 0 178208517.11946583 423755423.23398209 0 0 0 0 -12811633.455780029 -158826267.64640045 0 -158826267.64640045 1002936810.0425911 0 0 0 0 243016511.7348938 -176517473.27659416 0 -176517473.27659416 278348423.88874054 0 0 0 0 135260112.3644104 13743308.371299744 0 13743308.371299744 721138802.12577057 0 0 0 0 192428339.84736633 128839747.91484261 0 128839747.91484261 762931125.18966293 0 0 0 0 176853707.40527344 531441116.57250023 0 531441116.57250023 1372826080.8203726 0 0 0 0 -17336810.704620361 468467.50830841064 0 468467.50830841064 1203502752.2571487 0 0 0 0 -450177598.59683228 -20479965.475082397 0 -20479965.475082397 1730422319.2482433 0 0 0 0 76975691.847045898 148497137.2250452 0 148497137.2250452 1161488564.6678238 0 0 0 0 -139460769.50579834 750978476.40605354 0 750978476.40605354 2484380449.1288795 0 0 0 0 56067138.141662598 1486355321.0633068 0 1486355321.0633068 1694427914.29564 0 0 0 0 364272546.76228333 1251179085.9369986 0 1251179085.9369986 1574939976.8316374 0 0 0 0 1672129497.8023014 1537545612.542392 0 1537545612.542392 1017539906.328845 0 0 0 0 882241045.6862793 813678890.71423054 0 813678890.71423054 1068057517.9801702 0 0 0 0 124976407.48312378 479777405.71255875 0 479777405.71255875 1327026807.6147957 0 0 0 0 445789029.9743576 724025771.17073691 0 724025771.17073691 1242265859.7577839 0 0 0 0 468503038.41868591 1227236014.7244279 0 1227236014.7244279 843476413.43413544 0 0 0 0 2197592985.6602478 1549471090.2679601 0 1549471090.2679601 383773678.83017159 0 0 0 0 1382155240.9650116 611651738.65383005 0 611651738.65383005 1559961799.8379726 0 0 0 0 1591028013.354126 1059613451.9375505 0 1059613451.9375505 1858749385.3295717 0 0 0 0 3547002683.4611206 57842284.59161377 0 57842284.59161377 796204139.90723848 0 0 0 0 644376730.02099609 2605763455.8999958 0 2605763455.8999958 3734812082.4708443 0 0 0 0 1536246047.4837341 679323603.74277735 0 679323603.74277735 778881107.15183544 0 0 0 0 1239558893.8963318 295642122.0222404 0 295642122.0222404 344661080.38942528 0 0 0 0 1246623825.4031143 537548667.61563027 0 537548667.61563027 388391938.35423565 0 0 0 0 1469971424.7661133 356122890.35472488 0 356122890.35472488 424532503.32316732 0 0 0 0 1590608151.5905762 743287018.72989368 0 743287018.72989368 511082288.94124889 0 0 0 0 1774485666.5266724 1124808516.2071476 0 1124808516.2071476 1455143779.178256 0 0 0 0 1611842681.4661865 887099690.00490093 0 887099690.00490093 1454366048.3991051 0 0 0 0 1542809301.3987122 412365768.06046796 0 412365768.06046796 752555297.62050247 0 0 0 0 1518407248.0280457 764856722.03858757 0 764856722.03858757 1676724488.5536127 0 0 0 0 1523466093.5079651 476581503.84016728 0 476581503.84016728 1115162852.8643017 0 0 0 0 1641943030.6216888 832249889.64576328 0 832249889.64576328 1026506348.8105669 0 0 0 0 1435104911.8666687 406115845.08423233 0 406115845.08423233 697763261.61173058 0 0 0 0 2075901831.4803009 1955827110.9282768 0 1955827110.9282768 1017554778.3554976 0 0 0 0 1585488322.2678833 809603170.59679222 0 809603170.59679222 1081049850.4160047 0 0 0 0 2720380926.5282898 1467445140.2403646 0 1467445140.2403646 1319934286.3643572 0 0 0 0 1451996473.4370422 1236061530.4672837 0 1236061530.4672837 2568811648.1839008 0 0 0 0 2105685595.3857727 2285432447.947093 0 2285432447.947093 1811183541.5179334 0 0 0 0 1517404.3661416657 -1755930.9251748398 0 -1755930.9251748398 4056667.4349188441 0 0 0 0 2194385805.5096893 2693812197.8142376 0 2693812197.8142376 2977187929.846396 0 0 0 0 -853935861.78262329 -612113181.17757893 0 -612113181.17757893 1386784082.7396088 0 0 0 0 -614760465.45523071 263278529.75025368 0 263278529.75025368 3466900222.6133814 0 0 0 0 1630438327.7641602 436776577.99970627 0 436776577.99970627 3890687690.5694523 0 0 0 0 17617529.63949585 -315876682.41889381 0 -315876682.41889381 -90896642.832336426 0 0 0 0 2709248.7613745853 -2430570.1819981113 0 -2430570.1819981113 11709114.836498039 0 0 0 0 -30071637.774261475 314858787.64328194 0 314858787.64328194 -143122652.64666367 0 0 0 0 -439292013.82069397 112294580.48212433 0 112294580.48212433 2325931.2491188049 0 0 0 0 168962648.61950684 565385745.51715851 0 565385745.51715851 1937283170.0702436 0 0 0 0 2825411828.391819 1887273171.7370946 0 1887273171.7370946 923028547.09305716 0 0 0 0 822005.74661321938 2044205.7629933432 0 2044205.7629933432 4398370.9252178892 0 0 0 0 3451340933.4376945 18788082.999939986 0 18788082.999939986 -116558242.97802383 0 0 0 0 1209211412.251503 -184716843.66425073 0 -184716843.66425073 206707750.33549041 0 0 0 0 -58897961.080711365 161332634.99826622 0 161332634.99826622 -63611487.18737793 0 0 0 0 1277925.6072984189 9511131.8521787301 0 9511131.8521787301 18556234.16774575 0 0 0 0 68118874.002746582 12181857.673074722 0 12181857.673074722 -67173803.113758087 0 0 0 0 -30084807.766716003 204884525.94631195 0 204884525.94631195 -42236204.169528961 0 0 0 0 104131582.75700378 39413979.999782562 0 39413979.999782562 -125634517.03278089 0 0 0 0 45088131.124069214 -2086548.9502506256 0 -2086548.9502506256 -64407413.945762634 0 0 0 0 171227606.67930603 -7567730.538110733 0 -7567730.538110733 -66856524.572426796 0 0 0 0 115494262.65792465 82807474.908002853 0 82807474.908002853 17238640.927856445 0 0 0 0 123163270.97593689 -64698690.24738884 0 -64698690.24738884 318164317.11045074 0 0 0 0 165773643.41646194 100290383.52038503 0 100290383.52038503 339565129.21594238 0 0 0 0 233352993.70747375 -60494821.758548737 0 -60494821.758548737 91218495.47052002 0 0 0 0 152245163.92179871 135522141.47887039 0 135522141.47887039 224297603.7269721 0 0 0 0 121086914.00888824 16359425.017868042 0 16359425.017868042 -23144183.791713715 0 0 0 0 2884161992.9883566 -1939279134.6794631 0 -1939279134.6794631 -893306508.76915646 0 0 0 0 1534671695.2986069 -1915186917.5247974 0 -1915186917.5247974 321677079.53541398 0 0 0 0 5969167845.5595913 -2990803305.5463123 0 -2990803305.5463123 -847873998.14761829 0 0 0 0 2823940861.7117996 -1647686356.1121168 0 -1647686356.1121168 -1415080910.1773939 0 0 0 0 3707062980.7052269 -1749809183.1268144 0 -1749809183.1268144 -1635134985.5606084 0 0 0 0 3041047590.3138123 -1031893163.535115 0 -1031893163.535115 -2408591009.3529873 0 0 0 0 5987028237.0843544 1005812144.1567239 0 1005812144.1567239 -3447717055.0578194 0 0 0 0 1995882634.3407669 -1320213920.9148655 0 -1320213920.9148655 -975728987.52785087 0 0 0 0 2000622921.929039 -1273161172.5805638 0 -1273161172.5805638 -1126096340.4552565 0 0 0 0 1434610906.8640213 -1166659629.4789486 0 -1166659629.4789486 -354387211.27696204 0 0 0 0 1983506196.0235901 -1223178406.8766379 0 -1223178406.8766379 -573741695.09401894 0 0 0 0 1372061045.5236678 -607912943.05031753 0 -607912943.05031753 -404791579.40878057 0 0 0 0 701418734.30782318 -1134184395.7493503 0 -1134184395.7493503 168751116.46772957 0 0 0 0 1465025534.5350494 -1435110228.6847327 0 -1435110228.6847327 2330665.6710834503 0 0 0 0 221352011.04567719 -537409182.9995172 0 -537409182.9995172 785326090.2146914 0 0 0 0 1135845744.0533981 -1604685710.0161538 0 -1604685710.0161538 564379283.42108989 0 0 0 0 334644877.76486206 -266110151.47383499 0 -266110151.47383499 -263299272.80397415 0 0 0 0 1140870149.2695274 -848103873.92829394 0 -848103873.92829394 -196977376.91851449 0 0 0 0 350501652.02177429 -119582408.56705531 0 -119582408.56705531 -208925883.2603007 0 0 0 0 298935586.30247498 -87626933.038325787 0 -87626933.038325787 -844606191.19311428 0 0 0 0 302330514.38758087 -497176701.56687975 0 -497176701.56687975 -726179011.07488537 0 0 0 0 109670329.48981476 -362779572.03287125 0 -362779572.03287125 -516527336.55361229 0 0 0 0 761694049.08143997 -621961572.15421915 0 -621961572.15421915 -531687622.56684399 0 0 0 0 361255828.04030991 -228381112.65416002 0 -228381112.65416002 -564193125.71373367 0 0 0 0 694076705.82253265 -544100743.07595253 0 -544100743.07595253 -1056226033.7768011 0 0 0 0 1129041018.020874 -1713907572.6794329 0 -1713907572.6794329 265538011.58301044 0 0 0 0 2487503663.8187008 -3950340624.0352697 0 -3950340624.0352697 1829414689.9914291 0 0 0 0 5979190503.9381676 3249528844.8805246 0 3249528844.8805246 1272257422.9398208 0 0 0 0 -993846636.8847847 -1836630074.4929276 0 -1836630074.4929276 2709954897.4835811 0 0 0 0 5678124.742111152 -3273389.1500349771 0 -3273389.1500349771 3452365.6761223031 0 0 0 0 3094969519.2779818 1389906414.990623 0 1389906414.990623 95791006.876580298 0 0 0 0 -331610695.65615082 -852019964.1503129 0 -852019964.1503129 -951535520.72131348 0 0 0 0 13499466.940114094 -10229705.816819711 0 -10229705.816819711 5909142.4015174005 0 0 0 0 3106366549.0446892 835198803.98405361 0 835198803.98405361 14296083.389343679 0 0 0 0 998329637.82668686 719289320.47699642 0 719289320.47699642 256610797.86988205 0 0 0 0 5984714612.5868912 1271684439.9947217 0 1271684439.9947217 -934399238.47874761 0 0 0 0 4155652025.2119837 348758135.34982067 0 348758135.34982067 -838915414.77574396 0 0 0 0 4172614467.6346731 247738021.84279561 0 247738021.84279561 -396333498.76852012 0 0 0 0 1055679890.1502533 -616017412.48855138 0 -616017412.48855138 -35781583.695264101 0 0 0 0 4798668764.3836861 -1524269550.0783873 0 -1524269550.0783873 130147793.65267622 0 0 0 0 3744357.3577646725 -2907764.6284631016 0 -2907764.6284631016 -2331265.0409256616 0 0 0 0 608538658.96105576 164012079.78212643 0 164012079.78212643 -533040832.0851171 0 0 0 0 4869671529.6219568 -2557414668.0121164 0 -2557414668.0121164 -924181304.48907232 0 0 0 0 5159040868.1777897 327509698.45951116 0 327509698.45951116 -843829798.81356585 0 0 0 0 5984271312.3130379 557601627.84302771 0 557601627.84302771 -420018036.55087191 0 0 0 0 8060549557.2176151 -740591562.76579762 0 -740591562.76579762 -1533491403.9368384 0 0 0 0 32084192.199058533 -12215039.26178503 0 -12215039.26178503 -126883135.3006883 0 0 0 0 58178355.835956573 -91122939.576688766 0 -91122939.576688766 -3870082.7006254196 0 0 0 0 -130915601.94684505 -34437472.815117359 0 -34437472.815117359 73335180.163547516 0 0 0 0 -147302261.9072628 -53381154.968096733 0 -53381154.968096733 467159055.49415445 0 0 0 0 -8718287.1223697662 -82069521.818709373 0 -82069521.818709373 91666820.517271519 0 0 0 0 611095345.59826207 386135417.6888932 0 386135417.6888932 16341289.061904788 0 0 0 0 9465669.4470644519 -9591907.0358236786 0 -9591907.0358236786 -6636114.5798345357 0 0 0 0 11151703.100217342 17651477.364110351 0 17651477.364110351 146323527.01552773 0 0 0 0 74536191.237293243 8707535.6836776733 0 8707535.6836776733 -20492962.21056366 0 0 0 0 4220338.7433652412 110008.54423527187 0 110008.54423527187 -3717152.8460293771 0 0 0 0 24492193.537248135 -44660334.684786379 0 -44660334.684786379 -210271860.71345139 0 0 0 0 26393344.077634715 -6641096.1338513754 0 -6641096.1338513754 -11677447.173280299 0 0 0 0 13174613.955764771 327801680.89380836 0 327801680.89380836 -670942848.24848557 0 0 0 0 586388579.55726051 -392630035.70192856 0 -392630035.70192856 129678468.50611958 0 0 0 0 23246893.069794655 -71074104.487258822 0 -71074104.487258822 -586502753.38548088 0 0 0 0 19300308.620950427 -15071898.609279051 0 -15071898.609279051 4158825.4507522252 0 0 0 0 237609200.81772614 -173788137.35921001 0 -173788137.35921001 -599352259.88452494 0 0 0 0 295506019.9844017 38882473.685734749 0 38882473.685734749 -856152450.65250206 0 0 0 0 250541879.25131226 -38002608.534853935 0 -38002608.534853935 -924370336.13850212 0 0 0 0 455970385.2371521 -223524986.65132189 0 -223524986.65132189 -900885653.7624588 0 0 0 0 182961917.60173035 -288409196.19521713 0 -288409196.19521713 -1165462590.1994481 0 0 0 0 273147666.6315918 171312810.72255707 0 171312810.72255707 -1081684900.3649859 0 0 0 0 -429716061.08201599 -161145338.48007202 0 -161145338.48007202 -1250407495.6186562 0 0 0 0 -506094118.00122833 862676746.68449116 0 862676746.68449116 -614449906.85410118 0 0 0 0 3693409.9199482575 -487088.95905903727 0 -487088.95905903727 -3252437.0859708767 0 0 0 0 255920716.59440613 64358533.223169327 0 64358533.223169327 -1684711701.3742046 0 0 0 0 -1522821715.2264099 -440544962.03583908 0 -440544962.03583908 -4522649.4161891937 0 0 0 0 -484016065.34576416 512287853.74504042 0 512287853.74504042 -1408881510.4452372 0 0 0 0 -182244241.61416626 -99772260.190378189 0 -99772260.190378189 -2459667933.3963442 0 0 0 0 3413358.388455566 -3250704.8162726555 0 -3250704.8162726555 -2333861.4152964833 0 0 0 0 10813071.815589905 200313388.92324448 0 200313388.92324448 -2408418420.9920721 0 0 0 0 -440938537.00125122 -705513653.9348793 0 -705513653.9348793 -1747757703.291338 0 0 0 0 -685764880.40658569 -236493366.92073512 0 -236493366.92073512 -121538957.39419174 0 0 0 0 9290927.920091629 -35839738.465897799 0 -35839738.465897799 6543172.4167423248 0 0 0 0 8769214.7046441622 -15122205.592100978 0 -15122205.592100978 10485435.990774242 0 0 0 0 15583421.45513916 73577611.966142654 0 73577611.966142654 -436695901.47803879 0 0 0 0 23309315.540761694 -6163387.8908523759 0 -6163387.8908523759 -10693946.404413264 0 0 0 0 12528361.933718204 -20396056.647063255 0 -20396056.647063255 -6819722.5800704956 0 0 0 0 27225573.537811279 -29527659.583086014 0 -29527659.583086014 -3828263.0988764763 0 0 0 0 -39244.296493530273 -39294244.059035301 0 -39294244.059035301 79132010.229085445 0 0 0 0 55202185.950453758 -58059497.73093605 0 -58059497.73093605 23733536.801994324 0 0 0 0 -12395038.698316574 -10483589.944457531 0 -10483589.944457531 10536646.799431801 0 0 0 0 -17473721.611534119 -9698255.9234700203 0 -9698255.9234700203 29828854.72612071 0 0 0 0 17530471.099222183 -43580758.925992489 0 -43580758.925992489 11361570.481555939 0 0 0 0 -4477253.174829483 5136375.6256300211 0 5136375.6256300211 9781861.8806228638 0 0 0 0 21028673.237330914 57871339.391110539 0 57871339.391110539 31836600.943205833 0 0 0 0 20290254.352703094 3594228.2954916954 0 3594228.2954916954 -78577949.432018518 0 0 0 0 -974377147.83119965 -664844667.79502046 0 -664844667.79502046 46752231.369433999 0 0 0 0 822542015.13938904 28902766.114303648 0 28902766.114303648 -303245204.2935822 0 0 0 0 12308423.689026641 -6709643.4886530284 0 -6709643.4886530284 -1291016.0612247791 0 0 0 0 5793839.2269363403 -1837163.4251589775 0 -1837163.4251589775 -26121796.978304058 0 0 0 0 8829444.4128736295 -10429769.035431983 0 -10429769.035431983 6921691.7382537276 0 0 0 0 -935247304.28596497 -682935698.00257242 0 -682935698.00257242 -143725171.30996609 0 0 0 0 -771081103.32818604 -186515514.93693095 0 -186515514.93693095 135241795.92553997 0 0 0 0 854416293.54090881 -527094398.3087163 0 -527094398.3087163 -291749882.91449118 0 0 0 0 -74919459.056877136 118142448.96667671 0 118142448.96667671 -125671141.57449174 0 0 0 0 -761819263.97810364 -348820167.13983297 0 -348820167.13983297 -151643234.50704527 0 0 0 0 -279381995.96323013 -598127369.57881808 0 -598127369.57881808 -385041872.50802422 0 0 0 0 223684966.05487823 -162880149.22306561 0 -162880149.22306561 -1228706175.5527105 0 0 0 0 -187967430.0874176 -103822818.32520103 0 -103822818.32520103 -317823189.38529754 0 0 0 0 338996827.871521 249136314.80066717 0 249136314.80066717 -277454933.2879405 0 0 0 0 1087000230.1498413 -113128053.85534096 0 -113128053.85534096 -569859336.3943162 0 0 0 0 900167937.34249115 567188458.6078223 0 567188458.6078223 -534176131.63485098 0 0 0 0 615482251.99753571 701106637.79575956 0 701106637.79575956 138808629.05722451 0 0 0 0 322784415.90834427 123778839.1476571 0 123778839.1476571 -668930304.823946 0 0 0 0 203105.69974917173 -828739.15438262699 0 -828739.15438262699 200648.48283664568 0 0 0 0 72806713.597114563 447322952.00312716 0 447322952.00312716 -684090392.4967165 0 0 0 0 -251592751.10790253 62039082.69512558 0 62039082.69512558 -537096269.24263763 0 0 0 0 -1406677552.9864616 -471966061.58073401 0 -471966061.58073401 -1078775030.6212225 0 0 0 0 -360588174.70869446 204032747.0838418 0 204032747.0838418 -750436200.19975424 0 0 0 0 30720719.882095337 -35164487.350143909 0 -35164487.350143909 -463004756.54338217 0 0 0 0 137664523.28133869 -32163886.342435002 0 -32163886.342435002 -1256366124.7689457 0 0 0 0 -562144581.58731079 -504811237.68896389 0 -504811237.68896389 -822275976.60917568 0 0 0 0 -132071719.54320526 -349670136.17404211 0 -349670136.17404211 -263107854.8523055 0 0 0 0 -354988303.97892761 -136271747.02144849 0 -136271747.02144849 -349479151.04254246 0 0 0 0 573049.05845658481 -1958323.2920408326 0 -1958323.2920408326 470659.69178346434 0 0 0 0 -300998920.73287201 134565060.74190924 0 134565060.74190924 -34328309.707133293 0 0 0 0 350293968.9695816 3500792.09542799 0 3500792.09542799 -671883613.00909722 0 0 0 0 720717516.33690643 -917484524.63726592 0 -917484524.63726592 -294231509.98989743 0 0 0 0 218737.57062280923 -1528313.0593425713 0 -1528313.0593425713 405699.85872226302 0 0 0 0 262332469.52466202 300366293.65566117 0 300366293.65566117 -71086901.111255169 0 0 0 0 549826103.1054306 445696980.34007406 0 445696980.34007406 -73976147.908624887 0 0 0 0 623313137.14730644 425961181.25848353 0 425961181.25848353 -158051556.97330332 0 0 0 0 631523729.07068634 462000430.58387876 0 462000430.58387876 -70722666.353793502 0 0 0 0 980051895.02670288 509508896.85899264 0 509508896.85899264 -141067091.10807681 0 0 0 0 208095906.52226639 508424431.47255951 0 508424431.47255951 82775544.781933308 0 0 0 0 816853460.13549042 244651955.32363462 0 244651955.32363462 -181800774.14787602 0 0 0 0 796738363.29537201 270499611.5898301 0 270499611.5898301 -212428324.75241852 0 0 0 0 629490533.67433929 376551606.49399018 0 376551606.49399018 -97937224.582559109 0 0 0 0 601047409.61901855 147805791.25658512 0 147805791.25658512 -225223190.34700346 0 0 0 0 25524092.987571716 -169422234.26806307 0 -169422234.26806307 -124034734.5009079 0 0 0 0 687736028.27855301 -285805457.72936165 0 -285805457.72936165 -121390879.17776585 0 0 0 0 778809313.13615799 -249299305.65369678 0 -249299305.65369678 -107311711.76553679 0 0 0 0 597105787.37285614 -226384120.5144881 0 -226384120.5144881 -45835660.488540053 0 0 0 0 1388360151.1603088 -476740794.67935485 0 -476740794.67935485 103568607.34730679 0 0 0 0 699539067.69701767 -178233744.30110428 0 -178233744.30110428 -24821980.159937501 0 0 0 0 1179695344.016264 -1203746974.1872711 0 -1203746974.1872711 463242479.67472315 0 0 0 0 1266664187.3557329 -611855957.75878716 0 -611855957.75878716 3631301.4814653397 0 0 0 0 1656442476.2160187 -839663143.83363461 0 -839663143.83363461 135651325.89321303 0 0 0 0 1897354098.1868057 -185591160.43291211 0 -185591160.43291211 -305726891.29678559 0 0 0 0 1023362682.6440773 23366699.631501615 0 23366699.631501615 -143984324.9531405 0 0 0 0 1265512192.5458908 180173091.13463008 0 180173091.13463008 -258642806.29363245 0 0 0 0 1420393846.9391289 324707755.55994916 0 324707755.55994916 -134491730.76747465 0 0 0 0 1886273576.5038414 -400859548.60518396 0 -400859548.60518396 -55102973.334415913 0 0 0 0 2102334416.5851688 -932042258.75374329 0 -932042258.75374329 1204546371.1945105 0 0 0 0 2457316583.0088959 -149805748.7956636 0 -149805748.7956636 -13000550.029485941 0 0 0 0 2163102106.9169083 -627719693.44823527 0 -627719693.44823527 -85632500.949009985 0 0 0 0 1464873621.8262939 -912916699.08980882 0 -912916699.08980882 256000368.40368825 0 0 0 0 1210399547.2015991 50654904.77039808 0 50654904.77039808 -32195596.842882156 0 0 0 0 2898492040.8944321 -927153904.62868285 0 -927153904.62868285 642838720.74539328 0 0 0 0 3331160202.8303146 -2610739945.8230281 0 -2610739945.8230281 1426076915.4439216 0 0 0 0 3652296060.7111664 -2429726420.290935 0 -2429726420.290935 760672930.11286986 0 0 0 0 2790352531.4872131 -2504477088.4692125 0 -2504477088.4692125 823451034.3264277 0 0 0 0 2994751180.6369591 -714333712.14805114 0 -714333712.14805114 -564713894.34256029 0 0 0 0 5829361940.7866631 -1950246140.5006051 0 -1950246140.5006051 -361937169.78370243 0 0 0 0 5966391.8704698756 -3816594.7358672889 0 -3816594.7358672889 -1306589.1563300272 0 0 0 0 258477404.14065552 75348190.284091473 0 75348190.284091473 -133882866.95627475 0 0 0 0 30418305.375236511 -76479004.636288643 0 -76479004.636288643 -67658172.81303978 0 0 0 0 309434.61497223377 -420795.29872737266 0 -420795.29872737266 157057.95251094253 0 0 0 0 2920924611.9716158 -1336814319.2940042 0 -1336814319.2940042 -311112150.83255219 0 0 0 0 4540726977.780838 -2529719450.9459457 0 -2529719450.9459457 266129060.19437861 0 0 0 0 3886929183.0011749 -1445241731.0737009 0 -1445241731.0737009 1168817731.3784075 0 0 0 0 6468355679.0798378 -2609338402.6116896 0 -2609338402.6116896 341546022.6072731 0 0 0 0 -163573.23170965386 -201362.01984677091 0 -201362.01984677091 4240519.2105541294 0 0 0 0 3469651922.9356842 -2648524777.6159 0 -2648524777.6159 3914995087.988193 0 0 0 0 61910675.017034888 268404111.52420691 0 268404111.52420691 1251057656.9058981 0 0 0 0 191805100.12265015 -1570952877.7861967 0 -1570952877.7861967 2073902468.9302893 0 0 0 0 2356287133.2882576 -2079077145.9111457 0 -2079077145.9111457 899107178.63720608 0 0 0 0 3280348109.1759186 -724088998.16819894 0 -724088998.16819894 597319038.99123096 0 0 0 0 2565534933.6734467 -1205488550.25406 0 -1205488550.25406 279694504.21311808 0 0 0 0 1868911892.8229756 -845423926.91825306 0 -845423926.91825306 93910405.598378658 0 0 0 0 1769210280.0665607 -1591619769.6835895 0 -1591619769.6835895 490772501.23948383 0 0 0 0 856818242.53039551 -1163337994.1024952 0 -1163337994.1024952 529180019.14418936 0 0 0 0 838617864.35174561 -1293999581.7895939 0 -1293999581.7895939 661535687.51184392 0 0 0 0 1168837362.8822021 -545925314.0818522 0 -545925314.0818522 480718603.31462574 0 0 0 0 318790157.73194504 -1247496574.5135708 0 -1247496574.5135708 614114707.37288475 0 0 0 0 -116045675.7650528 -434413092.27052534 0 -434413092.27052534 569279120.58114529 0 0 0 0 809225909.43395996 -1579623621.9003716 0 -1579623621.9003716 768810458.03614283 0 0 0 0 408783804.68521118 -463063498.93878365 0 -463063498.93878365 154883311.87601662 0 0 0 0 6960798.5975396484 -2705505.0471371515 0 -2705505.0471371515 -2473524.4934285055 0 0 0 0 736189996.61139679 -437265404.78842068 0 -437265404.78842068 154946366.06733322 0 0 0 0 696442686.48973083 -500686707.2599436 0 -500686707.2599436 163825031.02247334 0 0 0 0 547730612.41520882 -268070714.04948854 0 -268070714.04948854 25609489.598757744 0 0 0 0 74744359.595756531 -118616608.96626115 0 -118616608.96626115 73280175.542944908 0 0 0 0 1082203981.9742203 -368410103.48932552 0 -368410103.48932552 -248567800.55981493 0 0 0 0 991116076.19616699 -615130475.3732028 0 -615130475.3732028 -38871673.124655724 0 0 0 0 199181776.51093292 12484941.944538832 0 12484941.944538832 -80605081.975209236 0 0 0 0 1746737858.1168747 -507127202.36187768 0 -507127202.36187768 -305871079.1155498 0 0 0 0 -421944962.75563812 -49864051.100984067 0 -49864051.100984067 -113919987.90962791 0 0 0 0 -944541.64068138972 137512.34101729468 0 137512.34101729468 2416213.221272944 0 0 0 0 1009982221.878952 -291591577.35206747 0 -291591577.35206747 96929612.111086845 0 0 0 0 3281211.2113408148 -1144884.1157249976 0 -1144884.1157249976 -1348145.2664386162 0 0 0 0 1276319612.8467255 -1470260411.5811646 0 -1470260411.5811646 1135542898.2564731 0 0 0 0 1757921465.9380646 134213158.35321045 0 134213158.35321045 -2382032595.8799801 0 0 0 0 2245968113.725174 -1319614560.6964726 0 -1319614560.6964726 521698057.13330269 0 0 0 0 2122711167.8406982 -149625127.37562847 0 -149625127.37562847 -2167845383.7060289 0 0 0 0 1517030017.1249237 -1739724972.6663165 0 -1739724972.6663165 1729334340.015399 0 0 0 0 2543701427.6626587 586822195.82003593 0 586822195.82003593 -2210365331.343606 0 0 0 0 -1542473116.9104004 190841590.33906269 0 190841590.33906269 -157562930.16502857 0 0 0 0 2957615.5178399608 -1929714.6652536578 0 -1929714.6652536578 -1009686.9639341345 0 0 0 0 828540423.04899597 -728919662.38572836 0 -728919662.38572836 353013799.8029263 0 0 0 0 1844159533.9264069 -1298007554.2513127 0 -1298007554.2513127 650791626.61692524 0 0 0 0 473215727.11722088 -801501003.88236105 0 -801501003.88236105 1040498290.3989105 0 0 0 0 1484778908.3199463 -975424599.88280535 0 -975424599.88280535 373552790.0973596 0 0 0 0 1756016537.6518211 -978181838.75276208 0 -978181838.75276208 421196201.54576492 0 0 0 0 1335454759.3781128 -1201233228.2447715 0 -1201233228.2447715 330959173.73937976 0 0 0 0 1121176558.8020935 -1097404806.2300005 0 -1097404806.2300005 575025410.70608997 0 0 0 0 1064625244.5075378 -1237613753.6019862 0 -1237613753.6019862 647612587.99373317 0 0 0 0 1048820904.1807251 -1314091160.3383281 0 -1314091160.3383281 394861083.00157666 0 0 0 0 278506042.05165863 -919129269.88743615 0 -919129269.88743615 581971448.95980024 0 0 0 0 1116242596.1475677 -1132447084.901768 0 -1132447084.901768 402325068.81690586 0 0 0 0 2012646941.8634033 -1148270333.4247332 0 -1148270333.4247332 249674885.3526383 0 0 0 0 1007703179.6826286 -1523919518.084506 0 -1523919518.084506 468877510.1139257 0 0 0 0 -1429734609.3166885 -1042520690.613884 0 -1042520690.613884 411857144.22163302 0 0 0 0 1579541.0254627913 -1963368.9528002813 0 -1963368.9528002813 2497766.3341730251 0 0 0 0 2345469473.650589 -1676832522.1026516 0 -1676832522.1026516 942155183.12827265 0 0 0 0 1662839634.9735184 -951835374.64167595 0 -951835374.64167595 566780263.92899585 0 0 0 0 1450982507.8327484 -917008964.57101154 0 -917008964.57101154 555659302.51595807 0 0 0 0 1410116677.8565807 -935451275.62891078 0 -935451275.62891078 1081101253.2291555 0 0 0 0 1773729617.2561798 -720946329.78366697 0 -720946329.78366697 573631211.89680958 0 0 0 0 1612773604.2615356 -180305935.97778904 0 -180305935.97778904 153150081.71930313 0 0 0 0 1364448853.5687408 -1145807066.3468342 0 -1145807066.3468342 527639037.75624871 0 0 0 0 1351960410.0072575 -1063891261.371789 0 -1063891261.371789 648692056.77593684 0 0 0 0 3919450194.753231 100981002.69852394 0 100981002.69852394 182357824.37417293 0 0 0 0 290290170.09049988 -459430364.16041017 0 -459430364.16041017 -675463612.55102396 0 0 0 0 -933359470.23363876 -809889355.43924356 0 -809889355.43924356 -413678470.07679558 0 0 0 0 4849369.9544571377 -5681083.5794315711 0 -5681083.5794315711 4807381.9576719794 0 0 0 0 1282000633.2850227 433771272.56893545 0 433771272.56893545 346184825.61824489 0 0 0 0 1106935258.9790649 102055174.59514999 0 102055174.59514999 182865376.92735705 0 0 0 0 708366771.15632439 339092146.29092604 0 339092146.29092604 406864507.32844687 0 0 0 0 835725918.4463768 -93788825.463241011 0 -93788825.463241011 -299094168.46204948 0 0 0 0 514252049.00839233 -141104104.01281047 0 -141104104.01281047 -41809405.202419519 0 0 0 0 834329555.04200745 29520829.05726926 0 29520829.05726926 -655808127.14149523 0 0 0 0 748224883.6212616 128340965.74290609 0 128340965.74290609 -1045387895.2575591 0 0 0 0 521769132.81262207 512383555.38613105 0 512383555.38613105 -1176944148.8198709 0 0 0 0 637905447.4870491 -163803568.31262439 0 -163803568.31262439 -322998304.99424696 0 0 0 0 797963517.90350342 189487754.28590393 0 189487754.28590393 -523868322.44877052 0 0 0 0 540365029.66418457 73146972.54467082 0 73146972.54467082 -569083836.27462375 0 0 0 0 703861367.40855408 -10410597.728800654 0 -10410597.728800654 -937539205.80869198 0 0 0 0 498098987.31777954 -195476049.15414906 0 -195476049.15414906 -753136693.29389381 0 0 0 0 467541800.21437073 73690634.134064436 0 73690634.134064436 -547789309.67531133 0 0 0 0 -30946292.748733521 -353359154.9310801 0 -353359154.9310801 -246228250.31459999 0 0 0 0 871647403.64797974 -283826535.30455422 0 -283826535.30455422 -257514387.14124107 0 0 0 0 499612647.57835388 -224473320.51036406 0 -224473320.51036406 169508872.71817946 0 0 0 0 528064267.37310791 -958690268.77586699 0 -958690268.77586699 204101460.77890205 0 0 0 0 1159040435.6695709 -843085157.26265025 0 -843085157.26265025 175621653.45271969 0 0 0 0 849246284.84633493 -571585060.98453569 0 -571585060.98453569 -477953034.40113497 0 0 0 0 258169545.82759094 -1085114163.0416131 0 -1085114163.0416131 -908655636.39254045 0 0 0 0 -318892713.8789978 -106774961.96513844 0 -106774961.96513844 -442475455.53841448 0 0 0 0 -100475133.45959473 -390240873.49117422 0 -390240873.49117422 -1294074902.2145967 0 0 0 0 2960143.7332926467 450527.35573037714 0 450527.35573037714 -1963235.3445993527 0 0 0 0 -651681403.24537659 -519683415.99405217 0 -519683415.99405217 -128201687.15164566 0 0 0 0 2305332.3401520252 -729054.34002928436 0 -729054.34002928436 -2160856.7219785219 0 0 0 0 107999915.80664062 -617391009.83443213 0 -617391009.83443213 -1490260259.8624396 0 0 0 0 92067973.046989441 190420975.1647402 0 190420975.1647402 -1119893589.2096348 0 0 0 0 338019409.27523804 -165847327.14465237 0 -165847327.14465237 -611757254.98991632 0 0 0 0 -25111381.082996368 -293322164.08982897 0 -293322164.08982897 -534028216.3647213 0 0 0 0 24045194.993103027 -94410621.248648167 0 -94410621.248648167 -96232957.16877985 0 0 0 0 16219775.714111328 -2915592.6657701731 0 -2915592.6657701731 -412596.50881528854 0 0 0 0 8694439.6565861329 -6544403.0868844055 0 -6544403.0868844055 -2298167.6305005215 0 0 0 0 -49853071.167175293 16254552.271076202 0 16254552.271076202 -113664434.97830226 0 0 0 0 12947191.347578973 3265093.4348908514 0 3265093.4348908514 -5033208.3408384547 0 0 0 0 12693831.404403687 -2553284.0865941048 0 -2553284.0865941048 -449085.28261011839 0 0 0 0 14223702.615310669 -3364637.8760991096 0 -3364637.8760991096 -5118081.2589731216 0 0 0 0 21446952.342063904 39276184.797087848 0 39276184.797087848 -79550694.07909441 0 0 0 0 8774097.6095346212 -6160326.9383079559 0 -6160326.9383079559 -2848047.9144807295 0 0 0 0 10297135.344909668 -5314606.3848452568 0 -5314606.3848452568 -5352585.3166717887 0 0 0 0 11950867.020735741 -6975360.7593076229 0 -6975360.7593076229 -10955471.99515152 0 0 0 0 16000448.070243835 -4472485.9266161919 0 -4472485.9266161919 -15228205.152066708 0 0 0 0 6926246.7222870588 651504.01723371819 0 651504.01723371819 -4632873.8518406209 0 0 0 0 1201979793.7417831 -37976304.564020872 0 -37976304.564020872 202927630.39645672 0 0 0 0 1013032306.4008636 219898067.71667194 0 219898067.71667194 57997358.249567032 0 0 0 0 25547107.885299683 -11614270.08936882 0 -11614270.08936882 16850332.947265804 0 0 0 0 9710260.274053894 -6526080.3308289163 0 -6526080.3308289163 -4648632.6897293497 0 0 0 0 12103513.744513035 -4174423.9922057018 0 -4174423.9922057018 -7501565.4175434113 0 0 0 0 -24650888.999786377 -19259010.433956504 0 -19259010.433956504 16162037.947286844 0 0 0 0 3448994.3351511657 -370044.21775572002 0 -370044.21775572002 -4140140.4724628702 0 0 0 0 2151353023.5097313 -265900680.34983802 0 -265900680.34983802 -781690464.9673605 0 0 0 0 9871159.9458618164 18335639.639552712 0 18335639.639552712 -144505457.167117 0 0 0 0 54574486.020404816 24784176.955153406 0 24784176.955153406 -147416808.64469385 0 0 0 0 71462778.586425781 21571516.796428561 0 21571516.796428561 -589583320.48060179 0 0 0 0 390079092.72740173 63564375.222186804 0 63564375.222186804 -586190796.15697706 0 0 0 0 273158084.23947906 309669875.08038408 0 309669875.08038408 -885790390.56054997 0 0 0 0 333049197.45632172 -101528919.3097347 0 -101528919.3097347 -920490775.18963647 0 0 0 0 926328.56722637266 -550218.24527630955 0 -550218.24527630955 -1800449.8861481519 0 0 0 0 -620377341.10214233 819070607.21616852 0 819070607.21616852 -660665941.63434064 0 0 0 0 -221070774.39346313 324700495.47428882 0 324700495.47428882 -347921165.54310656 0 0 0 0 229481874.24749756 284823689.43417907 0 284823689.43417907 -860488676.03516948 0 0 0 0 239493728.49280453 743344867.36567378 0 743344867.36567378 -1181685681.6256013 0 0 0 0 768161726.99234009 -307268631.79576302 0 -307268631.79576302 -483849986.63624501 0 0 0 0 1483089196.1389465 -1252783253.1381865 0 -1252783253.1381865 -566671945.95873117 0 0 0 0 437228223.68226624 -1319074284.4433944 0 -1319074284.4433944 -338419636.2367844 0 0 0 0 9005837.5898351967 -11551217.329816066 0 -11551217.329816066 9073738.7031460628 0 0 0 0 -50073728.304109573 -272928826.83872294 0 -272928826.83872294 -209600014.66401482 0 0 0 0 955329882.58378601 -380793271.03052902 0 -380793271.03052902 734810991.73286343 0 0 0 0 955846359.01651001 -433781586.28909683 0 -433781586.28909683 -1638776867.5114379 0 0 0 0 1160658439.4269104 -132087427.520504 0 -132087427.520504 -506004496.25988388 0 0 0 0 1157775568.0995483 129635388.77580786 0 129635388.77580786 49222360.990365028 0 0 0 0 -604659559.27026367 589973728.08286524 0 589973728.08286524 -416175295.28811026 0 0 0 0 -2036851374.3826447 -1179700755.4776959 0 -1179700755.4776959 -55428905.369571686 0 0 0 0 -1709744977.8146477 -3037525738.5675001 0 -3037525738.5675001 18918833.71416378 0 0 0 0 2020435837.5407715 -834577031.49873066 0 -834577031.49873066 -334345570.58807397 0 0 0 0 857481765.70209122 -3097289662.7089615 0 -3097289662.7089615 -761949644.67704868 0 0 0 0 1126002219.4575653 -153416054.03156567 0 -153416054.03156567 37047251.28094101 0 0 0 0 1217844284.8003998 -529658035.35702515 0 -529658035.35702515 1128871653.2841392 0 0 0 0 1039051597.5444489 417018802.12452769 0 417018802.12452769 520415482.27314186 0 0 0 0 4001157.4987712353 -1100865.6358244461 0 -1100865.6358244461 -528322.57227604045 0 0 0 0 3118028206.5454559 968104157.09357357 0 968104157.09357357 -1160367815.5690269 0 0 0 0 2626821177.5511856 1063968607.9098821 0 1063968607.9098821 -1077541723.4890842 0 0 0 0 -199789578.11158752 188727067.53576088 0 188727067.53576088 -246766880.81925011 0 0 0 0 3884187396.2995148 895140158.78124332 0 895140158.78124332 -1248894363.845181 0 0 0 0 -2667265016.1365585 20027430.373321056 0 20027430.373321056 1428474606.9682331 0 0 0 0 3327924866.7102661 683318692.82923126 0 683318692.82923126 -842006749.68612671 0 0 0 0 765118605.84134674 -196793999.84184551 0 -196793999.84184551 86992655.515821457 0 0 0 0 1377596148.5272827 1819781914.187561 0 1819781914.187561 2543644061.0469322 0 0 0 0 6898138.2086098343 -10794243.393776003 0 -10794243.393776003 12357622.793008797 0 0 0 0 362969057.72893524 -678090769.08461285 0 -678090769.08461285 1109670643.4798737 0 0 0 0 1760539305.4241638 -959494723.21024513 0 -959494723.21024513 12723233.459152222 0 0 0 0 787620051.91268182 -755822846.03417778 0 -755822846.03417778 -321078956.59611702 0 0 0 0 795697553.34168315 -464490097.697155 0 -464490097.697155 -239481792.22860909 0 0 0 0 948740655.39334106 -566133956.35957909 0 -566133956.35957909 -431622343.47888947 0 0 0 0 912485735.19544983 184681568.58916092 0 184681568.58916092 -199348413.95244408 0 0 0 0 571277719.62796783 -223154906.59827328 0 -223154906.59827328 -345423922.7429657 0 0 0 0 44107677.299423218 -97000316.402619839 0 -97000316.402619839 -232428268.08600807 0 0 0 0 626125700.99898529 -507664730.32068062 0 -507664730.32068062 -407596889.6248045 0 0 0 0 597276040.90562439 -742596116.58491838 0 -742596116.58491838 -518694650.36878014 0 0 0 0 494051113.10548401 -479474998.18207741 0 -479474998.18207741 -324550773.59734058 0 0 0 0 354557581.41479695 -451827900.27013701 0 -451827900.27013701 -296709210.52575874 0 0 0 0 324079599.45269775 -359295235.01285934 0 -359295235.01285934 -115670414.45307922 0 0 0 0 330567957.85014343 -142144904.25392818 0 -142144904.25392818 -196961943.80891323 0 0 0 0 303389878.69586182 -168979409.46320772 0 -168979409.46320772 -61439087.717166901 0 0 0 0 297953906.7796936 -230400927.48959684 0 -230400927.48959684 -351580854.52131844 0 0 0 0 280946281.306427 -252908130.01099253 0 -252908130.01099253 -357767780.17635918 0 0 0 0 123530844.83215332 -324200119.15494823 0 -324200119.15494823 -306794229.74377346 0 0 0 0 -359696066.26350403 -233211415.64455414 0 -233211415.64455414 -223108155.87629032 0 0 0 0 74084999.55981636 -191719468.09694922 0 -191719468.09694922 -272217173.53315544 0 0 0 0 7608463.5619056821 -8758073.3284668475 0 -8758073.3284668475 5733032.2513772724 0 0 0 0 224824673.28756714 1158552791.6245306 0 1158552791.6245306 -191750355.39503694 0 0 0 0 -507260559.48924255 -596571408.57624054 0 -596571408.57624054 -329059065.08230019 0 0 0 0 109688164.49745941 -314578599.60152578 0 -314578599.60152578 -449793053.4346571 0 0 0 0 111093954.95675659 -227655914.55193377 0 -227655914.55193377 -229877828.70314503 0 0 0 0 -132445536.57691193 -250840498.2962966 0 -250840498.2962966 -272723576.06371641 0 0 0 0 178822467.14000702 -300329299.11671209 0 -300329299.11671209 -465225428.21481705 0 0 0 0 -95961568.896202087 -370691420.43815756 0 -370691420.43815756 -530395297.13087893 0 0 0 0 458583760.07232666 -41891970.724462509 0 -41891970.724462509 -434569825.28331566 0 0 0 0 398563809.09631348 137841608.68256897 0 137841608.68256897 -157760377.87136173 0 0 0 0 468569102.06052017 140453655.19438934 0 140453655.19438934 -61038293.085847855 0 0 0 0 367396367.24075317 -26891585.242856026 0 -26891585.242856026 -278688966.06072474 0 0 0 0 296507133.7018013 -33283804.872544289 0 -33283804.872544289 -209585317.30365562 0 0 0 0 536632524.2567215 225823089.82540464 0 225823089.82540464 284875953.26252651 0 0 0 0 459886452.51559448 288955208.77375126 0 288955208.77375126 269786565.28404558 0 0 0 0 397125630.23454666 157778748.29505253 0 157778748.29505253 43098039.184942245 0 0 0 0 581573063.73377991 398332791.76388645 0 398332791.76388645 -41679122.024789333 0 0 0 0 496644084.79814911 490467424.58623099 0 490467424.58623099 207499765.30315876 0 0 0 0 1210105090.4789047 356504021.57418823 0 356504021.57418823 168277604.43332481 0 0 0 0 709230203.72951508 63542304.619578838 0 63542304.619578838 23568914.247211218 0 0 0 0 1081543675.2507896 -221128353.57084954 0 -221128353.57084954 -87956140.687427521 0 0 0 0 1668470954.7823868 151528225.28327835 0 151528225.28327835 393351455.51472473 0 0 0 0 1593059991.3377075 552323163.12702847 0 552323163.12702847 495479699.02255249 0 0 0 0 2234335605.6458893 320830603.7035799 0 320830603.7035799 145751972.17827511 0 0 0 0 1008396697.2666473 145450700.30488682 0 145450700.30488682 265028912.26066256 0 0 0 0 692770376.04922485 434747601.59498167 0 434747601.59498167 545492632.4326725 0 0 0 0 733908267.02693939 370710436.56319022 0 370710436.56319022 1217794046.3355789 0 0 0 0 585926043.819664 37388232.798186302 0 37388232.798186302 638483175.30289698 0 0 0 0 2048535670.5586319 -279141026.01419353 0 -279141026.01419353 1268103114.503809 0 0 0 0 1321851630.294075 337849456.9990263 0 337849456.9990263 1310370136.019619 0 0 0 0 953592432.84636688 -217921598.64583778 0 -217921598.64583778 820612628.24453163 0 0 0 0 649748002.51106262 57062851.541477203 0 57062851.541477203 613239084.67562675 0 0 0 0 132491165.99411774 -298528639.88598013 0 -298528639.88598013 636879355.11122131 0 0 0 0 253476052.09890747 -284711124.1664257 0 -284711124.1664257 335047631.2370491 0 0 0 0 472064943.55995941 157705643.8679285 0 157705643.8679285 558455063.43068314 0 0 0 0 279539965.89894104 -78685798.477425575 0 -78685798.477425575 323798776.86774397 0 0 0 0 343620253.67609406 -66806897.378457308 0 -66806897.378457308 194005883.5515213 0 0 0 0 161983440.31454468 -466761978.70232296 0 -466761978.70232296 103771007.42236781 0 0 0 0 354384868.76187813 -481852417.13562781 0 -481852417.13562781 -14849557.395931244 0 0 0 0 181351928.80357742 -684462008.97440553 0 -684462008.97440553 -120876796.62828827 0 0 0 0 159362768.65934753 -769789497.30690384 0 -769789497.30690384 -209965378.98669815 0 0 0 0 -574567037.0913229 -275841341.50038201 0 -275841341.50038201 -73751114.461847305 0 0 0 0 259631654.1665535 -318827984.72158098 0 -318827984.72158098 -75162480.386962891 0 0 0 0 -114321419.00398254 -680565020.03116798 0 -680565020.03116798 256603742.17416573 0 0 0 0 -449880007.48924255 -1070257118.4650249 0 -1070257118.4650249 -346921475.89400196 0 0 0 0 418376789.29585266 -586860346.90918541 0 -586860346.90918541 -349866980.85791111 0 0 0 0 369943893.18597412 -825278561.3660183 0 -825278561.3660183 -1210813538.5825424 0 0 0 0 26218766.359436035 -165557734.26187038 0 -165557734.26187038 330708343.38192368 0 0 0 0 68777928.41746521 -116079212.08066177 0 -116079212.08066177 -92604072.572498322 0 0 0 0 109014906.65943909 81008919.67747879 0 81008919.67747879 -414812587.28041744 0 0 0 0 99259122.949304581 107558904.7122283 0 107558904.7122283 -45360751.196533203 0 0 0 0 979732.18254260719 931227.53771915287 0 931227.53771915287 -2724796.1357352696 0 0 0 0 4783336.4287338257 -34179840.689851284 0 -34179840.689851284 -21706369.400941849 0 0 0 0 8911403.2067294195 -3219775.3702033991 0 -3219775.3702033991 -1791476.8336555832 0 0 0 0 -1917099.0544700623 -37159255.250249863 0 -37159255.250249863 36402603.471323013 0 0 0 0 -145727417.30497742 -684557029.79063988 0 -684557029.79063988 -946234653.53715134 0 0 0 0 -145502492.220263 -1195355618.3781314 0 -1195355618.3781314 259072009.9460659 0 0 0 0 1969394.2522099614 -62915.914425596595 0 -62915.914425596595 -892888.03699247236 0 0 0 0 1169700222.6171875 -604917144.38294935 0 -604917144.38294935 304838436.12064934 0 0 0 0 195731321.98966408 361985521.84423673 0 361985521.84423673 -1020793873.5052958 0 0 0 0 -566333.9329143241 -304696.50132989138 0 -304696.50132989138 -400454.51937326899 0 0 0 0 11739286.273049809 -2722817.6826947941 0 -2722817.6826947941 -4828055.6512561589 0 0 0 0 -67426179.497299194 -432473629.96471286 0 -432473629.96471286 -853427502.55681229 0 0 0 0 5007960.8495595008 2656287.2821620982 0 2656287.2821620982 -9902302.1499433536 0 0 0 0 57392479.601760864 -5579015.1883401871 0 -5579015.1883401871 -33773902.210488796 0 0 0 0 -701985308.85494995 -1319929578.8293128 0 -1319929578.8293128 -1192143203.4454784 0 0 0 0 330056577.65525818 -253617414.22275257 0 -253617414.22275257 -806523448.47040749 0 0 0 0 1519106462.6123505 331191513.59986258 0 331191513.59986258 -1041332233.9358807 0 0 0 0 403239118.01094055 -330533903.90182543 0 -330533903.90182543 -797994080.07904625 0 0 0 0 1595307047.4627323 277643837.54396933 0 277643837.54396933 -700728004.29342461 0 0 0 0 1646873183.7519302 -151408872.85262108 0 -151408872.85262108 -976449376.15398741 0 0 0 0 443397169.51450348 -403330864.01384258 0 -403330864.01384258 -171496106.29990005 0 0 0 0 545194614.15061951 -257753609.46672535 0 -257753609.46672535 -1248469572.9915733 0 0 0 0 1198655675.7228546 -145966920.43895578 0 -145966920.43895578 -203515650.26283264 0 0 0 0 202573060.38450623 -511456754.65298176 0 -511456754.65298176 635258276.49833429 0 0 0 0 1678527024.881012 -833952141.50586319 0 -833952141.50586319 774154443.28084183 0 0 0 0 2104411507.7439575 -106602131.13952923 0 -106602131.13952923 -419583854.80395317 0 0 0 0 2669025638.4978714 279255895.87241459 0 279255895.87241459 -268431542.97239447 0 0 0 0 2084127787.831337 893678097.42972231 0 893678097.42972231 -166363033.26053619 0 0 0 0 2562146348.3870697 879870169.13435555 0 879870169.13435555 -174694781.06209564 0 0 0 0 2111893394.4145966 271095600.61862898 0 271095600.61862898 -956068185.431692 0 0 0 0 2731456263.9245796 304494589.28626657 0 304494589.28626657 -973323915.70244789 0 0 0 0 2063617974.4682007 13027332.079850674 0 13027332.079850674 -1124530046.5721583 0 0 0 0 1875842753.0239105 453246362.88261199 0 453246362.88261199 -761029261.0197041 0 0 0 0 2161195983.3264084 592472420.12467539 0 592472420.12467539 -1015503941.5692844 0 0 0 0 2220655335.4739075 425707808.1142447 0 425707808.1142447 -766058991.51176453 0 0 0 0 1616847570.1947784 918999445.73937702 0 918999445.73937702 -484051188.71102834 0 0 0 0 2063256417.9654999 644098802.37705541 0 644098802.37705541 -647394383.85329199 0 0 0 0 1510529390.9897308 577811985.14690125 0 577811985.14690125 -10540601.296078295 0 0 0 0 1580162813.5729828 363386081.56937706 0 363386081.56937706 -240247568.63194448 0 0 0 0 1884543850.1949768 271637600.99680686 0 271637600.99680686 -475054352.85294843 0 0 0 0 1949066105.7662125 -13786827.344692945 0 -13786827.344692945 -351389548.76322269 0 0 0 0 1649452668.9613037 368326260.69975054 0 368326260.69975054 -376684206.80624413 0 0 0 0 3934164040.4663239 729245832.05324841 0 729245832.05324841 -1996382016.1533856 0 0 0 0 5968280414.3969269 2113742637.0962915 0 2113742637.0962915 -1476819981.938189 0 0 0 0 1794230100.0137024 1232351566.7199938 0 1232351566.7199938 -13935869.259753823 0 0 0 0 2008999626.0358658 -522472981.47111595 0 -522472981.47111595 -2274273109.5971122 0 0 0 0 2117707636.9477844 759118076.86902332 0 759118076.86902332 -817201930.71034241 0 0 0 0 5983237330.7172394 879963700.37230504 0 879963700.37230504 -667705280.01953232 0 0 0 0 8254453.357620012 -542128.33578693867 0 -542128.33578693867 -3935629.6718840329 0 0 0 0 -285669588.48072815 -1021216353.5515223 0 -1021216353.5515223 -1118727385.3006101 0 0 0 0 5972908161.23172 885779082.7882477 0 885779082.7882477 -670637531.68786931 0 0 0 0 1481664609.2449188 349693632.69812298 0 349693632.69812298 -601623426.63938951 0 0 0 0 1463960827.465744 133377522.00546122 0 133377522.00546122 -359085025.44817162 0 0 0 0 7991221.9678705446 1269895.6232709922 0 1269895.6232709922 -6465675.4207552467 0 0 0 0 811869478.66482544 -1199246621.319299 0 -1199246621.319299 1079388849.3541808 0 0 0 0 979586677.65755463 -182274554.42640632 0 -182274554.42640632 66966430.031959534 0 0 0 0 13855054.390446816 -24260810.778790411 0 -24260810.778790411 758056.51903809165 0 0 0 0 -429896382.50331116 -208453884.35206938 0 -208453884.35206938 288848573.78365421 0 0 0 0 103035130.10984802 150833039.95960975 0 150833039.95960975 26213861.768071949 0 0 0 0 -14794676.708831787 -74051537.757578373 0 -74051537.757578373 -106991665.38544464 0 0 0 0 11451268.867039012 -2859056.0314542092 0 -2859056.0314542092 2367940.8336648596 0 0 0 0 5900286293.7125397 -482510121.53384984 0 -482510121.53384984 36867831.451378696 0 0 0 0 265288720.64929199 -15624219.090309858 0 -15624219.090309858 -148505540.91963291 0 0 0 0 40645943.647567749 -14553058.509307861 0 -14553058.509307861 -43818649.646708488 0 0 0 0 73064300.625343323 -91865056.094136715 0 -91865056.094136715 136599440.94626236 0 0 0 0 7734651.2967421766 1515178.5954329818 0 1515178.5954329818 -8705571.8570824284 0 0 0 0 5728052819.2141342 1242367279.7743187 0 1242367279.7743187 268923818.78930014 0 0 0 0 2760572.3222882524 -9024388.7470037956 0 -9024388.7470037956 -7340804.2743372452 0 0 0 0 19051828.446506407 -6524416.5657184012 0 -6524416.5657184012 -8118145.7569226502 0 0 0 0 130253347.40151978 32095777.312353134 0 32095777.312353134 -113211758.72016716 0 0 0 0 393082754.71238708 -638641883.99924374 0 -638641883.99924374 546899466.33049774 0 0 0 0 506302106.08398438 -347575129.47160149 0 -347575129.47160149 174470163.62889099 0 0 0 0 -117566594.47912598 -262581790.32393646 0 -262581790.32393646 414352591.66861153 0 0 0 0 16745851.142994575 -7915388.4262793427 0 -7915388.4262793427 -7292557.4757672539 0 0 0 0 490831052.63282776 -112194932.51196861 0 -112194932.51196861 -41519326.010311127 0 0 0 0 18887711.712936401 17082942.41004765 0 17082942.41004765 -25478003.092668533 0 0 0 0 -24425085.749359131 38056076.50769484 0 38056076.50769484 -35610393.350614548 0 0 0 0 9589885.3549357504 4294791.9456620812 0 4294791.9456620812 -11841405.338429254 0 0 0 0 4031737251.9805908 1910382206.0698853 0 1910382206.0698853 43227555.105096817 0 0 0 0 477819407.14219666 402795222.53770447 0 402795222.53770447 896292746.80581856 0 0 0 0 1865731853.3576202 2175157091.556345 0 2175157091.556345 1906168899.240715 0 0 0 0 6031073.6028624326 845457.70326860994 0 845457.70326860994 -1914936.9101487265 0 0 0 0 4237592120.252121 -1082653674.3891478 0 -1082653674.3891478 902518207.52812386 0 0 0 0 2513346106.0128632 822288681.80854034 0 822288681.80854034 3506400701.8617229 0 0 0 0 5008798473.6560059 1315737481.6104565 0 1315737481.6104565 1071868227.6070671 0 0 0 0 2650726729.1424255 -116244838.58969975 0 -116244838.58969975 286116913.12634468 0 0 0 0 2799628541.2613754 1080458854.2072001 0 1080458854.2072001 1122529621.5227098 0 0 0 0 -429943994.18074036 -106668672.12470627 0 -106668672.12470627 1145608755.380249 0 0 0 0 2154722.099981837 -1081147.7715549543 0 -1081147.7715549543 -1814091.0709933937 0 0 0 0 1362445659.5639343 -1899357275.6907692 0 -1899357275.6907692 2655072635.8180046 0 0 0 0 5515226949.8926334 -1876071216.207341 0 -1876071216.207341 602875420.10161972 0 0 0 0 1850521586.0132141 -840835156.43822479 0 -840835156.43822479 404198994.23548698 0 0 0 0 1386485015.0449524 -1220994087.4754257 0 -1220994087.4754257 812608515.99351358 0 0 0 0 1886236336.4554138 -819665209.00023079 0 -819665209.00023079 208324794.88731384 0 0 0 0 2116202742.6022873 -709734062.3970437 0 -709734062.3970437 -289736566.04201376 0 0 0 0 1840799788.0580292 -1043958238.0941162 0 -1043958238.0941162 194385726.20920444 0 0 0 0 1573263819.4006348 -766379803.92308903 0 -766379803.92308903 16907517.026844025 0 0 0 0 1858217496.8391418 -988695646.86492729 0 -988695646.86492729 360918054.40708828 0 0 0 0 2191521476.1527634 -681853173.23595309 0 -681853173.23595309 -664253020.20304489 0 0 0 0 3699386093.2868576 -538720321.00716782 0 -538720321.00716782 -275980965.54027939 0 0 0 0 2530830885.5397186 -536968818.28078282 0 -536968818.28078282 -530006921.78567886 0 0 0 0 1931049382.9608307 -529271387.84705639 0 -529271387.84705639 -401835716.22274661 0 0 0 0 1819963022.1890564 -642123728.51152897 0 -642123728.51152897 -503656063.31467438 0 0 0 0 1980619817.7833481 -918747305.47705984 0 -918747305.47705984 -656651610.59325695 0 0 0 0 2021998280.0846214 -949903093.71571028 0 -949903093.71571028 -773303043.91532993 0 0 0 0 1919737458.9268799 -759312459.11877155 0 -759312459.11877155 -1035585316.0434464 0 0 0 0 2074510080.9253845 -627903228.03563166 0 -627903228.03563166 -999200861.45811176 0 0 0 0 1189173542.3165894 -197624868.47477341 0 -197624868.47477341 -986267668.25676715 0 0 0 0 -56888876.869632721 439418804.09889936 0 439418804.09889936 -594156612.23025227 0 0 0 0 2567437.4494410744 1576504.7564839311 0 1576504.7564839311 -2947936.5457691196 0 0 0 0 1188324570.5877228 447215781.30763292 0 447215781.30763292 -2273547937.7404175 0 0 0 0 6178578471.4449081 306197099.86948347 0 306197099.86948347 -1430366057.2368524 0 0 0 0 508079107.26953125 -140831305.60895824 0 -140831305.60895824 -18893390.649118423 0 0 0 0 5982252717.3216829 629488946.22849977 0 629488946.22849977 540908238.56595957 0 0 0 0 224158935.63505554 -58360987.501886368 0 -58360987.501886368 -1983171.334695816 0 0 0 0 362911407.30581665 -394504607.80482674 0 -394504607.80482674 243876996.75850964 0 0 0 0 1002455391.7697754 -592599997.55312634 0 -592599997.55312634 -34208035.738595009 0 0 0 0 1943775185.9993591 -849632855.21774864 0 -849632855.21774864 -449448465.37901115 0 0 0 0 510601347.52223206 -109543429.04110813 0 -109543429.04110813 -294643545.16656685 0 0 0 0 1014291327.2873936 -405561156.6106934 0 -405561156.6106934 -128606565.72693634 0 0 0 0 4748019732.6564331 -1029328278.1205329 0 -1029328278.1205329 100274202.31970584 0 0 0 0 4966476664.0565186 -467637310.01065564 0 -467637310.01065564 -606461963.82669604 0 0 0 0 5983470538.0182495 247124331.16084343 0 247124331.16084343 -1120799367.343353 0 0 0 0 4491506427.0775146 -251981638.73791385 0 -251981638.73791385 -610246540.20692766 0 0 0 0 4520576670.6938324 -468836207.9735142 0 -468836207.9735142 -446951064.62274492 0 0 0 0 136977239.5394516 -229384480.94075376 0 -229384480.94075376 -26278619.494352102 0 0 0 0 4112728920.7944489 -501316872.38073039 0 -501316872.38073039 -334368122.60135341 0 0 0 0 -76694069.33480835 -64146048.117986858 0 -64146048.117986858 9354748.0662329197 0 0 0 0 1677103.5423537418 -1232759.5703912005 0 -1232759.5703912005 -633586.10298747313 0 0 0 0 42912149.189880371 -37032118.484550476 0 -37032118.484550476 -14089910.365437984 0 0 0 0 58871073.280517578 -56244161.146326303 0 -56244161.146326303 8134934.1971209049 0 0 0 0 4754269.2445915453 -3446901.6527391374 0 -3446901.6527391374 -1710365.324172019 0 0 0 0 112919003.64909363 -36614135.049622655 0 -36614135.049622655 -28417676.350847721 0 0 0 0 103794394.91159821 300331.07626193762 0 300331.07626193762 -136606630.26995659 0 0 0 0 29969399.668133065 13561336.146071469 0 13561336.146071469 -1496834.2746798387 0 0 0 0 23096624.900787354 25405473.700410128 0 25405473.700410128 -68149333.120042086 0 0 0 0 63081579.280075073 65106665.670375466 0 65106665.670375466 -39502447.876104832 0 0 0 0 42410319.117355347 -27082390.351610899 0 -27082390.351610899 -1793595.8343672752 0 0 0 0 4976640337.0340729 -1571179627.7243168 0 -1571179627.7243168 -36853847.563669801 0 0 0 0 4284299899.6203079 -1165383518.1770787 0 -1165383518.1770787 80889990.454731643 0 0 0 0 5982996723.8598709 -1132503175.6760457 0 -1132503175.6760457 -507738638.51912677 0 0 0 0 5988323637.9582367 -1889924316.2904253 0 -1889924316.2904253 -203634120.07798219 0 0 0 0 5121666064.1648254 -1258402894.4844241 0 -1258402894.4844241 -419453195.12671775 0 0 0 0 5091464662.6092625 -1805859822.7027791 0 -1805859822.7027791 1207505678.61889 0 0 0 0 4850331324.8914433 -3177162104.3427129 0 -3177162104.3427129 1692773674.1574335 0 0 0 0 8126937567.4480896 -1657121895.9070201 0 -1657121895.9070201 1179549227.6923704 0 0 0 0 9614477.2252831943 -3824705.42538964 0 -3824705.42538964 -4014480.2930607679 0 0 0 0 2642011887.3388367 -1364283194.8696532 0 -1364283194.8696532 828433493.02571738 0 0 0 0 189687008.98165512 410138014.56346858 0 410138014.56346858 1064331655.7544128 0 0 0 0 -1633390241.1608505 448517545.43592191 0 448517545.43592191 -1478068854.3022518 0 0 0 0 -2916909605.5261993 637437574.97189891 0 637437574.97189891 948495459.32107329 0 0 0 0 3606920.8148528058 641522.26037983969 0 641522.26037983969 314977.72498982027 0 0 0 0 -1575158198.4337158 2441635280.2948065 0 2441635280.2948065 2544016795.4582644 0 0 0 0 7061474346.9103699 2047837870.0154791 0 2047837870.0154791 -1147665319.0174286 0 0 0 0 5976846344.4991837 178347606.07652497 0 178347606.07652497 3473197235.5971212 0 0 0 0 6100365811.8787079 -3276787663.2422862 0 -3276787663.2422862 1678643276.8536634 0 0 0 0 8113414.4634843543 325164.0304434225 0 325164.0304434225 -438465.06806701946 0 0 0 0 2293750766.4526672 -860383964.20177126 0 -860383964.20177126 -2884948733.7059708 0 0 0 0 3228837456.3405762 3833131389.1668253 0 3833131389.1668253 1793204682.9175515 0 0 0 0 350647095.51809692 2251056591.6631088 0 2251056591.6631088 2002713147.1436687 0 0 0 0 413078.37864757329 5323622.0539980866 0 5323622.0539980866 3348302.8010077709 0 0 0 0 -1740486302.6996155 76507758.118567526 0 76507758.118567526 782196256.87392187 0 0 0 0 -884582791.63543701 -1280433708.3066449 0 -1280433708.3066449 -1287891121.5175686 0 0 0 0 363895102.53462219 -247945966.44584942 0 -247945966.44584942 -698535404.73986053 0 0 0 0 1035257431.9457703 1522955924.8636324 0 1522955924.8636324 1119758232.8072329 0 0 0 0 -1449548728.1138153 622001132.64859855 0 622001132.64859855 1284019337.5000358 0 0 0 0 1472394530.23703 1220150847.4258726 0 1220150847.4258726 -13547668.054173231 0 0 0 0 -126650134.73658752 492034702.34692645 0 492034702.34692645 520303426.56785631 0 0 0 0 1187998389.7378082 1056584925.897584 0 1056584925.897584 642019896.71441174 0 0 0 0 5978017308.8545876 3488897809.5405321 0 3488897809.5405321 -378796856.55172861 0 0 0 0 2964339856.2032623 2598589797.3358846 0 2598589797.3358846 646004224.23202312 0 0 0 0 3866592659.4330902 1904550344.8336177 0 1904550344.8336177 -1305120410.0901017 0 0 0 0 629298118.90693665 2015621695.8168895 0 2015621695.8168895 810053061.26876688 0 0 0 0 1248500565.7033539 339513436.19838059 0 339513436.19838059 76105750.589675188 0 0 0 0 1404119367.8577881 -7027859.1271365881 0 -7027859.1271365881 -295935924.27917469 0 0 0 0 1638232951.0356216 331162248.1578424 0 331162248.1578424 -241261811.52721477 0 0 0 0 1655662766.5722656 336942873.54364133 0 336942873.54364133 -239345035.22465062 0 0 0 0 1685630176.0097313 260345446.48614275 0 260345446.48614275 -203257968.73128814 0 0 0 0 827423370.57211304 488755935.60061395 0 488755935.60061395 10462884.47873652 0 0 0 0 1458834609.7017212 189527997.28902203 0 189527997.28902203 41929209.031986713 0 0 0 0 1621909703.8976746 296940202.31985044 0 296940202.31985044 -460512714.68561888 0 0 0 0 893802834.82806396 83959214.499919891 0 83959214.499919891 22722905.032265186 0 0 0 0 292507908.65441895 -79209805.287760735 0 -79209805.287760735 -130900922.67231512 0 0 0 0 1028652546.447113 289274939.91376352 0 289274939.91376352 25516898.131724358 0 0 0 0 1212475247.1221161 -153873935.68283463 0 -153873935.68283463 -919908263.98556519 0 0 0 0 1302202124.9030609 1365865447.2043357 0 1365865447.2043357 -823599784.54039037 0 0 0 0 2057392.2345780954 -1620465.2446780913 0 -1620465.2446780913 -307275.76430257224 0 0 0 0 2415350875.4983864 751931840.25908363 0 751931840.25908363 -11489809.151786327 0 0 0 0 1785474710.5107574 -27111234.340250254 0 -27111234.340250254 166933858.02557182 0 0 0 0 710840491.53608131 -450479035.82412946 0 -450479035.82412946 235647593.78678274 0 0 0 0 1303584521.7776947 1284082064.6973658 0 1284082064.6973658 738627748.61131513 0 0 0 0 1306237726.6359367 1133328141.5826497 0 1133328141.5826497 995432367.32025576 0 0 0 0 557459425.84216309 -258332430.78751087 0 -258332430.78751087 323474606.6932354 0 0 0 0 1304271686.595108 622717947.407974 0 622717947.407974 -2407131516.7734628 0 0 0 0 -2077107468.0180588 1480523706.9454839 0 1480523706.9454839 863192765.50264549 0 0 0 0 1923781.0589826182 3726137.2354985252 0 3726137.2354985252 2197297.0180785661 0 0 0 0 2727278931.7742004 1394360955.1407692 0 1394360955.1407692 -1159293605.2712145 0 0 0 0 615128617.75134277 2687616443.0166626 0 2687616443.0166626 683764083.9063195 0 0 0 0 526434742.29942322 2355180695.8952398 0 2355180695.8952398 -1916594881.7645586 0 0 0 0 26967631.58060091 12909853.690194027 0 12909853.690194027 331417.037041364 0 0 0 0 53606842.013767242 2203596.2885893285 0 2203596.2885893285 -40186899.155459881 0 0 0 0 -852040470.95361328 1682668814.373517 0 1682668814.373517 -1056928783.0103433 0 0 0 0 407394395.47071838 -344719315.86854267 0 -344719315.86854267 -2238253922.2602701 0 0 0 0 397286691.46248436 -620333591.65449655 0 -620333591.65449655 -695072913.75646973 0 0 0 0 525635205.39187431 391387713.85255796 0 391387713.85255796 -683127858.57300568 0 0 0 0 -654708516.47538757 -392486107.48315477 0 -392486107.48315477 -1119645055.9764967 0 0 0 0 163115630.14659119 -215684553.08114105 0 -215684553.08114105 -1232167312.9743381 0 0 0 0 -109763589.27020264 73968097.986897945 0 73968097.986897945 -504310730.58744192 0 0 0 0 -18782994.324523926 95483560.283770084 0 95483560.283770084 -1072650768.5973949 0 0 0 0 372946657.17926025 468388091.76705122 0 468388091.76705122 -1203764644.4165804 0 0 0 0 -8223342.5061798096 -285466110.21010685 0 -285466110.21010685 -467798357.20257092 0 0 0 0 313418923.27049255 -85832584.630487964 0 -85832584.630487964 -345897884.23775578 0 0 0 0 -14524086.3256073 -260454502.01528311 0 -260454502.01528311 -130467117.81027985 0 0 0 0 -73107231.635555267 -199940218.96986043 0 -199940218.96986043 134430859.39880753 0 0 0 0 129849930.71234131 -112010668.46748495 0 -112010668.46748495 22101688.798567772 0 0 0 0 21687445.797409058 -329925488.03598118 0 -329925488.03598118 -326903372.27559388 0 0 0 0 -48967620.989212036 -81218125.327404737 0 -81218125.327404737 104251161.320333 0 0 0 0 -9720606.2951812744 -7872540.4757306576 0 -7872540.4757306576 66594418.03496027 0 0 0 0 -13701904.786087036 26936764.209932804 0 26936764.209932804 422090862.25586092 0 0 0 0 24898612.6769104 -48390868.594873905 0 -48390868.594873905 32863267.926363707 0 0 0 0 -14651187.187820435 -54390580.701471329 0 -54390580.701471329 155435990.19925714 0 0 0 0 -18136059.131767273 -77024788.358177006 0 -77024788.358177006 13843108.746596336 0 0 0 0 8236585.6974620819 -9763379.497975409 0 -9763379.497975409 26192993.027092934 0 0 0 0 11139999.306900024 -22324323.942897677 0 -22324323.942897677 14281390.039293289 0 0 0 0 4814468.651039198 -8198003.8878464065 0 -8198003.8878464065 -3635012.0186449871 0 0 0 0 -344256404.68765259 -39011601.175022602 0 -39011601.175022602 -16123424.269010782 0 0 0 0 754877210.9151001 98976230.256964684 0 98976230.256964684 6263603.224414587 0 0 0 0 6643471.4146213531 -13158521.734020233 0 -13158521.734020233 36483520.673074722 0 0 0 0 6225231.6302476339 -5249147.5229039751 0 -5249147.5229039751 -1633374.2497900035 0 0 0 0 8880683.2636356354 -24498409.900799632 0 -24498409.900799632 49371161.561106682 0 0 0 0 779402606.2096405 16642250.117951751 0 16642250.117951751 -9389107.4678330421 0 0 0 0 -615926931.66069794 -234729895.52868176 0 -234729895.52868176 197504214.5682745 0 0 0 0 -564211180.12497711 -730975279.54120922 0 -730975279.54120922 1336720709.8362236 0 0 0 0 -751057858.88389587 -244058942.87290835 0 -244058942.87290835 326320122.81419754 0 0 0 0 -307993061.91623688 -327510738.43899584 0 -327510738.43899584 78955741.26783371 0 0 0 0 19098298.194879532 -17214832.373389423 0 -17214832.373389423 -784417.05967664719 0 0 0 0 -1379811826.0429547 -129847900.52073559 0 -129847900.52073559 2049434663.3603916 0 0 0 0 5057318.5570899546 -7821056.1763493605 0 -7821056.1763493605 -3070586.2849467429 0 0 0 0 -1343832039.0701447 1327568516.9277153 0 1327568516.9277153 150765425.28017792 0 0 0 0 -108613332.3684845 267227038.5073204 0 267227038.5073204 121910165.22664976 0 0 0 0 637232.98916160315 -3160941.4897615388 0 -3160941.4897615388 274465.66337175295 0 0 0 0 50365459.177627563 -22461110.117385387 0 -22461110.117385387 -963830.30400645733 0 0 0 0 61846704.321052551 -28029548.282207012 0 -28029548.282207012 -40236501.308790207 0 0 0 0 303891350.72881985 136316111.81118715 0 136316111.81118715 -15364701.683605194 0 0 0 0 -207067229.04614258 -510065114.47895318 0 -510065114.47895318 -859368503.6522969 0 0 0 0 -245785.02274103463 -986159.3467364423 0 -986159.3467364423 439866.94461056171 0 0 0 0 104015185.59127808 297347923.20408106 0 297347923.20408106 -519446876.39495087 0 0 0 0 -200365957.00971985 212077854.49646676 0 212077854.49646676 -1073545614.6361599 0 0 0 0 -18640048.488605499 -332237325.12371337 0 -332237325.12371337 -493364046.5253706 0 0 0 0 -74931581.553367615 146446148.50802469 0 146446148.50802469 253945092.84327221 0 0 0 0 188613241.98995972 91422484.773395061 0 91422484.773395061 -74011185.300615311 0 0 0 0 -60149804.720378876 -6355647.0455453396 0 -6355647.0455453396 -104595379.74194717 0 0 0 0 81108163.912601471 218128006.26592612 0 218128006.26592612 -198561736.01155472 0 0 0 0 35769868.248823151 1771407.4433753304 0 1771407.4433753304 -7028795.2403112864 0 0 0 0 -15247269.175750732 113356839.05615425 0 113356839.05615425 -92329288.008793354 0 0 0 0 -4487754.9450680017 1292244.6556135085 0 1292244.6556135085 -65962.895129447919 0 0 0 0 43286455.772750854 -65643774.906100273 0 -65643774.906100273 -73879462.369622707 0 0 0 0 324644006.27027893 -315705939.91614318 0 -315705939.91614318 -2215209127.4034209 0 0 0 0 -5504918.6386391819 16143967.008119144 0 16143967.008119144 -2517890.658723434 0 0 0 0 203347146.71960449 -61499296.614561319 0 -61499296.614561319 -1808963420.1541855 0 0 0 0 -44498151.053949356 146569464.22029579 0 146569464.22029579 1328860.9969768524 0 0 0 0 40454021.494322002 6758707.0795145798 0 6758707.0795145798 -5966166.4741063528 0 0 0 0 2621851.5054827929 9909529.5247490946 0 9909529.5247490946 -2024864.7870602773 0 0 0 0 274352947.21833801 621191695.784863 0 621191695.784863 -2448852890.6159415 0 0 0 0 83214767.182098389 -31241291.411275387 0 -31241291.411275387 -180063740.40689141 0 0 0 0 -340747572.9801178 435489955.82168865 0 435489955.82168865 -1252118004.2871985 0 0 0 0 91202381.277053833 -25759049.905947924 0 -25759049.905947924 -91208488.744952917 0 0 0 0 10174431.183334351 34473792.860881925 0 34473792.860881925 -135108124.67364073 0 0 0 0 160434026.00570679 32239977.824156284 0 32239977.824156284 -137530797.34542084 0 0 0 0 76919525.632659912 100486805.71445274 0 100486805.71445274 -179349690.5191853 0 0 0 0 24230888.285003662 22636382.460736275 0 22636382.460736275 -135208363.53604257 0 0 0 0 67208686.632965088 99066613.41018486 0 99066613.41018486 -36829021.591356039 0 0 0 0 61515513.821746826 46229423.24955833 0 46229423.24955833 -29348889.042098314 0 0 0 0 8787709.0066299438 102515664.97689104 0 102515664.97689104 38182824.397452354 0 0 0 0 333122172.36427307 17128118.591841936 0 17128118.591841936 -83790118.697589576 0 0 0 0 144150485.20703888 164341626.31819814 0 164341626.31819814 139014713.1951108 0 0 0 0 6435854.1408233643 -8264240.8923669159 0 -8264240.8923669159 249989425.20724547 0 0 0 0 10118654.530654907 -14778003.912425369 0 -14778003.912425369 57106239.068054229 0 0 0 0 -16249655.467681885 30752403.661256433 0 30752403.661256433 7905214.6974568367 0 0 0 0 -28164272.900909424 26469894.253736258 0 26469894.253736258 107440503.27252841 0 0 0 0 -28610342.056365967 26196160.90903312 0 26196160.90903312 32202295.315000176 0 0 0 0 -26201215.575027466 34591491.215979695 0 34591491.215979695 9625184.6058812141 0 0 0 0 -19299925.46780777 51251861.684895098 0 51251861.684895098 -27981637.313146353 0 0 0 0 17713491.499359131 56409151.216744423 0 56409151.216744423 -74155154.042439878 0 0 0 0 23746664.954793483 -7853255.301828146 0 -7853255.301828146 -7157294.4137143642 0 0 0 0 -119255635.48045349 250886361.8416748 0 250886361.8416748 -348636350.31425762 0 0 0 0 -149391253.61434937 232467496.57788086 0 232467496.57788086 -342459981.08875656 0 0 0 0 -121413042.47753906 275732501.46521378 0 275732501.46521378 -329024306.99131298 0 0 0 0 -65548010.269683838 155403057.99497414 0 155403057.99497414 -312783601.42741537 0 0 0 0 29732096.463805929 -2783935.8967979904 0 -2783935.8967979904 -7414965.8604044151 0 0 0 0 -10298452.929519653 20719787.353705943 0 20719787.353705943 -4299189.2187434435 0 0 0 0 -2259722.1329040527 2930887.0587281585 0 2930887.0587281585 15759286.464439392 0 0 0 0 -5139070.8233337402 2869383.8385286331 0 2869383.8385286331 17997420.745825887 0 0 0 0 -1448737.2562255859 2375673.7574403286 0 2375673.7574403286 12526446.280586481 0 0 0 0 -6611507.1564102173 -2450044.1731120646 0 -2450044.1731120646 15388632.232243061 0 0 0 0 8454900.6941833496 -463668.2500295639 0 -463668.2500295639 12661541.467391729 0 0 0 0 26749086.042358398 -10391214.132476807 0 -10391214.132476807 7336505.8799800873 0 0 0 0 2877047.0281982422 -4339378.3724143505 0 -4339378.3724143505 15002744.398043633 0 0 0 0 6798160.7623901367 -13013922.676015139 0 -13013922.676015139 10072379.181401491 0 0 0 0 3504644.1721878052 -12024255.74452351 0 -12024255.74452351 10050368.94878006 0 0 0 0 68047743.87322998 167914723.96530914 0 167914723.96530914 -673840134.62075424 0 0 0 0 15016009.695709229 -17699421.883298397 0 -17699421.883298397 7688615.432518959 0 0 0 0 3590834.0037841797 -18557182.24208498 0 -18557182.24208498 7936412.3365556002 0 0 0 0 14292948.394045249 -12093735.43630768 0 -12093735.43630768 -7397737.8032845389 0 0 0 0 17079475.265197754 -23602073.408701897 0 -23602073.408701897 8767256.6433813572 0 0 0 0 16830505.377319336 -23826901.401320934 0 -23826901.401320934 8641293.9119589329 0 0 0 0 1734651.0177447647 -2014627.2044541445 0 -2014627.2044541445 1601218.5199056864 0 0 0 0 82708605.900756836 245669052.46440125 0 245669052.46440125 -659694916.45967865 0 0 0 0 22950492.026977539 -9555085.0586557388 0 -9555085.0586557388 7855590.569103241 0 0 0 0 8084285.849609375 -10329992.251440048 0 -10329992.251440048 7943535.4034948349 0 0 0 0 15697697.616455078 -18535164.907162428 0 -18535164.907162428 7822129.7912406921 0 0 0 0 18069126.201049805 -20210342.679822922 0 -20210342.679822922 7929296.7059335709 0 0 0 0 11032882.279785156 -20437498.979069948 0 -20437498.979069948 8197103.8925454617 0 0 0 0 13460735.07043457 -22599116.497083664 0 -22599116.497083664 8724103.6934452057 0 0 0 0 12896754.632202148 -23890424.249884963 0 -23890424.249884963 8036842.953660965 0 0 0 0 11606544.607788086 -24207172.286923885 0 -24207172.286923885 9245293.3152894676 0 0 0 0 12723891.052734375 -23044364.925963402 0 -23044364.925963402 7473219.4507434368 0 0 0 0 13427946.29296875 -25087918.248474598 0 -25087918.248474598 9178641.1489841342 0 0 0 0 15227354.214477539 -25208420.230892777 0 -25208420.230892777 8806410.2001676559 0 0 0 0 12286206.537597656 -23722763.33470583 0 -23722763.33470583 8559362.0407838821 0 0 0 0 15033907.223236084 -24427710.846504092 0 -24427710.846504092 8631152.234919548 0 0 0 0 113118595.87963867 219464196.974823 0 219464196.974823 -645216168.7486186 0 0 0 0 113517606.82946777 238201625.52497864 0 238201625.52497864 -623299876.73831177 0 0 0 0 99673490.798461914 209976305.75814819 0 209976305.75814819 -576859435.48410034 0 0 0 0 95726430.16998291 209080057.99475098 0 209080057.99475098 -593201149.15466309 0 0 0 0 102534901.26904297 201945830.05143738 0 201945830.05143738 -630769930.95455551 0 0 0 0 63654572.286499023 161827858.57113647 0 161827858.57113647 -646162063.22130847 0 0 0 0 46433744.547851562 171697880.38285828 0 171697880.38285828 -605587638.04100037 0 0 0 0 -21530408.386169434 112645022.16616821 0 112645022.16616821 -647715036.84403229 0 0 0 0 -66780705.244995117 99318561.700836182 0 99318561.700836182 -616330319.01174927 0 0 0 0 28307742.703491211 -15503227.391360641 0 -15503227.391360641 8116672.862197876 0 0 0 0 21577396.365356445 -21664799.07002449 0 -21664799.07002449 8804114.6898241043 0 0 0 0 45402626.54675293 -61460650.490741253 0 -61460650.490741253 46471306.443092108 0 0 0 0 -118552036.41033936 30365317.909072876 0 30365317.909072876 -441386808.84262085 0 0 0 0 -38093878.964294434 6144862.3693382442 0 6144862.3693382442 61775845.827227592 0 0 0 0 -47038885.330749512 -25536653.923364639 0 -25536653.923364639 123308164.27818727 0 0 0 0 -147454616.16003418 244748079.40830994 0 244748079.40830994 -527937511.80895996 0 0 0 0 -205873088.55493164 147670145.83592987 0 147670145.83592987 -459038379.47601318 0 0 0 0 19822067.01739502 -23294061.09637332 0 -23294061.09637332 8708856.6602079868 0 0 0 0 28743567.212402344 -21083672.66590786 0 -21083672.66590786 9114836.4584717751 0 0 0 0 15372158.906585693 -24979817.087452769 0 -24979817.087452769 9061365.1603226662 0 0 0 0 -39372482.65234375 278518716.37915039 0 278518716.37915039 -574382841.24185181 0 0 0 0 102983374.22397566 208835832.23983604 0 208835832.23983604 -569494315.26873779 0 0 0 0 103247712.96466064 238930813.02178192 0 238930813.02178192 -612122487.75808716 0 0 0 0 30182138.102844238 201683108.10450745 0 201683108.10450745 -548358080.90403748 0 0 0 0 107296525.25079346 214583948.94941711 0 214583948.94941711 -581811639.31782532 0 0 0 0 22751531.498657227 266271545.50337219 0 266271545.50337219 -591870654.26861191 0 0 0 0 1015713.8800201416 187328369.08258247 0 187328369.08258247 -509642842.49978638 0 0 0 0 -7602966.4907226562 94250259.183135986 0 94250259.183135986 -464380419.25558472 0 0 0 0 -57251744.244140625 162913331.09112549 0 162913331.09112549 -507541620.2822876 0 0 0 0 89143902.821960449 119910703.68937683 0 119910703.68937683 -506717840.03964686 0 0 0 0 43311686.618499756 81747870.825199127 0 81747870.825199127 -504728701.88618469 0 0 0 0 128996648.1338501 18307152.905036926 0 18307152.905036926 -483388609.22880173 0 0 0 0 76697173.115661621 -38631247.450927734 0 -38631247.450927734 -450928997.42250061 0 0 0 0 -49175921.37121582 55428573.969650269 0 55428573.969650269 -485739907.69407845 0 0 0 0 231692481.06393433 56075123.172374725 0 56075123.172374725 -510978907.0831604 0 0 0 0 205971619.07806396 57412900.763439178 0 57412900.763439178 -498638819.55911255 0 0 0 0 181503467.59521484 42141913.891075134 0 42141913.891075134 -496228824.75838089 0 0 0 0 108547174.19329834 142204008.19749069 0 142204008.19749069 -528324831.53411865 0 0 0 0 240984601.89666748 95681086.181358337 0 95681086.181358337 -512161441.57215118 0 0 0 0 166366593.58529663 181315705.65748215 0 181315705.65748215 -491544280.00268555 0 0 0 0 109523774.06536865 211941076.20290375 0 211941076.20290375 -568054453.23021698 0 0 0 0 127429093.04681396 152603294.15988922 0 152603294.15988922 -524397615.48363495 0 0 0 0 109877761.71496582 185265309.15473175 0 185265309.15473175 -527196505.0199585 0 0 0 0 121005120.37446594 215610436.12334824 0 215610436.12334824 -575742961.41229248 0 0 0 0 138582365.69172668 223424028.32819176 0 223424028.32819176 -507447415.22827148 0 0 0 0 163232650.45526123 167059336.14021301 0 167059336.14021301 -531223127.72014141 0 0 0 0 196500379.72979736 269172436.97911263 0 269172436.97911263 -428534342.27809143 0 0 0 0 270158507.29641724 148635172.59485626 0 148635172.59485626 -485212552.6628418 0 0 0 0 386842524.25796509 50263646.864509583 0 50263646.864509583 -503894164.06062317 0 0 0 0 254007344.22686768 139033210.23078537 0 139033210.23078537 -472677575.99054718 0 0 0 0 -167440177.12966919 172106820.96083069 0 172106820.96083069 -430901257.4067688 0 0 0 0 -26154118.86315918 204605907.57975769 0 204605907.57975769 -458403705.73786926 0 0 0 0 -82995869.86932373 188027621.06495667 0 188027621.06495667 -417644175.10567093 0 0 0 0 -104683991.48754883 241485788.13603973 0 241485788.13603973 -354293622.61161613 0 0 0 0 -120995993.2612915 105050207.21611023 0 105050207.21611023 -541725175.27526855 0 0 0 0 -86756669.222717285 150875678.8518219 0 150875678.8518219 -486392768.98327637 0 0 0 0 -20288140.731872559 161380301.6138916 0 161380301.6138916 -540093668.52209473 0 0 0 0 -3764728.999786377 138632044.60242462 0 138632044.60242462 -582085283.81402588 0 0 0 0 44022287.7290802 166383793.10649872 0 166383793.10649872 -577649412.52268982 0 0 0 0 33958902.30090332 188198982.29542542 0 188198982.29542542 -523586927.5802002 0 0 0 0 84366217.622009277 188964846.76159668 0 188964846.76159668 -529220310.90090179 0 0 0 0 88310041.747070312 205272838.93156433 0 205272838.93156433 -547449276.87776947 0 0 0 0 13802967.90612793 195624182.688591 0 195624182.688591 -477688830.07249451 0 0 0 0 79777253.371948242 223293953.72549438 0 223293953.72549438 -469569926.88766098 0 0 0 0 -6300270.1333770752 166802498.76865768 0 166802498.76865768 -518796980.32788086 0 0 0 0 -26098424.864318848 243522265.10798264 0 243522265.10798264 -390999483.07913208 0 0 0 0 154599601.67211914 227006304.11200714 0 227006304.11200714 -453877716.62725067 0 0 0 0 69240616.188964844 209079667.98265076 0 209079667.98265076 -457640228.21216583 0 0 0 0 46121948.928466797 271748821.4228096 0 271748821.4228096 -397908893.69667816 0 0 0 0 50346721.784317017 280896828.61735344 0 280896828.61735344 -378447466.61632538 0 0 0 0 -42943974.232543945 287999482.93275833 0 287999482.93275833 -342618846.34616089 0 0 0 0 -121175281.2164917 277834320.31120682 0 277834320.31120682 -312901441.63573074 0 0 0 0 -37598134.575378418 231281187.03256989 0 231281187.03256989 -397203148.24612045 0 0 0 0 -60045614.510925293 281743958.46029663 0 281743958.46029663 -345119442.770504 0 0 0 0 -183022446.33679199 341092596.99991226 0 341092596.99991226 -250779850.9912796 0 0 0 0 -53524009.64906311 337207537.62384892 0 337207537.62384892 -260851382.41908264 0 0 0 0 52568923.526855469 346051176.85535812 0 346051176.85535812 -331229039.36128998 0 0 0 0 162929443.18432617 280927830.13274384 0 280927830.13274384 -397187673.53321838 0 0 0 0 85717196.482055664 338266363.19950485 0 338266363.19950485 -329611099.44349098 0 0 0 0 138715520.81411743 375065011.00313759 0 375065011.00313759 -366180437.77629852 0 0 0 0 399613044.00445557 365848966.35497856 0 365848966.35497856 -382299635.08291054 0 0 0 0 -26919907.987640381 447950042.84447193 0 447950042.84447193 -245917439.23593521 0 0 0 0 -91572674.958251953 438652148.61915588 0 438652148.61915588 -245092231.99799657 0 0 0 0 403883924.76383209 2775557.0009746552 0 2775557.0009746552 -449687178.72775269 0 0 0 0 501247604.2207489 165377777.1849823 0 165377777.1849823 -475521996.06273651 0 0 0 0 351731114.86218262 289085541.1515274 0 289085541.1515274 -416294716.16754913 0 0 0 0 303006553.50100708 216726180.17384529 0 216726180.17384529 -397985778.9052887 0 0 0 0 146120735.20838928 252597858.13105965 0 252597858.13105965 -406141895.58049011 0 0 0 0 594126575.58984375 230811763.16962051 0 230811763.16962051 -428025385.37351036 0 0 0 0 354977642.76486206 303888700.64466 0 303888700.64466 -386781161.38454437 0 0 0 0 519708968.51189423 123236970.29517746 0 123236970.29517746 -357235805.75186539 0 0 0 0 1141398228.5602112 46566371.768571854 0 46566371.768571854 -442002872.05830383 0 0 0 0 727185260.50586891 -17338231.682212472 0 -17338231.682212472 -325657318.74850845 0 0 0 0 773030137.16784668 145784872.43870544 0 145784872.43870544 -379438211.48557091 0 0 0 0 687456712.91751671 304550813.21039772 0 304550813.21039772 -478052942.43932724 0 0 0 0 796029929.15197754 168810388.3557272 0 168810388.3557272 -356642398.50471783 0 0 0 0 -52807391.09173584 540196845.41162586 0 540196845.41162586 -329318946.56611657 0 0 0 0 -53476560.178424835 541912685.80644178 0 541912685.80644178 -317094829.13006973 0 0 0 0 137705411.96388245 557381829.8933773 0 557381829.8933773 -334824230.24100876 0 0 0 0 129982294.2565918 486070690.11267829 0 486070690.11267829 -497688932.40737057 0 0 0 0 588059627.12423325 641912488.01197505 0 641912488.01197505 -610036260.26262665 0 0 0 0 -538854294.07342529 765516404.78386593 0 765516404.78386593 -413801900.01262856 0 0 0 0 -425514275.90335083 530655309.41204262 0 530655309.41204262 -861228447.97184336 0 0 0 0 -370673705.99981689 245157881.17845249 0 245157881.17845249 -19738931.779262543 0 0 0 0 -749044222.83033752 579953865.75045681 0 579953865.75045681 -74580112.407100677 0 0 0 0 -239017375.66871643 582101370.63780785 0 582101370.63780785 -273717223.63080788 0 0 0 0 -208636633.59704208 167557815.706689 0 167557815.706689 -102871250.92842102 0 0 0 0 -460847186.45724487 398929289.36301327 0 398929289.36301327 -125612947.33340454 0 0 0 0 -196147891.86840248 276524039.7098031 0 276524039.7098031 -224486794.89102936 0 0 0 0 -183472856.64349365 332888891.10057068 0 332888891.10057068 -112348362.99727249 0 0 0 0 -73983699.17300415 129877332.01056385 0 129877332.01056385 -231610642.52894306 0 0 0 0 -381243355.63537598 206653960.40614128 0 206653960.40614128 -99595089.535309792 0 0 0 0 -184201590.36846924 -48089004.150235176 0 -48089004.150235176 197887730.20593643 0 0 0 0 -521336520.73153687 202967363.87277603 0 202967363.87277603 461588301.49254322 0 0 0 0 -1832428.3590346724 -1550146.5811277358 0 -1550146.5811277358 300055.6174225646 0 0 0 0 311325568.24145508 -62034307.752069741 0 -62034307.752069741 -2517238843.1755385 0 0 0 0 -222193241.18176675 -474661417.97001475 0 -474661417.97001475 -1434624334.798897 0 0 0 0 57781352.938949585 -576253064.43035793 0 -576253064.43035793 -916654951.24832606 0 0 0 0 -9428078.6075897217 496024069.20084906 0 496024069.20084906 -530401655.17858887 0 0 0 0 -673752224.04031372 930782707.57613897 0 930782707.57613897 -1085323403.7137618 0 0 0 0 -1536874161.8942871 111559375.56541587 0 111559375.56541587 -821974853.34573853 0 0 0 0 -1528707697.7139282 155349638.13303813 0 155349638.13303813 -1046384738.9957571 0 0 0 0 708040.68916626275 -2095610.5369351879 0 -2095610.5369351879 -1762362.6388181453 0 0 0 0 -1937504807.3381958 -304321324.71539474 0 -304321324.71539474 89122240.897227287 0 0 0 0 -322886699.09854126 -231828273.18726254 0 -231828273.18726254 -1677363896.7046628 0 0 0 0 -972455895.28973389 271714019.56992674 0 271714019.56992674 321754464.35723209 0 0 0 0 -1810135980.901041 962000227.09535933 0 962000227.09535933 -175590442.18783569 0 0 0 0 -827010185.79629517 290612661.37219 0 290612661.37219 -10916984.397838473 0 0 0 0 -1190907691.7063599 88627888.304239273 0 88627888.304239273 574239708.08038998 0 0 0 0 -364926326.8789978 -206987887.27753496 0 -206987887.27753496 347811487.00352859 0 0 0 0 -471474469.06324768 4242477.9723887444 0 4242477.9723887444 -7220802.8722405434 0 0 0 0 -140328770.51629877 -255723659.79913133 0 -255723659.79913133 214609269.222785 0 0 0 0 1465981.0862086192 -5686904.269949507 0 -5686904.269949507 -2842197.953499537 0 0 0 0 -885469596.2276001 -247249717.38215256 0 -247249717.38215256 19936961.199445009 0 0 0 0 3520791.0306592658 -9921150.854205288 0 -9921150.854205288 7609545.6574128447 0 0 0 0 4637620266.7821045 -2971680030.2359772 0 -2971680030.2359772 538799990.89170456 0 0 0 0 -885818554.92709351 -96007184.48622179 0 -96007184.48622179 370940233.64180279 0 0 0 0 -455293742.09133911 -351897618.56044388 0 -351897618.56044388 482195378.25447273 0 0 0 0 756020.7116355747 -4369105.6667913198 0 -4369105.6667913198 4693061.6889886046 0 0 0 0 16266461.152130127 -191410747.75841713 0 -191410747.75841713 -478706089.95819473 0 0 0 0 -2980421501.2914505 947926361.96353531 0 947926361.96353531 -1079033700.7571106 0 0 0 0 2491802.4675322548 -4314244.5056930743 0 -4314244.5056930743 6588416.4078896819 0 0 0 0 4178468881.0618286 381916126.9522686 0 381916126.9522686 -1379579550.0360508 0 0 0 0 4191118790.2992249 -1414543768.7178974 0 -1414543768.7178974 -154281274.43426132 0 0 0 0 3340201144.1302185 -883930044.8071537 0 -883930044.8071537 49464242.18497467 0 0 0 0 2022471933.8050385 -2037835756.9880848 0 -2037835756.9880848 1855042011.6386414 0 0 0 0 1785036887.5715332 -316940588.56573772 0 -316940588.56573772 12092859.90971756 0 0 0 0 2001356229.7906189 -1078503217.9641809 0 -1078503217.9641809 -120626745.32548046 0 0 0 0 2007459677.2879224 -391502137.06739509 0 -391502137.06739509 -468167992.83332443 0 0 0 0 846806191.61045837 -1175078241.0025969 0 -1175078241.0025969 240190668.73510265 0 0 0 0 880328492.09918213 -1253532067.0015655 0 -1253532067.0015655 -550537675.16162014 0 0 0 0 842578616.59239197 -1347238550.8663843 0 -1347238550.8663843 640516229.62110519 0 0 0 0 1557940141.2867584 -1042335753.7996688 0 -1042335753.7996688 -63401882.678771973 0 0 0 0 675687865.75222778 -818774571.15191555 0 -818774571.15191555 97172592.540164948 0 0 0 0 -184907167.40493774 -125933538.21477222 0 -125933538.21477222 373585823.55605745 0 0 0 0 148943062.18241882 -708023617.18529296 0 -708023617.18529296 957029726.93143654 0 0 0 0 702026432.00738525 -589397072.15044403 0 -589397072.15044403 658318703.99217749 0 0 0 0 2855303052.1075592 -2177273938.1197281 0 -2177273938.1197281 924635015.14436817 0 0 0 0 872523680.43092346 -1245380448.4948826 0 -1245380448.4948826 2828542884.2154613 0 0 0 0 3886983194.2658997 -961092565.47005463 0 -961092565.47005463 -667277375.88482475 0 0 0 0 3811012731.9736633 -228763372.64693153 0 -228763372.64693153 33544266.383820772 0 0 0 0 1624936104.8300018 699380916.97658587 0 699380916.97658587 1761896172.1233644 0 0 0 0 -406442394.8793335 -376012473.0750947 0 -376012473.0750947 1144365799.2733178 0 0 0 0 764741173.33229065 -328774311.05274653 0 -328774311.05274653 588738216.97522497 0 0 0 0 -274396538.77120972 -433382610.16722822 0 -433382610.16722822 -67673339.242788553 0 0 0 0 421590329.16064453 181846157.06033182 0 181846157.06033182 445112250.35734081 0 0 0 0 51924078.005432129 499042683.68311644 0 499042683.68311644 -324573113.61090547 0 0 0 0 629498373.00450897 -79820145.54943651 0 -79820145.54943651 -557604568.33323455 0 0 0 0 1616523283.7627563 619152364.11610031 0 619152364.11610031 -81533092.225690126 0 0 0 0 965536712.21240234 571901220.3508513 0 571901220.3508513 -749516538.34982657 0 0 0 0 132083393.34350586 454677119.68842387 0 454677119.68842387 -995598071.04891896 0 0 0 0 1516442315.4801178 -208636244.71336794 0 -208636244.71336794 -345394252.80513668 0 0 0 0 1837495172.4158382 -622462420.37130225 0 -622462420.37130225 -41966719.922654152 0 0 0 0 1306440964.9520416 -278834801.97025764 0 -278834801.97025764 -331439031.32635212 0 0 0 0 1889185370.3577576 -986589781.17157793 0 -986589781.17157793 65706191.052700043 0 0 0 0 1475543235.539032 -1118435381.8936334 0 -1118435381.8936334 579139110.80870354 0 0 0 0 1371021472.0791321 -881979312.9716177 0 -881979312.9716177 374158336.45370197 0 0 0 0 552679835.9657135 -623202519.13768864 0 -623202519.13768864 769890800.59513676 0 0 0 0 -726679252.53710175 -374854678.83892441 0 -374854678.83892441 -130177805.26756096 0 0 0 0 7703611.3828644529 -1866350.0258960649 0 -1866350.0258960649 -2809090.8591192495 0 0 0 0 1502879824.2181854 -1614760572.6052337 0 -1614760572.6052337 1730033495.6049643 0 0 0 0 2013601970.0791702 870050813.11687875 0 870050813.11687875 358697200.68738747 0 0 0 0 5830124.4988888055 -5620042.4258233774 0 -5620042.4258233774 -306332.56937594875 0 0 0 0 13777425.562596761 -7934932.4355379902 0 -7934932.4355379902 -5702649.5871117767 0 0 0 0 8607772.3712158203 -7785576.3986145258 0 -7785576.3986145258 -10547698.00352478 0 0 0 0 -7070443.8717041016 -9867430.7712424994 0 -9867430.7712424994 12299795.812366128 0 0 0 0 -870731.65648877621 -160930.01756309718 0 -160930.01756309718 -1429018.1879246349 0 0 0 0 1764247460.2029943 217533032.88759714 0 217533032.88759714 25592754.986840248 0 0 0 0 12800108.088970184 -11626866.167536296 0 -11626866.167536296 -22080319.904278278 0 0 0 0 18111968.407219321 -12268211.088980483 0 -12268211.088980483 -5221542.3959829528 0 0 0 0 12572023.332275391 -6802127.6243169308 0 -6802127.6243169308 -11375202.080518723 0 0 0 0 8123038.5613098145 -203635147.16908932 0 -203635147.16908932 -157012767.33286119 0 0 0 0 11149304.061813354 -9234127.3887776136 0 -9234127.3887776136 -13770356.391654968 0 0 0 0 10688607.513616651 -14203173.846115895 0 -14203173.846115895 -766171.49603936519 0 0 0 0 135255144.7396698 -42547413.909239769 0 -42547413.909239769 -367782511.60187721 0 0 0 0 29644296.110549927 -218022968.65314484 0 -218022968.65314484 -597283368.7681818 0 0 0 0 817786353.00253296 -302611438.02875417 0 -302611438.02875417 -592372806.09101808 0 0 0 0 370146785.60150909 131636701.54679778 0 131636701.54679778 -435035046.45723903 0 0 0 0 11591529.873764038 -779141554.28162622 0 -779141554.28162622 -360683103.37974644 0 0 0 0 1282758934.7441406 -845708606.49349165 0 -845708606.49349165 -360854198.88607275 0 0 0 0 1647182874.1768227 430779989.63966447 0 430779989.63966447 -367506229.00218594 0 0 0 0 1932096073.2744751 -1660585901.5807238 0 -1660585901.5807238 1508598822.3812008 0 0 0 0 4956393554.981163 675199709.27538359 0 675199709.27538359 -218964784.86322403 0 0 0 0 359433.23363481462 -1942430.8078041375 0 -1942430.8078041375 5792366.9398961551 0 0 0 0 4433105946.6406097 -1116941783.0997834 0 -1116941783.0997834 -37034336.830423355 0 0 0 0 2365122669.0863647 556268518.57987309 0 556268518.57987309 250545356.03754807 0 0 0 0 1962243050.4664001 -794712001.32507086 0 -794712001.32507086 272974979.31052589 0 0 0 0 2965898647.8273926 -465884219.82224274 0 -465884219.82224274 -295224053.27886295 0 0 0 0 -1043840029.224556 -333899471.62723017 0 -333899471.62723017 519394568.46349907 0 0 0 0 -672501322.21922302 -337719920.00676537 0 -337719920.00676537 -164505428.34677505 0 0 0 0 3298558.0086119808 1480409.242006138 0 1480409.242006138 -1712614.6309589213 0 0 0 0 -2761232817.0794983 -1055597002.570158 0 -1055597002.570158 1490433979.0898886 0 0 0 0 273215350.47802734 -1188833981.0847263 0 -1188833981.0847263 637313946.02764702 0 0 0 0 2142766649.9659538 -1543528969.3313107 0 -1543528969.3313107 230132394.88093376 0 0 0 0 978048826.98901367 -462643153.11173725 0 -462643153.11173725 22328255.36583519 0 0 0 0 1614978698.1734543 -636702833.46222878 0 -636702833.46222878 -214170207.72869205 0 0 0 0 608688991.14938354 -254869919.40708923 0 -254869919.40708923 -274737565.3226738 0 0 0 0 871058474.23294067 -167257762.75913811 0 -167257762.75913811 -251805825.59007263 0 0 0 0 539364728.69290161 -119259741.43679237 0 -119259741.43679237 -438856586.70094299 0 0 0 0 741670112.12361145 44856463.954198837 0 44856463.954198837 -469871616.61465073 0 0 0 0 -462106187.91140747 -735398698.59205055 0 -735398698.59205055 368156346.4617157 0 0 0 0 1073283174.0211258 -742146250.9878087 0 -742146250.9878087 -150814960.32569122 0 0 0 0 300010753.5319519 -467490070.07577133 0 -467490070.07577133 -239000229.96154976 0 0 0 0 605368528.759758 -262898965.17916489 0 -262898965.17916489 -518380248.24562836 0 0 0 0 363885858.90237427 -540030186.12340736 0 -540030186.12340736 -359880733.89813614 0 0 0 0 -112534125.3039856 -470001919.77170753 0 -470001919.77170753 -352931028.90035248 0 0 0 0 -311148530.16149902 -250163044.64536858 0 -250163044.64536858 -509212429.97576141 0 0 0 0 254626392.0193634 -261730264.04088497 0 -261730264.04088497 -507811422.48426056 0 0 0 0 293758655.4418335 -388534045.55677795 0 -388534045.55677795 -612903033.83094025 0 0 0 0 -17486127.656860352 -421400430.16664886 0 -421400430.16664886 -494860090.11234283 0 0 0 0 132423051.58422852 -280357579.90197754 0 -280357579.90197754 -469444808.66901398 0 0 0 0 136523497.54998779 -347237176.09801483 0 -347237176.09801483 -464635286.22411346 0 0 0 0 2379817.5601654053 -481836111.87256145 0 -481836111.87256145 -655204559.43782043 0 0 0 0 -366276721.64642334 -570307888.56084061 0 -570307888.56084061 -401735002.0123024 0 0 0 0 348309210.82250977 37994346.20318222 0 37994346.20318222 -467120455.11314392 0 0 0 0 491808345.17817688 -109378175.0324192 0 -109378175.0324192 -529859747.14196777 0 0 0 0 459553758.92376709 -307248411.88629913 0 -307248411.88629913 -530191682.51685524 0 0 0 0 366008469.45983887 -162933982.44426346 0 -162933982.44426346 -446527075.18719196 0 0 0 0 324883780.43391418 -155780962.19292164 0 -155780962.19292164 -518558508.71891785 0 0 0 0 280676615.63220215 -292539342.51977158 0 -292539342.51977158 -542854109.0283165 0 0 0 0 259213593.19812012 -101818387.17459869 0 -101818387.17459869 -528324373.74495602 0 0 0 0 284166478.36104584 -79428060.144259453 0 -79428060.144259453 -511737035.86183167 0 0 0 0 7887217.7792124301 -21425272.500705287 0 -21425272.500705287 -4642938.3980722968 0 0 0 0 53174403.174438477 -83056501.202133179 0 -83056501.202133179 -391434733.02571297 0 0 0 0 -2871104.7584228516 -30509.006177425385 0 -30509.006177425385 -11358953.242476106 0 0 0 0 55802864.219787598 -70622592.310714722 0 -70622592.310714722 -390024651.28134632 0 0 0 0 129403576.20498657 -85767543.868434906 0 -85767543.868434906 -462836270.83544922 0 0 0 0 89961153.494018555 -39248480.476623535 0 -39248480.476623535 -483913515.34004211 0 0 0 0 122041159.43985367 -53041509.726175308 0 -53041509.726175308 -478858127.49996948 0 0 0 0 163947935.09533691 -56600235.157081604 0 -56600235.157081604 -515744097.52266693 0 0 0 0 214542784.35070801 -114592569.58411789 0 -114592569.58411789 -496688148.66242981 0 0 0 0 107759322.84313965 -86720581.443054199 0 -86720581.443054199 -461590214.55355072 0 0 0 0 126700531.22644043 -99728040.561592102 0 -99728040.561592102 -493813919.43681335 0 0 0 0 102933210.16674805 -99462457.870910645 0 -99462457.870910645 -444738931.56490326 0 0 0 0 130313052.51535034 -149023333.9779377 0 -149023333.9779377 -429754176.84036255 0 0 0 0 81830775.309692383 -140294741.29606628 0 -140294741.29606628 -431202379.64542389 0 0 0 0 138405752.47595215 -123035107.77836609 0 -123035107.77836609 -456640104.32917786 0 0 0 0 176628937.15319824 -159200453.03666687 0 -159200453.03666687 -515546140.93186569 0 0 0 0 157517404.58746338 -167575043.83866119 0 -167575043.83866119 -467425436.38856506 0 0 0 0 145086544.56510925 -238667673.15561199 0 -238667673.15561199 -434986194.98435974 0 0 0 0 64157786.346984863 -133967523.49015808 0 -133967523.49015808 -343986725.98602295 0 0 0 0 62207946.882904053 -165664230.04573441 0 -165664230.04573441 -344848384.53588867 0 0 0 0 83542191.150268555 -154632172.32518005 0 -154632172.32518005 -389305171.97610474 0 0 0 0 62965446.348205566 -119091429.97761536 0 -119091429.97761536 -378195412.16015625 0 0 0 0 79484599.351257324 -108189835.38370132 0 -108189835.38370132 -419443235.64503479 0 0 0 0 113491443.44903564 -118131881.15770721 0 -118131881.15770721 -418574544.79820251 0 0 0 0 11537898.694702148 -41559037.975959778 0 -41559037.975959778 -403634764.86378479 0 0 0 0 -28776457.92086792 -32725016.359287262 0 -32725016.359287262 -85745204.372108459 0 0 0 0 -179484061.2783165 -21657985.461425304 0 -21657985.461425304 16838398.056838989 0 0 0 0 -33327250.865127563 -160084024.87537766 0 -160084024.87537766 -162113828.22848511 0 0 0 0 -139065626.8449707 -232688964.29445648 0 -232688964.29445648 -211329032.40686798 0 0 0 0 -71876468.415344238 -303948042.70776367 0 -303948042.70776367 -160759878.85155487 0 0 0 0 -50087329.606201172 -354892519.43214417 0 -354892519.43214417 -385109383.05137634 0 0 0 0 50339166.106140137 -227449640.7984848 0 -227449640.7984848 -382612044.09495544 0 0 0 0 48884741.244384766 -247035605.99645233 0 -247035605.99645233 -286220563.01651764 0 0 0 0 -20773741.215484619 -222441046.85052204 0 -222441046.85052204 -287443244.42102051 0 0 0 0 19001527.330566406 -152924953.77615356 0 -152924953.77615356 -236385147.82250977 0 0 0 0 17681971.256835938 -23648275.707870483 0 -23648275.707870483 -305471491.533638 0 0 0 0 9305531.7711181641 -137870038.7321167 0 -137870038.7321167 -246707765.9758606 0 0 0 0 21286046.361572266 -151528799.00448608 0 -151528799.00448608 -349727847.57698059 0 0 0 0 18979745.518798828 -165945818.96167755 0 -165945818.96167755 -293634937.06439209 0 0 0 0 32842497.393310547 -105096014.02140808 0 -105096014.02140808 -354881815.80503845 0 0 0 0 10011536.998657227 -92573791.229797363 0 -92573791.229797363 -287910481.5464859 0 0 0 0 711046.00326538086 -125208410.60876465 0 -125208410.60876465 -175918636.83361816 0 0 0 0 6515626.8604736328 -10017675.812767029 0 -10017675.812767029 -224313172.08861923 0 0 0 0 4700643.5352172852 7549517.7565765381 0 7549517.7565765381 -82633519.955627441 0 0 0 0 9112454.1252441406 -102665501.4224205 0 -102665501.4224205 -179731670.24237061 0 0 0 0 -34833411.733215332 -103414846.73999023 0 -103414846.73999023 -31429237.23223877 0 0 0 0 31250234.654693604 -95618397.217903137 0 -95618397.217903137 -186540346.05522156 0 0 0 0 -963647.4197948426 -11301080.594914943 0 -11301080.594914943 15396169.73187371 0 0 0 0 1794201953.3127747 62522324.316657066 0 62522324.316657066 -276198748.91122627 0 0 0 0 3628334.2849954441 -7247866.7294377685 0 -7247866.7294377685 6301181.652605339 0 0 0 0 795539862.95913696 -111756338.6406672 0 -111756338.6406672 257843938.94626307 0 0 0 0 969376213.65834045 -296099785.10201287 0 -296099785.10201287 -9521022.2545456886 0 0 0 0 1842514080.6965084 -694979032.560202 0 -694979032.560202 -98090632.950312614 0 0 0 0 1223369295.5209045 -252435697.96447277 0 -252435697.96447277 -231756822.90289688 0 0 0 0 798691.35407264531 -373226.66489579529 0 -373226.66489579529 363299.08859896543 0 0 0 0 1745533503.7347412 -229594565.34537935 0 -229594565.34537935 -332702972.17127252 0 0 0 0 1790963937.4590607 -390614777.58843231 0 -390614777.58843231 -273533723.93186188 0 0 0 0 1414619299.5750198 91809708.7414608 0 91809708.7414608 55418329.020055771 0 0 0 0 2109269515.6645508 -254275300.61269379 0 -254275300.61269379 -335419221.12321925 0 0 0 0 2008029.8247309923 -7821003.380832471 0 -7821003.380832471 14902562.438675592 0 0 0 0 1360620554.7915344 -84573375.446232796 0 -84573375.446232796 100916289.64574718 0 0 0 0 -491933604.05223083 -508636103.03562927 0 -508636103.03562927 -449332996.91396332 0 0 0 0 -503277724.43942261 -661724175.82857513 0 -661724175.82857513 -131673978.84456015 0 0 0 0 -685568523.01992798 -271498737.89106369 0 -271498737.89106369 66119522.092711449 0 0 0 0 -44474.370414681733 -2735337.6583496556 0 -2735337.6583496556 1741274.8909707665 0 0 0 0 7893786.1413726807 -8695000.7863969803 0 -8695000.7863969803 4146804.5157032013 0 0 0 0 6738490.5008850098 -12875609.427820206 0 -12875609.427820206 95227.562747955322 0 0 0 0 6911226.6328735352 -7556618.9947328568 0 -7556618.9947328568 3924390.6584701538 0 0 0 0 7005148.6329650879 -6779651.3470299244 0 -6779651.3470299244 9329108.0082302094 0 0 0 0 7836044.1381225586 -16236052.98679924 0 -16236052.98679924 16218898.469259262 0 0 0 0 8708707.0049438477 -11769472.440527916 0 -11769472.440527916 -2486742.9704608917 0 0 0 0 9292448.9160766602 -7386067.8461313248 0 -7386067.8461313248 7948115.5680608749 0 0 0 0 1810541045.5157981 -392405348.22820461 0 -392405348.22820461 281178588.3011961 0 0 0 0 6894994.1927315593 -6443937.057971023 0 -6443937.057971023 5644941.8765529338 0 0 0 0 1439777426.6929588 -824489485.42663968 0 -824489485.42663968 138656147.61959952 0 0 0 0 1245727605.6990662 116652787.78344722 0 116652787.78344722 22863784.865562424 0 0 0 0 2251024.5840326995 -108124.77824524045 0 -108124.77824524045 671484.302340672 0 0 0 0 1795587810.7199645 -933595084.39019489 0 -933595084.39019489 436029587.60342097 0 0 0 0 1627845.0564785153 -1962852.7305187061 0 -1962852.7305187061 271010.67812516616 0 0 0 0 1145382117.3366394 -474381465.16703355 0 -474381465.16703355 112740403.66853642 0 0 0 0 879020762.4239502 -931632556.21229362 0 -931632556.21229362 517296135.81810653 0 0 0 0 4102654.2182693481 -6715816.0329973698 0 -6715816.0329973698 502988.78631782532 0 0 0 0 10824478.226715088 -4925036.1761260033 0 -4925036.1761260033 -1566461.953294754 0 0 0 0 6698106.6549287736 -7817168.9830716066 0 -7817168.9830716066 2866877.8797284346 0 0 0 0 11100962.577423096 -3179617.7938261032 0 -3179617.7938261032 2458763.4712638855 0 0 0 0 33381209.816650391 11149791.984083176 0 11149791.984083176 -4955657.2969758511 0 0 0 0 14216836.075864851 -7752618.9122452512 0 -7752618.9122452512 -6049735.9939857768 0 0 0 0 18267463.363083079 -15491635.721315913 0 -15491635.721315913 -10019198.09071403 0 0 0 0 -67669813.660369873 -44413324.514579773 0 -44413324.514579773 226160216.03161621 0 0 0 0 4443614.229309082 -27434866.242462605 0 -27434866.242462605 -13180034.15983654 0 0 0 0 1526865.2978668213 -30039265.150593936 0 -30039265.150593936 -8773819.5920619369 0 0 0 0 5788165.2031860352 -24492014.069343701 0 -24492014.069343701 -7852159.2150791585 0 0 0 0 1628560.6396560669 -29493566.426118854 0 -29493566.426118854 -5928171.4808912873 0 0 0 0 14178914.800292969 -25571336.880329058 0 -25571336.880329058 -17884424.395782299 0 0 0 0 3262962.1637097076 -874233.11855345219 0 -874233.11855345219 -1099747.3823747165 0 0 0 0 10674227.002952576 -4322214.1304775476 0 -4322214.1304775476 10039303.25097847 0 0 0 0 41210085.588287354 -34804294.393966675 0 -34804294.393966675 -10775.866914749146 0 0 0 0 66507468.849975586 38198081.961967468 0 38198081.961967468 -2275637.4794175327 0 0 0 0 49042533.829162598 -35274599.67620945 0 -35274599.67620945 14935991.057032585 0 0 0 0 10195400.095092773 -11700968.435938835 0 -11700968.435938835 20426870.458166122 0 0 0 0 21509828.967407227 -12874510.028977394 0 -12874510.028977394 -3240996.2198753357 0 0 0 0 27161812.747497559 -472960.91640806198 0 -472960.91640806198 -23837970.739928246 0 0 0 0 2657275.4279785156 -8142693.9151477814 0 -8142693.9151477814 -4284530.5581274033 0 0 0 0 -5374816.7079925537 2702418.1877717972 0 2702418.1877717972 -7609442.1218423843 0 0 0 0 33021290.230041504 -18641377.405832589 0 -18641377.405832589 -27281656.78963685 0 0 0 0 20505480.877381429 -6129899.9377717227 0 -6129899.9377717227 -6188634.1109084673 0 0 0 0 14844692.74965018 -6726225.5705242306 0 -6726225.5705242306 285534.08433180623 0 0 0 0 19157878.417358398 -8167346.8276888886 0 -8167346.8276888886 360514.49946316052 0 0 0 0 17474573.203460693 -4431023.506027271 0 -4431023.506027271 997213.36520746257 0 0 0 0 21635050.403106689 -5088537.2888406496 0 -5088537.2888406496 -1414012.3568378892 0 0 0 0 20919439.75982666 -3594103.4284935091 0 -3594103.4284935091 1282873.4024688676 0 0 0 0 13950292.273132324 -14591729.451569557 0 -14591729.451569557 -15454676.818996429 0 0 0 0 16634166.386622116 -3867781.4087302098 0 -3867781.4087302098 -1172321.8365257634 0 0 0 0 10739679.33190918 -20773753.467281342 0 -20773753.467281342 -2449157.8935089111 0 0 0 0 1104784804.4268341 -246312439.64393061 0 -246312439.64393061 237309040.52599025 0 0 0 0 8439228.2029779777 -4821609.1007120162 0 -4821609.1007120162 3861247.8999836277 0 0 0 0 11089920.175018311 -3459577.8418188095 0 -3459577.8418188095 -2866127.8825118542 0 0 0 0 19018650.563262939 -612586.40776627231 0 -612586.40776627231 2002080.9929993153 0 0 0 0 17244209.72038269 -1953161.6294037262 0 -1953161.6294037262 1222010.8874554485 0 0 0 0 19367433.468078613 -6225312.5541771762 0 -6225312.5541771762 2096575.0816464201 0 0 0 0 9548088.4198476896 -520643.41793334484 0 -520643.41793334484 2189023.5543163982 0 0 0 0 25269390.564575195 -3258550.5361515768 0 -3258550.5361515768 -364515.59903014079 0 0 0 0 23629909.959655762 -2502397.5723580867 0 -2502397.5723580867 397820.04904086422 0 0 0 0 11988.478454571217 -1483.8534913659096 0 -1483.8534913659096 4919.2060212192482 0 0 0 0 26125348.454795837 -5415445.5034867842 0 -5415445.5034867842 -65519.993326723576 0 0 0 0 23412417.949066162 -4770129.7326694056 0 -4770129.7326694056 836659.092187047 0 0 0 0 22115108.282165527 -3846557.3059394555 0 -3846557.3059394555 996911.407967943 0 0 0 0 23079881.529754639 -5382908.2325964188 0 -5382908.2325964188 1735169.786179537 0 0 0 0 21449782.400604248 -4059607.8944016718 0 -4059607.8944016718 592716.82284267433 0 0 0 0 20940381.632721901 -5017906.0579617722 0 -5017906.0579617722 318010.45464782603 0 0 0 0 21778565.217498779 -4331884.6415471975 0 -4331884.6415471975 329381.2386012096 0 0 0 0 21935576.882247925 -3719245.7713698708 0 -3719245.7713698708 -970096.77934239246 0 0 0 0 21953158.09161377 -3435976.3219664809 0 -3435976.3219664809 382479.45501206629 0 0 0 0 21281637.735290527 -3777408.7308230856 0 -3777408.7308230856 530906.83707055915 0 0 0 0 21379541.975891113 -4025666.3958103964 0 -4025666.3958103964 1137638.8386723497 0 0 0 0 22130860.612121582 -3513676.5800639517 0 -3513676.5800639517 177702.88628890924 0 0 0 0 20939931.222167969 -3089889.5669016973 0 -3089889.5669016973 169670.2480918002 0 0 0 0 21087432.944553375 -3834697.639543483 0 -3834697.639543483 546917.46970500797 0 0 0 0 21784645.431137085 -2636875.9638017993 0 -2636875.9638017993 -354584.2173289475 0 0 0 0 22398621.365463257 -3002501.8453619163 0 -3002501.8453619163 -605235.83991266321 0 0 0 0 22032452.485565186 -1934832.2015659434 0 -1934832.2015659434 -3560.8133790334159 0 0 0 0 20773422.610542297 -2890796.7794817993 0 -2890796.7794817993 -393776.16181885684 0 0 0 0 20132541.024536133 -2175876.030490763 0 -2175876.030490763 1440.9562049702752 0 0 0 0 25193554.947357178 -1149040.5490104691 0 -1149040.5490104691 11984.234043057773 0 0 0 0 23824206.479980469 -2776805.7420183364 0 -2776805.7420183364 -1302569.2017247647 0 0 0 0 22210050.989196777 -3429973.8635712666 0 -3429973.8635712666 -1514043.8293195558 0 0 0 0 23544204.327194214 -4354726.5670639565 0 -4354726.5670639565 -5453830.4810587801 0 0 0 0 23296343.642700195 -3867479.5583110731 0 -3867479.5583110731 -1441577.7722975137 0 0 0 0 21303564.63412571 -5791394.5249175848 0 -5791394.5249175848 -3074525.4718543794 0 0 0 0 21204394.625 -4416269.6342452886 0 -4416269.6342452886 94521.797804557718 0 0 0 0 22249358.467407227 -8066526.8390877051 0 -8066526.8390877051 -439443.87313038576 0 0 0 0 49139000.865005493 7716190.0634210967 0 7716190.0634210967 -24220890.930659622 0 0 0 0 22393799.571914673 -8572708.4097584877 0 -8572708.4097584877 -4552499.653321852 0 0 0 0 11739855.310159028 -232501.09893146902 0 -232501.09893146902 -2120825.5311112348 0 0 0 0 30901136.992431641 5896658.1935984343 0 5896658.1935984343 4437367.6559847295 0 0 0 0 2665106.3964756206 405945.34574171156 0 405945.34574171156 -77329.130624344005 0 0 0 0 95237707.609214783 21239932.472124014 0 21239932.472124014 -6222141.670829244 0 0 0 0 10881192.887817383 -11561755.916740526 0 -11561755.916740526 -2235371.8261951087 0 0 0 0 60092521.597824097 265233.3783626525 0 265233.3783626525 -15251.015006938627 0 0 0 0 41542858.582214355 -14387539.992249012 0 -14387539.992249012 -2241843.0518117943 0 0 0 0 45652127.618118286 -3493956.7185137076 0 -3493956.7185137076 7369.3190949387435 0 0 0 0 48356703.931640625 4995545.977094125 0 4995545.977094125 8145133.0966578033 0 0 0 0 49198596.608306885 -4196487.5436086226 0 -4196487.5436086226 -6352558.4822094738 0 0 0 0 51339247.297851562 -10879741.581358915 0 -10879741.581358915 11577718.619742367 0 0 0 0 32610897.644058228 -4132443.039874264 0 -4132443.039874264 7555967.2428160505 0 0 0 0 28837995.969988346 -16861131.857424058 0 -16861131.857424058 -13052837.119382814 0 0 0 0 28545244.709777832 -4981333.7885513417 0 -4981333.7885513417 -31590.384031705558 0 0 0 0 45750429.2396698 -12744607.249648325 0 -12744607.249648325 -39790218.143800095 0 0 0 0 -14484168.501022339 -48943396.301280707 0 -48943396.301280707 -44443926.374255896 0 0 0 0 -587380.81843841076 220070.70122820511 0 220070.70122820511 556779.9592914246 0 0 0 0 -71686868.756649971 7744963.9537373185 0 7744963.9537373185 17553041.01989162 0 0 0 0 -69315646.880187988 -61125612.040126264 0 -61125612.040126264 -21479365.900967896 0 0 0 0 18161371.322265625 -34860694.837275684 0 -34860694.837275684 -54574100.818777323 0 0 0 0 -7471074.2784767151 -56902179.393065125 0 -56902179.393065125 -73386827.590677738 0 0 0 0 32342264.452085942 -2710444.4338731654 0 -2710444.4338731654 -2359553.4592947001 0 0 0 0 32157951.049938679 -5502730.6534254458 0 -5502730.6534254458 -3185052.2422172995 0 0 0 0 22614406.293991089 -24350573.973194838 0 -24350573.973194838 -23914843.944203854 0 0 0 0 17895365.4712677 -20095668.558855355 0 -20095668.558855355 -27344600.962669849 0 0 0 0 -708822.05905914307 -25875678.126725979 0 -25875678.126725979 -8099077.752949506 0 0 0 0 3494223.9254302979 -35013366.63241522 0 -35013366.63241522 -15449789.242376268 0 0 0 0 18649718.21685791 -28227656.255745381 0 -28227656.255745381 -13778004.356211692 0 0 0 0 4169556.8513946533 -24595466.642583996 0 -24595466.642583996 -7850988.8754715025 0 0 0 0 22491843.800750732 -30810668.312989444 0 -30810668.312989444 -34295676.032470226 0 0 0 0 22277858.384567261 -24769977.783424169 0 -24769977.783424169 -18265514.706380546 0 0 0 0 23556124.989807129 -33259150.24497366 0 -33259150.24497366 -11584519.337457597 0 0 0 0 25886833.077392578 -26169847.681767821 0 -26169847.681767821 -6946561.8270727396 0 0 0 0 20521692.492279053 -24259884.181612611 0 -24259884.181612611 -5594261.5065193176 0 0 0 0 32239048.990386963 -22621082.314591482 0 -22621082.314591482 -5365101.8457988501 0 0 0 0 17272871.239501953 -25213850.774910688 0 -25213850.774910688 8367970.4130951762 0 0 0 0 31952018.62890625 -22786436.952507496 0 -22786436.952507496 7241379.3622698784 0 0 0 0 37805359.219360352 -18207326.407737494 0 -18207326.407737494 7166875.7920863628 0 0 0 0 9383837.2147674561 -38003268.022186279 0 -38003268.022186279 14585331.799951553 0 0 0 0 26285169.02911377 -31065712.3015531 0 -31065712.3015531 6437061.4413309097 0 0 0 0 69996306.883331299 -37934759.58616817 0 -37934759.58616817 3475146.6239228249 0 0 0 0 27754495.917663574 -76422256.111499786 0 -76422256.111499786 68962563.350255132 0 0 0 0 13800312.862609863 -39344710.000783682 0 -39344710.000783682 14959204.383691907 0 0 0 0 3350957.1982879639 -19783203.299092919 0 -19783203.299092919 4070573.7059425116 0 0 0 0 5364711.9376068115 -21754485.324316457 0 -21754485.324316457 -1104650.0355890989 0 0 0 0 8087671.8135986328 -25754344.363417506 0 -25754344.363417506 956463.4325504899 0 0 0 0 15785758.611190796 -20717373.125041187 0 -20717373.125041187 5277025.3489093781 0 0 0 0 15282374.69354248 -21742937.422988117 0 -21742937.422988117 3192219.314915657 0 0 0 0 13369352.710571289 -22363913.112833738 0 -22363913.112833738 9372772.3639545441 0 0 0 0 12270992.010467529 -24701515.494065523 0 -24701515.494065523 4403223.2167155743 0 0 0 0 9484975.5786437988 -19986983.889302909 0 -19986983.889302909 5872460.2060871124 0 0 0 0 1967158.2816772461 -21941942.594001651 0 -21941942.594001651 5926330.1736146212 0 0 0 0 7331640.7166748047 -22803934.496592045 0 -22803934.496592045 8103604.5062297583 0 0 0 0 -15127218.025695801 -8668692.3752898052 0 -8668692.3752898052 14616327.290165842 0 0 0 0 -5474701.0008544922 -15290685.210056186 0 -15290685.210056186 10001432.569652438 0 0 0 0 -2683031.2056884766 -10212164.201157704 0 -10212164.201157704 10630008.988413692 0 0 0 0 -19553330.951019287 -13738161.679364666 0 -13738161.679364666 9910574.1010340527 0 0 0 0 -8549174.7844848633 -26899953.025716186 0 -26899953.025716186 -184814.9452509284 0 0 0 0 -11793022.266082764 -8718509.9273195863 0 -8718509.9273195863 13712914.295092285 0 0 0 0 -30915674.530517578 -3411639.0810020827 0 -3411639.0810020827 18038319.580207825 0 0 0 0 -22226111.913253784 16520064.076182395 0 16520064.076182395 13788448.724097908 0 0 0 0 -12246854.022918701 1556537.6642531157 0 1556537.6642531157 18461005.47571139 0 0 0 0 -33893016.764335632 15636138.523051172 0 15636138.523051172 18008996.454208851 0 0 0 0 -69162964.660903931 -18637700.743853815 0 -18637700.743853815 13277708.225931138 0 0 0 0 -7444649.4977111816 -32131767.353729889 0 -32131767.353729889 -9033773.8183556348 0 0 0 0 -875879.49453106523 480524.40355464816 0 480524.40355464816 1034290.6019016929 0 0 0 0 -111278804.94488525 -66680485.138103485 0 -66680485.138103485 169652047.16745734 0 0 0 0 -6922619.37159729 -1385042.1180483997 0 -1385042.1180483997 31088326.69034737 0 0 0 0 -12603080.76448822 -6450233.2264368609 0 -6450233.2264368609 56447386.207813442 0 0 0 0 -410474.87813724577 320804.46697447821 0 320804.46697447821 602240.62870177091 0 0 0 0 256414778.27931213 204132930.75912476 0 204132930.75912476 6086493.7638282776 0 0 0 0 170936298.54489136 82935494.766851529 0 82935494.766851529 354372928.10807043 0 0 0 0 181887179.86112976 -136219659.90493608 0 -136219659.90493608 236254886.33602476 0 0 0 0 26300101.744018555 -110077521.14099193 0 -110077521.14099193 122628784.99382102 0 0 0 0 -106708541.41888428 -49342550.464500338 0 -49342550.464500338 233534500.68830907 0 0 0 0 -24011358.347167045 -148990406.07987344 0 -148990406.07987344 82461467.060191631 0 0 0 0 -24276635.469390869 -51487248.953960538 0 -51487248.953960538 249997120.2044723 0 0 0 0 181420177.43644714 -82975260.099936962 0 -82975260.099936962 -18057156.140249729 0 0 0 0 74657396.677810669 -230187438.0112381 0 -230187438.0112381 -523234.90865421295 0 0 0 0 38765523.132843018 -86880292.304757357 0 -86880292.304757357 -296224544.8950758 0 0 0 0 -111627081.97564697 -87425195.79950726 0 -87425195.79950726 48821399.323763251 0 0 0 0 -33363619.174285889 -262050531.01700902 0 -262050531.01700902 -129863215.74683595 0 0 0 0 -17415588.062866211 -79304923.345550299 0 -79304923.345550299 -435656384.01811266 0 0 0 0 8161147.7385864258 -72216495.484063387 0 -72216495.484063387 -135766672.2651422 0 0 0 0 -52396984.147041321 -165835255.92185217 0 -165835255.92185217 -53839916.298634291 0 0 0 0 -89666719.396179199 -138485874.76780224 0 -138485874.76780224 -136378402.50446641 0 0 0 0 -22755466.768798828 -135678914.19926667 0 -135678914.19926667 -136805821.67364782 0 0 0 0 28405382.386306763 -169031960.63588297 0 -169031960.63588297 22152872.146701932 0 0 0 0 57574878.629104614 -37926009.787111044 0 -37926009.787111044 28786462.624893308 0 0 0 0 65460744.299102783 -109199074.10006142 0 -109199074.10006142 -211735785.79787755 0 0 0 0 31461031.680208474 -2395773.6811916605 0 -2395773.6811916605 -1912442.0440514868 0 0 0 0 33261572.459991455 -12416256.108993333 0 -12416256.108993333 -30232698.049405381 0 0 0 0 33345713.259719849 -11843625.904736172 0 -11843625.904736172 -17730953.748824723 0 0 0 0 29411492.929986328 -4653752.5948414002 0 -4653752.5948414002 -1376978.5542279871 0 0 0 0 476241.72448730469 -125221327.18012547 0 -125221327.18012547 -330397094.96272087 0 0 0 0 27565453.0337677 -10272456.825975284 0 -10272456.825975284 -10753408.788391873 0 0 0 0 30312932.863037109 -10697098.437188819 0 -10697098.437188819 -10744073.695446795 0 0 0 0 25452199.37789917 -7400740.0579213044 0 -7400740.0579213044 1435689.7638385631 0 0 0 0 33626800.787780762 -4074393.403181714 0 -4074393.403181714 -1394199.0764572744 0 0 0 0 31845534.125 -7460541.5182599118 0 -7460541.5182599118 -3705094.2377725858 0 0 0 0 29553612.115402222 -8847350.5063128974 0 -8847350.5063128974 -4091405.9545569103 0 0 0 0 29762794.847923279 -6829517.0380435791 0 -6829517.0380435791 1387.3096532781733 0 0 0 0 52973261.078384399 -22256672.806250315 0 -22256672.806250315 1426181.3835625853 0 0 0 0 10416431.982744232 -3945709.4443596229 0 -3945709.4443596229 581310.11509317323 0 0 0 0 30906479.406982422 -7702641.2772914879 0 -7702641.2772914879 938273.15280884504 0 0 0 0 39426691.262023926 -5507495.4958533002 0 -5507495.4958533002 16027.071604466899 0 0 0 0 28327016.265350342 -13908779.200695869 0 -13908779.200695869 1901236.0549116116 0 0 0 0 29300210.394897461 -6954113.1769936495 0 -6954113.1769936495 -8219057.2553888932 0 0 0 0 40981275.524902344 -9428826.7034330536 0 -9428826.7034330536 -7931844.5160274338 0 0 0 0 31639634.492136553 -1479019.1961013414 0 -1479019.1961013414 -2279901.6322203754 0 0 0 0 33791536.333557129 -9991531.3560097497 0 -9991531.3560097497 -14313299.12113335 0 0 0 0 42430743.330749512 -99492209.852928162 0 -99492209.852928162 -11149986.353902817 0 0 0 0 34398360.198440552 -8357554.6656041304 0 -8357554.6656041304 -13679824.472819345 0 0 0 0 49754210.938781738 49034379.048905373 0 49034379.048905373 -239442482.05968952 0 0 0 0 -94888880.982603073 -328504893.21514124 0 -328504893.21514124 -541497492.32153273 0 0 0 0 4587239.2947992086 2722090.1716132462 0 2722090.1716132462 -2753572.3604206233 0 0 0 0 110665248.75018311 -267421215.29518318 0 -267421215.29518318 -682817886.80773544 0 0 0 0 -1986885.2598201036 -4660816.4541472886 0 -4660816.4541472886 604802.8047795262 0 0 0 0 -24384938.787261963 -281913947.51869774 0 -281913947.51869774 -461205935.68219757 0 0 0 0 -68115487.673248291 -98277260.086788476 0 -98277260.086788476 -484101808.72895432 0 0 0 0 -12618639.488342285 -241213640.30501556 0 -241213640.30501556 -290651312.64023411 0 0 0 0 184483975.29119873 -193012473.34383249 0 -193012473.34383249 -494755652.52790642 0 0 0 0 110499450.39477539 -100561044.4619956 0 -100561044.4619956 -399338861.66535568 0 0 0 0 216179650.93927002 -204140013.09417677 0 -204140013.09417677 -310305674.22105312 0 0 0 0 315621565.9152832 -52081814.729718208 0 -52081814.729718208 -463020820.9037571 0 0 0 0 199118348.0809021 -71492436.812287331 0 -71492436.812287331 -459111016.33427811 0 0 0 0 160757933.112854 -48035956.193133831 0 -48035956.193133831 -451154968.91387272 0 0 0 0 150575393.71643066 -157118821.65811062 0 -157118821.65811062 -423597647.76885128 0 0 0 0 57566589.567337036 -115802615.08937311 0 -115802615.08937311 -378439304.33597183 0 0 0 0 268031039.46585083 89610895.36421442 0 89610895.36421442 -704228139.37385654 0 0 0 0 279806136.30825806 -168413252.3753686 0 -168413252.3753686 -544458209.95030499 0 0 0 0 8012523.2593072802 361393.35150531307 0 361393.35150531307 -1352596.1253319725 0 0 0 0 -35469057.922790527 255834147.65827656 0 255834147.65827656 -496318141.96815538 0 0 0 0 14645737.419021606 -6155704.3183426857 0 -6155704.3183426857 8481086.3885717392 0 0 0 0 85864064.451553345 7590713.8846497536 0 7590713.8846497536 9643346.831199646 0 0 0 0 14314869.098709054 4286865.3683124408 0 4286865.3683124408 4706466.1089782147 0 0 0 0 28894330.746422499 -1100598.7948661521 0 -1100598.7948661521 -1242320.8642271406 0 0 0 0 -46347253.121887207 74604556.051278114 0 74604556.051278114 -147037032.27421701 0 0 0 0 27055396.916164398 -16686994.71303916 0 -16686994.71303916 -8510415.8434717134 0 0 0 0 -39834137.208129883 90886223.306139946 0 90886223.306139946 -230396538.7043457 0 0 0 0 45473148.034545898 -71294178.632205009 0 -71294178.632205009 -146024249.59707069 0 0 0 0 35439771.493057251 -193666692.86637658 0 -193666692.86637658 -366093447.76071739 0 0 0 0 22313159.215759277 21439675.595277786 0 21439675.595277786 -465931726.37578785 0 0 0 0 29454749.964202881 -11669337.526259858 0 -11669337.526259858 -6103924.0622663321 0 0 0 0 38177666.342575073 7335466.405255815 0 7335466.405255815 -4462810.0798309296 0 0 0 0 16060282.439282015 -3891412.6089802086 0 -3891412.6089802086 -2068189.7095892795 0 0 0 0 24872113.789169312 5790241.6410913188 0 5790241.6410913188 3853834.4380539861 0 0 0 0 5389354.1481170654 1632992.0951948166 0 1632992.0951948166 -2058213.3606883287 0 0 0 0 20832037.12668106 -278609.30242444575 0 -278609.30242444575 2619135.0144585171 0 0 0 0 43878654.194274902 -22254018.672140297 0 -22254018.672140297 -12494455.825650096 0 0 0 0 25654609.945007324 15894949.563265942 0 15894949.563265942 1903406.5546954796 0 0 0 0 1112985.9869278073 -692565.34309711307 0 -692565.34309711307 -819696.71856528136 0 0 0 0 14766312.271535367 3746848.1019078717 0 3746848.1019078717 -239779.7886740008 0 0 0 0 27678797.891723633 365048.51396661252 0 365048.51396661252 -1931831.7235751525 0 0 0 0 37746723.005737305 7264678.6997204367 0 7264678.6997204367 -4263069.0942795146 0 0 0 0 35062829.175537109 1574237.9340462908 0 1574237.9340462908 -2209711.0312824328 0 0 0 0 38436343.370452881 7847609.257189719 0 7847609.257189719 -3886520.4936384261 0 0 0 0 42861063.035003662 -432478.80605948099 0 -432478.80605948099 -6979335.9095087918 0 0 0 0 14300637.378433257 -922568.81932681799 0 -922568.81932681799 -821555.53271228983 0 0 0 0 30551647.654418945 7995024.3736163825 0 7995024.3736163825 -10183.842644483591 0 0 0 0 13887626.713806152 2267696.1116642058 0 2267696.1116642058 -1395384.8641156871 0 0 0 0 38097719.674804688 7086258.2900059745 0 7086258.2900059745 -4622308.591660928 0 0 0 0 3887538867.6916504 119664835.53160748 0 119664835.53160748 1192286.4402380167 0 0 0 0 5974900558.373085 -640077726.3130585 0 -640077726.3130585 -928599718.20975757 0 0 0 0 5633643017.120697 -637171517.31736183 0 -637171517.31736183 318439677.52267623 0 0 0 0 4072287679.4000244 2255139723.0037608 0 2255139723.0037608 403516367.18372041 0 0 0 0 2650011.1407601386 48880.908703159541 0 48880.908703159541 -35153.448024871373 0 0 0 0 16730467.554283142 -57516.842483483255 0 -57516.842483483255 2740767.7075637877 0 0 0 0 10752065.202575684 1554981.2367807031 0 1554981.2367807031 6769148.6980077848 0 0 0 0 6543962.0730835944 447455.70196960494 0 447455.70196960494 -167961.82430196973 0 0 0 0 12020425.788137216 -565185.76264503598 0 -565185.76264503598 643761.10268166731 0 0 0 0 1509175718.9213867 -475405691.22159129 0 -475405691.22159129 223104197.69351768 0 0 0 0 443390718.37561035 412815640.87956017 0 412815640.87956017 265170209.26793572 0 0 0 0 1250373609.6368408 36954833.953184605 0 36954833.953184605 -147512584.67238057 0 0 0 0 673273528.94610596 6057403.0052413121 0 6057403.0052413121 431519493.81822306 0 0 0 0 3110776173.3436937 -3148879037.3482757 0 -3148879037.3482757 1594179245.5995779 0 0 0 0 2948593589.0384569 -516364270.62173748 0 -516364270.62173748 -296612880.10690427 0 0 0 0 13050009.357933521 2867180.092697721 0 2867180.092697721 2265517.2157802531 0 0 0 0 4194753.1575094685 -1102866.6297605559 0 -1102866.6297605559 -4251643.9976603109 0 0 0 0 282268647.79392242 -497007080.67332029 0 -497007080.67332029 596787915.99579251 0 0 0 0 980562584.02235413 271351036.73065585 0 271351036.73065585 65521441.734365433 0 0 0 0 20512749.933044434 1407964793.1211026 0 1407964793.1211026 2901042353.5192404 0 0 0 0 5770525.2406564355 218121.15613116324 0 218121.15613116324 2224290.0310937632 0 0 0 0 4767491569.9370422 2863722228.01682 0 2863722228.01682 937668228.12097573 0 0 0 0 5975505124.3150854 2756714302.6956072 0 2756714302.6956072 -403609085.60398328 0 0 0 0 4517823652.5252075 1549092522.815618 0 1549092522.815618 424230707.31596482 0 0 0 0 4519609447.4060059 1503323812.3979721 0 1503323812.3979721 -319802660.05024314 0 0 0 0 3143848378.1781921 1872654854.2185874 0 1872654854.2185874 502656770.21608138 0 0 0 0 -665330833.60829163 861266817.40111351 0 861266817.40111351 415764109.37488127 0 0 0 0 2954019230.2457275 -322198947.08038467 0 -322198947.08038467 -660566574.44223809 0 0 0 0 3679246.7134532854 1476364.1743811071 0 1476364.1743811071 2730964.1326059299 0 0 0 0 921329705.47595215 1476423339.4737718 0 1476423339.4737718 644919727.32175398 0 0 0 0 170309610.56858826 -109234094.67616129 0 -109234094.67616129 -168470112.19325542 0 0 0 0 438350662.20388794 34768127.260053873 0 34768127.260053873 -124132093.4828589 0 0 0 0 44169282.956535339 5751935.4386365414 0 5751935.4386365414 371873610.1512208 0 0 0 0 210996040.60748291 -40966627.315756321 0 -40966627.315756321 -228840745.87155938 0 0 0 0 224129669.32414246 -206369367.5053705 0 -206369367.5053705 111018009.32255816 0 0 0 0 156475546.83166504 -136827871.39175248 0 -136827871.39175248 246770480.87181413 0 0 0 0 352330599.72305298 64987930.671560824 0 64987930.671560824 209774225.96688771 0 0 0 0 552405491.28259277 -88757601.963534057 0 -88757601.963534057 323504655.19704086 0 0 0 0 377181348.96792603 89167587.828959078 0 89167587.828959078 259806420.05918786 0 0 0 0 837214811.86808777 772014806.54196143 0 772014806.54196143 458507823.47268212 0 0 0 0 999111597.79953003 617680640.90912604 0 617680640.90912604 573309861.00754941 0 0 0 0 2616884510.5040588 965468792.07353354 0 965468792.07353354 277071302.2310226 0 0 0 0 1032764266.041687 202719770.60180736 0 202719770.60180736 385892749.72554243 0 0 0 0 940074516.44784546 305752955.55160081 0 305752955.55160081 333619640.26448047 0 0 0 0 374181007.01144409 -42212709.423402846 0 -42212709.423402846 294652208.91529524 0 0 0 0 322066870.95483398 92496041.372472167 0 92496041.372472167 535083518.2687093 0 0 0 0 994014917.2706604 -142520609.10479009 0 -142520609.10479009 -27871433.04221952 0 0 0 0 254603365.42492676 241203130.16404033 0 241203130.16404033 342017027.16869569 0 0 0 0 1814856065.6826096 516640590.47109282 0 516640590.47109282 71756647.385095954 0 0 0 0 2457000116.5844269 -343802061.12072259 0 -343802061.12072259 -206532997.62927395 0 0 0 0 4427433413.2723389 563575726.433954 0 563575726.433954 -1034301902.3291415 0 0 0 0 5985964200.7853661 1351410280.3281806 0 1351410280.3281806 -883018513.83312905 0 0 0 0 2813685008.3043213 831990027.56396294 0 831990027.56396294 -160478472.23349297 0 0 0 0 4279644335.7885017 887647711.77598786 0 887647711.77598786 -471448902.48040867 0 0 0 0 29330219.030181885 11392004.349035978 0 11392004.349035978 81003019.535369873 0 0 0 0 11055662.749561742 -11256293.94605517 0 -11256293.94605517 7443425.9272910208 0 0 0 0 170295525.52893066 111415116.71893692 0 111415116.71893692 -33316409.554791451 0 0 0 0 80544533.805786133 -100467379.99950552 0 -100467379.99950552 25192435.695496559 0 0 0 0 356322355.86434937 7787261.1344373226 0 7787261.1344373226 67678954.120200396 0 0 0 0 394798707.24417114 54768150.62256515 0 54768150.62256515 9358877.2985210419 0 0 0 0 389755325.90194702 178725793.94277489 0 178725793.94277489 163889872.92428565 0 0 0 0 -397773844.83032227 -448205093.85001421 0 -448205093.85001421 -214938785.71397471 0 0 0 0 -325106334.16134644 41598757.516245842 0 41598757.516245842 52713179.594504833 0 0 0 0 2361608.5077046268 -2065687.4897131696 0 -2065687.4897131696 -773995.35894468334 0 0 0 0 -513440571.91523743 -280276572.48212099 0 -280276572.48212099 250159525.21146011 0 0 0 0 6942663.9045410156 35667121.027618408 0 35667121.027618408 -6497451.4102754593 0 0 0 0 8331729.8147583008 1077232.3277769089 0 1077232.3277769089 359141303.1094017 0 0 0 0 596483611.55165863 130488417.43125653 0 130488417.43125653 355860914.70688248 0 0 0 0 574246359.27935791 12184166.986796379 0 12184166.986796379 81158167.650136948 0 0 0 0 511387880.17678833 -211789136.72308922 0 -211789136.72308922 -412429406.04735279 0 0 0 0 373445848.92552567 159161297.42862082 0 159161297.42862082 -249477544.49804688 0 0 0 0 363063331.30480194 108450061.97281933 0 108450061.97281933 326532021.35857773 0 0 0 0 492695798.2991333 -293093248.36294889 0 -293093248.36294889 107752630.39402962 0 0 0 0 -343559260.41674805 79252765.740282059 0 79252765.740282059 264900962.63502884 0 0 0 0 42191835.988958359 -127584887.97671854 0 -127584887.97671854 -227657903.57780457 0 0 0 0 14758710.531232417 -11934659.822144225 0 -11934659.822144225 5581462.7421037778 0 0 0 0 64133144.628040314 6732428.6204816103 0 6732428.6204816103 -128389086.22109413 0 0 0 0 -451924089.80554199 -747626323.1597414 0 -747626323.1597414 52193137.34424448 0 0 0 0 -308751525.84884644 478675481.85591221 0 478675481.85591221 146037884.49084473 0 0 0 0 178981648.02566528 -67695574.426398277 0 -67695574.426398277 -272253040.84977865 0 0 0 0 207272653.94543076 51796964.463367701 0 51796964.463367701 -221706259.36385536 0 0 0 0 189688870.82470703 496960034.77994347 0 496960034.77994347 -173968863.8977381 0 0 0 0 174464848.37759399 69556045.634843826 0 69556045.634843826 -216831596.61660194 0 0 0 0 -164924938.71704102 -283171576.38457298 0 -283171576.38457298 -130193593.84478474 0 0 0 0 5335164.7141222805 39906.288950640708 0 39906.288950640708 -905136.93858485529 0 0 0 0 186619063.13891602 51861744.701745033 0 51861744.701745033 -220723177.04921722 0 0 0 0 123125890.47848511 81329254.125416756 0 81329254.125416756 -215031436.94023991 0 0 0 0 213531865.12239075 -4768976.8592889309 0 -4768976.8592889309 -116832398.49600792 0 0 0 0 186628398.56634521 50476896.982047081 0 50476896.982047081 -201551254.95296478 0 0 0 0 96702980.693817139 48834544.030965805 0 48834544.030965805 -132081201.60198784 0 0 0 0 -60570357.164245605 -10622174.610742569 0 -10622174.610742569 -31962249.567788124 0 0 0 0 1413529541.3561096 855614717.72011995 0 855614717.72011995 213750346.9242444 0 0 0 0 41609019.768798828 99509992.124428749 0 99509992.124428749 -167975995.86085892 0 0 0 0 -1442686472.5809631 759199990.54250145 0 759199990.54250145 2726293785.2039299 0 0 0 0 74639215.472106934 418403503.32548904 0 418403503.32548904 201643196.34313393 0 0 0 0 1596101054.494812 1149566377.9834461 0 1149566377.9834461 506555878.86662674 0 0 0 0 784531013.99975586 908108743.44590378 0 908108743.44590378 454735404.50255203 0 0 0 0 1691361192.211483 272457993.01836324 0 272457993.01836324 96256679.656478882 0 0 0 0 1168694576.5391235 48727987.699623108 0 48727987.699623108 10711124.169658661 0 0 0 0 865363630.04937744 -213124863.24105501 0 -213124863.24105501 85038516.262829781 0 0 0 0 945541478.90362549 1122776084.1783018 0 1122776084.1783018 63105142.153138399 0 0 0 0 3713298.6350611597 2130718.0494555458 0 2130718.0494555458 502909.97074568062 0 0 0 0 40891628.723236084 -369309195.2336092 0 -369309195.2336092 -394874301.73506927 0 0 0 0 -130009456.43440247 -375163478.24929786 0 -375163478.24929786 329523137.72972965 0 0 0 0 -82510156.84413147 455021771.8652072 0 455021771.8652072 827334334.92556107 0 0 0 0 3643977.0440440029 475339.97548747063 0 475339.97548747063 -889026.25944372779 0 0 0 0 154167676.47357178 -293531731.94821239 0 -293531731.94821239 -88909767.033348083 0 0 0 0 -75691530.732330322 19413282.638023376 0 19413282.638023376 -262824926.88816023 0 0 0 0 -50083981.928627014 -42539483.024259567 0 -42539483.024259567 -352795830.60679245 0 0 0 0 -60975896.170349121 85626284.049302101 0 85626284.049302101 -178218997.08083534 0 0 0 0 137417312.5113678 4999244.3739852905 0 4999244.3739852905 -771956994.61000633 0 0 0 0 9964020.671047017 3880297.0213445481 0 3880297.0213445481 253435.21114303172 0 0 0 0 29891460.417617798 247813600.28808475 0 247813600.28808475 104955236.0783186 0 0 0 0 -136227643.91616821 26359696.558257103 0 26359696.558257103 304501367.42145538 0 0 0 0 -78826494.956626892 -17473449.593834639 0 -17473449.593834639 -242527608.96182823 0 0 0 0 -53895889.824111938 126773567.44026637 0 126773567.44026637 -205647952.98470497 0 0 0 0 -87193125.63494873 167321538.68601799 0 167321538.68601799 65418225.293181419 0 0 0 0 -17064147.172988892 316270820.95355195 0 316270820.95355195 145931661.46496323 0 0 0 0 -56836791.629562378 145287747.34379339 0 145287747.34379339 80814407.76754117 0 0 0 0 149354417.80210876 215399674.30049086 0 215399674.30049086 -84660689.144930363 0 0 0 0 289461881.75437927 -148676352.80269289 0 -148676352.80269289 -161188324.03110075 0 0 0 0 450452956.28222656 -261329708.83798778 0 -261329708.83798778 -134416826.6554563 0 0 0 0 644650447.93203735 497791608.66262442 0 497791608.66262442 52869181.231145024 0 0 0 0 480852707.16844177 121005954.15885693 0 121005954.15885693 -260659810.8273952 0 0 0 0 524242558.3394165 266044900.16798082 0 266044900.16798082 -93962802.972635686 0 0 0 0 91082842.481590271 -180597119.57331157 0 -180597119.57331157 55823236.983137697 0 0 0 0 1497509.3978968933 601022.47237528861 0 601022.47237528861 -1254037.4348703441 0 0 0 0 -141731729.35707855 -79933107.50229314 0 -79933107.50229314 77392315.796026111 0 0 0 0 124571593.15704346 191803653.17771542 0 191803653.17771542 111060607.42082071 0 0 0 0 505762703.11364746 98456888.028018713 0 98456888.028018713 7398449.620803833 0 0 0 0 138653664.14616394 218633150.52618352 0 218633150.52618352 157903718.90105367 0 0 0 0 3649620.4855014682 2815693.8964115158 0 2815693.8964115158 -2553543.9044268443 0 0 0 0 -8191509.1865081787 86541803.76223278 0 86541803.76223278 136420142.1644913 0 0 0 0 -12261421.910247803 66287498.802249908 0 66287498.802249908 78865081.844493866 0 0 0 0 8529021.510547772 6453563.2742698789 0 6453563.2742698789 -4253055.7523691244 0 0 0 0 28269732.731292725 -120706642.55758095 0 -120706642.55758095 88904241.232518196 0 0 0 0 -58823543.105812073 46932731.609370545 0 46932731.609370545 47434953.424353123 0 0 0 0 60001899.954467773 86657913.787347555 0 86657913.787347555 20858718.068063974 0 0 0 0 -62330870.000225067 -5111143.9250389114 0 -5111143.9250389114 22719838.938382626 0 0 0 0 -1825748.8171386719 -23937745.582263947 0 -23937745.582263947 -49673818.429130554 0 0 0 0 2923228.6965538636 421814.04925130308 0 421814.04925130308 -2628027.6410820573 0 0 0 0 542631477.32263184 -12671940.789392769 0 -12671940.789392769 -45516935.973152399 0 0 0 0 351025636.71459961 166337021.18957269 0 166337021.18957269 8270451.7551744487 0 0 0 0 95519235.633789062 62332081.072189093 0 62332081.072189093 -2584605.5185597539 0 0 0 0 106532329.65649414 34547415.730384827 0 34547415.730384827 60074797.114515066 0 0 0 0 103210406.19268799 82244450.083106875 0 82244450.083106875 78905185.774634361 0 0 0 0 88103235.829208374 50695202.149486899 0 50695202.149486899 13035482.950526714 0 0 0 0 222702997.18017578 65975111.114082813 0 65975111.114082813 16911473.687088966 0 0 0 0 291468809.17114258 59455908.015982866 0 59455908.015982866 24608294.975653052 0 0 0 0 322619866.4654007 -15494741.250355065 0 -15494741.250355065 12568322.545114994 0 0 0 0 372644983.7272644 16698747.577352643 0 16698747.577352643 -9883953.6222467422 0 0 0 0 520286526.30230713 -115087077.76640701 0 -115087077.76640701 39989563.878299475 0 0 0 0 192519386.38452911 -31614761.231550753 0 -31614761.231550753 328081688.36998844 0 0 0 0 381027890.64459229 389730484.079741 0 389730484.079741 63940604.299036026 0 0 0 0 192144092.94793701 -374911459.31614923 0 -374911459.31614923 433596426.64242172 0 0 0 0 583545.14602476358 -2030581.6305270446 0 -2030581.6305270446 -80935.941850503455 0 0 0 0 441439666.57196808 184350488.03532511 0 184350488.03532511 23260307.137084961 0 0 0 0 -6336543.9401474297 -8693572.3269294482 0 -8693572.3269294482 639604.30961270467 0 0 0 0 69651120.172561646 -37810964.491325855 0 -37810964.491325855 -29061310.061034203 0 0 0 0 4865106.0641479492 -961105.69646883011 0 -961105.69646883011 -1205176.9676113501 0 0 0 0 6545526.4643249512 2216224.5490546227 0 2216224.5490546227 -21084023.251317978 0 0 0 0 9149285.3139059767 -1962794.6207485646 0 -1962794.6207485646 2899291.5263141412 0 0 0 0 133840815.62042236 26264846.349517584 0 26264846.349517584 58722138.668299198 0 0 0 0 2555088.6518988311 -1692639.9980181083 0 -1692639.9980181083 2467482.8553379397 0 0 0 0 -32412070.932357788 28486233.57141304 0 28486233.57141304 -25945083.662649155 0 0 0 0 4059370.1308203042 -3268202.8480449915 0 -3268202.8480449915 -824364.29208320938 0 0 0 0 -37206156.264389038 123377145.02831268 0 123377145.02831268 -107791600.01639938 0 0 0 0 -52321915.249053955 113235265.46380186 0 113235265.46380186 -11802743.96207428 0 0 0 0 -101512734.19381714 34950301.276651382 0 34950301.276651382 -16489305.064735889 0 0 0 0 -133176317.03723145 103529474.87258339 0 103529474.87258339 -12924087.131701708 0 0 0 0 34903878.504623413 9865970.1788640916 0 9865970.1788640916 35783814.245367885 0 0 0 0 -186791091.99867249 56695191.92748642 0 56695191.92748642 25243248.660377502 0 0 0 0 3052426.8990852907 -534898.75297984481 0 -534898.75297984481 128179.53711287724 0 0 0 0 6058167.9714393914 -6798068.0569527969 0 -6798068.0569527969 7872736.7421862409 0 0 0 0 527050966.8857193 -41290348.057669505 0 -41290348.057669505 -107444645.02041328 0 0 0 0 -151462480.20954895 106425561.16139412 0 106425561.16139412 36748425.357715607 0 0 0 0 -83459478.643432617 193655555.7191968 0 193655555.7191968 76451172.025764465 0 0 0 0 -209275372.74191284 47244333.795200109 0 47244333.795200109 147678393.89041519 0 0 0 0 -184305688.15658569 -16161002.17961216 0 -16161002.17961216 -63528885.887704849 0 0 0 0 -474748894.21576691 -83688757.220537424 0 -83688757.220537424 162725711.73730087 0 0 0 0 8098864.1908548437 -9451293.1491674408 0 -9451293.1491674408 7853799.4491696442 0 0 0 0 -26832693.994735718 -8784841.5347603559 0 -8784841.5347603559 52208225.366836309 0 0 0 0 -2383328.6253937781 -531286.62766524404 0 -531286.62766524404 2728031.8796181157 0 0 0 0 491765479.72061157 356900661.19722682 0 356900661.19722682 45133116.430914789 0 0 0 0 621135985.51489258 -61533073.837118626 0 -61533073.837118626 191355908.79675865 0 0 0 0 686009967.22438049 66605595.79532671 0 66605595.79532671 344792980.67472076 0 0 0 0 334559987.67649841 213151721.27945232 0 213151721.27945232 191953886.71323013 0 0 0 0 -67179194.282836914 131127417.56900501 0 131127417.56900501 123457486.75817299 0 0 0 0 -51060550.10256958 74148525.484174728 0 74148525.484174728 301924103.79502869 0 0 0 0 -304688560.57328796 -23194890.155554295 0 -23194890.155554295 247679371.20711899 0 0 0 0 225323650.33401489 119868609.69236946 0 119868609.69236946 102107528.66191292 0 0 0 0 17310224.663970947 218492490.21166992 0 218492490.21166992 148944015.6537056 0 0 0 0 204445894.88079071 90663272.710744619 0 90663272.710744619 335571093.37192535 0 0 0 0 467069727.6288147 164536531.88053131 0 164536531.88053131 100205643.7261467 0 0 0 0 197808979.21269608 182610186.20770645 0 182610186.20770645 -58246700.160709381 0 0 0 0 223547817.93261719 33446837.887601852 0 33446837.887601852 37486497.425422668 0 0 0 0 -53353672.088531494 15131751.770357132 0 15131751.770357132 -162313324.56020355 0 0 0 0 -12180876.518829346 174537551.54336166 0 174537551.54336166 -17285802.861270219 0 0 0 0 -7682856.918182373 148976437.26814651 0 148976437.26814651 -16829149.449176788 0 0 0 0 64136042.628082275 213209278.34861755 0 213209278.34861755 -206308528.97426224 0 0 0 0 11823727.028410554 3760832.9714267002 0 3760832.9714267002 1776570.9772271172 0 0 0 0 -45559496.425567627 40461686.541259766 0 40461686.541259766 -1435220.8515605927 0 0 0 0 32319985.288208008 28398479.229385376 0 28398479.229385376 -83451593.788748026 0 0 0 0 32349608.385616928 1368216.1464585746 0 1368216.1464585746 -316542645.84676552 0 0 0 0 159400.06883275509 1320825.6991403364 0 1320825.6991403364 1893827.7264680201 0 0 0 0 11389338.138170525 3617346.0763053782 0 3617346.0763053782 2197969.3202728932 0 0 0 0 58672227.425872803 -1614279.0466227531 0 -1614279.0466227531 -79160939.064069748 0 0 0 0 242184426.74526978 16999760.063000202 0 16999760.063000202 -342650064.69090652 0 0 0 0 51186023.832702637 93229607.936258316 0 93229607.936258316 -304246039.61034966 0 0 0 0 138749611.7312088 -110100672.52343702 0 -110100672.52343702 -283028378.79667282 0 0 0 0 -73913705.999847412 -136976985.37884235 0 -136976985.37884235 -217351739.45676041 0 0 0 0 3332973.7445730828 3033466.2973485813 0 3033466.2973485813 4411542.0201931689 0 0 0 0 2100091755.6404877 -213523017.9754262 0 -213523017.9754262 217976013.17023087 0 0 0 0 2710392489.4359131 -75751800.381629944 0 -75751800.381629944 -185482986.41534543 0 0 0 0 160033.45113605261 389635.11051947623 0 389635.11051947623 950396.69410640933 0 0 0 0 1379036.1587503515 595441.25863984227 0 595441.25863984227 1451741.8735651411 0 0 0 0 -331347392.65610504 -1010411401.0345325 0 -1010411401.0345325 225824484.1610527 0 0 0 0 317842311.54483795 -95808534.020157814 0 -95808534.020157814 -282878204.27808952 0 0 0 0 277152887.3583374 31734527.59177494 0 31734527.59177494 -30316255.556423187 0 0 0 0 3145787640.8768616 36764120.252902031 0 36764120.252902031 20747913.371261597 0 0 0 0 4635020818.8153992 -303563542.63265133 0 -303563542.63265133 13527361.501080513 0 0 0 0 2394889047.8310852 104472392.54900551 0 104472392.54900551 242683248.81645393 0 0 0 0 2458752058.56427 78612956.462574005 0 78612956.462574005 434427334.78011799 0 0 0 0 2905019902.6775818 -302925556.50551796 0 -302925556.50551796 579921037.96857357 0 0 0 0 2767622422.2990723 86776357.952047348 0 86776357.952047348 199664359.44035339 0 0 0 0 3174127680.8049469 -790367517.79302216 0 -790367517.79302216 1365188948.4964924 0 0 0 0 3001173460.7798157 -345844370.77263165 0 -345844370.77263165 281017675.40216446 0 0 0 0 4329208060.7620087 -1490807636.4945669 0 -1490807636.4945669 1324427862.8254347 0 0 0 0 3765634633.5279541 -653847293.23486328 0 -653847293.23486328 82388449.226625443 0 0 0 0 3285184470.321991 -298621084.62702751 0 -298621084.62702751 -175952288.03227615 0 0 0 0 3457360511.0386963 -521851814.23242092 0 -521851814.23242092 83161530.234052658 0 0 0 0 3298830392.6021347 -579118538.96779406 0 -579118538.96779406 417117560.84124374 0 0 0 0 3366842616.6488342 -676094229.97275066 0 -676094229.97275066 288161130.98583317 0 0 0 0 3185174741.1877441 -266246830.2011919 0 -266246830.2011919 -127784008.67481804 0 0 0 0 3376070164.8348312 -364108735.13343978 0 -364108735.13343978 -290776903.148983 0 0 0 0 3577364464.0119019 -93383384.926040649 0 -93383384.926040649 -405826583.13373089 0 0 0 0 2787088569.334198 -32878542.948469162 0 -32878542.948469162 -361606268.2731967 0 0 0 0 3574264658.0259094 -291301857.94478703 0 -291301857.94478703 -287465546.50567627 0 0 0 0 3351711429.5143051 -451884079.210958 0 -451884079.210958 -572296786.92363739 0 0 0 0 3002140056.5829315 27790599.374898911 0 27790599.374898911 -506583107.83457184 0 0 0 0 2654752840.3599396 -94322748.702655792 0 -94322748.702655792 -459154821.54441071 0 0 0 0 2174004095.0136719 -923124244.53955579 0 -923124244.53955579 -997929717.5340538 0 0 0 0 2586485675.7704773 -4537013.6691398621 0 -4537013.6691398621 -569431044.4617424 0 0 0 0 5184040312.5028381 -442134393.6400671 0 -442134393.6400671 -1044989079.0409489 0 0 0 0 3052403225.4357147 165311142.02855492 0 165311142.02855492 -210666128.29954338 0 0 0 0 3504822046.8085632 -257139317.47454262 0 -257139317.47454262 -769755145.79149246 0 0 0 0 2824932498.4828033 -370106714.90525341 0 -370106714.90525341 -179844233.79832458 0 0 0 0 2645292598.5151062 -373314432.50859261 0 -373314432.50859261 -68156645.818717957 0 0 0 0 3400211333.3723145 -519021953.2013073 0 -519021953.2013073 -261226745.99382687 0 0 0 0 1665248329.7203369 -190512383.99460125 0 -190512383.99460125 181525785.17984581 0 0 0 0 1642779721.0414124 90526071.72944355 0 90526071.72944355 103914585.94185352 0 0 0 0 2675182942.6953125 -222197705.87494278 0 -222197705.87494278 -87554526.853258133 0 0 0 0 1482098668.2795105 -105011211.36016846 0 -105011211.36016846 13927661.662403107 0 0 0 0 1488151218.917217 -413959035.20238209 0 -413959035.20238209 117722897.72737885 0 0 0 0 510135985.93097496 -308511446.48280144 0 -308511446.48280144 284519484.80905533 0 0 0 0 2852156763.9709167 -882909775.01950073 0 -882909775.01950073 -31291021.551880836 0 0 0 0 3324972596.2724228 -648257289.23295927 0 -648257289.23295927 273359782.47704124 0 0 0 0 2742069687.5934753 -199309388.58942795 0 -199309388.58942795 -37932789.459596634 0 0 0 0 -84435766.368415833 333361627.1481353 0 333361627.1481353 -565380882.06567955 0 0 0 0 46605005.316009521 -8931219.3446083069 0 -8931219.3446083069 -22760854.184232712 0 0 0 0 13911557.410161436 -2264299.1088800728 0 -2264299.1088800728 -13027405.817244831 0 0 0 0 17209519.202789307 -6801104.4483067989 0 -6801104.4483067989 -18740130.989400864 0 0 0 0 25033993.796020508 3261051.0523014069 0 3261051.0523014069 -7356765.2112894058 0 0 0 0 17008675.940003037 4740795.8133282699 0 4740795.8133282699 -8537287.8246232793 0 0 0 0 10485946.647585928 3003040.1099304222 0 3003040.1099304222 -5043332.7618476376 0 0 0 0 7476861.7953101844 1462201.4153054804 0 1462201.4153054804 -1144802.7433331972 0 0 0 0 -717319.66300201416 25163732.291495323 0 25163732.291495323 -17072436.378303528 0 0 0 0 45262838.096374512 18982553.092475891 0 18982553.092475891 -41729565.718794823 0 0 0 0 476544508.17584991 419177222.90818167 0 419177222.90818167 356243553.54920197 0 0 0 0 1883951096.6736908 -56481346.368395805 0 -56481346.368395805 -244018655.1186409 0 0 0 0 2517825999.3457184 1574568510.3490953 0 1574568510.3490953 987017329.74778366 0 0 0 0 20315964.921386719 -8027470.2032775879 0 -8027470.2032775879 24273159.663280487 0 0 0 0 3220398.6656079441 -386498.79069885612 0 -386498.79069885612 -2439207.520053803 0 0 0 0 5108697104.4482002 -29534179.549453497 0 -29534179.549453497 -417663773.97179794 0 0 0 0 2904444951.7345581 611722855.93918419 0 611722855.93918419 -425209090.78642946 0 0 0 0 2935708220.9247437 276869129.70906734 0 276869129.70906734 -454973930.9889183 0 0 0 0 4052101134.2569885 46906601.697515965 0 46906601.697515965 -455066736.64797592 0 0 0 0 2735839604.5993805 223196169.57211018 0 223196169.57211018 -328268028.04637337 0 0 0 0 2826112866.4085388 175973017.54144669 0 175973017.54144669 -316217866.32864285 0 0 0 0 2819812140.8731384 -41768556.560389519 0 -41768556.560389519 -614548425.08836555 0 0 0 0 2779212944.9620667 -68638873.05718708 0 -68638873.05718708 -165262044.62321091 0 0 0 0 2820330290.1229248 177084194.033916 0 177084194.033916 -302345230.47981071 0 0 0 0 2125646.9593841806 247268.79684170336 0 247268.79684170336 250120.66202124767 0 0 0 0 10480695.979629517 144731273.54367828 0 144731273.54367828 -42272894.717218399 0 0 0 0 2795532843.7555847 126310306.84212875 0 126310306.84212875 -296021434.11604404 0 0 0 0 2875582721.5944061 127745224.27607441 0 127745224.27607441 -326776101.77617741 0 0 0 0 10199999.981306896 1849078.7436312959 0 1849078.7436312959 -7911707.4140465679 0 0 0 0 73753593.796192169 -44540643.28245151 0 -44540643.28245151 -9058014.4409942627 0 0 0 0 -717227582.80445862 1163271811.5983782 0 1163271811.5983782 -446228448.67485547 0 0 0 0 55084695.965698242 283495799.08422518 0 283495799.08422518 -713332676.95999014 0 0 0 0 397973562.93110657 112805669.98931515 0 112805669.98931515 -650271617.77095652 0 0 0 0 1941303391.4220276 -705400656.6643858 0 -705400656.6643858 -102187958.43133521 0 0 0 0 891175327.29788971 -992413812.86075616 0 -992413812.86075616 489635430.80889225 0 0 0 0 1281761375.0471191 -130942161.06394434 0 -130942161.06394434 192872146.38863516 0 0 0 0 617819975.61352539 70723219.497121811 0 70723219.497121811 1429212359.6410818 0 0 0 0 560570818.43502903 883469805.56235147 0 883469805.56235147 -1210931.7391605377 0 0 0 0 277279984.85745239 -489478249.78439331 0 -489478249.78439331 589441611.01313591 0 0 0 0 75686509.439983368 345441527.17327178 0 345441527.17327178 -490877947.48812294 0 0 0 0 -1312331103.177887 200371997.62944651 0 200371997.62944651 211789922.55047321 0 0 0 0 -268950196.28317261 -329260059.12896395 0 -329260059.12896395 213035141.51371527 0 0 0 0 650188909.4342804 -265693572.36738718 0 -265693572.36738718 -318548726.7262764 0 0 0 0 -224442095.26563263 424503341.73567802 0 424503341.73567802 -1227065046.8092833 0 0 0 0 -462876427.87773132 -294307956.47735476 0 -294307956.47735476 -303963950.44884586 0 0 0 0 -1473985999.782486 2024174665.0512173 0 2024174665.0512173 -852971302.11024475 0 0 0 0 -1747704288.5301056 1457691056.674758 0 1457691056.674758 -462403439.39383221 0 0 0 0 2317049481.2112579 -223894892.87885284 0 -223894892.87885284 -131199031.42804337 0 0 0 0 2316219443.4303436 -243888699.9922514 0 -243888699.9922514 17183652.431875467 0 0 0 0 6822934.6653719693 2851663.3511456773 0 2851663.3511456773 -3205131.9074029252 0 0 0 0 3367738345.3777466 -1134690304.8519096 0 -1134690304.8519096 402062501.28559589 0 0 0 0 2583797259.9657745 -468424481.55752373 0 -468424481.55752373 -90904973.176454544 0 0 0 0 3129851313.98349 -322991347.28967285 0 -322991347.28967285 -513475589.81267357 0 0 0 0 5654219201.0446625 -1753191429.5443316 0 -1753191429.5443316 -88188091.657178879 0 0 0 0 2309332.2578686103 1074404.2334825695 0 1074404.2334825695 -379040.02102534752 0 0 0 0 4190198577.3729477 965782596.86370385 0 965782596.86370385 189863357.24781132 0 0 0 0 2231273266.9039001 886788296.15803623 0 886788296.15803623 -862794935.57593632 0 0 0 0 3429078839.984314 321619833.4117142 0 321619833.4117142 -721865354.59386063 0 0 0 0 3340309080.7230072 734863263.63441694 0 734863263.63441694 147089703.88543606 0 0 0 0 4478709599.046051 1063903063.9762746 0 1063903063.9762746 -501524415.57099324 0 0 0 0 3765887528.7759552 50534151.597091109 0 50534151.597091109 -82502211.338339239 0 0 0 0 1594288042.0483398 378145074.03778839 0 378145074.03778839 -37884979.940135479 0 0 0 0 1849012021.5143127 109418660.63504767 0 109418660.63504767 100152894.09994411 0 0 0 0 777960780.10928345 -229352107.52927732 0 -229352107.52927732 383906686.8173492 0 0 0 0 -54495339.976928711 306009615.91536903 0 306009615.91536903 87205783.505528688 0 0 0 0 691280746.96798706 -850696258.05025434 0 -850696258.05025434 -23947343.039891243 0 0 0 0 950126794.87527466 -546983180.64584446 0 -546983180.64584446 -125793709.90690231 0 0 0 0 206566320.35758972 38980437.761586428 0 38980437.761586428 -386339984.07126331 0 0 0 0 1107341445.7419434 -327510980.02867484 0 -327510980.02867484 75530996.569280028 0 0 0 0 1035754505.5955963 -709331456.48613536 0 -709331456.48613536 73337391.544535637 0 0 0 0 1148771725.7978516 -542325667.05424309 0 -542325667.05424309 239712846.2308135 0 0 0 0 1177925861.609375 -577063754.36805248 0 -577063754.36805248 -3095847.455848217 0 0 0 0 1277608774.8394775 -550527230.2751503 0 -550527230.2751503 -52986236.335165977 0 0 0 0 1298331618.7763367 -662783985.365767 0 -662783985.365767 -133515496.36491728 0 0 0 0 1356609669.9172668 -658238129.56505251 0 -658238129.56505251 -236554173.13895321 0 0 0 0 1249048902.6448364 -735354512.27112937 0 -735354512.27112937 -137258655.85613728 0 0 0 0 1048443301.3851318 -607547257.54173875 0 -607547257.54173875 -102686312.78966808 0 0 0 0 1305229062.1393433 -935879675.98120832 0 -935879675.98120832 -38244975.329138517 0 0 0 0 1947797701.9669952 -601850726.15760398 0 -601850726.15760398 -233711159.06847763 0 0 0 0 3043215561.9162216 801527356.95046759 0 801527356.95046759 405201940.6414547 0 0 0 0 3072907669.5784912 -105645226.59937954 0 -105645226.59937954 387240786.33331299 0 0 0 0 2723074571.3555603 488541775.69997358 0 488541775.69997358 -18803693.255764008 0 0 0 0 1897022918.6549988 -115762115.76470184 0 -115762115.76470184 190253983.68654442 0 0 0 0 1334466032.3611603 538815044.16977167 0 538815044.16977167 85563340.142999649 0 0 0 0 1718013491.4393005 536770752.01187229 0 536770752.01187229 249677087.64493847 0 0 0 0 1561505941.6944885 -17097503.084785461 0 -17097503.084785461 110630357.93143559 0 0 0 0 2760831181.0730896 352195502.90272617 0 352195502.90272617 6073976.7522182465 0 0 0 0 4361559417.9925079 350358317.98692751 0 350358317.98692751 -456709187.44539452 0 0 0 0 2684778160.2845764 -44912056.367418289 0 -44912056.367418289 37261478.18478775 0 0 0 0 2538174.6951519698 -1497225.4245310947 0 -1497225.4245310947 -1595401.6466325354 0 0 0 0 2819434894.8749542 595434521.96866226 0 595434521.96866226 413483665.50843239 0 0 0 0 2605269.8191169687 -2050130.2188809589 0 -2050130.2188809589 -431256.57703978941 0 0 0 0 750022985.59562683 -770822349.61911201 0 -770822349.61911201 -53647365.595164299 0 0 0 0 1086702759.3163605 317391215.78771925 0 317391215.78771925 93335956.758319855 0 0 0 0 2545577734.656723 816387492.57897139 0 816387492.57897139 -307300888.00860023 0 0 0 0 2200442328.5541687 -343593502.16667175 0 -343593502.16667175 -624408142.13515687 0 0 0 0 2649050582.0336609 233002581.20530891 0 233002581.20530891 -609323577.62420273 0 0 0 0 3610027794.7538872 -114605083.54318094 0 -114605083.54318094 -618242607.31599808 0 0 0 0 2747208367.9827728 64120181.118040204 0 64120181.118040204 -56374491.601935863 0 0 0 0 3370489037.1481018 -130824932.83149815 0 -130824932.83149815 211046290.59614968 0 0 0 0 5023476.6189884134 -4108135.3741945475 0 -4108135.3741945475 -825924.65785152093 0 0 0 0 2742075880.3783264 68392656.331661701 0 68392656.331661701 56550897.352078915 0 0 0 0 2783520027.411438 107345245.38031602 0 107345245.38031602 -74442738.512767553 0 0 0 0 2792476997.5621948 98201400.428845406 0 98201400.428845406 -164808675.39327931 0 0 0 0 5403614.4350540657 -3697483.7867767885 0 -3697483.7867767885 -3379358.5002751849 0 0 0 0 1135311281.2891846 -266637869.49102807 0 -266637869.49102807 380729169.07836264 0 0 0 0 2779730.7811294496 -2203227.4382233545 0 -2203227.4382233545 -500556.58718406362 0 0 0 0 1777919773.9809952 575171222.27545977 0 575171222.27545977 242061716.22588348 0 0 0 0 2983504628.9225464 -133166438.528826 0 -133166438.528826 39349367.809655964 0 0 0 0 2874332367.9273987 745230141.26563883 0 745230141.26563883 234043653.77273035 0 0 0 0 1937773246.4694366 -55576234.866120815 0 -55576234.866120815 175054601.18227375 0 0 0 0 4009895702.6072807 327983938.83630836 0 327983938.83630836 -387872593.5464077 0 0 0 0 1939882782.270462 -48024521.860611916 0 -48024521.860611916 -305450884.55609083 0 0 0 0 645616347.27310181 676215478.92708337 0 676215478.92708337 -340758475.41151142 0 0 0 0 1376520871.0222321 -414466982.74399519 0 -414466982.74399519 -114411559.4189965 0 0 0 0 13479976.935240552 -9837914.2258500084 0 -9837914.2258500084 3972299.3387013464 0 0 0 0 299368491.72741699 -1236189877.6991987 0 -1236189877.6991987 -239180325.83119011 0 0 0 0 405682796.72332764 194361304.11374187 0 194361304.11374187 -1108706512.2578106 0 0 0 0 -597951555.97045898 398023616.64818192 0 398023616.64818192 -172902293.63865471 0 0 0 0 150014982.47692871 -80932871.078113556 0 -80932871.078113556 96587817.164553642 0 0 0 0 5877918.6152998954 -3836363.8161036819 0 -3836363.8161036819 1501759.5618393845 0 0 0 0 -639873082.32885098 -1206363841.2874575 0 -1206363841.2874575 200210865.69436836 0 0 0 0 5606677287.7203064 1870080299.4708958 0 1870080299.4708958 -811273842.41803575 0 0 0 0 1429011522.3843298 409430576.06137443 0 409430576.06137443 289123979.88945675 0 0 0 0 3112760091.1845398 662393684.97183633 0 662393684.97183633 6379330.8421730995 0 0 0 0 6017863.494482385 -4351352.9480847418 0 -4351352.9480847418 -920766.86408875766 0 0 0 0 3959987190.9309998 373070174.06222427 0 373070174.06222427 -465672826.32554102 0 0 0 0 3232211285.7120514 339132677.27259874 0 339132677.27259874 -340672745.88922793 0 0 0 0 2377852045.8098602 -391499059.20763373 0 -391499059.20763373 -205842995.30373773 0 0 0 0 3126814411.3384552 206580609.45417309 0 206580609.45417309 86164779.019518673 0 0 0 0 2072971982.2862015 -370620929.3825649 0 -370620929.3825649 2907334176.0562744 0 0 0 0 3386580800.3879089 169499246.85616577 0 169499246.85616577 -50244722.29486537 0 0 0 0 4648521608.967392 -696703236.14070702 0 -696703236.14070702 -845803844.21848011 0 0 0 0 4709369.2096710876 -2622537.0564215705 0 -2622537.0564215705 2346737.3281706339 0 0 0 0 3307409167.9948425 210531210.05855894 0 210531210.05855894 155066994.4197793 0 0 0 0 3309740599.3195515 -35268520.99921409 0 -35268520.99921409 -9060732.3134331703 0 0 0 0 4157976727.020462 256852858.98643059 0 256852858.98643059 -109346559.73239815 0 0 0 0 3114017440.2766724 89913351.441572309 0 89913351.441572309 210591329.35417342 0 0 0 0 2027986.315843828 -472118.15182892978 0 -472118.15182892978 1478358.5909070596 0 0 0 0 2108155903.7523956 128342203.24762011 0 128342203.24762011 -617662782.98631716 0 0 0 0 2080498161.5201111 203366021.59602463 0 203366021.59602463 -288264006.10726953 0 0 0 0 1850428237.8839111 -113305819.18957806 0 -113305819.18957806 -183092866.47118902 0 0 0 0 1016753035.8254395 -296482724.40600061 0 -296482724.40600061 -49133314.431685448 0 0 0 0 1794836220.1513062 -230404641.41613221 0 -230404641.41613221 -58922920.986668468 0 0 0 0 1007042315.7467651 -245589384.96191788 0 -245589384.96191788 165466070.80406475 0 0 0 0 460056997.62286377 -67481594.107573509 0 -67481594.107573509 172196105.17869592 0 0 0 0 578773329.50773621 -94776352.968731403 0 -94776352.968731403 77966367.61860466 0 0 0 0 254836033.20955658 -768475710.23422599 0 -768475710.23422599 279674485.92281246 0 0 0 0 2452793036.0439148 -252884998.37820005 0 -252884998.37820005 -910327094.42639589 0 0 0 0 1686780022.9314575 -1533952767.5745192 0 -1533952767.5745192 246222912.22604227 0 0 0 0 2265380072.0178223 -913628129.89234304 0 -913628129.89234304 91071688.537305832 0 0 0 0 1076716054.0494995 -537854922.6517086 0 -537854922.6517086 207163390.78344131 0 0 0 0 994813370.84124756 -353523036.28472996 0 -353523036.28472996 276498746.7046423 0 0 0 0 1130961230.0840454 -403384325.18492961 0 -403384325.18492961 109590965.18686652 0 0 0 0 1157197285.4016418 -465731071.90991902 0 -465731071.90991902 95412407.364971638 0 0 0 0 1215730566.6315918 -419242135.28632689 0 -419242135.28632689 184263995.02703005 0 0 0 0 1191174495.4926147 -500783268.75256062 0 -500783268.75256062 131560686.36712432 0 0 0 0 1117995063.5043182 -408670617.93433672 0 -408670617.93433672 250681095.98809385 0 0 0 0 1137349274.8609924 -434859077.34693527 0 -434859077.34693527 278401999.12788045 0 0 0 0 1366166156.9698486 -499385665.08632851 0 -499385665.08632851 197818788.72102875 0 0 0 0 1309796286.9875374 -262200594.20640284 0 -262200594.20640284 357680357.24731082 0 0 0 0 1847113364.4245605 -163399727.27172568 0 -163399727.27172568 246854756.85235041 0 0 0 0 1421032137.8795166 -319959136.26168603 0 -319959136.26168603 317551568.0554471 0 0 0 0 1432656663.2843628 -363557899.29291219 0 -363557899.29291219 223529648.99950737 0 0 0 0 1956255685.4056396 -306525352.51803839 0 -306525352.51803839 110507358.98713362 0 0 0 0 2263982561.9169464 -149262945.84435207 0 -149262945.84435207 144952546.49455464 0 0 0 0 2075979313.1018066 -40435797.671766758 0 -40435797.671766758 241229863.640129 0 0 0 0 1945271672.2736206 -269595472.59471869 0 -269595472.59471869 270289242.62973505 0 0 0 0 1992606951.569397 -58638251.725578427 0 -58638251.725578427 257638828.49081671 0 0 0 0 2070945059.4270325 -230493934.74996519 0 -230493934.74996519 402911145.96870422 0 0 0 0 2273381675.8394928 73539820.918391287 0 73539820.918391287 425853106.09151506 0 0 0 0 2891562160.5203552 105034238.52892375 0 105034238.52892375 146764195.23883545 0 0 0 0 2972607359.745224 460045.8953179121 0 460045.8953179121 48819130.246641397 0 0 0 0 2818763556.0247726 -219999696.69482851 0 -219999696.69482851 92897755.557396173 0 0 0 0 2965359807.2163696 142737733.61186588 0 142737733.61186588 63516022.575329706 0 0 0 0 3083888305.843689 -56726729.333870173 0 -56726729.333870173 -11865480.539811075 0 0 0 0 2682664710.5238791 -107858723.58374196 0 -107858723.58374196 160366239.13041902 0 0 0 0 2689408253.1365967 -182531100.67057109 0 -182531100.67057109 -29891753.030987978 0 0 0 0 2120869618.2715302 -317727586.19970071 0 -317727586.19970071 184527529.39765477 0 0 0 0 2579466413.2658539 -15270677.893827677 0 -15270677.893827677 53148814.008003473 0 0 0 0 2095754625.5403442 -248363361.44289017 0 -248363361.44289017 49546253.127133608 0 0 0 0 1592398049.9369202 -289749644.67819238 0 -289749644.67819238 226033323.64411867 0 0 0 0 2247777331.641571 -447202373.77093709 0 -447202373.77093709 -36600653.637908578 0 0 0 0 1509114854.0659485 -597448994.97580159 0 -597448994.97580159 178232908.93121862 0 0 0 0 1608069212.9924011 -590984431.12287927 0 -590984431.12287927 162907083.92419553 0 0 0 0 3459599.4995539263 896285.13169890642 0 896285.13169890642 916434.16999261105 0 0 0 0 1242114070.9698944 -229061344.5436371 0 -229061344.5436371 249143407.28440166 0 0 0 0 1559669301.5318909 -386223685.22011566 0 -386223685.22011566 80102734.553920388 0 0 0 0 1589679598.6224537 -340460550.91294962 0 -340460550.91294962 13204913.203132153 0 0 0 0 22255489.358856201 -1090536.6719025287 0 -1090536.6719025287 2987417.7821316477 0 0 0 0 28210.724837981164 -531.17351875454187 0 -531.17351875454187 7006.3689413031598 0 0 0 0 5524549.5561668426 495938.56750401109 0 495938.56750401109 -198523.43480882168 0 0 0 0 20851594.314601898 -8545192.9929739013 0 -8545192.9929739013 198651.45671110228 0 0 0 0 1613931309.4316711 -558937997.54320312 0 -558937997.54320312 188962503.88348025 0 0 0 0 7455300.532261461 617700.75724991411 0 617700.75724991411 566647.14604592789 0 0 0 0 3798880.868893519 1376529.1704706252 0 1376529.1704706252 931531.27583542233 0 0 0 0 2096046297.922821 -292457413.58196151 0 -292457413.58196151 212395722.42607492 0 0 0 0 1613339599.3651199 -570009119.92267454 0 -570009119.92267454 321844073.40754151 0 0 0 0 2268495836.3203125 -538277037.38123703 0 -538277037.38123703 207095397.73402596 0 0 0 0 1852170152.7051392 -714031430.55532503 0 -714031430.55532503 -13078794.668019414 0 0 0 0 3320410061.4225464 -662726261.99952996 0 -662726261.99952996 159507431.51609039 0 0 0 0 3263205590.7311401 56566721.766865239 0 56566721.766865239 103870155.36581418 0 0 0 0 2906615029.4334412 -247011414.35715461 0 -247011414.35715461 61092496.33160758 0 0 0 0 2254195936.225925 -279404897.95299751 0 -279404897.95299751 146649782.8577137 0 0 0 0 2844729181.7396736 -43274633.740500048 0 -43274633.740500048 137401997.3804605 0 0 0 0 3157723706.110199 32558273.666792274 0 32558273.666792274 77343084.399332881 0 0 0 0 3189773420.9781494 -7771402.4609781802 0 -7771402.4609781802 47679758.520510972 0 0 0 0 3177128366.2919235 20278626.025256187 0 20278626.025256187 184142346.94831526 0 0 0 0 3335298442.3611984 68967919.875801221 0 68967919.875801221 36587163.211592883 0 0 0 0 3396167186.6964722 -137441424.83079493 0 -137441424.83079493 224501285.10312185 0 0 0 0 3306312367.5511703 -187316594.29582635 0 -187316594.29582635 150829966.7503655 0 0 0 0 3378553047.8199615 -50795367.123899363 0 -50795367.123899363 354393871.04513407 0 0 0 0 3882349934.4815674 -373000965.62478125 0 -373000965.62478125 304213.88163859479 0 0 0 0 3794010354.9143372 52495130.075408027 0 52495130.075408027 191382434.31070668 0 0 0 0 4225252080.5984802 -533981548.46856439 0 -533981548.46856439 -22339570.722274899 0 0 0 0 2062460.2890281007 674883.1688766703 0 674883.1688766703 339078.14071144059 0 0 0 0 1747636454.7858124 -629917531.27246666 0 -629917531.27246666 572565975.23922467 0 0 0 0 21278526.479400635 420347.94101729657 0 420347.94101729657 12964.016816283936 0 0 0 0 3537242957.8160706 -34985119.527258329 0 -34985119.527258329 -22146858.731527757 0 0 0 0 4452228.9575808197 -129492.81062996387 0 -129492.81062996387 -307220.16350284126 0 0 0 0 34238.567682668567 -1667.9164273142815 0 -1667.9164273142815 2289.8285810004077 0 0 0 0 17288474.71963501 -2928303.56605459 0 -2928303.56605459 609175.14315109095 0 0 0 0 25608229.608627319 -5399695.5372090982 0 -5399695.5372090982 234166.12444859324 0 0 0 0 24692381.54750061 -5600418.0772103416 0 -5600418.0772103416 209270.12973361975 0 0 0 0 2408030334.3299713 -384234524.85115755 0 -384234524.85115755 32639784.144943096 0 0 0 0 1183038513.5505676 -83985273.685432434 0 -83985273.685432434 184423149.85972834 0 0 0 0 1757472877.0361671 -16514941.366312787 0 -16514941.366312787 -32997668.043632507 0 0 0 0 1089953420.2574768 -75737659.650747776 0 -75737659.650747776 22967036.293328643 0 0 0 0 1727841417.996933 -201453669.46413273 0 -201453669.46413273 250355269.22054648 0 0 0 0 1877288249.7121887 166975901.16019237 0 166975901.16019237 51854018.074793816 0 0 0 0 3774289877.6301117 -153315863.28398407 0 -153315863.28398407 -844418.55416083336 0 0 0 0 3276640025.4662857 -142339035.58446985 0 -142339035.58446985 197626938.1553719 0 0 0 0 2971671868.6792603 100109300.76311105 0 100109300.76311105 168348678.32175881 0 0 0 0 2997966771.1260529 83488220.140684575 0 83488220.140684575 -36120115.209331393 0 0 0 0 2990149564.7529449 76086595.293086663 0 76086595.293086663 86754.022486960486 0 0 0 0 2640173861.2835388 -263485260.90676713 0 -263485260.90676713 1669740.6263152659 0 0 0 0 2217244263.2343903 76688525.287045792 0 76688525.287045792 -114242.9141256843 0 0 0 0 1729515278.9575043 78255486.73864311 0 78255486.73864311 37902518.101489574 0 0 0 0 1260915326.1667328 125495651.22365764 0 125495651.22365764 191216.9786906284 0 0 0 0 1778086796.4160233 -275367438.66004395 0 -275367438.66004395 76445727.0053799 0 0 0 0 1028152585.6339417 -139353482.84444404 0 -139353482.84444404 7601836.1716018915 0 0 0 0 588424057.53312683 130396368.80593108 0 130396368.80593108 11978.484256355099 0 0 0 0 613432967.46081543 35353854.965158522 0 35353854.965158522 -98296650.252959609 0 0 0 0 623830728.41876221 89161757.076471388 0 89161757.076471388 123470750.78166959 0 0 0 0 107847971.46073914 124320925.52781868 0 124320925.52781868 48548.186593816637 0 0 0 0 383997073.46723938 -32688293.106430471 0 -32688293.106430471 -8168514.7488386035 0 0 0 0 300277256.61050415 143466702.76000863 0 143466702.76000863 12205213.635299303 0 0 0 0 94984524.770103455 -19187776.492786944 0 -19187776.492786944 -61036692.573261857 0 0 0 0 464068.54682295024 410503.24000030011 0 410503.24000030011 105681.6897808332 0 0 0 0 295697175.47338867 141843239.3377496 0 141843239.3377496 -114486021.37798074 0 0 0 0 321877624.15711975 81315740.98609221 0 81315740.98609221 -49746643.997448206 0 0 0 0 -128796440.57418823 -7429263.8282191753 0 -7429263.8282191753 199838477.23823977 0 0 0 0 357850669.87802124 63278668.66583848 0 63278668.66583848 -126685636.12376952 0 0 0 0 32368669.162826538 200515038.40423214 0 200515038.40423214 238051965.27726698 0 0 0 0 -223928904.1554718 306987497.73503816 0 306987497.73503816 225331487.80218697 0 0 0 0 1172514758.1105499 9246834.5354547501 0 9246834.5354547501 -111488115.95582104 0 0 0 0 -22455.433241903782 498105.71524327248 0 498105.71524327248 285765.65192767093 0 0 0 0 745109339.95414734 43864478.931212544 0 43864478.931212544 116985924.61235046 0 0 0 0 682296171.62155151 196824932.6327545 0 196824932.6327545 47742930.672614098 0 0 0 0 1116585728.0340652 -5102821.2853882313 0 -5102821.2853882313 43032153.814843655 0 0 0 0 776292896.21206665 118860693.19438672 0 118860693.19438672 151748725.13412046 0 0 0 0 757895033.33013916 19093149.853003979 0 19093149.853003979 110325955.25056338 0 0 0 0 779301613.02352905 91931457.557665825 0 91931457.557665825 33942370.180619717 0 0 0 0 634702123.59378052 107565730.36725998 0 107565730.36725998 116630295.20293236 0 0 0 0 597511533.86160278 196927259.36705542 0 196927259.36705542 16661080.829655647 0 0 0 0 666127563.45278931 240668592.04530764 0 240668592.04530764 -21313524.424995422 0 0 0 0 659970954.30795288 54047509.667286873 0 54047509.667286873 -93361080.267664909 0 0 0 0 627780816.49872017 206155027.10325745 0 206155027.10325745 -47636972.898239136 0 0 0 0 515452254.9680481 126340628.30214322 0 126340628.30214322 1987183.3443250656 0 0 0 0 511256584.12597656 155359212.69202757 0 155359212.69202757 55864698.779008389 0 0 0 0 761994315.25772476 185770702.38432428 0 185770702.38432428 -28396761.084434509 0 0 0 0 121120483.21966553 -28964323.774045929 0 -28964323.774045929 66361262.783559799 0 0 0 0 215732.91498593986 1863318.2331581861 0 1863318.2331581861 -130935.23340828868 0 0 0 0 142242849.48577881 249729544.43742466 0 249729544.43742466 130603600.96995759 0 0 0 0 5580076.4356746674 73792366.686904326 0 73792366.686904326 35629456.437739611 0 0 0 0 10134030.722351074 -60271090.525947332 0 -60271090.525947332 -60784853.235728979 0 0 0 0 262994170.72338867 17762453.598129272 0 17762453.598129272 -24579309.3450737 0 0 0 0 154224460.22293091 106449955.75164127 0 106449955.75164127 -14851287.973409891 0 0 0 0 256672456.02694702 91037456.898657799 0 91037456.898657799 17513887.440080643 0 0 0 0 327544730.60668945 -77798401.51606226 0 -77798401.51606226 -66658453.692923546 0 0 0 0 1104206232.6558228 -144670951.98978233 0 -144670951.98978233 -62037227.90171814 0 0 0 0 1196097.8061158657 805447.32231355458 0 805447.32231355458 -144142.49507361837 0 0 0 0 -2421187.84258461 -177421413.26703238 0 -177421413.26703238 -630229044.9114151 0 0 0 0 -34765.384626090527 1018445.9783237875 0 1018445.9783237875 -141982.09696582519 0 0 0 0 3035618.8727029562 2178297.1233465001 0 2178297.1233465001 -519220.79935692716 0 0 0 0 28172812.904510498 88774523.580540657 0 88774523.580540657 -370328607.35827255 0 0 0 0 152232457.65036011 245979985.46680355 0 245979985.46680355 -454349776.61241436 0 0 0 0 468667527.10101318 332891247.45939445 0 332891247.45939445 -650747308.06197739 0 0 0 0 136726520.66300964 318615819.84448028 0 318615819.84448028 16682782.153182983 0 0 0 0 120470949.30413818 622153658.69224358 0 622153658.69224358 170794406.28170013 0 0 0 0 643468993.94213867 167896503.56828308 0 167896503.56828308 -10877191.761294365 0 0 0 0 625306856.13063049 199254391.87066936 0 199254391.87066936 45066754.270469666 0 0 0 0 -123793545.05328369 616780052.82672882 0 616780052.82672882 248534159.66965675 0 0 0 0 -200835630.24201965 435556890.67531776 0 435556890.67531776 127695054.26939201 0 0 0 0 326470286.38485718 780091633.81358719 0 780091633.81358719 55341716.417695999 0 0 0 0 87272429.463500977 597451564.45581436 0 597451564.45581436 171292625.83198071 0 0 0 0 157327894.26654053 624643902.11563969 0 624643902.11563969 -63209950.241804123 0 0 0 0 2015076.1122354567 -75227.577559832484 0 -75227.577559832484 -297211.06869481411 0 0 0 0 113003396.19025803 -379153368.12019193 0 -379153368.12019193 340992223.9389801 0 0 0 0 447828223.07092285 -402488907.71389103 0 -402488907.71389103 -432370987.60579872 0 0 0 0 533807097.59216309 -163762750.25698853 0 -163762750.25698853 -147362278.16562366 0 0 0 0 571870962.01434326 170748206.03581619 0 170748206.03581619 -348505636.04950857 0 0 0 0 305194986.36037445 334301988.18009794 0 334301988.18009794 -154014293.7716732 0 0 0 0 503726230.43942261 153841864.04067707 0 153841864.04067707 -2495027.0339002609 0 0 0 0 584651453.25014496 293158917.066926 0 293158917.066926 -51894201.101011276 0 0 0 0 842794163.33901978 429251436.36648178 0 429251436.36648178 171845288.03208399 0 0 0 0 554427430.87171936 136897548.63988018 0 136897548.63988018 -102256125.32643223 0 0 0 0 119919987.84359741 44317347.431166172 0 44317347.431166172 -150743384.14488983 0 0 0 0 104507418.83337402 -16822981.168946028 0 -16822981.168946028 -161655696.30034637 0 0 0 0 156787820.64910889 26567146.149385452 0 26567146.149385452 -127999080.21045971 0 0 0 0 63108867.453399658 36290811.181365013 0 36290811.181365013 -107112741.92654419 0 0 0 0 63644764.565002441 86920688.798861504 0 86920688.798861504 -79805621.376550674 0 0 0 0 12163816.422023773 85753203.399251282 0 85753203.399251282 -21688664.580385208 0 0 0 0 10188369.189266205 67068131.510391176 0 67068131.510391176 -26207304.715181351 0 0 0 0 17504471.749221802 74968337.394220114 0 74968337.394220114 -106815264.74555588 0 0 0 0 22497873.863830566 34230262.384078026 0 34230262.384078026 -125259546.30621529 0 0 0 0 19889786.512796909 2562982.4666303564 0 2562982.4666303564 -981274.60024803411 0 0 0 0 37916943.189971924 66572230.581379414 0 66572230.581379414 -232319644.15308952 0 0 0 0 3629444.7455406189 72056123.688042819 0 72056123.688042819 -158539821.40639877 0 0 0 0 95993842.115875244 -2519586.1529426575 0 -2519586.1529426575 -266218139.02534866 0 0 0 0 3565427.426628992 5290279.412770953 0 5290279.412770953 -440089.39508099132 0 0 0 0 16345228.846557617 50290230.762321472 0 50290230.762321472 -27101961.315688133 0 0 0 0 15206581.222839355 -10390679.995803833 0 -10390679.995803833 -175869239.94727325 0 0 0 0 -73497341.957687378 -44932421.979913473 0 -44932421.979913473 15211850.535467148 0 0 0 0 31490805.524353027 13427269.33681488 0 13427269.33681488 -171022819.22711372 0 0 0 0 21005355.745788574 -75499037.241044998 0 -75499037.241044998 -64645547.04123497 0 0 0 0 90839596.653808594 -474912416.46768379 0 -474912416.46768379 76830341.656471252 0 0 0 0 592371375.47009277 -310207956.07813168 0 -310207956.07813168 101909250.48992133 0 0 0 0 -3921409.2136535645 -231375072.04209137 0 -231375072.04209137 241506373.57264996 0 0 0 0 966741.43418884277 507938.0131158866 0 507938.0131158866 65793.710714031593 0 0 0 0 246257096.66667175 -559808484.80873156 0 -559808484.80873156 -181831962.60565186 0 0 0 0 36426146.200881958 102974020.54965448 0 102974020.54965448 -58127022.970122337 0 0 0 0 321329874.86239624 -364039084.38996983 0 -364039084.38996983 -538097705.02144051 0 0 0 0 222585615.23168945 85811654.542736053 0 85811654.542736053 -543123609.95016968 0 0 0 0 119354496.17445374 -90377237.301854134 0 -90377237.301854134 -230379473.37670898 0 0 0 0 156999348.23431396 -35952029.788892746 0 -35952029.788892746 -175068710.54245842 0 0 0 0 182058841.68463135 -167899099.94579506 0 -167899099.94579506 -147163795.5170517 0 0 0 0 177304540.43133545 -189997491.33066845 0 -189997491.33066845 -185034968.07686424 0 0 0 0 220697289.35739136 -13624319.588449955 0 -13624319.588449955 -178801559.98423767 0 0 0 0 208753768.17810059 -37116647.295312881 0 -37116647.295312881 -218733150.19935441 0 0 0 0 189279196.24302673 49940799.234412909 0 49940799.234412909 -86081484.246855736 0 0 0 0 419649150.90637207 70644447.840841293 0 70644447.840841293 -91903806.109832764 0 0 0 0 268211687.99230957 -4713554.6985058784 0 -4713554.6985058784 -184112001.36133957 0 0 0 0 135176079.04782104 -51416978.175718784 0 -51416978.175718784 -16061177.737048626 0 0 0 0 99726588.039642334 29291388.572386265 0 29291388.572386265 -25890290.191626072 0 0 0 0 2564263.1823863685 2378265.4855158925 0 2378265.4855158925 290437.0705816797 0 0 0 0 -91032536.093994141 52615814.001414776 0 52615814.001414776 62768890.999817133 0 0 0 0 170666934.61245728 -40397093.290282726 0 -40397093.290282726 38746832.92144537 0 0 0 0 684765492.89663696 -34783621.885489941 0 -34783621.885489941 38801603.846179135 0 0 0 0 1060495.2565114647 781729.36573586613 0 781729.36573586613 26863.126860498451 0 0 0 0 332641917.80789185 327945325.50898266 0 327945325.50898266 318891136.09335876 0 0 0 0 152227967.24304199 185428923.89591193 0 185428923.89591193 93411483.473995209 0 0 0 0 6572551.4710083008 89529283.453260422 0 89529283.453260422 336713698.16834164 0 0 0 0 167185827.08416748 134039261.00099373 0 134039261.00099373 98995535.186441422 0 0 0 0 85305235.035644531 113430594.49312067 0 113430594.49312067 16611974.743023396 0 0 0 0 60987211.95703125 105414605.05661869 0 105414605.05661869 15526358.523256302 0 0 0 0 178969812.44026852 109457780.25555196 0 109457780.25555196 -68739456.752861023 0 0 0 0 174423815.94104004 19126970.783283234 0 19126970.783283234 -125147504.8823843 0 0 0 0 65523987.08203125 113375303.12508297 0 113375303.12508297 5171.3334708213806 0 0 0 0 48111826.058197021 160843625.93577337 0 160843625.93577337 95699628.003132343 0 0 0 0 -18974206.61505127 106562295.23610306 0 106562295.23610306 54703047.889515877 0 0 0 0 -66367547.503875732 92503347.29361701 0 92503347.29361701 149602349.75335383 0 0 0 0 8767101.6386127472 88365987.012855947 0 88365987.012855947 103783764.84233046 0 0 0 0 -116175462.01806641 33540767.183218479 0 33540767.183218479 168382689.85995531 0 0 0 0 40156897.753417969 -38902061.110667467 0 -38902061.110667467 65985509.354474545 0 0 0 0 95017018.404052734 65776241.965427399 0 65776241.965427399 141700725.59641838 0 0 0 0 94795191.693244934 -869207.04633754492 0 -869207.04633754492 664485932.42174435 0 0 0 0 32185214.881561279 -37069978.517461061 0 -37069978.517461061 260812140.12973571 0 0 0 0 270498116.40927124 -120628572.61408901 0 -120628572.61408901 22255758.441046476 0 0 0 0 88953125.665039062 23346436.255631804 0 23346436.255631804 -90614176.037898064 0 0 0 0 49855782.463104248 -94525675.714763522 0 -94525675.714763522 17727399.307088852 0 0 0 0 -136699616.53159714 -140449726.36457235 0 -140449726.36457235 8924030.9235510826 0 0 0 0 -121252347.68489075 20393604.654055245 0 20393604.654055245 -36031261.40616703 0 0 0 0 -49076667.819442749 -67970262.262932777 0 -67970262.262932777 -65659868.510953903 0 0 0 0 -90470253.146118164 -27778381.035381556 0 -27778381.035381556 87141308.981230736 0 0 0 0 -56108586.308273315 -55958750.722526729 0 -55958750.722526729 399866023.06523514 0 0 0 0 275703345.33322144 367327547.41093063 0 367327547.41093063 323900411.86168677 0 0 0 0 546449654.90054321 -186466825.84295011 0 -186466825.84295011 59134820.820940495 0 0 0 0 290113730.75167847 41024680.500721782 0 41024680.500721782 -126335136.65295362 0 0 0 0 225847164.03997803 37528964.415206313 0 37528964.415206313 -123141112.25206167 0 0 0 0 -114489720.2490921 -14123978.459502071 0 -14123978.459502071 -48485098.383123875 0 0 0 0 -85754447.930091858 181912022.89752814 0 181912022.89752814 -46971131.985185117 0 0 0 0 33618798.566131592 328238979.09394354 0 328238979.09394354 -145407975.13568413 0 0 0 0 951430.34865123034 769936.81955957413 0 769936.81955957413 60025.556853235699 0 0 0 0 171522467.98851013 -26113364.099907398 0 -26113364.099907398 -167102341.14168692 0 0 0 0 800564.77212207019 438192.11278332025 0 438192.11278332025 -407343.96066944546 0 0 0 0 -151962003.37406921 102839919.66976784 0 102839919.66976784 -71556.84696671991 0 0 0 0 392381540.25793457 -86584811.733392552 0 -86584811.733392552 -156990976.18863082 0 0 0 0 -30720560.777618408 17952291.684582967 0 17952291.684582967 -31673299.038510021 0 0 0 0 -206605665.76944733 -97161047.629275501 0 -97161047.629275501 -3723865.2219862938 0 0 0 0 -171411615.69146729 55986249.038549662 0 55986249.038549662 -126410781.4288663 0 0 0 0 -317447631.0534668 4010644.67057091 0 4010644.67057091 -43346571.49767606 0 0 0 0 -152511520.70727539 -44543433.592734039 0 -44543433.592734039 -130470774.74259035 0 0 0 0 -221324306.20220947 -150020884.76121092 0 -150020884.76121092 -147985830.00942397 0 0 0 0 -65598.321388572454 27273.298520063981 0 27273.298520063981 -6283.339433326968 0 0 0 0 -71687459.328186035 -37714776.994820595 0 -37714776.994820595 -49948257.779349327 0 0 0 0 176045856.28161621 16473524.530248642 0 16473524.530248642 -121495798.90073198 0 0 0 0 209345395.1036377 73563569.950163066 0 73563569.950163066 -191198511.10982883 0 0 0 0 15150118.388275146 132854711.6766102 0 132854711.6766102 -108560325.85037351 0 0 0 0 -155211799.42053223 71453491.56765908 0 71453491.56765908 -104889969.20989451 0 0 0 0 -168569072.50811768 269670081.179708 0 269670081.179708 272037.1944165309 0 0 0 0 437845179.21003723 64340735.378909707 0 64340735.378909707 -231594176.28403544 0 0 0 0 254000065.09448242 250650807.42615753 0 250650807.42615753 -133682046.63641649 0 0 0 0 -457342443.5929718 -24674708.310225978 0 -24674708.310225978 49543765.895734549 0 0 0 0 -564002.06242185086 382852.79008804262 0 382852.79008804262 48788.870599429596 0 0 0 0 -499152.80668640137 295454.90099846554 0 295454.90099846554 5.8118705362792582 0 0 0 0 -409835.58334350586 251201.92730516422 0 251201.92730516422 -182018.70540138014 0 0 0 0 -131695.25905326009 116683.07270956971 0 116683.07270956971 -242858.19657012774 0 0 0 0 2078933.7032470703 2292638.4131832509 0 2292638.4131832509 -3955702.6962943436 0 0 0 0 3206256.7121887207 -2113179.7845387664 0 -2113179.7845387664 207441.96712595772 0 0 0 0 4282588.6856117249 480045.68026566296 0 480045.68026566296 -9624999.1119307131 0 0 0 0 -349455.55895996094 143814.9291815754 0 143814.9291815754 -251.22499760319391 0 0 0 0 -5933500.6175231934 -2994881.5759621263 0 -2994881.5759621263 2037669.2737840326 0 0 0 0 -88736.787627756596 38305.118885518983 0 38305.118885518983 -104207.56624343488 0 0 0 0 400678.47802734375 340828.35899996868 0 340828.35899996868 -165928.2637943642 0 0 0 0 1359767.7151184082 -98108.017716970484 0 -98108.017716970484 771.23036495774602 0 0 0 0 -2181048.9924621582 9656111.7242428605 0 9656111.7242428605 -10251087.629603816 0 0 0 0 2278010.4100036621 4079685.6174717853 0 4079685.6174717853 -17454107.977643196 0 0 0 0 -183829.8365932554 -566342.15010104142 0 -566342.15010104142 244825.1212106162 0 0 0 0 -5820017.2552185059 5394023.6930240802 0 5394023.6930240802 -12427842.821993276 0 0 0 0 -18522374.022155762 7239029.4959351309 0 7239029.4959351309 -2582225.0619342467 0 0 0 0 -5785460.3891601562 8444674.1591898669 0 8444674.1591898669 -5971562.7933140416 0 0 0 0 -6385254.2925720215 -2743656.1906566871 0 -2743656.1906566871 1204472.6486987108 0 0 0 0 -2964799.2462218851 -68678.37940531224 0 -68678.37940531224 519945.36654282571 0 0 0 0 -12974656.724967957 -3959508.8884882927 0 -3959508.8884882927 11820858.341999054 0 0 0 0 -9333409.4266662598 6517666.0841577053 0 6517666.0841577053 -2848380.1504006386 0 0 0 0 -150428.94480895996 2870151.1678034365 0 2870151.1678034365 -568686.77708531043 0 0 0 0 -1335976.1385987401 394854.11076580733 0 394854.11076580733 868766.57505466416 0 0 0 0 -1176201.3298339844 3899609.2042321996 0 3899609.2042321996 -907461.61090122163 0 0 0 0 -1083563.8651071712 1969719.4751845226 0 1969719.4751845226 -1517310.5613981977 0 0 0 0 -110172021.6272583 59930594.712762833 0 59930594.712762833 31743928.64948082 0 0 0 0 -170162777.47315979 -10549297.517884851 0 -10549297.517884851 79865379.356181622 0 0 0 0 -899659.66136860847 1078545.841912359 0 1078545.841912359 -427918.81993543101 0 0 0 0 74213902.968505859 -42311527.133393034 0 -42311527.133393034 -46971139.561413661 0 0 0 0 173204681.66143799 36806406.327528387 0 36806406.327528387 -18042326.689960577 0 0 0 0 69616969.041442871 12620580.84161995 0 12620580.84161995 -23209913.161508422 0 0 0 0 64299929.462368011 8369273.5995460693 0 8369273.5995460693 -35418.09368231894 0 0 0 0 71759505.174407959 4159236.6446065893 0 4159236.6446065893 -7027818.9257798837 0 0 0 0 61225888.042808533 17643746.830088668 0 17643746.830088668 -8437222.6573157385 0 0 0 0 77535147.979309082 23682070.028931931 0 23682070.028931931 -7777960.9335077126 0 0 0 0 40240806.402160645 14309057.056773502 0 14309057.056773502 -18601.930703236831 0 0 0 0 8459457.2556304932 9130690.1298922338 0 9130690.1298922338 4915110.5154803963 0 0 0 0 38614495.576324463 35945248.682503693 0 35945248.682503693 13043792.146530014 0 0 0 0 33566417.631835938 52114256.258085757 0 52114256.258085757 54151617.896075159 0 0 0 0 14764395.345336914 5477731.7682289984 0 5477731.7682289984 5874029.5887852786 0 0 0 0 8347832.2132263184 3180637.6190628242 0 3180637.6190628242 -1567596.6676005311 0 0 0 0 -1765207.9428405762 2300799.4719678424 0 2300799.4719678424 2379378.6567623634 0 0 0 0 105282.19925239682 228488.81287456304 0 228488.81287456304 -276501.30732065102 0 0 0 0 -23565581.008300781 9647294.7557559516 0 9647294.7557559516 12904.495952943105 0 0 0 0 36011739.185287476 17387428.382514745 0 17387428.382514745 1877192.7690828163 0 0 0 0 -644921.20319840312 520819.53361831605 0 520819.53361831605 -352231.17830754613 0 0 0 0 -19429874.966369629 -8981008.9785944037 0 -8981008.9785944037 -5649396.2540998552 0 0 0 0 -35837.670587062836 15408.389946786687 0 15408.389946786687 -27349.489044049387 0 0 0 0 -6036459.2279052734 17122489.490581758 0 17122489.490581758 -4976900.366280755 0 0 0 0 -3598101.9027099609 12649215.332465902 0 12649215.332465902 -14365049.903594235 0 0 0 0 -3670925.1597900391 571855.18469192134 0 571855.18469192134 2078872.9011957247 0 0 0 0 -1122648.3169823885 740713.12996391952 0 740713.12996391952 -228198.07375794387 0 0 0 0 -1317141.1492614746 2624183.678031669 0 2624183.678031669 17397.710058258846 0 0 0 0 -5791052.196723938 5835263.7275089212 0 5835263.7275089212 -7201565.4077160163 0 0 0 0 -4785071.5857127756 1898940.8152507227 0 1898940.8152507227 1044182.2334589167 0 0 0 0 -14463781.747497559 8255811.4311152697 0 8255811.4311152697 2448214.3088924885 0 0 0 0 -9485912.1979980469 4929546.7300434709 0 4929546.7300434709 -5066603.735478878 0 0 0 0 -17068314.527038574 29477805.925320923 0 29477805.925320923 39816874.166438818 0 0 0 0 10255353.088684082 -19060469.954709649 0 -19060469.954709649 5097311.2509582043 0 0 0 0 4699551.6984040439 2833582.2143111676 0 2833582.2143111676 -1794408.9611745444 0 0 0 0 20006025.538513184 6532800.9426521659 0 6532800.9426521659 -61028008.238224536 0 0 0 0 1719486.6537797451 599801.40771652944 0 599801.40771652944 -875831.18131102924 0 0 0 0 44515445.331161499 62253233.501650512 0 62253233.501650512 55974071.281874895 0 0 0 0 22655532.963409424 -60238979.253188014 0 -60238979.253188014 135612294.69131184 0 0 0 0 27454404.182678223 -28358774.500440598 0 -28358774.500440598 62109939.967092037 0 0 0 0 30901470.10369873 75795844.846040845 0 75795844.846040845 97721224.052839041 0 0 0 0 7585591.2600097656 161262.08034968376 0 161262.08034968376 101371258.1730907 0 0 0 0 381968605.75280762 93909570.559525013 0 93909570.559525013 11980304.28176266 0 0 0 0 583936.89717656374 27393.564206261188 0 27393.564206261188 -226161.28192240899 0 0 0 0 175451415.6568222 -113665704.06142271 0 -113665704.06142271 -41405305.13442795 0 0 0 0 466481.52023842931 256170.52100165933 0 256170.52100165933 -36995.251547132793 0 0 0 0 199351435.84152222 149035834.39784926 0 149035834.39784926 110737868.73576745 0 0 0 0 214184050.1391449 -452545859.13979137 0 -452545859.13979137 -50034695.272763014 0 0 0 0 416058929.54608154 15214608.369856909 0 15214608.369856909 -50163668.446450531 0 0 0 0 197683607.51626587 -2040195.8429892063 0 -2040195.8429892063 -33675788.743405581 0 0 0 0 24959976.393680573 -14985939.459190778 0 -14985939.459190778 -34420038.190361023 0 0 0 0 26296866.878457204 3441447.4999252446 0 3441447.4999252446 -1761757.7029289082 0 0 0 0 54780056.004043579 22591985.290105343 0 22591985.290105343 -118613799.07412386 0 0 0 0 33930190.195251465 -39582347.062915802 0 -39582347.062915802 -15659019.980177879 0 0 0 0 24982411.17150116 -3905345.3554098606 0 -3905345.3554098606 -70952966.096899986 0 0 0 0 4246236.5001831055 -21824989.09948802 0 -21824989.09948802 10090995.687689781 0 0 0 0 7286937.5637434348 2433900.1946666539 0 2433900.1946666539 -2423167.5269872122 0 0 0 0 -37264529.876342773 22416578.567625046 0 22416578.567625046 935170.70556128025 0 0 0 0 4947449.9021072388 -21444473.691544294 0 -21444473.691544294 -1812170.2291669846 0 0 0 0 14191767.17250061 -1257552.4103140235 0 -1257552.4103140235 -351742.44494915009 0 0 0 0 -177776386.16304016 464517863.58305883 0 464517863.58305883 -589419008.6875248 0 0 0 0 -238605635.72737122 287520134.72092867 0 287520134.72092867 -166172381.44617653 0 0 0 0 -237840336.56532288 664142269.62620378 0 664142269.62620378 -1135854002.4070711 0 0 0 0 24091541.534235701 5798669.0424640821 0 5798669.0424640821 -551719.57802297128 0 0 0 0 283051207.48068237 98934731.629657745 0 98934731.629657745 -1295327058.9418898 0 0 0 0 -525980931.00348663 182069694.06019282 0 182069694.06019282 -11872492.360408783 0 0 0 0 -54742592.026367188 350278919.45804501 0 350278919.45804501 9583432.3442897797 0 0 0 0 -152355670.6078949 27730702.521632314 0 27730702.521632314 689778057.37446213 0 0 0 0 1592867413.4656677 -823466660.15061951 0 -823466660.15061951 942936265.34350872 0 0 0 0 -496834228.56292725 1022254906.8667002 0 1022254906.8667002 878511388.00429726 0 0 0 0 -333624939.99360657 -552192521.9988935 0 -552192521.9988935 -1338177373.8779545 0 0 0 0 284415178.23306274 1758112320.5215573 0 1758112320.5215573 -2409871424.9329162 0 0 0 0 113175695.97747803 44872366.849900246 0 44872366.849900246 32946028.089551926 0 0 0 0 16938532.415405273 -13376856.93813467 0 -13376856.93813467 186899828.57149506 0 0 0 0 -34347189.835205078 85440885.92915535 0 85440885.92915535 214209687.9129622 0 0 0 0 -5875725.710144043 24284891.881830692 0 24284891.881830692 167447005.65955639 0 0 0 0 16833274.689788818 36728961.579559326 0 36728961.579559326 -26125500.690505981 0 0 0 0 21330179.150146484 69160811.986046791 0 69160811.986046791 36039088.645491481 0 0 0 0 39532414.438720703 24892738.093233109 0 24892738.093233109 -1432930.7699508667 0 0 0 0 -12702850.895935059 36512355.562355995 0 36512355.562355995 63267605.05286026 0 0 0 0 -13466246.622375488 40593890.378516197 0 40593890.378516197 72326986.988903046 0 0 0 0 -20162962.806274414 58928060.640408516 0 58928060.640408516 31804170.259427547 0 0 0 0 -19041619.41418457 71725543.012925148 0 71725543.012925148 12848480.354942322 0 0 0 0 -22981740.454360962 95193596.711570024 0 95193596.711570024 53482504.791812897 0 0 0 0 -47166865.153167725 88281077.178890228 0 88281077.178890228 109752434.89354515 0 0 0 0 -3271614.4449462891 34815892.139928818 0 34815892.139928818 74519185.648710251 0 0 0 0 -53656346.75579834 74464402.906489372 0 74464402.906489372 82381481.702768326 0 0 0 0 -38053912.769714355 42746749.829817772 0 42746749.829817772 145177361.82446861 0 0 0 0 -44250363.106567383 143159982.55972195 0 143159982.55972195 2532008.6112213135 0 0 0 0 -40957242.129333496 40044486.13233614 0 40044486.13233614 -14583804.722414017 0 0 0 0 -35171900.177062988 96185367.225369453 0 96185367.225369453 116532933.23290062 0 0 0 0 -80627543.651931763 47325536.700226784 0 47325536.700226784 64096816.27580452 0 0 0 0 -61248338.627990723 57712072.6927948 0 57712072.6927948 75926118.218336105 0 0 0 0 -66861843.083007812 88912908.016083717 0 88912908.016083717 109919582.77498841 0 0 0 0 7647644.1140136719 -3635362.8987321854 0 -3635362.8987321854 12328750.638539314 0 0 0 0 32348205.297042847 -42009233.965538502 0 -42009233.965538502 22537366.654132843 0 0 0 0 70277484.701599121 102200879.21623421 0 102200879.21623421 133651762.01990318 0 0 0 0 -615856.23560852557 447823.60622351617 0 447823.60622351617 599176.60096604843 0 0 0 0 -74369.683247715235 91705.325195096433 0 91705.325195096433 -111654.51829980314 0 0 0 0 -4717076.748046875 -13794102.756390095 0 -13794102.756390095 34783817.647874832 0 0 0 0 -5004588.0685882568 18871791.315874994 0 18871791.315874994 18045574.824826241 0 0 0 0 -26201153.193832397 1529757.9779999256 0 1529757.9779999256 10005448.605609894 0 0 0 0 -31416662.594512939 49598032.82223177 0 49598032.82223177 -9201193.5052556992 0 0 0 0 -22070995.310668945 43730037.885726929 0 43730037.885726929 -17669606.834181786 0 0 0 0 -23450426.193634033 39219789.106348991 0 39219789.106348991 56711285.387138367 0 0 0 0 -18153507.463928223 37006224.624274492 0 37006224.624274492 -9573587.5581741333 0 0 0 0 12638647.272766113 80519281.442908287 0 80519281.442908287 -11460304.305625916 0 0 0 0 -30776993.414581299 44779788.854413509 0 44779788.854413509 -3988272.6029510498 0 0 0 0 3852999.3980712891 46789859.80112648 0 46789859.80112648 -65622880.591751099 0 0 0 0 26208754.297105774 3568489.093785014 0 3568489.093785014 -2029996.4575293378 0 0 0 0 7170380.1138000488 71532286.06734848 0 71532286.06734848 -82719913.576116562 0 0 0 0 -86494507.35333252 390547417.13400269 0 390547417.13400269 -785840477.8130331 0 0 0 0 13159116.346364886 2220698.8980340138 0 2220698.8980340138 -4214316.3737874366 0 0 0 0 19661390.710270524 8845617.4884242732 0 8845617.4884242732 1051443.1663035816 0 0 0 0 24477305.001480103 -3997893.773504138 0 -3997893.773504138 -20546441.640320301 0 0 0 0 2647179.6437992752 584191.20682739466 0 584191.20682739466 -1362353.3276897734 0 0 0 0 -225086730.64091492 399904936.07886696 0 399904936.07886696 -341929847.55956173 0 0 0 0 -141019639.39578247 354304999.88343143 0 354304999.88343143 -584162297.20259666 0 0 0 0 -206670445.796875 305951129.11397171 0 305951129.11397171 -561557987.34227371 0 0 0 0 39132705.508880615 13649842.332976818 0 13649842.332976818 -268979791.82549667 0 0 0 0 -124136608.57470703 241029924.46898174 0 241029924.46898174 -261813900.3151226 0 0 0 0 -96020553.185333252 236668165.62380409 0 236668165.62380409 -277946714.93906403 0 0 0 0 -229264017.11383057 415066996.10673714 0 415066996.10673714 -395187281.08450699 0 0 0 0 22962637.370455697 3514975.9683721671 0 3514975.9683721671 -1074313.2912456249 0 0 0 0 -165009040.35018921 228636214.6962738 0 228636214.6962738 145719326.62843037 0 0 0 0 -6242983.534576416 -3667572.0372095108 0 -3667572.0372095108 -19184465.011968613 0 0 0 0 147591420.45355225 6866272.7890748978 0 6866272.7890748978 -122336215.29331779 0 0 0 0 30327356.905059814 80606954.565812111 0 80606954.565812111 -178704535.79749393 0 0 0 0 639671.91108131409 21175676.403321505 0 21175676.403321505 -101291242.09218597 0 0 0 0 37292771.630462646 77461850.541069984 0 77461850.541069984 -74103821.84571743 0 0 0 0 -3218239.9243774414 61587129.325793266 0 61587129.325793266 -23338752.8927145 0 0 0 0 1696589.6026000977 41044092.438396454 0 41044092.438396454 -58595305.436146736 0 0 0 0 6426105.7119750977 33124731.292059898 0 33124731.292059898 -27678856.510216713 0 0 0 0 7310781.7366943359 71707703.31845665 0 71707703.31845665 -94709675.693912506 0 0 0 0 -19923772.809631348 51170935.5932827 0 51170935.5932827 -99379600.396648169 0 0 0 0 4368324.3544921875 22180511.050783157 0 22180511.050783157 -169148860.80489159 0 0 0 0 -48529.986901596189 9028755.1378803849 0 9028755.1378803849 -679316.35906122683 0 0 0 0 -42603814.596191406 61550705.860256195 0 61550705.860256195 24678800.30167532 0 0 0 0 -47036381.47958374 63057560.582203388 0 63057560.582203388 -364907713.18311119 0 0 0 0 11103913.229614258 10507714.755983353 0 10507714.755983353 -479554819.18339586 0 0 0 0 -49942682.99118042 54307540.180817008 0 54307540.180817008 -351766236.48600388 0 0 0 0 -160964.69784100354 2494012.9419139307 0 2494012.9419139307 -263149.23112717853 0 0 0 0 -47807384.83001709 11360262.979002953 0 11360262.979002953 -554860021.09257126 0 0 0 0 7125700.4426116943 187186019.20711899 0 187186019.20711899 -937372348.60651016 0 0 0 0 -107881162.05941772 106235700.67577696 0 106235700.67577696 -147299350.84639263 0 0 0 0 -155329621.43368053 240345120.07297736 0 240345120.07297736 -335476265.83247375 0 0 0 0 -144891780.11662197 112683629.02075878 0 112683629.02075878 -347337855.00206947 0 0 0 0 -85957267.760253906 116042151.31734657 0 116042151.31734657 -54557286.975589752 0 0 0 0 -78658474.631835938 186857049.84705639 0 186857049.84705639 -269405448.519243 0 0 0 0 -108270502.57133484 242571514.0857867 0 242571514.0857867 61071741.077472806 0 0 0 0 -17009194.768321577 184442093.21676081 0 184442093.21676081 96835409.264677525 0 0 0 0 -38899708.169265747 195723518.16112638 0 195723518.16112638 -108475677.24757302 0 0 0 0 -155281682.02568054 51535029.185659528 0 51535029.185659528 38779387.859535217 0 0 0 0 -404215266.7658844 76831889.721636772 0 76831889.721636772 343036886.38952875 0 0 0 0 -649480.61710123718 2761481.7314782999 0 2761481.7314782999 4966525.850670157 0 0 0 0 -86660024.055147648 -36323380.527737983 0 -36323380.527737983 113975413.79356956 0 0 0 0 -84463406.315063477 82447574.653819323 0 82447574.653819323 52201311.056595325 0 0 0 0 -192827977.37194824 5116361.4953141212 0 5116361.4953141212 57553433.41345644 0 0 0 0 -23025636.503662109 51455905.445940971 0 51455905.445940971 61687418.320572376 0 0 0 0 -188399535.10168457 94612188.796231747 0 94612188.796231747 -45673334.599366188 0 0 0 0 -12028818.977905273 74352017.693081379 0 74352017.693081379 -79907112.799304485 0 0 0 0 -116918365.98042297 159960224.66852188 0 159960224.66852188 -303915730.63758659 0 0 0 0 -110855054.80703735 120628474.70427942 0 120628474.70427942 -95741397.04309082 0 0 0 0 -302355487.00164795 155651652.93515968 0 155651652.93515968 -83155512.68093586 0 0 0 0 -294835564.31396484 400509844.0512867 0 400509844.0512867 -510702012.54411745 0 0 0 0 -344988950.87887192 166683527.95408696 0 166683527.95408696 -269250400.53751755 0 0 0 0 -143915285.53321838 217524490.04377222 0 217524490.04377222 -227965473.97150612 0 0 0 0 -167183070.11367798 302157469.2318306 0 302157469.2318306 -520927740.6379261 0 0 0 0 -98198890.658325195 207804383.69858217 0 207804383.69858217 -248187292.52203465 0 0 0 0 -137373697.34388733 66037233.085338593 0 66037233.085338593 26802367.665088654 0 0 0 0 -4440412.712310791 198111001.85000038 0 198111001.85000038 -227698399.38165379 0 0 0 0 -228248074.45219421 71322950.260920286 0 71322950.260920286 239875379.02078819 0 0 0 0 1933199.2591959089 1825826.842023544 0 1825826.842023544 2120576.8397306553 0 0 0 0 89575825.618160248 -263800249.09938267 0 -263800249.09938267 282180216.79430294 0 0 0 0 -116710169.02734375 -8642260.7757101059 0 -8642260.7757101059 183092376.20014048 0 0 0 0 40061910.604059219 76434869.435268432 0 76434869.435268432 7040553.8891496658 0 0 0 0 1812977115.9343319 -855637583.47646797 0 -855637583.47646797 109385879.50103569 0 0 0 0 104836460.43664551 -435774308.63652515 0 -435774308.63652515 648339737.96253788 0 0 0 0 906712.56538687646 400463.74748379737 0 400463.74748379737 526816.40307864826 0 0 0 0 221731822.90365601 -131955696.65280104 0 -131955696.65280104 87543543.392683744 0 0 0 0 508750450.93070984 -116409040.69560957 0 -116409040.69560957 -397794614.84234619 0 0 0 0 473559216.76628113 -235161404.73084831 0 -235161404.73084831 137100579.98035431 0 0 0 0 1084983.9782831986 721203.96139731258 0 721203.96139731258 8163843.0833815224 0 0 0 0 810109521.00144958 -317006296.92756748 0 -317006296.92756748 28973917.419960976 0 0 0 0 629423044.87258911 -347435991.8626585 0 -347435991.8626585 175314500.18019867 0 0 0 0 685899142.88369751 -222452933.14713144 0 -222452933.14713144 9819452.1563167572 0 0 0 0 309415339.28707886 -276963044.00417137 0 -276963044.00417137 36730056.886723757 0 0 0 0 303813576.60929871 -212377800.5112052 0 -212377800.5112052 965142967.88423061 0 0 0 0 253262924.51225281 -124288232.32614374 0 -124288232.32614374 310914597.39000607 0 0 0 0 853723.50848899223 166391.68715514988 0 166391.68715514988 5501021.2690220978 0 0 0 0 783526987.17500305 1309797664.3379221 0 1309797664.3379221 -189501069.64561939 0 0 0 0 1293672.4721376151 3114676.3643708378 0 3114676.3643708378 4225430.0695087481 0 0 0 0 53323783.0546875 -176081616.13454342 0 -176081616.13454342 149930110.34144342 0 0 0 0 277439664.65745544 -805797248.27719307 0 -805797248.27719307 101626001.47306633 0 0 0 0 594925305.08145142 422897239.19481945 0 422897239.19481945 613992714.85394001 0 0 0 0 107905.85736580193 335898.13576027751 0 335898.13576027751 3627241.3766564233 0 0 0 0 859088486.74344635 291135212.89966822 0 291135212.89966822 199011749.52785873 0 0 0 0 -622542648.79206848 -606173280.08918118 0 -606173280.08918118 895212426.43046355 0 0 0 0 520642792.58774948 -564168978.91977406 0 -564168978.91977406 362927365.45319891 0 0 0 0 -203466760.85269165 -164858687.77336717 0 -164858687.77336717 142931770.85552025 0 0 0 0 592708954.53595161 280504550.48932564 0 280504550.48932564 180629306.18253708 0 0 0 0 637260990.81552124 26295362.322307587 0 26295362.322307587 -70894410.323015213 0 0 0 0 305276195.50675964 -149714704.47033978 0 -149714704.47033978 74004835.210018158 0 0 0 0 198951490.48562622 -99583753.802534103 0 -99583753.802534103 198885856.92396545 0 0 0 0 -161657899.39305878 -72081854.820375055 0 -72081854.820375055 246498082.7574296 0 0 0 0 797947.53164675087 2575005.2514417842 0 2575005.2514417842 9515782.7187213432 0 0 0 0 147729769.76615143 38170271.061371803 0 38170271.061371803 22966817.515296936 0 0 0 0 390989106.2276001 -208472343.94757271 0 -208472343.94757271 89385798.618045807 0 0 0 0 -957279.9586597383 -102104.78065626696 0 -102104.78065626696 1481659.5228727199 0 0 0 0 -130642281.56967163 23886853.296390533 0 23886853.296390533 -58524032.267070487 0 0 0 0 493240323.4538269 76666043.428126335 0 76666043.428126335 14405423.671378136 0 0 0 0 563253995.32504272 246594086.50311565 0 246594086.50311565 118003036.44940186 0 0 0 0 498007835.72639465 181194987.35569668 0 181194987.35569668 346738291.36318684 0 0 0 0 209030824.52215576 -113342364.62363148 0 -113342364.62363148 1107855918.8345413 0 0 0 0 305697826.74694824 -12395208.762890816 0 -12395208.762890816 475027626.19684887 0 0 0 0 546452552.7870636 278723817.73816776 0 278723817.73816776 205184713.63097763 0 0 0 0 373856.20787566714 95732.750875338912 0 95732.750875338912 2191190.9910763279 0 0 0 0 713617288.0879364 473029657.1211729 0 473029657.1211729 451657397.93910408 0 0 0 0 502587927.66347122 299327807.23698151 0 299327807.23698151 1052293132.8746681 0 0 0 0 -418467612.41287994 404280784.67714548 0 404280784.67714548 1244223152.3207817 0 0 0 0 540331705.50566101 -781533978.12336445 0 -781533978.12336445 -167326152.04541016 0 0 0 0 252510863.06887817 120937572.98421097 0 120937572.98421097 -654150299.96240425 0 0 0 0 227820123.96158981 -241457475.36668867 0 -241457475.36668867 156107001.30187416 0 0 0 0 504841403.64389038 -217669173.38555717 0 -217669173.38555717 115227254.47494507 0 0 0 0 -108370744.95901489 91665455.42372036 0 91665455.42372036 -96268852.495464325 0 0 0 0 437823297.28570557 -311402191.58523083 0 -311402191.58523083 5959910.7613754272 0 0 0 0 180073899.57635498 -51146362.846647263 0 -51146362.846647263 36065644.179035187 0 0 0 0 486425433.23101807 -186841040.01419067 0 -186841040.01419067 -191506800.51472282 0 0 0 0 523657658.35899353 -243599350.64249516 0 -243599350.64249516 -299287902.4915657 0 0 0 0 -96267230.676300049 -236212307.88170385 0 -236212307.88170385 -528427194.02729559 0 0 0 0 2270354.7861664109 655699.80950427055 0 655699.80950427055 -3392041.0172793632 0 0 0 0 -243864840.09921265 309224921.78490257 0 309224921.78490257 -212793922.60223293 0 0 0 0 13652663.745399475 19202897.558547735 0 19202897.558547735 -15923055.582702637 0 0 0 0 3052999.2662832215 3561895.2292055413 0 3561895.2292055413 -988536.84210816771 0 0 0 0 329207561.15193176 -111801249.66027069 0 -111801249.66027069 24397906.427659988 0 0 0 0 321074031.2722168 -116993164.67382622 0 -116993164.67382622 64829165.091381073 0 0 0 0 351010239.70263672 -62770489.095395565 0 -62770489.095395565 -24309141.609699249 0 0 0 0 262755075.54441833 -52585996.228779793 0 -52585996.228779793 29081622.449449539 0 0 0 0 390615348.11977339 -140228327.78114474 0 -140228327.78114474 -13444729.462043762 0 0 0 0 566204726.83242798 -360665602.97494435 0 -360665602.97494435 3030861.1032142639 0 0 0 0 796817.07696449757 389623.88627277315 0 389623.88627277315 -736311.75424396247 0 0 0 0 419811465.00348663 -315619380.32278705 0 -315619380.32278705 149284260.50580978 0 0 0 0 351677835.79766846 -96710850.386398315 0 -96710850.386398315 186137799.67292786 0 0 0 0 273727080.46554565 -122657573.66022098 0 -122657573.66022098 56440136.806083679 0 0 0 0 -4619311.2401428223 -1853519.6494979858 0 -1853519.6494979858 4285578.499294281 0 0 0 0 -840702.97406005859 50251109.008984506 0 50251109.008984506 -26918856.942804337 0 0 0 0 -171696439.58535767 268670601.71904278 0 268670601.71904278 -39038290.62311554 0 0 0 0 2638226.8079059124 7043926.7780344933 0 7043926.7780344933 12442944.715357149 0 0 0 0 -225815021.90001678 108668643.29095805 0 108668643.29095805 58851949.434341431 0 0 0 0 -20962167.206298828 101878498.18703604 0 101878498.18703604 11542709.928465843 0 0 0 0 65768614.472824097 78449306.801879883 0 78449306.801879883 -213567092.23574829 0 0 0 0 257585006.86428833 98207190.707695007 0 98207190.707695007 -8054912.3278669119 0 0 0 0 7509259.0066986084 112296088.50807285 0 112296088.50807285 -4600100.1757669449 0 0 0 0 -61652926.679443359 148197911.11119843 0 148197911.11119843 345270223.1959548 0 0 0 0 -22934231.419830322 84671139.77497673 0 84671139.77497673 -130681907.88733006 0 0 0 0 6743043.2137375325 10739007.043481328 0 10739007.043481328 12390708.033390295 0 0 0 0 -8618572.8730773926 232919641.53016567 0 232919641.53016567 -210190880.04541752 0 0 0 0 65466591.80847168 47691010.708772659 0 47691010.708772659 -134543867.94089508 0 0 0 0 60497909.762664795 -1074436.1573619843 0 -1074436.1573619843 -192741142.60554123 0 0 0 0 172904738.36880493 93368496.228219986 0 93368496.228219986 -139113185.82904816 0 0 0 0 75832803.764221191 158075855.04332256 0 158075855.04332256 -172435303.18119049 0 0 0 0 163412469.6105957 -110370248.72745705 0 -110370248.72745705 -252154424.99288702 0 0 0 0 182085332.85461426 -179801993.3083992 0 -179801993.3083992 5665877.3207452297 0 0 0 0 -20624392.53225708 59387907.065042496 0 59387907.065042496 -139613642.45550537 0 0 0 0 142278120.37335205 6745302.5013799667 0 6745302.5013799667 -124893632.75242233 0 0 0 0 -27050445.415624619 -140833810.51357663 0 -140833810.51357663 -127579711.19962692 0 0 0 0 33185884.644042969 -50900931.276826382 0 -50900931.276826382 -50696681.237763405 0 0 0 0 -553149.62185668945 -59609875.719702005 0 -59609875.719702005 63882915.010838509 0 0 0 0 177699662.73114014 -141356451.2342639 0 -141356451.2342639 101370986.98486567 0 0 0 0 104459107.85997009 16117299.355769634 0 16117299.355769634 235937381.38094568 0 0 0 0 76004467.55506897 14207573.635513306 0 14207573.635513306 7669918.3298492432 0 0 0 0 216172287.75247192 70817779.555215836 0 70817779.555215836 11710747.908409834 0 0 0 0 534058935.78378296 148701434.00515175 0 148701434.00515175 239362367.185359 0 0 0 0 47799543.943725586 -100449870.95031416 0 -100449870.95031416 571628132.65628767 0 0 0 0 -12987989.23323822 32032600.684202433 0 32032600.684202433 371555461.39453125 0 0 0 0 -1581238.1219024658 345174148.4442513 0 345174148.4442513 374227876.19242132 0 0 0 0 81417922.166748047 116310372.77020633 0 116310372.77020633 -16781852.618470907 0 0 0 0 63631854.712661743 -439954407.55704015 0 -439954407.55704015 915812181.85471261 0 0 0 0 -1078044.9868387878 1073633.9010379873 0 1073633.9010379873 2579651.4091516831 0 0 0 0 -6668026.1249046326 -135587533.8071225 0 -135587533.8071225 407728727.69329166 0 0 0 0 -203327541.21586609 -172296382.95041871 0 -172296382.95041871 498915096.27108431 0 0 0 0 -84080248.719085693 87974915.028688431 0 87974915.028688431 326335126.22352529 0 0 0 0 -162131261.943573 51712207.343911171 0 51712207.343911171 311997328.37950516 0 0 0 0 22019811.943229675 -58718362.812376976 0 -58718362.812376976 336998293.20038271 0 0 0 0 -15546070.394958496 185617991.0206461 0 185617991.0206461 894267615.97057891 0 0 0 0 32947161.683883667 13083628.263396263 0 13083628.263396263 -34074354.651821613 0 0 0 0 -21897674.588760376 6279387.0693416595 0 6279387.0693416595 9880250.5234050751 0 0 0 0 -11968170.231111526 -26817655.041532993 0 -26817655.041532993 -216764474.54542923 0 0 0 0 -37268083.765686035 -22424315.93396616 0 -22424315.93396616 106739577.41732407 0 0 0 0 7937931.3919991851 2517811.293176651 0 2517811.293176651 619979.29916603165 0 0 0 0 14047126.50958252 -20253208.083690643 0 -20253208.083690643 54197331.645992279 0 0 0 0 15314242.606330872 5662189.7635626793 0 5662189.7635626793 42233581.892469406 0 0 0 0 -28433403.489181519 128872871.71862793 0 128872871.71862793 -49535193.734512329 0 0 0 0 29787683.884803772 -5979597.4673252106 0 -5979597.4673252106 -28657988.721737862 0 0 0 0 8213943.4290111363 1403261.1686082501 0 1403261.1686082501 -262461.03228516132 0 0 0 0 6883489.5908402205 144521.09555333108 0 144521.09555333108 -421453.09767979383 0 0 0 0 137522383.96266174 110197469.9016037 0 110197469.9016037 -65962283.238289833 0 0 0 0 -72629789.040977478 -3260070.1293313503 0 -3260070.1293313503 138161271.10591125 0 0 0 0 15371903.794876099 -31902269.902262688 0 -31902269.902262688 20531243.08231163 0 0 0 0 -100368872.10365105 83397842.967261553 0 83397842.967261553 49195363.70123291 0 0 0 0 1820584.8803827539 359684.29272036254 0 359684.29272036254 2445143.7931902204 0 0 0 0 -28576545.937900543 -8822539.4887337685 0 -8822539.4887337685 43171512.252388 0 0 0 0 -56745721.003204346 -14521703.229851723 0 -14521703.229851723 65616853.711837769 0 0 0 0 111134915.51586914 -61282939.83011055 0 -61282939.83011055 74196649.944990158 0 0 0 0 -24060479.970443726 2187095.7765250206 0 2187095.7765250206 61891254.798164368 0 0 0 0 -27234663.224739075 1942613.3983364105 0 1942613.3983364105 61880804.599838257 0 0 0 0 -86058365.091003418 31535543.168575287 0 31535543.168575287 73573912.6945858 0 0 0 0 -36341913.036193848 5847072.8913574219 0 5847072.8913574219 84932575.682380676 0 0 0 0 -40292926.877346039 -58155155.354180336 0 -58155155.354180336 121866239.99707222 0 0 0 0 -102331005.82315063 -14990563.212597847 0 -14990563.212597847 114591821.16838574 0 0 0 0 320737.66598310322 460773.21714944765 0 460773.21714944765 2642802.1179213319 0 0 0 0 -101564088.71951294 -121085360.21209431 0 -121085360.21209431 -4884546.4206109047 0 0 0 0 -146787081.07049179 -62740363.318364143 0 -62740363.318364143 239915520.84866714 0 0 0 0 -115224203.37773132 187417873.63648415 0 187417873.63648415 63395933.325642586 0 0 0 0 -116591807.16248322 177456476.39827156 0 177456476.39827156 300019964.7631712 0 0 0 0 518684951.10877991 437176498.9244957 0 437176498.9244957 378901470.96520424 0 0 0 0 563128327.42804527 761578061.5642662 0 761578061.5642662 234134615.54200745 0 0 0 0 -1290020477.2004089 -778594220.86215973 0 -778594220.86215973 56133655.574304581 0 0 0 0 -658949463.23127747 2129820341.6513023 0 2129820341.6513023 1336978487.7543736 0 0 0 0 -402439834.20541382 58769027.995826721 0 58769027.995826721 692834192.4478302 0 0 0 0 -412350116.07104492 -375480010.55521202 0 -375480010.55521202 -71133786.094697952 0 0 0 0 511725343.35832214 -33999600.604293823 0 -33999600.604293823 13443361.67076683 0 0 0 0 5556254.747810401 6187784.1990616582 0 6187784.1990616582 2982934.7102967873 0 0 0 0 2382673591.6546021 379687203.39795399 0 379687203.39795399 -219486006.35483551 0 0 0 0 1205415976.3369446 -560097346.66239548 0 -560097346.66239548 254286193.64417028 0 0 0 0 3719763678.5935516 1476676318.3239212 0 1476676318.3239212 70278528.18416214 0 0 0 0 3588707.8518036604 2224867.0017542075 0 2224867.0017542075 1074144.3576949872 0 0 0 0 653641312.85348511 1635072485.0683804 0 1635072485.0683804 -65723923.579452515 0 0 0 0 4071807406.9776611 985393183.14796448 0 985393183.14796448 -645909205.00711823 0 0 0 0 3613002681.5468445 -1012761979.1791582 0 -1012761979.1791582 130383892.60618114 0 0 0 0 1804613.97392717 2212055.932320416 0 2212055.932320416 1796281.2981701121 0 0 0 0 509368871.05480957 1559061331.135725 0 1559061331.135725 1421719805.6746349 0 0 0 0 -367670646.37367249 -376011848.7265234 0 -376011848.7265234 -308064453.59794331 0 0 0 0 2511380126.5193329 378668861.73618984 0 378668861.73618984 277052514.45620728 0 0 0 0 1005795367.3636169 -28576683.481899261 0 -28576683.481899261 207125355.0077095 0 0 0 0 1508464946.774292 -288625001.18171501 0 -288625001.18171501 -5237765.7989330292 0 0 0 0 1323337719.613533 -529263500.15433788 0 -529263500.15433788 375944625.34396553 0 0 0 0 744587836.02809143 -253282311.60766792 0 -253282311.60766792 -6600401.0597820282 0 0 0 0 463337819.03848267 -116833432.05581951 0 -116833432.05581951 63707084.425071716 0 0 0 0 1169502494.3587646 -89394641.803936005 0 -89394641.803936005 -137213489.26450348 0 0 0 0 1091096532.4058838 -53253421.903416634 0 -53253421.903416634 -44184830.170463562 0 0 0 0 1104851098.8437042 60914603.071638107 0 60914603.071638107 -169689095.75375366 0 0 0 0 -57949454.943954468 -223989215.5460453 0 -223989215.5460453 -638999507.38534927 0 0 0 0 7977942.0454580635 3149101.7495031618 0 3149101.7495031618 1049873.3560809125 0 0 0 0 -12053132.873077393 97280121.382921219 0 97280121.382921219 3244944.1144313812 0 0 0 0 292442283.45294189 -457000034.72335052 0 -457000034.72335052 379550047.05897093 0 0 0 0 -203118886.43624878 -12564257.936138153 0 -12564257.936138153 273591584.99469757 0 0 0 0 452460657.87982178 -149063649.79447556 0 -149063649.79447556 73564623.049875259 0 0 0 0 -43283737.738464355 -164165231.51224709 0 -164165231.51224709 274766661.16604233 0 0 0 0 -397012.7423016727 120156.93823190778 0 120156.93823190778 473231.44369446859 0 0 0 0 98556977.029678345 -37633486.479850769 0 -37633486.479850769 27554748.535055161 0 0 0 0 74321985.182540894 -6657289.4192438126 0 -6657289.4192438126 117310874.25867462 0 0 0 0 -903686.76520374417 237890.58184815571 0 237890.58184815571 940939.45678384602 0 0 0 0 390676146.66867828 9364941.255589962 0 9364941.255589962 5225334.0096092224 0 0 0 0 262260894.76593018 -180760487.32822418 0 -180760487.32822418 90972381.051586628 0 0 0 0 261004771.85743713 133105403.07887173 0 133105403.07887173 20111679.358148575 0 0 0 0 74321730.856880188 -120741329.40571499 0 -120741329.40571499 31117443.824966431 0 0 0 0 1143033729.6841888 54328563.792720079 0 54328563.792720079 -200563494.69744873 0 0 0 0 776397613.76623535 -5116695.3320388794 0 -5116695.3320388794 -68746706.24369812 0 0 0 0 696693931.54089355 -153866455.88693047 0 -153866455.88693047 23405098.738588333 0 0 0 0 702869659.42710876 40629017.278056145 0 40629017.278056145 -53918159.262744904 0 0 0 0 726789580.54283142 -41256347.30591011 0 -41256347.30591011 -80002216.535330772 0 0 0 0 942558157.46685028 136609516.67864275 0 136609516.67864275 -49950661.525453568 0 0 0 0 758063372.17092514 -835442692.22580981 0 -835442692.22580981 -963841507.41644287 0 0 0 0 1476029910.7595825 -49488350.565471649 0 -49488350.565471649 -190559925.93606472 0 0 0 0 437471552.62260437 433357141.93291855 0 433357141.93291855 -167087781.33516884 0 0 0 0 1758255044.5800705 1366891658.8599234 0 1366891658.8599234 480377757.49544907 0 0 0 0 8749712.7895199955 -1225402.0233116769 0 -1225402.0233116769 -610136.85530754435 0 0 0 0 756724272.57833862 -1102422087.7945595 0 -1102422087.7945595 514291793.34460211 0 0 0 0 2065535767.2797852 -448405217.06131577 0 -448405217.06131577 589244570.72322464 0 0 0 0 2924461203.917511 3152689197.3402767 0 3152689197.3402767 4090486508.4031219 0 0 0 0 5043646636.4422607 -238108466.43358612 0 -238108466.43358612 -3395694558.455307 0 0 0 0 -40886642.33139801 -65687128.768176079 0 -65687128.768176079 -127497318.63040733 0 0 0 0 70120918.885406494 -26351494.611904144 0 -26351494.611904144 -116824935.95154572 0 0 0 0 89884710.944320679 -89790771.09617424 0 -89790771.09617424 -108718711.72514725 0 0 0 0 22925648.779575318 -733247.86200885242 0 -733247.86200885242 -1751958.3755050362 0 0 0 0 177402181.71351624 35076884.54224205 0 35076884.54224205 -448429141.79345131 0 0 0 0 815742509.87008667 -683363141.37455463 0 -683363141.37455463 -1613725744.3560033 0 0 0 0 299937882.19152832 147190294.70875549 0 147190294.70875549 -1747781897.5416732 0 0 0 0 31378796.400709212 1487735.110381708 0 1487735.110381708 -2624860.0093238158 0 0 0 0 80462485.710952759 -52605869.254159927 0 -52605869.254159927 -313720324.71966696 0 0 0 0 4948264.5376548767 -11579583.460007668 0 -11579583.460007668 -123677464.57058716 0 0 0 0 60970509.915542603 -31819305.098077774 0 -31819305.098077774 -124036763.05324227 0 0 0 0 -15120361.160072327 -59115885.087358475 0 -59115885.087358475 43765691.618190765 0 0 0 0 49129498.619262695 -77287836.645832062 0 -77287836.645832062 47620405.983304501 0 0 0 0 -1006365.4335804284 215354.46416474134 0 215354.46416474134 914107.4474406857 0 0 0 0 15881623.008300781 -43080249.822741389 0 -43080249.822741389 79896937.570106506 0 0 0 0 -4094195.699508667 -18273984.185249329 0 -18273984.185249329 71760688.207803726 0 0 0 0 28751438.072219849 -66396544.361824036 0 -66396544.361824036 103068147.63844681 0 0 0 0 33371909.696105957 -65520496.174432755 0 -65520496.174432755 107121313.06196922 0 0 0 0 16900488.671661377 -22133754.645936012 0 -22133754.645936012 47219013.730783463 0 0 0 0 985060.67083740234 -21995185.807987213 0 -21995185.807987213 50966083.252470016 0 0 0 0 6744800.1854019165 -14709094.64347744 0 -14709094.64347744 55323307.837190628 0 0 0 0 19429377.67965889 -27229666.901565075 0 -27229666.901565075 46786835.128295898 0 0 0 0 -12887585.886917114 -25231263.940341949 0 -25231263.940341949 57526026.814950943 0 0 0 0 -534796.33310800791 117394.40212769434 0 117394.40212769434 465181.6170173008 0 0 0 0 -20460845.349243164 -61574036.509391785 0 -61574036.509391785 13018782.291036606 0 0 0 0 31622196.180969238 -49105358.240234375 0 -49105358.240234375 -65111966.285255432 0 0 0 0 21075012.944702148 -19394505.445124626 0 -19394505.445124626 -55232465.658432007 0 0 0 0 -3172196.2099380493 -45887491.283366203 0 -45887491.283366203 -81337859.246673584 0 0 0 0 3568358.8599853516 -51204445.514465332 0 -51204445.514465332 -104565926.37005997 0 0 0 0 51559104.038087845 -87524110.076972842 0 -87524110.076972842 -82121632.298065186 0 0 0 0 23909685.764533997 -53704722.208386898 0 -53704722.208386898 -114000676.47986221 0 0 0 0 585622885.39697266 486042486.40238953 0 486042486.40238953 -399012011.25456619 0 0 0 0 35781765.820936665 3113673.4414136456 0 3113673.4414136456 -4165307.4227751424 0 0 0 0 29236628.258514404 -29731272.059673309 0 -29731272.059673309 -145472206.18634605 0 0 0 0 31897743.507305145 3676375.516014576 0 3676375.516014576 -52689664.180713654 0 0 0 0 33965945.029754639 -2540314.448223114 0 -2540314.448223114 -96060645.222758293 0 0 0 0 -121603114.27320099 88999220.418921947 0 88999220.418921947 451912.55030632019 0 0 0 0 -534283319.68429565 549253960.14587975 0 549253960.14587975 -131881509.80071831 0 0 0 0 424224.72524549067 2477659.6875913814 0 2477659.6875913814 -302113.05885114986 0 0 0 0 -55175796.571777344 13850646.533649445 0 13850646.533649445 48014982.207977295 0 0 0 0 -16706955.267272949 -12910905.059750557 0 -12910905.059750557 35235658.042476654 0 0 0 0 -201284588.22764969 390026134.45617187 0 390026134.45617187 89084071.324796677 0 0 0 0 -189597237.59654999 450344812.02201986 0 450344812.02201986 -79544369.078937531 0 0 0 0 -450926463.6083374 205612786.35249138 0 205612786.35249138 -296265290.96520627 0 0 0 0 8565243.0886993408 -117729596.78859735 0 -117729596.78859735 -346050917.82928658 0 0 0 0 68977205.234606743 653997372.24078977 0 653997372.24078977 -421400347.47719955 0 0 0 0 644092.69641955197 970098.88494470716 0 970098.88494470716 -493464.74923683982 0 0 0 0 64141822.542877197 463171413.26156616 0 463171413.26156616 -339804989.56263459 0 0 0 0 -404332501.22473145 753641880.07287407 0 753641880.07287407 -160133683.60273361 0 0 0 0 -673076939.84005737 81146849.620548248 0 81146849.620548248 -567322975.44024277 0 0 0 0 -300778560.79721069 489208668.15049839 0 489208668.15049839 -28486948.375844955 0 0 0 0 -55331932.139282227 459725313.75514793 0 459725313.75514793 -466578089.48446894 0 0 0 0 -170036200.15792847 583464621.61856174 0 583464621.61856174 -130888802.80463028 0 0 0 0 353256264.06384277 617899145.11439419 0 617899145.11439419 -1244535618.2906809 0 0 0 0 650001528.06703186 -355684436.80019903 0 -355684436.80019903 224669972.41018867 0 0 0 0 286033642.59532166 303983412.29124355 0 303983412.29124355 -16604845.838115692 0 0 0 0 179600690.75761414 197289527.60956407 0 197289527.60956407 346866888.06131554 0 0 0 0 137497085.2020874 234886749.31671333 0 234886749.31671333 -39619047.65311408 0 0 0 0 -148513319.2041626 287906300.72549629 0 287906300.72549629 153960220.93047142 0 0 0 0 -85352421.78793335 445049169.22395325 0 445049169.22395325 -220898368.31618738 0 0 0 0 27269660.458099365 383307388.25472307 0 383307388.25472307 195288960.15486336 0 0 0 0 -28035061.580001831 301050117.58246255 0 301050117.58246255 198599807.06306171 0 0 0 0 190737861.03582764 64131181.650034428 0 64131181.650034428 191667789.69130012 0 0 0 0 64932028.248382568 2553034.8305358887 0 2553034.8305358887 238633916.06080151 0 0 0 0 861472201.27667236 39376647.745432854 0 39376647.745432854 433828955.79109955 0 0 0 0 307517273.03997803 224237123.61359215 0 224237123.61359215 403746948.79188156 0 0 0 0 537573771.08081055 -205705329.1135273 0 -205705329.1135273 385096517.66486615 0 0 0 0 624365640.12838745 -56816917.063170433 0 -56816917.063170433 272075768.56835222 0 0 0 0 633276749.46875 -137558675.43964911 0 -137558675.43964911 534998906.46786976 0 0 0 0 1334298028.3252258 -105534642.85680914 0 -105534642.85680914 297535691.84709167 0 0 0 0 975574601.46203613 -243040644.2934227 0 -243040644.2934227 422706856.7215786 0 0 0 0 779612595.97213745 -34856975.184300423 0 -34856975.184300423 261147884.45721626 0 0 0 0 953438353.7432251 8878133.1168079376 0 8878133.1168079376 397291644.29305649 0 0 0 0 1226886890.9937134 -298711011.89889574 0 -298711011.89889574 311162481.47090614 0 0 0 0 600441469.98706055 -227800924.92392087 0 -227800924.92392087 273447981.57097352 0 0 0 0 275538833.27502441 29793455.840754509 0 29793455.840754509 165060127.31846237 0 0 0 0 69225609.047790527 134941192.18997097 0 134941192.18997097 214731107.79173279 0 0 0 0 262683567.37631226 26040166.20707655 0 26040166.20707655 396954180.52802563 0 0 0 0 155402357.34759521 -80314360.379351616 0 -80314360.379351616 220822248.59211594 0 0 0 0 -137053375.41815186 90635694.222428322 0 90635694.222428322 294283423.85689831 0 0 0 0 -369984003.3500061 144214046.38275528 0 144214046.38275528 196921552.99830961 0 0 0 0 -122282711.8427124 169538264.57876205 0 169538264.57876205 30578787.572622299 0 0 0 0 -112699723.52832031 33210511.013572454 0 33210511.013572454 99973769.897482157 0 0 0 0 -471503252.09542847 159255091.52830219 0 159255091.52830219 116934423.77139091 0 0 0 0 -346805073.3503418 164681147.54717159 0 164681147.54717159 -1398821.5548868179 0 0 0 0 -499102738.30252075 174542256.83620882 0 174542256.83620882 33388710.224338055 0 0 0 0 -351880388.93978882 293361152.41700745 0 293361152.41700745 -259953150.14325047 0 0 0 0 -93969342.314331055 270052100.04635239 0 270052100.04635239 -147709765.67712712 0 0 0 0 -90702748.081787109 198759168.76684093 0 198759168.76684093 37892114.745457411 0 0 0 0 -378416368.41834641 220231766.18679178 0 220231766.18679178 122999337.57302856 0 0 0 0 2968551809.7870178 451781573.08553791 0 451781573.08553791 -1037777034.3775201 0 0 0 0 659905297.831604 -1430756386.9072585 0 -1430756386.9072585 887513806.41623116 0 0 0 0 1591571356.5647049 -21139423.225938797 0 -21139423.225938797 1109931744.1100826 0 0 0 0 1749309826.9324417 -632005558.04782605 0 -632005558.04782605 792226563.44107056 0 0 0 0 1237594292.2611618 477619739.36895084 0 477619739.36895084 1463640446.1532669 0 0 0 0 827229.05759978108 1434313.9838515893 0 1434313.9838515893 4703581.6707248511 0 0 0 0 585225719.41784668 -932058467.4638176 0 -932058467.4638176 535227811.69224548 0 0 0 0 -278719239.0184021 -1004103502.0767555 0 -1004103502.0767555 872672332.24929428 0 0 0 0 555033214.61303711 -892778991.73671293 0 -892778991.73671293 671265634.89486313 0 0 0 0 -294786674.21609497 -358912207.96574616 0 -358912207.96574616 -719692003.03953207 0 0 0 0 696387076.41439819 -1194165654.5299964 0 -1194165654.5299964 -341475697.14900494 0 0 0 0 -362720465.97512817 -865510395.7163682 0 -865510395.7163682 773510847.8718586 0 0 0 0 -1288412119.1685791 -597988712.45468354 0 -597988712.45468354 195201755.0400095 0 0 0 0 657301.07191820443 1041762.0715429261 0 1041762.0715429261 2058628.8913450083 0 0 0 0 -216310203.70009613 -1194475683.6658609 0 -1194475683.6658609 496923423.45627213 0 0 0 0 4056646986.0971069 -470201004.84091043 0 -470201004.84091043 -146878181.5912075 0 0 0 0 -311924436.12561035 -920847077.36575294 0 -920847077.36575294 707955874.67635155 0 0 0 0 1039474842.997757 97306768.400660515 0 97306768.400660515 -667239008.65893173 0 0 0 0 50267280.360595703 -765542636.55495834 0 -765542636.55495834 988574135.20465565 0 0 0 0 1015026423.0639648 271931494.76450348 0 271931494.76450348 -240589494.24551773 0 0 0 0 -405828168.64530945 330229696.5419836 0 330229696.5419836 65709076.469394684 0 0 0 0 2273081008.8841553 -1356452850.2853336 0 -1356452850.2853336 528914341.56848431 0 0 0 0 966101393.12280273 -70108370.709351063 0 -70108370.709351063 416954119.52205276 0 0 0 0 1341425226.8826904 -534569747.25197411 0 -534569747.25197411 405600430.04592633 0 0 0 0 2016787052.6298065 -215514127.91172695 0 -215514127.91172695 130591264.93581581 0 0 0 0 2201465139.0294647 -528735234.0746367 0 -528735234.0746367 -32492700.816907883 0 0 0 0 2939402850.3272324 -929263371.0867492 0 -929263371.0867492 210032339.17806625 0 0 0 0 2599203180.2033081 223753815.27818346 0 223753815.27818346 204421550.74140167 0 0 0 0 2012147359.152771 -194818104.12362242 0 -194818104.12362242 129618870.65982628 0 0 0 0 1334577429.5447083 -115819486.16745472 0 -115819486.16745472 660977641.3664608 0 0 0 0 2116577181.6605835 -172673068.95880288 0 -172673068.95880288 37885047.597352028 0 0 0 0 1706585280.470459 -223715458.7633853 0 -223715458.7633853 271082530.45831776 0 0 0 0 1231919284.679657 -118895592.69250727 0 -118895592.69250727 510441729.20923662 0 0 0 0 1687043044.1727333 -10296498.482993573 0 -10296498.482993573 999542960.61955452 0 0 0 0 1423064664.3226166 599211225.55898869 0 599211225.55898869 257024913.8667655 0 0 0 0 -18280429.166702271 19723638.025245547 0 19723638.025245547 -7211787.0630731583 0 0 0 0 6201381.2922155373 1941719.8764869869 0 1941719.8764869869 768326.79090359225 0 0 0 0 1080929.6715633869 -269525.15800165944 0 -269525.15800165944 170880.48090265482 0 0 0 0 -114257396.12200546 -310513653.46086222 0 -310513653.46086222 -721156169.09260297 0 0 0 0 2069643057.51651 -504886391.03313112 0 -504886391.03313112 114320399.52584553 0 0 0 0 2087482.0123989284 941589.62962353975 0 941589.62962353975 5870673.1092090737 0 0 0 0 17446205.449913532 -2865677.9755866732 0 -2865677.9755866732 -2063061.72972202 0 0 0 0 -21348336.263961792 -791117483.20956409 0 -791117483.20956409 -338929457.0936898 0 0 0 0 -11873089.759933472 39151322.187721491 0 39151322.187721491 -2018079.1079175472 0 0 0 0 -8965626.3670654297 34216008.544090748 0 34216008.544090748 -31009020.714808345 0 0 0 0 2060896.8310546875 22529546.602630854 0 22529546.602630854 -22413830.361642957 0 0 0 0 24916935.696151733 50714698.546382248 0 50714698.546382248 1781861.8716812134 0 0 0 0 38639044.022556305 83889068.463195696 0 83889068.463195696 -97875465.823334932 0 0 0 0 1305824648.8336487 289716182.3266319 0 289716182.3266319 -2962065473.3907881 0 0 0 0 24317644.82355997 -40673.683319611475 0 -40673.683319611475 -2654345.3493007161 0 0 0 0 20990368.246704102 -10055745.409824133 0 -10055745.409824133 3554158.6916717887 0 0 0 0 8123930.2443237305 -9102054.4009850025 0 -9102054.4009850025 17018352.91031599 0 0 0 0 12095555.121200562 1439598.9704353958 0 1439598.9704353958 -8849456.2617475986 0 0 0 0 27207743.741821289 -18302546.780325532 0 -18302546.780325532 12234930.405228853 0 0 0 0 13353525.068725586 -17804050.427546978 0 -17804050.427546978 31422146.455108166 0 0 0 0 7618102.8572500944 7509509.4671823159 0 7509509.4671823159 33377528.835273266 0 0 0 0 -7284157.6602783203 11382204.273873925 0 11382204.273873925 56196582.717630625 0 0 0 0 -8860720.750377655 22878994.03410472 0 22878994.03410472 10077140.228663445 0 0 0 0 -20726917.241844177 23276005.518805325 0 23276005.518805325 4313347.1852829456 0 0 0 0 -21008066.596204758 9058372.7183115035 0 9058372.7183115035 1130000.8307962418 0 0 0 0 -18224086.110809326 18736522.457957625 0 18736522.457957625 9760918.062048316 0 0 0 0 -20918768.652435303 12565610.162530541 0 12565610.162530541 23215429.22328651 0 0 0 0 -63607040.784317017 16642602.80312261 0 16642602.80312261 11654856.597056866 0 0 0 0 1702965360.9380646 178308935.18494469 0 178308935.18494469 -74920078.004271924 0 0 0 0 3828446.0157470759 2048359.6165682599 0 2048359.6165682599 347457.96912920591 0 0 0 0 1932446205.8908997 -39588442.526996613 0 -39588442.526996613 -33307656.623372078 0 0 0 0 1406077855.6676025 79441901.030911207 0 79441901.030911207 -29821610.499984264 0 0 0 0 1412807678.1269073 -18106362.318805814 0 -18106362.318805814 -76029703.11673069 0 0 0 0 1297730655.035305 56819730.400563851 0 56819730.400563851 72853465.084796906 0 0 0 0 1298352826.8237772 53789132.310152158 0 53789132.310152158 -93205786.014582515 0 0 0 0 1319484685.2112885 146444667.95846352 0 146444667.95846352 50274.225131023093 0 0 0 0 -146426473.70560074 192626463.30146155 0 192626463.30146155 1201307.1048756712 0 0 0 0 1672324350.6348877 38598014.722510993 0 38598014.722510993 -101018764.63808823 0 0 0 0 2987799.4547889335 1407763.9265339747 0 1407763.9265339747 115163.83526467836 0 0 0 0 3796044.4232788086 19696991.048012793 0 19696991.048012793 -27321467.674938172 0 0 0 0 23390810.820678711 -13074673.201898694 0 -13074673.201898694 -2738643.0873052329 0 0 0 0 350221.7898888588 139844.45988210291 0 139844.45988210291 -125810.74669364086 0 0 0 0 11215432.191192627 1369255.1205063711 0 1369255.1205063711 30406.625682010883 0 0 0 0 -2815872.5153961182 -31668978.675580047 0 -31668978.675580047 4093264.3307622075 0 0 0 0 32148523.228713989 -27560377.54758662 0 -27560377.54758662 -5929254.1100027934 0 0 0 0 588704.83470107615 356677.94008915871 0 356677.94008915871 40448.717021824261 0 0 0 0 21220733.384124756 -17735337.079108626 0 -17735337.079108626 1824057.8471897319 0 0 0 0 70490188.599859238 -16418881.009534996 0 -16418881.009534996 -5445755.082203459 0 0 0 0 -93181937.269973755 -15804422.64771056 0 -15804422.64771056 47455777.306670092 0 0 0 0 189353702.49789429 64270937.52304697 0 64270937.52304697 109486241.62807345 0 0 0 0 -35491568.541809082 -108278162.75073937 0 -108278162.75073937 126361469.37227368 0 0 0 0 -547076659.92292786 98064791.191544622 0 98064791.191544622 151426602.22087771 0 0 0 0 -143354750.69699097 -33098438.782863855 0 -33098438.782863855 44928802.684672832 0 0 0 0 -413223840.49153137 52344435.210006714 0 52344435.210006714 67306799.261882782 0 0 0 0 -377407562.64801025 126753057.17234075 0 126753057.17234075 167513874.4629674 0 0 0 0 -138354096.97530746 1752445.2535092831 0 1752445.2535092831 219752689.44987106 0 0 0 0 193290491.09664917 -19234749.664309502 0 -19234749.664309502 109939541.89252758 0 0 0 0 -86569577.369506836 91115258.867655039 0 91115258.867655039 214992288.43449783 0 0 0 0 512758317.75692749 -129675256.94344759 0 -129675256.94344759 99884372.552609921 0 0 0 0 330375694.89700317 62044859.396005034 0 62044859.396005034 191060140.0604558 0 0 0 0 178162174.61319733 -50204998.140402317 0 -50204998.140402317 264401720.79200459 0 0 0 0 1215845231.8579102 -252370262.13926792 0 -252370262.13926792 104455254.37708354 0 0 0 0 1045016128.8315735 123487000.5245664 0 123487000.5245664 48276557.926185966 0 0 0 0 605388103.67546082 9802658.0379977226 0 9802658.0379977226 96220620.703756332 0 0 0 0 902676115.29943848 -132448474.13625497 0 -132448474.13625497 -23706214.845697626 0 0 0 0 444737921.02949524 144854605.17240983 0 144854605.17240983 44928909.206764489 0 0 0 0 955515275.93212891 -82122426.277485192 0 -82122426.277485192 20450966.537653014 0 0 0 0 791810789.75978088 157957979.56773219 0 157957979.56773219 -5623.5327252586721 0 0 0 0 187643376.12928772 -132553176.60357893 0 -132553176.60357893 22839746.142107785 0 0 0 0 7145305.6415901184 172132206.43642199 0 172132206.43642199 -306744.21279427834 0 0 0 0 -117382373.98568344 61867278.268678442 0 61867278.268678442 -31783086.948575675 0 0 0 0 -818376640.60952759 -153614626.56106949 0 -153614626.56106949 75487161.222216785 0 0 0 0 14063823.618652344 21407598.284937613 0 21407598.284937613 45461.452815107055 0 0 0 0 23808590.514526367 25977695.724810164 0 25977695.724810164 -25392612.411995947 0 0 0 0 145399.75606047735 979910.67569521815 0 979910.67569521815 99393.98623644172 0 0 0 0 30994003.565185547 7889901.5313656814 0 7889901.5313656814 -7141165.6911054365 0 0 0 0 27577843.624969482 13505821.533118593 0 13505821.533118593 -12496497.313457817 0 0 0 0 27377665.801085472 9461242.8007005472 0 9461242.8007005472 -3788132.1215505544 0 0 0 0 27544906.227203369 8135208.8512640353 0 8135208.8512640353 -5169556.2026002808 0 0 0 0 27985209.133605957 8926377.5326881297 0 8926377.5326881297 -5859575.4429440796 0 0 0 0 27491100.330780029 9686742.4640163891 0 9686742.4640163891 -1929130.8063011244 0 0 0 0 23620729.14263916 9992799.3866490275 0 9992799.3866490275 -1459875.5551352501 0 0 0 0 28756171.693595886 7642833.2304073982 0 7642833.2304073982 -4991081.0358782783 0 0 0 0 155682.80887414329 286720.69488347322 0 286720.69488347322 30570.701483874844 0 0 0 0 19109941.195343018 -7921359.3311371692 0 -7921359.3311371692 32568461.589452147 0 0 0 0 31707861.186889648 6972988.1178895105 0 6972988.1178895105 -6120043.8777422756 0 0 0 0 30078034.079956055 6081356.9669004846 0 6081356.9669004846 -2276045.9405522645 0 0 0 0 25122376.351776123 6192772.9971001744 0 6192772.9971001744 -431321.3181887418 0 0 0 0 11015162.5965271 7393006.8901520576 0 7393006.8901520576 4023327.7428998835 0 0 0 0 -740406043.42826843 -138093842.60196042 0 -138093842.60196042 82867273.973776817 0 0 0 0 674281.15251109749 1899531.8840318322 0 1899531.8840318322 -616914.4053000831 0 0 0 0 438341.37850468419 1355188.0413545072 0 1355188.0413545072 181533.23482401887 0 0 0 0 21184716.994659424 11287493.73370406 0 11287493.73370406 -17102033.620363057 0 0 0 0 38382138.699935913 8918639.2327576466 0 8918639.2327576466 -5319783.3118894771 0 0 0 0 32325082.903991699 14949302.941789579 0 14949302.941789579 -2061995.505289942 0 0 0 0 19527689.512329102 15778363.760788001 0 15778363.760788001 2815902.5892217308 0 0 0 0 1542497.1648107022 685018.13211239129 0 685018.13211239129 -1831701.9292495928 0 0 0 0 45394044.163909912 -7957380.7881860808 0 -7957380.7881860808 -4782267.9907523543 0 0 0 0 2152467.682800293 7612942.6022597924 0 7612942.6022597924 -463048.77622988634 0 0 0 0 830547.88788690977 3881802.9580395818 0 3881802.9580395818 339753.63181896391 0 0 0 0 -490977260.31488037 112344757.93890238 0 112344757.93890238 58132099.706066608 0 0 0 0 -551822679.42498016 75347328.028665125 0 75347328.028665125 54133112.839448929 0 0 0 0 1765374.15642187 1659015.1810088158 0 1659015.1810088158 -1569071.390826067 0 0 0 0 21563979.143280029 11444025.105522841 0 11444025.105522841 1700075.8102666959 0 0 0 0 23848255.220306396 4934421.3088352755 0 4934421.3088352755 1022469.829593882 0 0 0 0 45208973.871490479 5100462.2491427362 0 5100462.2491427362 -3456571.6424092799 0 0 0 0 32984468.135772705 10752281.630124371 0 10752281.630124371 3671542.9141457751 0 0 0 0 34802507.386291504 581690.73519986123 0 581690.73519986123 -1773469.5783679225 0 0 0 0 28803990.883300781 4624445.6493854448 0 4624445.6493854448 7370202.5583160706 0 0 0 0 24019.434575602412 15322.35268977657 0 15322.35268977657 -18973.984783539567 0 0 0 0 25133163.619060516 14584475.776277147 0 14584475.776277147 9032453.7054905966 0 0 0 0 15112923.763542175 -9544758.7890940476 0 -9544758.7890940476 -19785123.059621677 0 0 0 0 25348846.732467651 5211156.8126677163 0 5211156.8126677163 -3897270.3393457085 0 0 0 0 28375372.544464111 4382530.2039361978 0 4382530.2039361978 -5160935.1799273444 0 0 0 0 20273560.425094604 2741992.8092999915 0 2741992.8092999915 -3803396.1873573689 0 0 0 0 26130382.790161133 7662799.8781588096 0 7662799.8781588096 -30814.050092186746 0 0 0 0 15162791.706222534 4389202.9068427216 0 4389202.9068427216 22982.330619269491 0 0 0 0 13484701.209350586 3116976.6053989683 0 3116976.6053989683 604353.85477092676 0 0 0 0 12284.984847038984 9584.902679156512 0 9584.902679156512 -1699.807336724115 0 0 0 0 3051834.6214447021 7274099.7353766924 0 7274099.7353766924 10650788.229271267 0 0 0 0 -840450.34484863281 -1221303.6297481535 0 -1221303.6297481535 -5105.873601620011 0 0 0 0 907187.10906982422 1378395.2076217774 0 1378395.2076217774 6700410.7316481005 0 0 0 0 4091689.0170898438 5202330.5651467778 0 5202330.5651467778 444631.94999189116 0 0 0 0 3023647.6837005615 316319.12955730362 0 316319.12955730362 -3664879.2327338085 0 0 0 0 4611488.3876342773 -1643890.3843769226 0 -1643890.3843769226 -637941.93313851324 0 0 0 0 -431354.25839233398 583539.21282559447 0 583539.21282559447 -1617513.1471366892 0 0 0 0 22190990.734420776 14917785.002342163 0 14917785.002342163 2299882.7363496302 0 0 0 0 277474.63947296143 -1051919.7585954678 0 -1051919.7585954678 -2833587.5911781108 0 0 0 0 2518040.7359428406 4262350.0752219902 0 4262350.0752219902 1339621.4039620264 0 0 0 0 2067968.1530151367 -3337763.1036703689 0 -3337763.1036703689 10206.620487948288 0 0 0 0 24670.708367347717 9146.7837808057666 0 9146.7837808057666 -5984.0436559795344 0 0 0 0 -245039.83253479004 4086223.5292502907 0 4086223.5292502907 1329476.07418798 0 0 0 0 974798.92324829102 641900.79394658003 0 641900.79394658003 -3719630.0713729667 0 0 0 0 18714.356544405222 6902.7306314110756 0 6902.7306314110756 -6046.5751595031215 0 0 0 0 4403879.0877380371 2633157.4953596657 0 2633157.4953596657 -8471860.7421088442 0 0 0 0 36055411.855834961 16179881.417723836 0 16179881.417723836 2297737.4040252548 0 0 0 0 1347809.8729400635 2465243.7792145461 0 2465243.7792145461 -4036337.6781497821 0 0 0 0 667557.650390625 1769999.6245129611 0 1769999.6245129611 -6064171.0876955707 0 0 0 0 -2325621.5967712402 625601.57465593913 0 625601.57465593913 -4885115.5030715764 0 0 0 0 1625641.7126464844 2462549.1720414367 0 2462549.1720414367 -5256674.0463863257 0 0 0 0 -13491.340881347656 1169530.9471424595 0 1169530.9471424595 -1226034.4590402357 0 0 0 0 253756.19101828337 342532.59907067195 0 342532.59907067195 -310293.89210553037 0 0 0 0 1050529.0028381348 905611.46733183996 0 905611.46733183996 -6901705.892888017 0 0 0 0 28812073.99647522 -64773133.288307533 0 -64773133.288307533 -19679908.769327402 0 0 0 0 30576050.533172607 -2017584.5381097347 0 -2017584.5381097347 142341.18665844202 0 0 0 0 -58067.006237253547 -124591.43074597418 0 -124591.43074597418 174283.04259886174 0 0 0 0 84074961.696655273 1725215.7854545712 0 1725215.7854545712 -739369.62804609537 0 0 0 0 380049.28299060464 -36821.962078168988 0 -36821.962078168988 130325.7162525004 0 0 0 0 2259941.3187866211 -2622882.7099175616 0 -2622882.7099175616 -15444514.083236005 0 0 0 0 80021.396709814668 88950.908842928708 0 88950.908842928708 -90065.080163215505 0 0 0 0 3569255.4163208008 4779487.9417935405 0 4779487.9417935405 -8444126.5738748536 0 0 0 0 97774.582000732422 733275.96057331562 0 733275.96057331562 -18641.608207583427 0 0 0 0 1617794.2431030273 3384718.4668454528 0 3384718.4668454528 2965848.7616647109 0 0 0 0 4452057.3612365723 2103427.4923897907 0 2103427.4923897907 1296231.1835670322 0 0 0 0 4365277.5663299561 1911779.326445885 0 1911779.326445885 2718141.9180837423 0 0 0 0 9038443.4101867676 7688571.892087467 0 7688571.892087467 4882034.8743858337 0 0 0 0 7568402.9930114746 7875905.1447232068 0 7875905.1447232068 7527969.0493278876 0 0 0 0 12745062.126678467 5094885.5783517137 0 5094885.5783517137 -351287.50902408361 0 0 0 0 11052813.616210938 4434718.9525444359 0 4434718.9525444359 -2433590.2739937305 0 0 0 0 14585157.365081787 7823727.2034820095 0 7823727.2034820095 -511192.78145594895 0 0 0 0 10998907.737792969 4848560.5905089676 0 4848560.5905089676 -3805294.2720329762 0 0 0 0 6498818.2630310059 2975222.1048429981 0 2975222.1048429981 -1172703.4112735987 0 0 0 0 4619662.5078735352 2096131.0480791181 0 2096131.0480791181 -4432186.8293377757 0 0 0 0 -606183.22900390625 2198889.8670223206 0 2198889.8670223206 1004820.8332868218 0 0 0 0 6478578.8313293457 5537929.6840764731 0 5537929.6840764731 695828.36988314986 0 0 0 0 -58894808.255889893 32490062.227908254 0 32490062.227908254 17211241.601335049 0 0 0 0 6121077.9441270828 5398813.2450944735 0 5398813.2450944735 -2660524.9358560145 0 0 0 0 3580456.0151570886 -1344757.3656294867 0 -1344757.3656294867 26378.579963739088 0 0 0 0 5827621.3786392212 737920.75536782481 0 737920.75536782481 -7507712.3278465271 0 0 0 0 465791.04611200094 538299.07602980733 0 538299.07602980733 -393186.49378925929 0 0 0 0 7403429.1520996094 8528645.7053070068 0 8528645.7053070068 -4343531.668199122 0 0 0 0 10135905.744750977 3401809.4936582148 0 3401809.4936582148 -5247812.7722717524 0 0 0 0 13986309.172668457 4936008.8891636431 0 4936008.8891636431 -8529619.4206900001 0 0 0 0 15978143.821136475 4683520.5971928388 0 4683520.5971928388 -6037159.1900427938 0 0 0 0 13822419.60218811 5243648.4768484198 0 5243648.4768484198 -5230697.0221130252 0 0 0 0 13163891.363433838 6249068.6479015797 0 6249068.6479015797 -3340207.3120017648 0 0 0 0 8847848.1156616211 5424724.4436640441 0 5424724.4436640441 -2959221.9908277988 0 0 0 0 -15550019.001312256 -33119158.36482273 0 -33119158.36482273 17144195.358215213 0 0 0 0 76789157.726898193 -50765542.378112398 0 -50765542.378112398 -16312789.181023717 0 0 0 0 34118890.422485352 -6335263.3960200399 0 -6335263.3960200399 26338944.063874722 0 0 0 0 1721858.3775497228 -701841.61571930349 0 -701841.61571930349 511626.9748522407 0 0 0 0 -568159.18521118164 2217096.6014176905 0 2217096.6014176905 -551126.05802592635 0 0 0 0 10773510.975803375 67752045.377469242 0 67752045.377469242 -25512730.660405338 0 0 0 0 147431625.75915527 -17287704.486715168 0 -17287704.486715168 -55284329.937659629 0 0 0 0 -55402372.243923187 55037858.728205949 0 55037858.728205949 113462689.95583993 0 0 0 0 -59898186.549987793 -53557424.914071575 0 -53557424.914071575 111022220.40553206 0 0 0 0 106071914.14733887 -105350329.68565691 0 -105350329.68565691 65717091.689685702 0 0 0 0 -9871123.7767028809 -150395.12345215678 0 -150395.12345215678 53411393.587790385 0 0 0 0 64170.927653700113 224971.38124649227 0 224971.38124649227 276107.10159905785 0 0 0 0 13801027.978942871 -18282782.431603789 0 -18282782.431603789 -15346849.559747368 0 0 0 0 17874476.342987061 69866042.90159288 0 69866042.90159288 17747543.72035341 0 0 0 0 21474866.990146637 23460553.887925051 0 23460553.887925051 -113398594.305336 0 0 0 0 587313.33096960187 -1729164.7909370661 0 -1729164.7909370661 -172362.10358182067 0 0 0 0 4533929.5803833008 -533323.09923350811 0 -533323.09923350811 -9687296.2990585566 0 0 0 0 7443998.9583368599 -3635120.0369745092 0 -3635120.0369745092 -1072339.1813077454 0 0 0 0 6380435.7741337568 391455.91993040591 0 391455.91993040591 -1486298.3784984956 0 0 0 0 129541850.99249268 -86720407.55109632 0 -86720407.55109632 -128614433.48796123 0 0 0 0 -3814736.2491760254 -53367476.243522644 0 -53367476.243522644 122644346.71520317 0 0 0 0 10338114.418512598 -3527176.4388123341 0 -3527176.4388123341 -88963.346697040601 0 0 0 0 -24586601.785888672 -35884718.75946331 0 -35884718.75946331 251738383.89224291 0 0 0 0 16001462.758453369 -44887432.354836464 0 -44887432.354836464 97051243.698120117 0 0 0 0 12371145.518554688 5605758.3518596888 0 5605758.3518596888 -4693184.2771546133 0 0 0 0 5137157.4583969116 -851856.68997171521 0 -851856.68997171521 -6071895.9950054884 0 0 0 0 9960276.9705274999 -599218.68271125108 0 -599218.68271125108 -1017428.7032778863 0 0 0 0 13940619.664581299 5842510.4738998413 0 5842510.4738998413 -4819751.8923989534 0 0 0 0 15200420.949768066 6269062.2570426464 0 6269062.2570426464 -6423796.7001022995 0 0 0 0 3121786.5098266602 1078592.484046936 0 1078592.484046936 -4090750.1375279427 0 0 0 0 5778572.414678663 -1210067.896766793 0 -1210067.896766793 -400473.91931907181 0 0 0 0 -55707629.29864502 -61961344.016953558 0 -61961344.016953558 -37229694.777301684 0 0 0 0 28921682.150642395 -42502971.825025082 0 -42502971.825025082 43515623.559498787 0 0 0 0 29414635.620697021 -43283247.559218407 0 -43283247.559218407 37314720.428149819 0 0 0 0 6825193.3753282726 -808218.7855669558 0 -808218.7855669558 -2155761.3594915187 0 0 0 0 10828916.943023682 -4308026.5369701385 0 -4308026.5369701385 -10241163.902028263 0 0 0 0 11159855.869125262 1333826.874674337 0 1333826.874674337 -4654631.4746123664 0 0 0 0 10523592.505251721 -4108587.4253583997 0 -4108587.4253583997 -4411465.4629898239 0 0 0 0 18439111.410003662 2644037.9910960197 0 2644037.9910960197 -6024332.3585507572 0 0 0 0 19447963.927886963 2940449.8156789541 0 2940449.8156789541 -5465292.5078754425 0 0 0 0 13602567.362607956 3343746.8811715282 0 3343746.8811715282 -5256516.8329567015 0 0 0 0 15356854.600524902 4511023.8343435973 0 4511023.8343435973 -5604628.3190109432 0 0 0 0 22812621.015319824 -380311.02434894443 0 -380311.02434894443 -6368616.5747227222 0 0 0 0 21056448.644927979 3392447.213811636 0 3392447.213811636 -6619669.7989941835 0 0 0 0 13773549.050170422 -1579904.3830946777 0 -1579904.3830946777 -6205917.7029179046 0 0 0 0 18687419.262686729 -1366816.4669388589 0 -1366816.4669388589 -4352522.7962762415 0 0 0 0 13873618.271789551 -1528573.8689057827 0 -1528573.8689057827 -20207717.692417145 0 0 0 0 5082463.9272155762 1034808.2600585222 0 1034808.2600585222 -4934581.8870677948 0 0 0 0 9118090.554107666 4290432.824673593 0 4290432.824673593 -13654970.308152199 0 0 0 0 -810577.33129882812 386540.98038482666 0 386540.98038482666 -20410938.099895954 0 0 0 0 5123500.7798461914 -4843605.8425884247 0 -4843605.8425884247 -3775276.7290678024 0 0 0 0 5111497.4924316406 -4805455.106259346 0 -4805455.106259346 -1236430.9956165552 0 0 0 0 65772069.082336426 26803303.388410568 0 26803303.388410568 -45137765.936244965 0 0 0 0 10700649.839350089 4027695.3038390651 0 4027695.3038390651 -7226296.1423883 0 0 0 0 -42050.911354482174 311924.296579435 0 311924.296579435 -309260.69287481182 0 0 0 0 24353370.025095627 1102397.8193620443 0 1102397.8193620443 -5046225.8553145491 0 0 0 0 41846259.714431763 -17237496.76794529 0 -17237496.76794529 -10807898.154140472 0 0 0 0 33734748.187255636 8142168.1293790266 0 8142168.1293790266 -10563556.5147787 0 0 0 0 28870108.431762695 -11477015.528438568 0 -11477015.528438568 -8326161.9655981064 0 0 0 0 32295257.990478516 -17786085.518447876 0 -17786085.518447876 -9908439.4091796875 0 0 0 0 18410818.850194529 -10760566.014222132 0 -10760566.014222132 -6294476.1314241765 0 0 0 0 1494575.6180719733 -8910.043865121901 0 -8910.043865121901 -1087385.4733270146 0 0 0 0 38756475.332824707 34857130.669792175 0 34857130.669792175 -37942831.075641632 0 0 0 0 28891773.955566406 48661372.459625244 0 48661372.459625244 -157333118.95091772 0 0 0 0 38589935.140073374 2399148.3860958284 0 2399148.3860958284 -8585022.7981150672 0 0 0 0 -20584266.587341309 94015499.164518356 0 94015499.164518356 -120436147.29027176 0 0 0 0 35375273.043334961 12201213.57157135 0 12201213.57157135 -112276156.20016098 0 0 0 0 13537690.851501465 -35682924.189592361 0 -35682924.189592361 -78804078.374649048 0 0 0 0 13237751.325622559 43624265.881376266 0 43624265.881376266 -90345741.406982422 0 0 0 0 27707793.900268555 17002484.803882599 0 17002484.803882599 -47853308.666942596 0 0 0 0 5610011.4931640625 30325026.50995636 0 30325026.50995636 -29606915.745918274 0 0 0 0 3151490.7999267578 35524731.916320801 0 35524731.916320801 -34177358.635562897 0 0 0 0 -152248.8342590332 31780744.60966301 0 31780744.60966301 -24590757.814720154 0 0 0 0 -5707829.103515625 43421891.53477478 0 43421891.53477478 -47654593.984823227 0 0 0 0 -214418.53674316406 41252655.937395096 0 41252655.937395096 -47302786.493148804 0 0 0 0 15533098.015563965 27970600.298763275 0 27970600.298763275 -4018900.666469574 0 0 0 0 -1466316.3186477628 1214416.8789184466 0 1214416.8789184466 229142.53478992172 0 0 0 0 -58344099.023174286 62552056.345341027 0 62552056.345341027 -10309178.432128906 0 0 0 0 -26976954.928344727 32523400.548160553 0 32523400.548160553 16402898.342843056 0 0 0 0 -19926544.081787109 47674143.393726349 0 47674143.393726349 -5761246.4962768555 0 0 0 0 1415752.6501464844 27165629.239704132 0 27165629.239704132 -21110464.003444672 0 0 0 0 -14391744.360107422 40619102.671073914 0 40619102.671073914 2624368.609375 0 0 0 0 -3210063.5676269531 39470223.681975365 0 39470223.681975365 2602122.7990722656 0 0 0 0 -5904811.5831298828 24426938.374361038 0 24426938.374361038 6753272.3313999176 0 0 0 0 -13438219.981140137 23138870.021378517 0 23138870.021378517 6557032.5882110596 0 0 0 0 -16204193.843139648 23247224.234966278 0 23247224.234966278 15027301.839855671 0 0 0 0 -24736212.226852417 17054684.807065964 0 17054684.807065964 11881301.73084259 0 0 0 0 66788534.878520966 3422151.5546301603 0 3422151.5546301603 2189263.2330436707 0 0 0 0 68576666.733520508 24255609.766723633 0 24255609.766723633 -198166.75518035889 0 0 0 0 -25300933.682037354 49372970.03728199 0 49372970.03728199 14514572.674506187 0 0 0 0 10959001.894333158 -341319.71672293544 0 -341319.71672293544 -3106761.4238086627 0 0 0 0 6687654.8568219319 4916533.5068761185 0 4916533.5068761185 -4251387.8379760738 0 0 0 0 24279505.083404541 -62938.099076218903 0 -62938.099076218903 -6883421.1323766857 0 0 0 0 34271678.147155762 -8599774.4331626892 0 -8599774.4331626892 -6566191.3425712585 0 0 0 0 -56941442.069396973 -4940992.3508529663 0 -4940992.3508529663 35317838.143287659 0 0 0 0 48494938.543701172 17302464.162567616 0 17302464.162567616 -141686.25786209106 0 0 0 0 8203133.1826250255 -1116254.7800015509 0 -1116254.7800015509 -4353776.786210523 0 0 0 0 26430092.685791016 -644894.84047879279 0 -644894.84047879279 -6960458.6219410002 0 0 0 0 20172509.882476807 -5175616.2138223611 0 -5175616.2138223611 -4068868.2510960251 0 0 0 0 -8842169.6690063477 11950891.521968842 0 11950891.521968842 -11295440.789522171 0 0 0 0 -1242409.0480385721 3763821.0432659984 0 3763821.0432659984 196745.03881444084 0 0 0 0 -11405106.009399414 13817885.427728653 0 13817885.427728653 2874829.1494674683 0 0 0 0 -14357538.359741211 19452897.127801895 0 19452897.127801895 1843879.9752318859 0 0 0 0 7156651.9848327637 10567796.875479698 0 10567796.875479698 544698.34889602661 0 0 0 0 -8101282.092956543 19108008.500713348 0 19108008.500713348 -12415710.668792725 0 0 0 0 -24829245.586364746 4542147.4322395325 0 4542147.4322395325 6216495.3713283539 0 0 0 0 2195199.8965173289 8062761.8691229075 0 8062761.8691229075 -1917162.3081681114 0 0 0 0 809961.87257893384 -437835.50352498144 0 -437835.50352498144 -367048.73777150176 0 0 0 0 -511837877.19974709 261717252.69447249 0 261717252.69447249 -35676945.716730118 0 0 0 0 4564987.8943481445 2596556.0466594696 0 2596556.0466594696 277310.70148086548 0 0 0 0 48352135.080963135 7620884.3172087669 0 7620884.3172087669 1168749.8237915039 0 0 0 0 811268.60655741394 7077249.1069230214 0 7077249.1069230214 -4466112.6933897426 0 0 0 0 -473200157.68212891 126403641.80966997 0 126403641.80966997 -73259107.475723863 0 0 0 0 30457578.625366211 -8412886.8019821122 0 -8412886.8019821122 -3876513.5053845793 0 0 0 0 33775604.347114563 1908690.5080519933 0 1908690.5080519933 -6667493.2704797685 0 0 0 0 28895165.793914795 2663736.1838233471 0 2663736.1838233471 -3563456.6548505574 0 0 0 0 28914569.258067608 7157198.2734841593 0 7157198.2734841593 -3675096.3761827946 0 0 0 0 20664010.984588623 4941039.4022465125 0 4941039.4022465125 -4867282.3949281275 0 0 0 0 20610354.657012939 4931076.5222382247 0 4931076.5222382247 -3952790.5029994845 0 0 0 0 16242495.418273926 5415401.3703355193 0 5415401.3703355193 -4500431.4966682717 0 0 0 0 20920344.491386414 4449468.692841012 0 4449468.692841012 -6360423.8485003114 0 0 0 0 20681310.224277496 3023958.8767442554 0 3023958.8767442554 -6170321.4548196793 0 0 0 0 24677500.769073486 262686.69218640029 0 262686.69218640029 -6914526.9871050268 0 0 0 0 26624313.650360107 3817314.6305560023 0 3817314.6305560023 -6501652.6841703653 0 0 0 0 4815449094.9967346 390051294.28563929 0 390051294.28563929 -917564485.94690204 0 0 0 0 5976714217.5846977 2751724951.5880594 0 2751724951.5880594 -182321661.985838 0 0 0 0 3991355312.8049355 2085338030.4313612 0 2085338030.4313612 -641986545.02529144 0 0 0 0 8174772.3902781457 1204691.0827685595 0 1204691.0827685595 -3052441.3889824646 0 0 0 0 3731160605.6620636 414384155.38553542 0 414384155.38553542 3741916.8135252958 0 0 0 0 3657041618.9931641 693373008.69484758 0 693373008.69484758 -585303309.35179663 0 0 0 0 4739436141.0968018 174949718.36314332 0 174949718.36314332 -441770485.54338765 0 0 0 0 5735094.9175521731 1365264.121476531 0 1365264.121476531 -1150782.9263667979 0 0 0 0 5199606158.7890358 -1364205495.5117304 0 -1364205495.5117304 -34660643.686102629 0 0 0 0 3387515074.4164085 -916528785.53158116 0 -916528785.53158116 2882604.9546937943 0 0 0 0 3363845593.7461662 -522286424.17379391 0 -522286424.17379391 -443495059.24368763 0 0 0 0 3692161.1272785366 477555.05010795593 0 477555.05010795593 -1392606.3215911975 0 0 0 0 2505214299.0762329 -982011010.54381776 0 -982011010.54381776 -1993019223.1147618 0 0 0 0 2150213049.7676697 996897537.94899249 0 996897537.94899249 502787782.56686276 0 0 0 0 4285294073.3319244 3109567152.6428614 0 3109567152.6428614 1163488718.6256657 0 0 0 0 2036391495.065918 111914444.45282078 0 111914444.45282078 -409513823.2993499 0 0 0 0 653727994.00292969 -1417057251.7058856 0 -1417057251.7058856 -555116323.48063588 0 0 0 0 840174849.25556946 -550848863.65569878 0 -550848863.65569878 -216467556.34392548 0 0 0 0 4428085.44514478 4831640.7715862617 0 4831640.7715862617 3071530.6211791066 0 0 0 0 -134792402.19739532 480521882.77380872 0 480521882.77380872 466288559.82679844 0 0 0 0 -22194226.294052124 20114124.133623432 0 20114124.133623432 23748512.914032213 0 0 0 0 38211934.969589233 -16515011.961602636 0 -16515011.961602636 -18892804.304806501 0 0 0 0 1767369768.7139435 -192327219.90665543 0 -192327219.90665543 21282895.93055737 0 0 0 0 1733478323.1931915 30696598.748529196 0 30696598.748529196 -197620690.93327153 0 0 0 0 6240270.9429068565 3832262.3966477513 0 3832262.3966477513 1173003.504419913 0 0 0 0 -8181780.3704071045 10431814.079833645 0 10431814.079833645 -7462.6206647798799 0 0 0 0 16905050.003204346 11767170.795688896 0 11767170.795688896 4663.0231903034255 0 0 0 0 2197371.5979766846 -1001395.1013389081 0 -1001395.1013389081 -2602783.4967250638 0 0 0 0 16023087.708251953 9333282.5569284204 0 9333282.5569284204 -9633690.400304947 0 0 0 0 15960109.596622467 8770189.457284309 0 8770189.457284309 1182030.2860970199 0 0 0 0 52839911.420166016 1058901.4128428621 0 1058901.4128428621 -16083349.866382649 0 0 0 0 31217544.744432449 -9624692.146926675 0 -9624692.146926675 -4225917.5392948091 0 0 0 0 34672378.173034668 5611728.5316468962 0 5611728.5316468962 -7667374.6479961071 0 0 0 0 1105161.1448621731 145012.99215079099 0 145012.99215079099 32247.995068381337 0 0 0 0 36346129.402923584 -4725594.1993356617 0 -4725594.1993356617 -17513.727842699405 0 0 0 0 29102769.601608276 622111.8108962652 0 622111.8108962652 -3960934.6282205298 0 0 0 0 58467495.866943359 4085677.1380312731 0 4085677.1380312731 -8874800.0371263959 0 0 0 0 49042050.656555176 1236477.354204271 0 1236477.354204271 -4729714.2686467282 0 0 0 0 41997106.459960938 -12890813.374900203 0 -12890813.374900203 -8795838.5044974796 0 0 0 0 49768863.928009033 1502336.8458670301 0 1502336.8458670301 11439372.160893977 0 0 0 0 109936645.49822998 -37812192.556366578 0 -37812192.556366578 36951535.308816187 0 0 0 0 61609515.955932617 26977638.032007031 0 26977638.032007031 -2602911.8460298534 0 0 0 0 -932465.68771362305 13482167.823232241 0 13482167.823232241 -5496941.3510751035 0 0 0 0 132705.35291843116 -7246.618992164731 0 -7246.618992164731 36714.261864675806 0 0 0 0 57398649.703186035 -18419038.898263216 0 -18419038.898263216 1768783.6292317081 0 0 0 0 93696781.254333496 -40189870.923725709 0 -40189870.923725709 3226748.4625463784 0 0 0 0 69106763.879882812 27676417.982219648 0 27676417.982219648 13184966.160302071 0 0 0 0 11553165.564834595 7883782.0943706706 0 7883782.0943706706 6784526.0525460392 0 0 0 0 1587153.3889049292 346461.74498666078 0 346461.74498666078 55627.907554565252 0 0 0 0 -1496075.5016021729 2098505.6690180078 0 2098505.6690180078 31507007.274858318 0 0 0 0 670397.19275823236 -83825.878321290016 0 -83825.878321290016 -440461.8077132476 0 0 0 0 45450073.922515869 -19663438.661223404 0 -19663438.661223404 -664092.54067178071 0 0 0 0 4709116.364074707 9630452.1401205957 0 9630452.1401205957 -5480711.2211732417 0 0 0 0 3887061.1793055627 663644.76623999327 0 663644.76623999327 -999104.29375641758 0 0 0 0 1233355.1886901855 3722011.6284794807 0 3722011.6284794807 -1986901.1671483517 0 0 0 0 700686.4197242707 1275731.6980522722 0 1275731.6980522722 868311.86487927916 0 0 0 0 29469671.997699738 -35330994.545576148 0 -35330994.545576148 8812495.1665590405 0 0 0 0 33805812.202087402 7381031.240733251 0 7381031.240733251 -11164824.034242235 0 0 0 0 51897209.087341309 -56494864.769592568 0 -56494864.769592568 14966331.483697973 0 0 0 0 7063862.2975463867 -950640.34405112267 0 -950640.34405112267 140402.36055359244 0 0 0 0 -1187230.3174133301 8692974.9504954815 0 8692974.9504954815 712314.92542815208 0 0 0 0 85126692.019104004 -33165578.67527163 0 -33165578.67527163 20571467.527463317 0 0 0 0 354251.92001129687 724622.9183004573 0 724622.9183004573 652800.64167837903 0 0 0 0 -1357606.6402132511 -2151703.263818589 0 -2151703.263818589 979587.33165335655 0 0 0 0 -843813.11456656456 -178501.98918680102 0 -178501.98918680102 735933.31562350993 0 0 0 0 3379887.7092327569 2632238.2845160514 0 2632238.2845160514 1586713.3295036075 0 0 0 0 -2475664.4035978317 972853.20050318167 0 972853.20050318167 7749891.7299974561 0 0 0 0 8526762.8694763184 8830780.8140622675 0 8830780.8140622675 367719.08573144674 0 0 0 0 -10248574.352487564 8426160.1939120702 0 8426160.1939120702 19390469.908774316 0 0 0 0 19878258.371181488 28903401.287235446 0 28903401.287235446 -16677566.048304021 0 0 0 0 8270239.3498840332 12461633.568236351 0 12461633.568236351 317645.3726721853 0 0 0 0 9047813.2001953125 5993350.9960620701 0 5993350.9960620701 14833445.911884233 0 0 0 0 10852417.683502197 -7332068.6514649391 0 -7332068.6514649391 -33375512.113893449 0 0 0 0 13559412.519432068 2264740.8224292099 0 2264740.8224292099 -11675964.394463181 0 0 0 0 8743619.0131977499 -3338437.4145834781 0 -3338437.4145834781 179363.18407612876 0 0 0 0 -43473885.668334961 -69215932.55436039 0 -69215932.55436039 685930149.01667881 0 0 0 0 931964.37832251191 448417.32803333178 0 448417.32803333178 -347503.35897961399 0 0 0 0 233394227.87405777 -704571509.79704857 0 -704571509.79704857 2244217158.9228287 0 0 0 0 278614.15341674443 -111485.74149374664 0 -111485.74149374664 108078.07670585392 0 0 0 0 8640506.4269714355 3335803.3475031257 0 3335803.3475031257 -8004148.1750693321 0 0 0 0 2186642.9651140366 1434958.5918728635 0 1434958.5918728635 -654091.3468423835 0 0 0 0 507680098.53106689 -237582931.68614477 0 -237582931.68614477 -19007454.945854783 0 0 0 0 431518727.05602074 -247258918.3901388 0 -247258918.3901388 133396082.95430899 0 0 0 0 287826448.50048828 -304993912.62475491 0 -304993912.62475491 224020284.79235172 0 0 0 0 290790702.01519775 -260870960.01288319 0 -260870960.01288319 864495651.54050732 0 0 0 0 1514966137.3012695 -394678500.09749985 0 -394678500.09749985 -294479261.79311943 0 0 0 0 -50673024.158172607 -55598581.101424217 0 -55598581.101424217 254022064.36924362 0 0 0 0 573122739.86192322 -108978257.88188112 0 -108978257.88188112 231201926.96490097 0 0 0 0 614886825.9930191 271002774.84918737 0 271002774.84918737 448908345.18628454 0 0 0 0 -171505004.1822443 -190868618.41844344 0 -190868618.41844344 330782867.71308851 0 0 0 0 868989548.55267334 136228716.23988414 0 136228716.23988414 -49292601.450486958 0 0 0 0 1329270962.7302246 -218890607.40976453 0 -218890607.40976453 -261432739.81669283 0 0 0 0 2938694.8155375868 209833.55905629694 0 209833.55905629694 -1292720.3150974391 0 0 0 0 1679853106.067997 1170539032.6804986 0 1170539032.6804986 659776807.47994089 0 0 0 0 1654113903.4538651 1559461983.4652662 0 1559461983.4652662 -95398521.137802601 0 0 0 0 2470780340.581604 1156994727.7940459 0 1156994727.7940459 -299328359.94661629 0 0 0 0 5612011.4135697633 1217116.9407937527 0 1217116.9407937527 -3213958.0176498587 0 0 0 0 569364249.65644836 682143194.90478241 0 682143194.90478241 795850223.60773826 0 0 0 0 710424451.42388916 306918461.2836172 0 306918461.2836172 365260977.35467863 0 0 0 0 228343114.94781494 104700991.12227905 0 104700991.12227905 414287148.05471998 0 0 0 0 456926729.05942535 300033648.66071975 0 300033648.66071975 286546733.3111999 0 0 0 0 256147552.82366943 149717284.58921528 0 149717284.58921528 -118033745.89063644 0 0 0 0 -110649113.58786011 231081233.78388548 0 231081233.78388548 286567071.31760383 0 0 0 0 361789227.33117676 381375878.56518054 0 381375878.56518054 -311109107.75249386 0 0 0 0 274407942.51322937 291026152.95206654 0 291026152.95206654 554257262.71830904 0 0 0 0 2984154.2581000179 1135979.7061576732 0 1135979.7061576732 -2096883.1180215832 0 0 0 0 430971021.29759598 714289356.66765475 0 714289356.66765475 472261729.58211344 0 0 0 0 158355110.51885986 333358441.38279581 0 333358441.38279581 330786591.19154859 0 0 0 0 2258110513.3146896 3490322698.609601 0 3490322698.609601 3098945119.8370962 0 0 0 0 5975225967.5983419 2887077321.0790429 0 2887077321.0790429 -519616621.49380797 0 0 0 0 5968602918.1662598 2893185828.4744649 0 2893185828.4744649 -516173450.63699287 0 0 0 0 1080520508.9496002 -33338779.379455566 0 -33338779.379455566 -335979995.59047353 0 0 0 0 4819553392.9024277 2234675469.9248462 0 2234675469.9248462 461335227.07442933 0 0 0 0 2514196348.665947 916869060.55337 0 916869060.55337 -151290991.37062359 0 0 0 0 2168247081.4726219 980000530.10783172 0 980000530.10783172 -135155528.85958052 0 0 0 0 8410254.4756059051 2132341.5735848993 0 2132341.5735848993 -3530692.381172949 0 0 0 0 3824141183.4152527 -1351792809.9306662 0 -1351792809.9306662 -790318203.11028779 0 0 0 0 3540638432.8150787 -818905308.27171302 0 -818905308.27171302 -513635995.12847185 0 0 0 0 5986456709.213623 -2346574536.125761 0 -2346574536.125761 -374033016.62399161 0 0 0 0 5972571874.7293377 -4368531203.3247957 0 -4368531203.3247957 2669865392.2373877 0 0 0 0 10505634.262486935 866208.83339093812 0 866208.83339093812 2685205.0393849262 0 0 0 0 2292526272.4388809 -1782018129.4843795 0 -1782018129.4843795 860052301.45650637 0 0 0 0 2298799784.0050507 -1165586123.135262 0 -1165586123.135262 325004073.38285136 0 0 0 0 24763547.38007763 5556437.0967326146 0 5556437.0967326146 2191232.0254017436 0 0 0 0 -104999251.80279541 729215305.48943853 0 729215305.48943853 -481687782.32344294 0 0 0 0 -233128763.71152115 32832902.814264089 0 32832902.814264089 -145439156.13035631 0 0 0 0 711383024.74954033 139519634.62183675 0 139519634.62183675 -365710259.31874001 0 0 0 0 743836671.30853271 -680215292.8498528 0 -680215292.8498528 424695722.06042612 0 0 0 0 2440598114.3386993 -1324804132.2341912 0 -1324804132.2341912 298710397.29445243 0 0 0 0 1003836157.1324768 -244210981.27067703 0 -244210981.27067703 13937073.058462143 0 0 0 0 1624341304.8665924 -565442037.12100744 0 -565442037.12100744 64703082.34486261 0 0 0 0 365145672.54675293 -154723763.21330369 0 -154723763.21330369 90128695.555524081 0 0 0 0 65661543.863395691 216260987.42588902 0 216260987.42588902 -258396243.87296617 0 0 0 0 36218221.930152707 9126469.6108581517 0 9126469.6108581517 649381.76525467902 0 0 0 0 566537485.09101868 -412016989.42354941 0 -412016989.42354941 94006473.944391578 0 0 0 0 -34509946.522201538 223798366.60892442 0 223798366.60892442 151764933.79636741 0 0 0 0 48467701.547836304 604179665.33165908 0 604179665.33165908 -1050473622.5836377 0 0 0 0 32544839.699449934 8187434.567392543 0 8187434.567392543 1300288.3625395452 0 0 0 0 481557347.04937744 280676357.90679312 0 280676357.90679312 -125107257.24230194 0 0 0 0 190680154.71862793 263280152.67853737 0 263280152.67853737 529690527.64232874 0 0 0 0 1040794740.7336693 145528144.48888028 0 145528144.48888028 399003421.8888464 0 0 0 0 1200313860.4956055 -1030700929.7478828 0 -1030700929.7478828 1945625099.213614 0 0 0 0 647613727.26965332 -486845245.15223742 0 -486845245.15223742 379225611.44526291 0 0 0 0 572983069.66783142 -137276613.34599924 0 -137276613.34599924 -828354748.31705093 0 0 0 0 -262312927.57828522 144277548.38050437 0 144277548.38050437 -120324558.39603519 0 0 0 0 142996956.20739746 471996952.08088255 0 471996952.08088255 -1135211180.5643744 0 0 0 0 -57139291.819091797 -34056551.398584843 0 -34056551.398584843 -340903687.33056104 0 0 0 0 251779880.6541214 -252721269.91754127 0 -252721269.91754127 -294421968.56257915 0 0 0 0 770027060.00939941 -465210943.93205643 0 -465210943.93205643 180041636.92484856 0 0 0 0 75888569.657180786 18884559.117816448 0 18884559.117816448 -99603838.223865032 0 0 0 0 778604645.93182373 -223291022.01578331 0 -223291022.01578331 212198124.44158936 0 0 0 0 -230657320.12619019 211245859.68744326 0 211245859.68744326 1645771594.8763924 0 0 0 0 756085334.52734375 -162865751.03094292 0 -162865751.03094292 564001174.73582077 0 0 0 0 40209984.529937744 26058537.198415518 0 26058537.198415518 266694849.06662846 0 0 0 0 38547674.107009888 -309545903.09021807 0 -309545903.09021807 288916936.69878387 0 0 0 0 133313352.16755676 -211297344.91220832 0 -211297344.91220832 -358009373.92809582 0 0 0 0 18590036.302612305 -76902030.469724417 0 -76902030.469724417 -165447354.62414742 0 0 0 0 37461431.399057165 8912884.5947198644 0 8912884.5947198644 -14712.158060660237 0 0 0 0 49574404.664642334 119306770.5042572 0 119306770.5042572 -588246046.01395893 0 0 0 0 -147318335.65359497 237691354.77073842 0 237691354.77073842 69831662.961461067 0 0 0 0 -269037517.70981979 7565743.536759004 0 7565743.536759004 76629283.257045269 0 0 0 0 54223376.391845703 -70860999.398717999 0 -70860999.398717999 -165076822.91210866 0 0 0 0 14022106.573501587 72678872.745022297 0 72678872.745022297 -163534446.10311913 0 0 0 0 93565314.754692078 196802792.56424987 0 196802792.56424987 -103236325.21918356 0 0 0 0 -200738945.2338562 -196392844.20847011 0 -196392844.20847011 72123303.173887014 0 0 0 0 -183943341.39601707 -197777293.84903991 0 -197777293.84903991 145447895.01075888 0 0 0 0 -175166852.37365723 -32623386.196621895 0 -32623386.196621895 15979548.164772689 0 0 0 0 -515033143.21096802 168016388.33744472 0 168016388.33744472 45396170.858736992 0 0 0 0 6155150.1414522529 -1126326.2668926567 0 -1126326.2668926567 -3011041.0877452567 0 0 0 0 -193688576.3612709 -39258813.280904502 0 -39258813.280904502 38020588.899670124 0 0 0 0 -167124573.52871704 -55442762.815663576 0 -55442762.815663576 13727678.495397329 0 0 0 0 -144349366.88256836 -90894394.69710815 0 -90894394.69710815 44429856.09030056 0 0 0 0 -109246199.0165863 -115485158.83074212 0 -115485158.83074212 338600.18701398373 0 0 0 0 -113147938.05102539 -99148979.168285191 0 -99148979.168285191 -21319867.01069802 0 0 0 0 -27313161.988286972 -196396578.46168178 0 -196396578.46168178 37453336.998421907 0 0 0 0 3011113.2931213379 -169418713.01451176 0 -169418713.01451176 -89675962.891734093 0 0 0 0 -25477772.917999268 -210513766.11030066 0 -210513766.11030066 -38401247.748750567 0 0 0 0 -99767711.064201355 -160121852.91024926 0 -160121852.91024926 65363495.677942276 0 0 0 0 -95102878.224918365 -198888475.66561073 0 -198888475.66561073 145386696.78720379 0 0 0 0 -105697863.88153076 -148522989.42696166 0 -148522989.42696166 55485062.351057529 0 0 0 0 -220290756.35075378 -33939717.585298419 0 -33939717.585298419 67721187.086587429 0 0 0 0 -164568087.60662651 -106690838.99015343 0 -106690838.99015343 115861103.86778164 0 0 0 0 80610517.761352539 -150610625.13072991 0 -150610625.13072991 90390907.864041805 0 0 0 0 79264973.566497803 -244837056.9664849 0 -244837056.9664849 205789569.24933076 0 0 0 0 81025711.498352051 -57386904.581354618 0 -57386904.581354618 289784440.32570744 0 0 0 0 82164234.459716797 -224774066.80087954 0 -224774066.80087954 37822053.815980911 0 0 0 0 -51985059.771057129 -338302683.63769281 0 -338302683.63769281 -58790605.051658601 0 0 0 0 -44287267.665893555 -193368724.81273308 0 -193368724.81273308 113823742.41610426 0 0 0 0 438590511.01657104 16425208.366014361 0 16425208.366014361 89577127.27912423 0 0 0 0 372811016.56088638 57834580.427090466 0 57834580.427090466 317121331.29368138 0 0 0 0 436232733.93567657 -43561172.59610945 0 -43561172.59610945 193535114.82271099 0 0 0 0 1435601391.8542786 -199080732.73327303 0 -199080732.73327303 44011785.596859276 0 0 0 0 219502220.22001648 -148695227.69198155 0 -148695227.69198155 25376798.62354362 0 0 0 0 397202192.06954956 41044887.760897994 0 41044887.760897994 70984865.537102103 0 0 0 0 639817800.88987732 62677916.236908615 0 62677916.236908615 174167216.4487915 0 0 0 0 2860779802.6260223 -174835031.71692586 0 -174835031.71692586 -321995858.92626357 0 0 0 0 1587241338.4049377 165797871.36494672 0 165797871.36494672 -20183255.495773554 0 0 0 0 1539342945.3559113 243851797.07398522 0 243851797.07398522 95796249.307859182 0 0 0 0 1701468184.0817871 462511.73028612137 0 462511.73028612137 -69786275.157124788 0 0 0 0 1282947728.0646133 226479405.94765398 0 226479405.94765398 -26716002.331324112 0 0 0 0 1178388359.4080811 615056018.9260633 0 615056018.9260633 277317807.75272858 0 0 0 0 3058004489.8793869 739124956.44332242 0 739124956.44332242 -223362352.69561243 0 0 0 0 3074477337.6661911 528354370.97004801 0 528354370.97004801 -406656991.54872966 0 0 0 0 4824645035.3774185 1293459410.0649931 0 1293459410.0649931 -581637148.9603858 0 0 0 0 4147522899.0227966 1009394602.3535976 0 1009394602.3535976 -301645901.42152733 0 0 0 0 5985599821.6073608 945085019.42722142 0 945085019.42722142 -753743787.45644891 0 0 0 0 5229312362.6477718 324550745.58080333 0 324550745.58080333 -1235619160.5921013 0 0 0 0 5983381240.0491867 485177668.78802425 0 485177668.78802425 -1335280658.1177335 0 0 0 0 4805171146.9511795 -118513036.25736801 0 -118513036.25736801 -1099537815.8415899 0 0 0 0 4125807556.029892 -330264450.60353917 0 -330264450.60353917 -1155064438.2438865 0 0 0 0 3061400497.6163464 -812186478.32168496 0 -812186478.32168496 -423895095.85180116 0 0 0 0 5984084219.7764683 -1008479764.3504127 0 -1008479764.3504127 -1233309317.1403546 0 0 0 0 4861550.162979126 -33689076.116534233 0 -33689076.116534233 -65191417.119470164 0 0 0 0 44205435.60446167 -30483165.521589756 0 -30483165.521589756 -103469328.30346775 0 0 0 0 21295643.235909134 -1024305.3883982897 0 -1024305.3883982897 -9326188.4372928087 0 0 0 0 3777137.5122522414 -4402808.0481090788 0 -4402808.0481090788 -4224914.621357372 0 0 0 0 -81677454.112289429 -149258539.57456923 0 -149258539.57456923 20007065.341007233 0 0 0 0 20232891.771636963 -49761422.817558289 0 -49761422.817558289 8483535.0058932304 0 0 0 0 66412246.623363495 -12743144.984723568 0 -12743144.984723568 -10099910.123512268 0 0 0 0 -117646119.73742676 27371793.168951988 0 27371793.168951988 -853579.77840566635 0 0 0 0 171763982.98925781 -26868427.804489136 0 -26868427.804489136 -65022599.0189116 0 0 0 0 -81999606.742004395 -43689877.427603245 0 -43689877.427603245 -4737152.8048348427 0 0 0 0 -72388666.240089417 -82400012.308451295 0 -82400012.308451295 4089789.3612589836 0 0 0 0 -105930432.4710331 -82324414.203687474 0 -82324414.203687474 17205390.481329441 0 0 0 0 20247738.506821394 -42419284.287368737 0 -42419284.287368737 -7293403.807220459 0 0 0 0 -13360321.82623291 -54578468.685276985 0 -54578468.685276985 -23535780.296950102 0 0 0 0 22970143.972412109 -59667972.930868626 0 -59667972.930868626 -31056851.95195055 0 0 0 0 39349044.064483643 1326595.4421463013 0 1326595.4421463013 -29306235.854454041 0 0 0 0 54294336.520385742 -31079335.968567133 0 -31079335.968567133 -25140649.07286787 0 0 0 0 23415547.516224753 -7102209.3056754544 0 -7102209.3056754544 -15597105.057683559 0 0 0 0 23274103.964249074 -99887.716255975887 0 -99887.716255975887 -10470523.207374537 0 0 0 0 38728426.835708618 -4272349.0288887024 0 -4272349.0288887024 -47662427.125789642 0 0 0 0 33382271.09362793 -15961688.560962677 0 -15961688.560962677 -32573821.706735611 0 0 0 0 22556004.337799072 7178871.1024742126 0 7178871.1024742126 -62902873.089881897 0 0 0 0 15005078.866291761 2526880.6815562174 0 2526880.6815562174 -5152871.9542235583 0 0 0 0 48859127.443756104 19457381.239902496 0 19457381.239902496 -115726137.91820145 0 0 0 0 20972198.946868896 -10145462.333394051 0 -10145462.333394051 -12047549.946519852 0 0 0 0 8876626.8816981614 -5466920.9414361902 0 -5466920.9414361902 -5743195.5851831362 0 0 0 0 32011458.075469971 -33969988.518608093 0 -33969988.518608093 6277310.522816658 0 0 0 0 29937189.244594574 -55896147.463972569 0 -55896147.463972569 9081077.1586685181 0 0 0 0 15288007.29876709 2613437.5401468277 0 2613437.5401468277 -11437073.27453804 0 0 0 0 12625045.097172394 -8595395.0452577434 0 -8595395.0452577434 -15004336.22261448 0 0 0 0 21292082.676681519 -7579448.4252665043 0 -7579448.4252665043 -6843235.4791193008 0 0 0 0 47951005.477947235 -40417161.872484446 0 -40417161.872484446 -19329074.486129761 0 0 0 0 31838110.622787476 -21938138.087427139 0 -21938138.087427139 -18279235.340312958 0 0 0 0 19449123.33983621 -5194581.2240972668 0 -5194581.2240972668 -11835326.174661348 0 0 0 0 50421503.165248871 -33273572.308893204 0 -33273572.308893204 -35857107.235256195 0 0 0 0 42990023.145690918 -16970915.386144638 0 -16970915.386144638 -36428702.100416601 0 0 0 0 38396707.910186768 -3294357.2638626099 0 -3294357.2638626099 -46276585.111579418 0 0 0 0 44654605.48348999 -17421709.823209763 0 -17421709.823209763 -71935029.443893433 0 0 0 0 44534761.804152489 -19480393.552001595 0 -19480393.552001595 -43173852.797092438 0 0 0 0 44367087.130706787 -1444600.5871276855 0 -1444600.5871276855 -47074453.488975525 0 0 0 0 22037051.611968994 3782832.0904148817 0 3782832.0904148817 29223.855557918549 0 0 0 0 13726355.925231934 1490767.0857181549 0 1490767.0857181549 -445608.32936286926 0 0 0 0 2598790.3088733181 -3422742.0853182375 0 -3422742.0853182375 -6156547.9943421772 0 0 0 0 43474780.530639648 -18894111.804117203 0 -18894111.804117203 -29429849.940952301 0 0 0 0 43614410.607406616 -1789183.6255989075 0 -1789183.6255989075 -28783357.904430389 0 0 0 0 13346615.853498399 834141.57893423736 0 834141.57893423736 -1526039.846567099 0 0 0 0 3375859.8571777344 -3777597.6172676086 0 -3777597.6172676086 -4395072.3722801208 0 0 0 0 18234468.020977497 -5181343.7028992102 0 -5181343.7028992102 -10445158.056985579 0 0 0 0 11331035.229598455 -95681.732138417661 0 -95681.732138417661 -1600667.5272871901 0 0 0 0 14152276.792114258 -3611819.4506399632 0 -3611819.4506399632 -5081510.3167543411 0 0 0 0 20468477.694641113 8815200.0844731331 0 8815200.0844731331 -8507257.9233926833 0 0 0 0 11134419.741241455 -3386523.1969041824 0 -3386523.1969041824 -4817051.6251907349 0 0 0 0 13317641.325073242 -1458163.1619086266 0 -1458163.1619086266 -9584357.6306426525 0 0 0 0 6639945.2289733887 -2922754.321336031 0 -2922754.321336031 -1207553.2981114388 0 0 0 0 12944411.321360588 -5433077.7259217687 0 -5433077.7259217687 -1995929.569709301 0 0 0 0 10572713.703762099 -3978133.756345287 0 -3978133.756345287 -6486734.1639295965 0 0 0 0 13118048.416320801 -1215356.2450108528 0 -1215356.2450108528 -2440821.7847824097 0 0 0 0 5259784.8873515949 -4838396.6091682017 0 -4838396.6091682017 -4663590.3700092398 0 0 0 0 10430022.514589421 94480.675373904407 0 94480.675373904407 -1602143.4748783438 0 0 0 0 341671.68272766471 -2694742.3570527583 0 -2694742.3570527583 -1928054.7454450019 0 0 0 0 -842540.45379638672 -4178005.1485767365 0 -4178005.1485767365 12518382.361328125 0 0 0 0 22191674.819580078 3304788.5876909494 0 3304788.5876909494 -1235790.8524494171 0 0 0 0 -106731.9199936837 -3225747.8865987062 0 -3225747.8865987062 -1911304.4936464671 0 0 0 0 9772382.1206665039 424651.66043388844 0 424651.66043388844 -3213851.9670860767 0 0 0 0 -6293579.4744873047 -3441708.7138061523 0 -3441708.7138061523 -14165496.023399353 0 0 0 0 15451459.240923077 -5537408.4576524198 0 -5537408.4576524198 -11365303.451757908 0 0 0 0 30339230.269918904 -4962506.0463560745 0 -4962506.0463560745 -23329056.180126335 0 0 0 0 75708699.273071289 -18882600.293723106 0 -18882600.293723106 -15347444.208810806 0 0 0 0 57993303.131469727 -1732382.2364625931 0 -1732382.2364625931 -8084628.7712745667 0 0 0 0 63301687.143554688 -1802313.7772102356 0 -1802313.7772102356 -9362969.6739368439 0 0 0 0 54719897.387195587 -12904174.666128814 0 -12904174.666128814 -9484958.1905651093 0 0 0 0 35692375.615188599 -16708023.251766205 0 -16708023.251766205 -11380093.074255943 0 0 0 0 43582669.831619263 -24726991.610117912 0 -24726991.610117912 -5525944.5041627884 0 0 0 0 39610972.548118591 -34280242.751137495 0 -34280242.751137495 9912486.90675354 0 0 0 0 62282776.116882324 -53308570.778207779 0 -53308570.778207779 -9605226.7708377838 0 0 0 0 57677393.761016846 -70091546.028354645 0 -70091546.028354645 -30228949.754590988 0 0 0 0 27490150.193908691 -84428576.198377848 0 -84428576.198377848 27137047.725733757 0 0 0 0 56645929.715454102 -100946795.61962104 0 -100946795.61962104 -94365263.180911064 0 0 0 0 78165610.785247803 -63607032.222171783 0 -63607032.222171783 -29584508.975615323 0 0 0 0 75568314.413772583 -57894269.192040443 0 -57894269.192040443 -42145954.500766277 0 0 0 0 83210468.944766998 -47670333.841469049 0 -47670333.841469049 -28978497.123317719 0 0 0 0 -21683926.778564453 -94271028.07311058 0 -94271028.07311058 118309051.24146056 0 0 0 0 25010231.908065796 -99187258.973430872 0 -99187258.973430872 -25143799.128844261 0 0 0 0 23996541.043762207 -90117552.691165209 0 -90117552.691165209 -23848190.773960054 0 0 0 0 54166113.026168823 -80726022.832275867 0 -80726022.832275867 -200852458.62056017 0 0 0 0 16083777.688369751 -170106480.4853754 0 -170106480.4853754 -19263069.919753551 0 0 0 0 34069833.404449463 -32513682.48903656 0 -32513682.48903656 -169937062.94646764 0 0 0 0 123880932.875 -76036025.192919731 0 -76036025.192919731 -165020482.60272813 0 0 0 0 38099804.64597664 8715133.9024167694 0 8715133.9024167694 -854117.19478329411 0 0 0 0 17673065.65486145 60688683.48305279 0 60688683.48305279 -276140002.53514576 0 0 0 0 54247185.892594457 -78124980.294368312 0 -78124980.294368312 -56979814.286507607 0 0 0 0 157327945.17906189 -24342476.251110792 0 -24342476.251110792 -69256472.056132317 0 0 0 0 99604779.599304199 24020762.356341124 0 24020762.356341124 29278481.895141125 0 0 0 0 81769519.051330566 -25647674.594315529 0 -25647674.594315529 -115052240.08030701 0 0 0 0 90010285.795166016 -51666520.899472713 0 -51666520.899472713 -61293655.13744688 0 0 0 0 134550618.15863037 -68346132.867495298 0 -68346132.867495298 -161897633.86501336 0 0 0 0 -30679582.011764526 -31714962.967812777 0 -31714962.967812777 -68886913.352984428 0 0 0 0 257833769.77093506 17216388.10556674 0 17216388.10556674 -130286353.34962142 0 0 0 0 -649123.16109500825 -833489.03000221401 0 -833489.03000221401 301810.3082105089 0 0 0 0 -103800217.88549805 -108832725.11059284 0 -108832725.11059284 18342153.922266483 0 0 0 0 245334944.20828247 129339970.83265996 0 129339970.83265996 -19751525.906800747 0 0 0 0 -135016396.88728333 -186178005.46572149 0 -186178005.46572149 -15631045.869657516 0 0 0 0 -49840496.57711792 -159303661.79593396 0 -159303661.79593396 -120569578.00639153 0 0 0 0 101786997.20016479 290661882.3007586 0 290661882.3007586 -83680908.288932085 0 0 0 0 -17187543.131175041 -71245912.85718134 0 -71245912.85718134 -22121918.164841413 0 0 0 0 191348279.64477539 292366413.28116131 0 292366413.28116131 -90736958.663480699 0 0 0 0 2418807.3314772621 1062147.9021229241 0 1062147.9021229241 -2004642.3322801206 0 0 0 0 38355143.989409447 8127018.0122868251 0 8127018.0122868251 -2848659.6352380882 0 0 0 0 50075483.835235596 -207118762.38550687 0 -207118762.38550687 166456078.3513869 0 0 0 0 236089420.84411621 -412268898.83271456 0 -412268898.83271456 -211866293.20452571 0 0 0 0 85629435.613647461 54632055.740945816 0 54632055.740945816 -67056117.248209 0 0 0 0 68310877.515151978 137225636.64228368 0 137225636.64228368 -280373215.83792686 0 0 0 0 72506670.377197266 51200853.73735714 0 51200853.73735714 -56939046.34633255 0 0 0 0 90420988.000946045 1651450.677822113 0 1651450.677822113 -1631849.9816989899 0 0 0 0 42861464.40802002 15797347.368273735 0 15797347.368273735 533645.55083465576 0 0 0 0 43860209.782714844 33309492.897728443 0 33309492.897728443 10783887.00022316 0 0 0 0 56241619.798217773 8768632.8049402237 0 8768632.8049402237 28872883.781583786 0 0 0 0 47645425.176452637 23306208.173929214 0 23306208.173929214 34405584.916007996 0 0 0 0 54735225.858337402 15606558.054674149 0 15606558.054674149 -574739.62641143799 0 0 0 0 40584189.091522217 -4301487.6507935524 0 -4301487.6507935524 -98490845.582831383 0 0 0 0 60565607.972381592 58216098.588122845 0 58216098.588122845 -45550703.681169987 0 0 0 0 -95445519.050445557 128900186.85877275 0 128900186.85877275 647845309.23316574 0 0 0 0 283990611.94299316 149763136.5862031 0 149763136.5862031 -562667971.64368439 0 0 0 0 8656924.6081542969 40756282.292588949 0 40756282.292588949 51084524.228768826 0 0 0 0 151399950.47241211 207893178.2264452 0 207893178.2264452 26981969.780602217 0 0 0 0 152826116.09936523 -363921019.54472923 0 -363921019.54472923 118632037.68056297 0 0 0 0 368140119.76867676 998384279.64418983 0 998384279.64418983 52353486.226584911 0 0 0 0 425451925.64019775 -534342692.39464855 0 -534342692.39464855 -1161812161.1783409 0 0 0 0 39914080.164855957 -114618265.31940222 0 -114618265.31940222 -268504015.69814968 0 0 0 0 -5447129.5165328979 87352246.608299494 0 87352246.608299494 -34374361.503468513 0 0 0 0 19355989.960235596 36654213.573280334 0 36654213.573280334 10045295.952823639 0 0 0 0 9565212.9618152082 2732788.1844743006 0 2732788.1844743006 -2426864.8261453211 0 0 0 0 34124523.376373291 33208310.159279823 0 33208310.159279823 3694339.2536449432 0 0 0 0 6492128.3385443613 487374.62076961249 0 487374.62076961249 -4272355.3745527053 0 0 0 0 33181666.602027893 22596261.503273964 0 22596261.503273964 -52412310.552189827 0 0 0 0 72354930.359558105 21299970.709532261 0 21299970.709532261 -29265613.323430538 0 0 0 0 136186652.22112656 -5866471.7174522877 0 -5866471.7174522877 -128165267.46270943 0 0 0 0 99572355.247943878 71637147.191819608 0 71637147.191819608 -94180980.519752502 0 0 0 0 95110291.323120117 99616919.448797226 0 99616919.448797226 -176729613.65287971 0 0 0 0 138865664.68734741 13321998.985769272 0 13321998.985769272 -181000637.53545368 0 0 0 0 74880822.667572021 -6055335.2583332062 0 -6055335.2583332062 -33088752.606290698 0 0 0 0 26831427.734957248 -1975977.4999105893 0 -1975977.4999105893 -15721408.507733354 0 0 0 0 -204829454.28927231 5721931.834193334 0 5721931.834193334 -6180656.7363405228 0 0 0 0 85141609.746315002 -21029271.763128757 0 -21029271.763128757 -13302583.400871277 0 0 0 0 -150935258.40258408 -39540121.57092201 0 -39540121.57092201 -36102330.597880602 0 0 0 0 30343592.808817603 -11716718.908149526 0 -11716718.908149526 -12391159.559345994 0 0 0 0 33402434.861921202 28091131.219901629 0 28091131.219901629 5888471.0728316437 0 0 0 0 44353807.281919479 50349264.068921089 0 50349264.068921089 -27077142.47826004 0 0 0 0 40410844.994262695 24989171.683842659 0 24989171.683842659 7979875.001994133 0 0 0 0 29899101.254883431 3927226.990728023 0 3927226.990728023 -11905145.611722894 0 0 0 0 275063648.45972824 -20935812.264108658 0 -20935812.264108658 -132386380.91738129 0 0 0 0 82897713.705780029 39811419.204122543 0 39811419.204122543 -62652020.519592285 0 0 0 0 -102839215.5813446 -72067130.99213779 0 -72067130.99213779 -17838059.046053231 0 0 0 0 81676536.425341606 24800880.635623693 0 24800880.635623693 -75874265.526000977 0 0 0 0 33116021.788918026 -17302850.697133049 0 -17302850.697133049 -22779959.211495437 0 0 0 0 58810728.138187408 22087230.074387312 0 22087230.074387312 -14835479.913619995 0 0 0 0 53725053.703113556 7821673.9456053972 0 7821673.9456053972 -9743864.0877151489 0 0 0 0 42279514.888458252 22716839.444152832 0 22716839.444152832 -1271053.7055053711 0 0 0 0 29040889.646738835 23962961.022194568 0 23962961.022194568 6877630.0682198983 0 0 0 0 41535721.874443054 14074982.741466522 0 14074982.741466522 3108110.4352655411 0 0 0 0 -157992588.03367424 182776360.71532249 0 182776360.71532249 51698971.634483337 0 0 0 0 42739819.361114502 11016777.264525414 0 11016777.264525414 5036802.6677856445 0 0 0 0 14492335.247831894 10689303.640186917 0 10689303.640186917 -999971.98332002014 0 0 0 0 49746711.118766785 36936347.89535141 0 36936347.89535141 7932544.2707710266 0 0 0 0 48456895.574264526 11739014.864989281 0 11739014.864989281 -4660843.2099423409 0 0 0 0 48720699.065757751 37240033.163649559 0 37240033.163649559 10694461.237754822 0 0 0 0 47524132.364685059 39220180.669489861 0 39220180.669489861 7581936.8770256042 0 0 0 0 25996941.536903381 15958094.932433367 0 15958094.932433367 3040292.7380256653 0 0 0 0 18602798.494415283 13111290.105119705 0 13111290.105119705 9925055.4210586548 0 0 0 0 35667796.941986084 44147793.044061661 0 44147793.044061661 36821380.0835495 0 0 0 0 41782652.769973755 15733520.469138145 0 15733520.469138145 -5528256.9545388222 0 0 0 0 27578793.193984985 6618551.284624815 0 6618551.284624815 -7711709.0374040604 0 0 0 0 15950246.037249863 11437903.49838819 0 11437903.49838819 -7435512.0845199274 0 0 0 0 4946798.6466153488 9291599.972778108 0 9291599.972778108 -4906021.7285977863 0 0 0 0 41510326.434108734 9401917.8778319359 0 9401917.8778319359 -18987612.926363468 0 0 0 0 46159590.63433075 25310091.343610287 0 25310091.343610287 -22831543.860747337 0 0 0 0 -12930674.19934082 23018660.036463737 0 23018660.036463737 -81699459.269927025 0 0 0 0 20245672.535896301 6929344.6767559052 0 6929344.6767559052 -13659277.673671722 0 0 0 0 11608648.44581604 24757178.07297039 0 24757178.07297039 5411838.0210418701 0 0 0 0 420965.05951201916 -6086487.8775643744 0 -6086487.8775643744 -4274726.5277814306 0 0 0 0 9801291.3211364746 -13255760.858854294 0 -13255760.858854294 -8348226.2053031921 0 0 0 0 3387773.2998046875 -1456147.2495880127 0 -1456147.2495880127 -5457506.4413490295 0 0 0 0 5292195.249212712 2130386.1959572122 0 2130386.1959572122 -4091918.7228958397 0 0 0 0 38888248.967476435 7131659.0937161893 0 7131659.0937161893 -10897655.249867361 0 0 0 0 26472948.232536275 -7515513.8753268793 0 -7515513.8753268793 -13980710.863535492 0 0 0 0 18558409.919784546 -14759166.551671982 0 -14759166.551671982 -10502214.892959595 0 0 0 0 83703945.335319519 24568319.037532091 0 24568319.037532091 -72155938.523542881 0 0 0 0 24673593.787117004 -13651749.275724411 0 -13651749.275724411 -16063706.505516052 0 0 0 0 38832263.79699707 -42611030.705965519 0 -42611030.705965519 -170045096.46235633 0 0 0 0 -44060427.380535126 121005099.69360694 0 121005099.69360694 -61285647.053607464 0 0 0 0 40875224.17363058 3239198.5154986363 0 3239198.5154986363 -10473735.547235766 0 0 0 0 -18703493.833404541 -84488185.695304632 0 -84488185.695304632 -76757766.654155254 0 0 0 0 47419069.350402832 7122724.1465473175 0 7122724.1465473175 -53790440.981151581 0 0 0 0 26268930.368862152 -13771606.868085384 0 -13771606.868085384 -74429848.779182434 0 0 0 0 70744393.83026123 -42570278.032215118 0 -42570278.032215118 -40878412.729995728 0 0 0 0 27430500.28868103 -18116055.931545258 0 -18116055.931545258 -27474732.060424805 0 0 0 0 9913238.8013579845 -24032037.687574714 0 -24032037.687574714 5188780.2102661133 0 0 0 0 24784666.870483398 -31633948.263275146 0 -31633948.263275146 -16346331.814903259 0 0 0 0 28709379.804748535 -42508588.831853867 0 -42508588.831853867 10949904.817630768 0 0 0 0 18873117.660125732 -25447518.298744202 0 -25447518.298744202 9153003.4391112328 0 0 0 0 2030552.915840432 -1994771.7738725618 0 -1994771.7738725618 -3867025.3785940739 0 0 0 0 18232073.492919922 -28878957.58411026 0 -28878957.58411026 6457437.3426132202 0 0 0 0 711293.72706902027 -499828.51237922255 0 -499828.51237922255 -1400824.1302727414 0 0 0 0 58012778.293869019 -88886140.315058708 0 -88886140.315058708 95180275.084039688 0 0 0 0 169542885.67308044 -60287179.054677963 0 -60287179.054677963 -27308229.555903435 0 0 0 0 73652072.897888184 99720868.695735931 0 99720868.695735931 118260715.74954796 0 0 0 0 157504388.99029541 63220839.250798225 0 63220839.250798225 10726086.513912201 0 0 0 0 112338950.96340942 52856665.643262863 0 52856665.643262863 13088973.535610199 0 0 0 0 36268471.971725464 52855936.556848526 0 52855936.556848526 18593532.557498932 0 0 0 0 17479561.694061279 37558743.11787796 0 37558743.11787796 51826098.688724518 0 0 0 0 17012047.826171875 16435176.460290909 0 16435176.460290909 16591795.028675079 0 0 0 0 64446102.757141113 87693470.954929352 0 87693470.954929352 61040769.370243073 0 0 0 0 67856142.452468872 65415874.124773026 0 65415874.124773026 21344631.859493732 0 0 0 0 74328049.023956299 71339656.479264259 0 71339656.479264259 -3998656.2929897308 0 0 0 0 58335604.007614136 53648419.907816887 0 53648419.907816887 17630159.340694427 0 0 0 0 56951165.072875977 55990220.960151672 0 55990220.960151672 14365056.158169746 0 0 0 0 20669053.494827271 50581808.217523575 0 50581808.217523575 20418483.711602211 0 0 0 0 40998159.403820038 29275499.75006485 0 29275499.75006485 -57623130.294692993 0 0 0 0 28402672.037719727 57620785.116810799 0 57620785.116810799 76049740.461889267 0 0 0 0 112241111.35098267 83401774.30657959 0 83401774.30657959 -381739.26636600494 0 0 0 0 98581374.494758606 33378009.730330467 0 33378009.730330467 -32612760.283397675 0 0 0 0 136953320.19691467 48491094.712519646 0 48491094.712519646 -189576506.19400787 0 0 0 0 134405832.72986221 17463798.690805912 0 17463798.690805912 -50319454.685855865 0 0 0 0 -48148482.961242676 59456861.430942535 0 59456861.430942535 -59555851.552336216 0 0 0 0 84282830.987731934 -3414343.0848522186 0 -3414343.0848522186 -36048395.400844574 0 0 0 0 -12409887.681427002 -65185392.255273819 0 -65185392.255273819 -68484815.056032181 0 0 0 0 52434214.109619141 -83613097.796308517 0 -83613097.796308517 188269504.53459358 0 0 0 0 3320160.7786722928 3319027.6816427256 0 3319027.6816427256 477031.83445424057 0 0 0 0 125931282.89605713 -64860167.964797974 0 -64860167.964797974 -125902398.27390289 0 0 0 0 -2856483.3129882812 -13296147.990812302 0 -13296147.990812302 319206058.61381912 0 0 0 0 -854096747.48632812 458432470.51361084 0 458432470.51361084 446454641.53962708 0 0 0 0 90831481.654495239 -47779416.026078224 0 -47779416.026078224 46206177.05856514 0 0 0 0 14415120.321347915 17120671.593489628 0 17120671.593489628 -8068769.1124736816 0 0 0 0 10071362.706488676 8770950.8935753293 0 8770950.8935753293 1354200.5551280933 0 0 0 0 27410700.573074341 65927194.700630188 0 65927194.700630188 85125170.34733963 0 0 0 0 45633017.373474121 88223762.190254211 0 88223762.190254211 62347757.907092094 0 0 0 0 80732366.729660034 87387295.587368488 0 87387295.587368488 19502725.900341034 0 0 0 0 17608352.790845409 26479108.302744675 0 26479108.302744675 -15583435.611468822 0 0 0 0 10918666.583404541 29064764.004932404 0 29064764.004932404 -35821628.885665894 0 0 0 0 48401853.217269897 33422666.437064171 0 33422666.437064171 -882343.33247220516 0 0 0 0 -523894.74893188477 33571199.784000397 0 33571199.784000397 -6211110.0272331238 0 0 0 0 12000032.441741943 25480503.133525848 0 25480503.133525848 -26343539.020950317 0 0 0 0 7930363.4843597412 24668937.806293488 0 24668937.806293488 -15009108.445129395 0 0 0 0 5189975.0125732422 32264937.597946167 0 32264937.597946167 -24179522.845252991 0 0 0 0 51851156.013946533 -18890763.268665314 0 -18890763.268665314 -10008423.561237335 0 0 0 0 34559971.896575928 549242.56407928467 0 549242.56407928467 -10362650.493782043 0 0 0 0 46731003.967826843 -18649918.927364349 0 -18649918.927364349 -9001096.5370101929 0 0 0 0 47133415.755437851 -9051831.4295635223 0 -9051831.4295635223 6631786.2450714111 0 0 0 0 40242391.607738495 -33482573.279663563 0 -33482573.279663563 -15032794.15063858 0 0 0 0 46222451.337341309 -18070487.147449017 0 -18070487.147449017 -7933179.012260437 0 0 0 0 71642881.517814636 -32148325.923891068 0 -32148325.923891068 -4088263.7232208252 0 0 0 0 93907435.290985107 4546460.7233734131 0 4546460.7233734131 -10252375.46131134 0 0 0 0 85678641.784835815 1408322.6254653931 0 1408322.6254653931 -12487795.480514526 0 0 0 0 86315490.099803925 786699.03800773621 0 786699.03800773621 -11906010.858406067 0 0 0 0 23628593.63660159 16356148.211356906 0 16356148.211356906 2121074.1140739191 0 0 0 0 57974392.176048279 42857262.557785034 0 42857262.557785034 -9488665.1951293945 0 0 0 0 76008691.066501617 49676365.266059875 0 49676365.266059875 -9148971.9208831787 0 0 0 0 120587181.69125366 58003143.084281921 0 58003143.084281921 -9367395.4612579346 0 0 0 0 7326926.41558256 1557863.2458284013 0 1557863.2458284013 -6371616.4548363211 0 0 0 0 19654697.646212578 48180097.827472061 0 48180097.827472061 102080486.68344116 0 0 0 0 -17661609.476257324 -20520569.082117081 0 -20520569.082117081 -31679184.937451363 0 0 0 0 52135595.199639238 9901941.9133924916 0 9901941.9133924916 -23980294.555691872 0 0 0 0 19365395.597320557 39729384.066007614 0 39729384.066007614 71057703.543647766 0 0 0 0 83195639.148193359 115897307.40707588 0 115897307.40707588 55461728.874498367 0 0 0 0 37586970.143749237 84969787.255122542 0 84969787.255122542 107915311.37212563 0 0 0 0 35252663.192321777 68603365.047382355 0 68603365.047382355 35561007.482059479 0 0 0 0 70094627.915161133 97855393.520513058 0 97855393.520513058 69360466.324735641 0 0 0 0 133271922.10165405 22795910.989513397 0 22795910.989513397 -71825531.48340416 0 0 0 0 -14202087.13079834 -17310973.455104828 0 -17310973.455104828 -10482685.290843964 0 0 0 0 39678728.809921265 -8111843.5357284546 0 -8111843.5357284546 -24229254.660037994 0 0 0 0 -35204243.106643677 -3448781.771856308 0 -3448781.771856308 -707093.44940948486 0 0 0 0 12350713.771850586 37172270.146751404 0 37172270.146751404 36145393.001249313 0 0 0 0 59607646.943740845 79532002.886809349 0 79532002.886809349 7992509.0594482422 0 0 0 0 45005054.011688232 82093871.917819977 0 82093871.917819977 37585340.444950104 0 0 0 0 10277026.423980713 4308982.9385528564 0 4308982.9385528564 -16769850.332443237 0 0 0 0 16147957.057622857 19168117.268673196 0 19168117.268673196 2940958.3354858584 0 0 0 0 -12441803.314697266 8857772.7892074585 0 8857772.7892074585 -16990981.55153656 0 0 0 0 -34705722.961832285 13501220.958887428 0 13501220.958887428 -7821039.9128608704 0 0 0 0 21624231.376003414 7940157.1094196988 0 7940157.1094196988 -693909.09448565077 0 0 0 0 54959807.73192215 -6960898.7832016945 0 -6960898.7832016945 -550727.10387802124 0 0 0 0 51878183.085411072 -10244737.697960854 0 -10244737.697960854 -1530821.7024259567 0 0 0 0 52242072.411773682 -7700790.192668438 0 -7700790.192668438 15594590.316711426 0 0 0 0 18923768.203830309 18804412.135910764 0 18804412.135910764 -854481.78725429415 0 0 0 0 -2036775.542175293 5994489.3124771118 0 5994489.3124771118 253423.35708045959 0 0 0 0 23961009.707948375 8521362.9698433131 0 8521362.9698433131 4274375.2596563064 0 0 0 0 -7425193.6096191406 50423612.638967514 0 50423612.638967514 42837657.547073364 0 0 0 0 17757284.655770674 17530073.266239163 0 17530073.266239163 -5903405.6905582836 0 0 0 0 69555633.936859131 33694176.755038261 0 33694176.755038261 -8535105.3158149719 0 0 0 0 45143500.810802914 4680280.1284432821 0 4680280.1284432821 -7759245.7528927214 0 0 0 0 12824177.49601981 8767771.3750776798 0 8767771.3750776798 11314326.866078146 0 0 0 0 4365185.0183826834 4405266.9253148809 0 4405266.9253148809 -804264.05722973775 0 0 0 0 -68639736.86567688 -22706415.479856491 0 -22706415.479856491 48834872.46377182 0 0 0 0 80215478.056049347 189198699.92160535 0 189198699.92160535 130099378.72371101 0 0 0 0 77732316.160339355 93893018.919193268 0 93893018.919193268 -50372540.731039047 0 0 0 0 63852774.858917236 533254.69399261475 0 533254.69399261475 -50930761.015005112 0 0 0 0 50077398.185260773 37212267.730737448 0 37212267.730737448 7549398.462430954 0 0 0 0 37136113.703071594 16520496.445615768 0 16520496.445615768 -320316.32199287415 0 0 0 0 50352709.606109619 38033418.966287613 0 38033418.966287613 7033699.4260730743 0 0 0 0 44328697.998104095 3012434.362224102 0 3012434.362224102 7955966.5682907104 0 0 0 0 5854590.7907434423 349504.83912952477 0 349504.83912952477 -409962.36030728742 0 0 0 0 802861821.08280182 -48200352.4753685 0 -48200352.4753685 -366016612.15861893 0 0 0 0 -557268798.3156395 -16241662.674692154 0 -16241662.674692154 938701408.00574875 0 0 0 0 128461726.20910263 347697503.20890427 0 347697503.20890427 314882345.21987152 0 0 0 0 542044609.14518738 250317095.69071579 0 250317095.69071579 -52772660.656005859 0 0 0 0 72966985.692153931 15416502.490783691 0 15416502.490783691 -130359926.18268013 0 0 0 0 -178404641.72544861 3087717.4303894043 0 3087717.4303894043 -145815688.10361862 0 0 0 0 607234249.32253265 -326794036.82800531 0 -326794036.82800531 -8102495.0038070679 0 0 0 0 -504593994.54912186 217057140.66352844 0 217057140.66352844 126435167.61631012 0 0 0 0 21613078.4045352 18948668.632294644 0 18948668.632294644 8416587.8124541491 0 0 0 0 -179219449.24268341 -227180363.95054626 0 -227180363.95054626 -306734186.20129395 0 0 0 0 -111193324.50808716 -91952777.348464966 0 -91952777.348464966 -136766475.83705139 0 0 0 0 1917553.5685328022 25302413.648131404 0 25302413.648131404 1209836.7440891042 0 0 0 0 59697524.252561569 102054549.16179657 0 102054549.16179657 -21939897.475662231 0 0 0 0 33572028.05257225 65211610.329414368 0 65211610.329414368 74159365.857849121 0 0 0 0 7592072.5923690796 27672255.155509949 0 27672255.155509949 276373021.38909149 0 0 0 0 44890420.338970184 100046917.52273178 0 100046917.52273178 154228248.28250885 0 0 0 0 22385865.61555481 -22241078.32868576 0 -22241078.32868576 1771025.2359619141 0 0 0 0 1820653.9382400513 187215396.04962158 0 187215396.04962158 397684696.1582489 0 0 0 0 -65930109.982460022 248187028.93437195 0 248187028.93437195 61977534.740497589 0 0 0 0 58846239.829669952 211247214.51966476 0 211247214.51966476 69752691.153884888 0 0 0 0 131505011.60746002 146673047.69924927 0 146673047.69924927 63853623.782550812 0 0 0 0 47880122.21459198 191283063.94363403 0 191283063.94363403 91001092.26738739 0 0 0 0 16301644.911582947 204057346.38346672 0 204057346.38346672 206065416.20908356 0 0 0 0 -20759339.469896317 114828869.4678421 0 114828869.4678421 167412174.18870544 0 0 0 0 105949457.06507683 127321657.18975258 0 127321657.18975258 109522503.12398529 0 0 0 0 246808109.43836975 115465192.80067825 0 115465192.80067825 67597561.998806 0 0 0 0 247912123.56895423 104126724.17040634 0 104126724.17040634 50019326.210197449 0 0 0 0 106070226.89617777 30844239.892873764 0 30844239.892873764 112515917.30551147 0 0 0 0 111974092.49984741 123665020.51134491 0 123665020.51134491 111421427.8227272 0 0 0 0 250883576.79858589 165531903.82199478 0 165531903.82199478 78438462.101234436 0 0 0 0 137425212.83136749 157075734.71174622 0 157075734.71174622 74035221.210113525 0 0 0 0 154331028.31975555 142755284.48983002 0 142755284.48983002 5223082.1837005615 0 0 0 0 178660000.57132339 102800495.12220383 0 102800495.12220383 68327172.430359364 0 0 0 0 18580027.890392937 1524760.9355261205 0 1524760.9355261205 1427816.2017141841 0 0 0 0 41754920.193924904 25202863.53508091 0 25202863.53508091 4574565.1768569946 0 0 0 0 20251823.711753845 46630415.84305954 0 46630415.84305954 83009993.34586525 0 0 0 0 90190807.276374817 161481738.98688507 0 161481738.98688507 60408139.244968414 0 0 0 0 21393745.530265808 -21337978.080806732 0 -21337978.080806732 -14004637.158027649 0 0 0 0 91065364.314032555 161042763.84563112 0 161042763.84563112 -190149757.06989288 0 0 0 0 3603606.0901536942 114997182.24191093 0 114997182.24191093 -148837553.91759872 0 0 0 0 75209658.577081203 97154456.131189346 0 97154456.131189346 -374246361.85660553 0 0 0 0 114060965.56924993 4519023.7329788208 0 4519023.7329788208 -194341964.96974182 0 0 0 0 237913835.12894058 100145493.86493683 0 100145493.86493683 92139955.069447517 0 0 0 0 67109418.442287803 -110974393.76511097 0 -110974393.76511097 -476670387.08919907 0 0 0 0 10365267.41757438 -283699.42386980355 0 -283699.42386980355 1344834.5162427276 0 0 0 0 173826305.40747833 139574571.59474182 0 139574571.59474182 129738830.90849686 0 0 0 0 9905508.7739443369 18135355.135350876 0 18135355.135350876 5564019.2448919062 0 0 0 0 24432433.31803894 12793541.723400116 0 12793541.723400116 -1603162.854426384 0 0 0 0 -126867369.96300125 -102896301.30980682 0 -102896301.30980682 -154572600.13046598 0 0 0 0 38583105.596264467 654721.53505764157 0 654721.53505764157 3519064.0609491672 0 0 0 0 24476087.964500427 13053329.778327942 0 13053329.778327942 -4009751.8105661869 0 0 0 0 15740287.315030195 19821241.648209184 0 19821241.648209184 4143139.6228457503 0 0 0 0 13778323.762321472 17636389.702924728 0 17636389.702924728 -10003438.218505859 0 0 0 0 -719746.01119546779 6503329.8940431718 0 6503329.8940431718 1770015.5778861167 0 0 0 0 190079633.74064636 -172034537.11291122 0 -172034537.11291122 -238841840.9437685 0 0 0 0 55492285.111320496 177572635.63995361 0 177572635.63995361 -332834936.48088074 0 0 0 0 -1324032.4938043021 -435120.63490563491 0 -435120.63490563491 1832171.4545561895 0 0 0 0 5520612.4625489712 133010248.17677116 0 133010248.17677116 -211256610.19642258 0 0 0 0 15996206.164880298 12909248.33857793 0 12909248.33857793 3588712.7714651562 0 0 0 0 -9705676.0808041692 6074144.1651910543 0 6074144.1651910543 -48670210.174476624 0 0 0 0 14807251.183242798 12679768.704216003 0 12679768.704216003 -1215506.6314163208 0 0 0 0 33978814.171758592 5033862.9588450398 0 5033862.9588450398 3944371.6549744457 0 0 0 0 11024915.432804108 -27474765.666987419 0 -27474765.666987419 -1027147.7401943207 0 0 0 0 -522317594.02899504 461031956.92194366 0 461031956.92194366 -287350831.88821411 0 0 0 0 68557095.47085309 -75829431.068820953 0 -75829431.068820953 -915433534.6057663 0 0 0 0 7415524.7811777405 2294114.6651388044 0 2294114.6651388044 -1340201.0875152908 0 0 0 0 -341545914.92694759 227032679.24268341 0 227032679.24268341 -33904148.278080463 0 0 0 0 -110938536.76426888 610046789.27681923 0 610046789.27681923 -857903305.73456955 0 0 0 0 213814844.20727444 154959363.1356411 0 154959363.1356411 -380733762.54433846 0 0 0 0 147814176.1005373 323448863.55559254 0 323448863.55559254 -597730615.37539673 0 0 0 0 386936620.55710411 81370377.1565485 0 81370377.1565485 -620575130.68637085 0 0 0 0 340069077.35494661 -200655665.68351364 0 -200655665.68351364 -1246231550.342515 0 0 0 0 -544066800.7860651 722092700.70197201 0 722092700.70197201 -600549805.38634491 0 0 0 0 91015330.722312927 442469649.29460907 0 442469649.29460907 -1310664934.466814 0 0 0 0 201749659.28441834 4734898.2863249779 0 4734898.2863249779 -448087371.34122849 0 0 0 0 76321425.631077766 -35429711.142817497 0 -35429711.142817497 -429212684.72092819 0 0 0 0 -55643648.052483797 -210856804.07186222 0 -210856804.07186222 -254543107.88663483 0 0 0 0 166562697.44245982 63831339.897871017 0 63831339.897871017 -546578099.38243103 0 0 0 0 346845518.89938945 -69852378.922489166 0 -69852378.922489166 -632529286.7233448 0 0 0 0 505057579.61312699 -305068248.8685379 0 -305068248.8685379 -391547280.87907028 0 0 0 0 281988955.11718172 -205711084.48593426 0 -205711084.48593426 -300884472.79623413 0 0 0 0 204140051.31110954 -196370070.10023499 0 -196370070.10023499 -265001594.8526783 0 0 0 0 198219711.24513945 -282452415.35814238 0 -282452415.35814238 -162352766.15201569 0 0 0 0 65401180.002166271 -277242557.8018837 0 -277242557.8018837 219428994.72024727 0 0 0 0 324578114.9249534 -376828017.44943619 0 -376828017.44943619 -130437676.53104782 0 0 0 0 30412545.686888933 -216392920.26635265 0 -216392920.26635265 116488772.45934296 0 0 0 0 130786265.91272067 -326148983.995094 0 -326148983.995094 30097199.613555908 0 0 0 0 129241458.12349287 -370034644.10622895 0 -370034644.10622895 172761308.95384216 0 0 0 0 508531443.91884375 -558821083.45171356 0 -558821083.45171356 102492576.9006691 0 0 0 0 312372458.1511451 -276013350.5407486 0 -276013350.5407486 -256407188.21593094 0 0 0 0 -24297226.945607185 -78354203.594745636 0 -78354203.594745636 354830027.34238434 0 0 0 0 577417955.26365328 -485910430.45471382 0 -485910430.45471382 104250505.81712341 0 0 0 0 66299841.392901421 -422395090.33012199 0 -422395090.33012199 630896148.33649826 0 0 0 0 188195864.70291924 -522063669.99134827 0 -522063669.99134827 1193666771.4956207 0 0 0 0 -42869679.543146133 -196929513.43281364 0 -196929513.43281364 169275791.21572876 0 0 0 0 28905170.303170681 -171949861.35317802 0 -171949861.35317802 167032217.27592087 0 0 0 0 122016458.24969769 340509235.45052338 0 340509235.45052338 -438744098.58957291 0 0 0 0 201112737.65119839 327964818.85186768 0 327964818.85186768 -73055143.485404968 0 0 0 0 563493509.30126095 546598691.60127258 0 546598691.60127258 -344610576.06209373 0 0 0 0 1011077374.0364761 -222350154.42407608 0 -222350154.42407608 -581145242.01782417 0 0 0 0 162253664.18403673 119864387.36380005 0 119864387.36380005 38455286.808864594 0 0 0 0 958381302.3232193 -204534970.9559021 0 -204534970.9559021 115264524.1027317 0 0 0 0 1490344987.8585668 448193371.93727255 0 448193371.93727255 820093653.50882721 0 0 0 0 1288119661.2810936 -1084208567.7066574 0 -1084208567.7066574 607589152.79328156 0 0 0 0 1935585600.6425591 -1110069042.9997597 0 -1110069042.9997597 1248286928.6661615 0 0 0 0 749156145.9078145 599163628.05774355 0 599163628.05774355 57572597.011474609 0 0 0 0 969670428.25179386 -127679099.14391327 0 -127679099.14391327 243354693.45373154 0 0 0 0 254159646.08313274 186161083.62494659 0 186161083.62494659 673349274.96357727 0 0 0 0 -48998466.570304871 169898028.63113785 0 169898028.63113785 222868524.64557266 0 0 0 0 -70376917.838548183 430768229.80085182 0 430768229.80085182 -385935077.82116699 0 0 0 0 290678863.56525934 406216094.72599983 0 406216094.72599983 -144808089.55667877 0 0 0 0 -129144240.30146933 563589247.983181 0 563589247.983181 60951979.855916977 0 0 0 0 260973686.29876357 584436248.64527941 0 584436248.64527941 -336983575.10540771 0 0 0 0 -310533291.46515918 749800999.66671181 0 749800999.66671181 -220171143.47658539 0 0 0 0 -115575639.87472486 514114214.57363129 0 514114214.57363129 -433994366.740448 0 0 0 0 -35651590.306153297 725482784.56263733 0 725482784.56263733 -551451663.69428635 0 0 0 0 -70327586.785329819 773114070.59895706 0 773114070.59895706 -281885424.03879547 0 0 0 0 -399363165.77995205 560892459.028965 0 560892459.028965 -599924901.15431118 0 0 0 0 -908550231.89159811 507318231.7360611 0 507318231.7360611 -297194849.63033676 0 0 0 0 -382609221.9797166 698978343.87741089 0 698978343.87741089 -316072234.76255035 0 0 0 0 -431936092.91492057 358871226.87662125 0 358871226.87662125 -166990612.44002342 0 0 0 0 -719954065.15736341 727535320.5323925 0 727535320.5323925 -449881731.35829926 0 0 0 0 -1045836348.553579 783567767.90393782 0 783567767.90393782 -308520550.74167633 0 0 0 0 153983915.55847931 33916315.491882324 0 33916315.491882324 -117230220.55514526 0 0 0 0 -855862248.18127692 512599206.59941101 0 512599206.59941101 -542493239.89266205 0 0 0 0 -135199988.11850834 107903698.42018509 0 107903698.42018509 34531965.233566284 0 0 0 0 103945113.16189957 -483971032.40525055 0 -483971032.40525055 195142311.23565674 0 0 0 0 4952248.169189672 5246673.9697128152 0 5246673.9697128152 4631709.8841108847 0 0 0 0 167968994.01242065 -188338630.32249451 0 -188338630.32249451 406526767.426651 0 0 0 0 236972025.33366966 -245080781.38378334 0 -245080781.38378334 -172300417.33651733 0 0 0 0 29298613.180345535 15741712.805142896 0 15741712.805142896 -7284395.9569952134 0 0 0 0 80397809.790939331 143716911.05970001 0 143716911.05970001 -33015224.376083374 0 0 0 0 21812757.075134277 23508331.603622437 0 23508331.603622437 -29607357.206840515 0 0 0 0 294825804.18338776 96534761.984905243 0 96534761.984905243 -187483027.1740303 0 0 0 0 215773097.61043167 29203706.505519867 0 29203706.505519867 -40861712.642478943 0 0 0 0 298029772.61790085 -169175613.26616669 0 -169175613.26616669 65809939.124080658 0 0 0 0 23110246.732444763 -57529993.727684021 0 -57529993.727684021 71686531.303794861 0 0 0 0 7343258.1661966685 -839507.8092378471 0 -839507.8092378471 -8640614.4820545018 0 0 0 0 11277421.164829938 9594524.1975540444 0 9594524.1975540444 5640595.5486426055 0 0 0 0 241503113.45272446 -44131089.187786102 0 -44131089.187786102 -49290078.904716492 0 0 0 0 213477891.0427475 -44855023.031297684 0 -44855023.031297684 11957414.461456299 0 0 0 0 -37074164.350891113 -195278865.69187164 0 -195278865.69187164 -59901967.986572266 0 0 0 0 -90462728.478271484 -111832712.82052231 0 -111832712.82052231 73926470.589508057 0 0 0 0 339653868.28479004 -139365875.20816422 0 -139365875.20816422 -218041666.78203201 0 0 0 0 272377275.60926628 33510987.838385105 0 33510987.838385105 16030382.996437073 0 0 0 0 172190051.12794495 16812448.271434784 0 16812448.271434784 39067764.351482391 0 0 0 0 10803938.772399902 27099620.411048889 0 27099620.411048889 -25655093.786937714 0 0 0 0 5797159.7487487793 30871788.847034454 0 30871788.847034454 -28141307.089031219 0 0 0 0 15997537.046142578 28133143.187400818 0 28133143.187400818 -31765731.903945923 0 0 0 0 7814650.2909851074 34633994.291572571 0 34633994.291572571 -31747906.393643379 0 0 0 0 12201476.326507568 32096706.89132309 0 32096706.89132309 -32003871.052200317 0 0 0 0 11133930.3828125 31656812.840400696 0 31656812.840400696 -31677075.30644846 0 0 0 0 11120161.477745056 31549814.946964264 0 31549814.946964264 -30547052.146560669 0 0 0 0 8779519.7312927246 31275181.365463257 0 31275181.365463257 -30515095.096334934 0 0 0 0 10876491.837180138 32363926.873923302 0 32363926.873923302 -30187610.764038086 0 0 0 0 10777535.185193062 30475940.824175358 0 30475940.824175358 -26472773.489364624 0 0 0 0 8459539.3457946777 34416094.044151306 0 34416094.044151306 -33368615.446983337 0 0 0 0 30773118.446339685 12851377.352933247 0 12851377.352933247 -16604608.501803692 0 0 0 0 5298816.4746551514 35151246.380363464 0 35151246.380363464 -30870850.223495483 0 0 0 0 45791573.57850647 34687684.90555954 0 34687684.90555954 89358401.418289185 0 0 0 0 217271953.22451782 47357801.655990601 0 47357801.655990601 46660612.189727783 0 0 0 0 12355374.97921847 -1494548.7225295086 0 -1494548.7225295086 -4251816.9047472104 0 0 0 0 139599705.63796997 39152929.669219971 0 39152929.669219971 50996579.575082779 0 0 0 0 -13901046.01115799 -54279431.344343185 0 -54279431.344343185 106442626.17765808 0 0 0 0 77253428.462127686 -75377168.250843048 0 -75377168.250843048 33721829.011978149 0 0 0 0 21097973.675128937 -127203043.09228516 0 -127203043.09228516 -6787182.5788269043 0 0 0 0 139940012.86224365 -96415574.461200714 0 -96415574.461200714 128405096.93968201 0 0 0 0 37611426.314453125 -19580046.623664856 0 -19580046.623664856 126958089.39234924 0 0 0 0 130474645.99835205 -53367918.613182068 0 -53367918.613182068 116166342.03850365 0 0 0 0 87341874.2681427 -18579894.987691879 0 -18579894.987691879 97642848.787475586 0 0 0 0 59835868.99130249 -78993064.843162537 0 -78993064.843162537 180375077.21062469 0 0 0 0 62022477.696044922 -38082796.995178223 0 -38082796.995178223 204184376.52490234 0 0 0 0 39735191.990468502 -72796822.450007439 0 -72796822.450007439 158214869.5451355 0 0 0 0 124460720.64816284 25506316.480255127 0 25506316.480255127 189671680.8956089 0 0 0 0 132941129.92481995 54942912.06596756 0 54942912.06596756 -9275904.135117054 0 0 0 0 172397612.54191589 -147086403.70041656 0 -147086403.70041656 -133438949.56591034 0 0 0 0 256504472.89512634 -88243323.744779587 0 -88243323.744779587 -138723465.49024963 0 0 0 0 391434087.04910278 43813439.398612976 0 43813439.398612976 -66483108.029342651 0 0 0 0 6283504.2164311297 5713433.1302260719 0 5713433.1302260719 -4975672.4457201501 0 0 0 0 117670366.32037354 -30976806.424606323 0 -30976806.424606323 86248541.571281433 0 0 0 0 93153840.315917969 -32203566.009353638 0 -32203566.009353638 86295904.816268921 0 0 0 0 229470.5685043335 54074145.287809372 0 54074145.287809372 41701629.924093246 0 0 0 0 175737219.18875122 6041703.661113739 0 6041703.661113739 -12961085.416305542 0 0 0 0 49104183.152740479 -7799063.6358795166 0 -7799063.6358795166 14329166.412050247 0 0 0 0 38016504.315270662 -82714093.438390732 0 -82714093.438390732 -637396477.96585083 0 0 0 0 91293457.868301392 -48518200.65599823 0 -48518200.65599823 47745306.604370117 0 0 0 0 25650896.214211401 9398361.9627218843 0 9398361.9627218843 465722.10934790969 0 0 0 0 110680411.30593109 -140259854.23431778 0 -140259854.23431778 240212403.36390686 0 0 0 0 51702700.395843506 -31599027.763526917 0 -31599027.763526917 45493796.423317909 0 0 0 0 49233805.34085083 -11844490.447929382 0 -11844490.447929382 -22830874.924056053 0 0 0 0 -35200026.713264465 32354250.116279602 0 32354250.116279602 179283131.27571487 0 0 0 0 -29742720.616767883 2174775.2230644226 0 2174775.2230644226 222424700.09094381 0 0 0 0 80812156.699500084 447546569.50215149 0 447546569.50215149 -508133107.33475208 0 0 0 0 -288044958.20349556 639936107.58088875 0 639936107.58088875 -577887848.64379883 0 0 0 0 75226225.889698029 -10364854.021284103 0 -10364854.021284103 -51241741.553985596 0 0 0 0 17040925.417420942 8060911.7561636157 0 8060911.7561636157 913019.36288475432 0 0 0 0 -265983239.39951324 754246654.37038803 0 754246654.37038803 -543962867.05128574 0 0 0 0 6556567.5814670771 2579457.3862882154 0 2579457.3862882154 -3261337.9723772295 0 0 0 0 233196918.09832001 -89423910.720329285 0 -89423910.720329285 40403948.832557678 0 0 0 0 201210743.25553894 -33256514.554428101 0 -33256514.554428101 64062846.938312531 0 0 0 0 5986437651.6311111 232941194.606157 0 232941194.606157 -573290490.17952764 0 0 0 0 4284614895.2796726 1456396771.8991451 0 1456396771.8991451 -1149646966.4062157 0 0 0 0 3215708223.7669296 -869859366.94770455 0 -869859366.94770455 -1353125302.2381837 0 0 0 0 4256234263.9074707 -2020819853.0335956 0 -2020819853.0335956 -124037425.38152421 0 0 0 0 7012769434.3629761 -2850083638.8290844 0 -2850083638.8290844 -273014094.39105129 0 0 0 0 2443800353.1713734 -819673594.18670571 0 -819673594.18670571 101757508.76779819 0 0 0 0 6611530906.1292419 2119534777.5364399 0 2119534777.5364399 1533152920.5317957 0 0 0 0 5984203796.4049911 805327956.8026948 0 805327956.8026948 1245519514.2290716 0 0 0 0 6353121397.7493896 -399585501.89093781 0 -399585501.89093781 4281348725.2827716 0 0 0 0 6232211288.170742 -33265889.073308054 0 -33265889.073308054 557791061.08968627 0 0 0 0 5667681648.984436 1883906883.7399437 0 1883906883.7399437 -550551893.36306298 0 0 0 0 4105073415.5856781 3272348411.5094209 0 3272348411.5094209 1485321901.6919594 0 0 0 0 1934206428.3099213 -1594462704.2512684 0 -1594462704.2512684 1673652987.8399205 0 0 0 0 7280013552.5664825 1070629997.2012885 0 1070629997.2012885 -248055720.63067687 0 0 0 0 10194949.540443502 -1602133.3680005379 0 -1602133.3680005379 -557976.15129255189 0 0 0 0 -705031503.04902649 329845323.33326101 0 329845323.33326101 274700821.34965682 0 0 0 0 2993190777.127449 2366604996.509861 0 2366604996.509861 661323064.29961705 0 0 0 0 185127478.01533127 27962186.570572723 0 27962186.570572723 704376984.12839317 0 0 0 0 2317988789.9687881 898945080.92263997 0 898945080.92263997 -84792708.415810496 0 0 0 0 542220529.26397705 1235148191.2310259 0 1235148191.2310259 987966887.76899362 0 0 0 0 -174618396.54649353 -96440156.56430769 0 -96440156.56430769 23959838.483247995 0 0 0 0 265895074.5199585 356145846.83436453 0 356145846.83436453 162505093.53295028 0 0 0 0 26222432.42261558 -4361407.7993359985 0 -4361407.7993359985 -2879903.4660628019 0 0 0 0 -40332475.865943909 -10853738.383134842 0 -10853738.383134842 -119320340.87626839 0 0 0 0 222265340.43004608 4093028.4698314667 0 4093028.4698314667 -335277714.52929878 0 0 0 0 668340901.3032608 -41743158.927201927 0 -41743158.927201927 -1020910412.5267463 0 0 0 0 39265167.187902451 146086397.30065039 0 146086397.30065039 -8729845.6359943748 0 0 0 0 512810.2535289526 -2717186.655902056 0 -2717186.655902056 -2987689.0351593522 0 0 0 0 -81319093.088088989 -215749748.25695467 0 -215749748.25695467 319233424.04689169 0 0 0 0 2455480916.4423256 -706852163.27501643 0 -706852163.27501643 -15087369.007176459 0 0 0 0 2545888977.0038452 -785613077.05234289 0 -785613077.05234289 -10437873.34738408 0 0 0 0 -57889377.082687378 427853837.58357143 0 427853837.58357143 247241276.64556742 0 0 0 0 -249341326.6210289 70713115.933913469 0 70713115.933913469 839107316.30340242 0 0 0 0 343738603.0544281 -749745658.58736444 0 -749745658.58736444 707079728.94326115 0 0 0 0 -40931707.293212891 -130211.53636455536 0 -130211.53636455536 130973179.90522051 0 0 0 0 -6549885.579474505 -4196969.8506910969 0 -4196969.8506910969 -3662702.8664781698 0 0 0 0 -48680658.065704346 241155270.62149215 0 241155270.62149215 -255709856.84566402 0 0 0 0 77908.458953857422 6274001.7188791037 0 6274001.7188791037 55710615.124875069 0 0 0 0 34551998.573396757 -23761038.121879872 0 -23761038.121879872 -19562065.639830764 0 0 0 0 8710138.0832497478 21548037.07440462 0 21548037.07440462 5895477.0123662064 0 0 0 0 106835588.76565552 29185779.251825333 0 29185779.251825333 2028734.8540387154 0 0 0 0 102454018.25196838 5543990.5123756975 0 5543990.5123756975 -15323417.092289686 0 0 0 0 36223930.126242578 7189299.3424764005 0 7189299.3424764005 -21994543.889073811 0 0 0 0 125813305.04898071 56506533.999529958 0 56506533.999529958 -2429337.8478085995 0 0 0 0 -13860369.743225098 59791826.597640932 0 59791826.597640932 4693042.0269469023 0 0 0 0 6324517.7353820801 43263814.071876526 0 43263814.071876526 1163002.7445548773 0 0 0 0 -46669176.968154907 54526161.132627368 0 54526161.132627368 128984885.19187994 0 0 0 0 7466677.5656890869 74681656.786830902 0 74681656.786830902 -58844158.757514954 0 0 0 0 177786166.07197571 -362163332.63936114 0 -362163332.63936114 -923907931.81648433 0 0 0 0 37300164.751347095 -3945031.145760132 0 -3945031.145760132 -7325263.5627778461 0 0 0 0 43285007.610206604 49306492.33091116 0 49306492.33091116 -109417402.16315174 0 0 0 0 54225797.194747925 -503362431.34931982 0 -503362431.34931982 -679485101.3620162 0 0 0 0 3765854.6422729492 -168470910.3033818 0 -168470910.3033818 -224522432.90974063 0 0 0 0 303247151.39531231 -225765078.78802976 0 -225765078.78802976 -217458450.74377701 0 0 0 0 105757452.73431396 -188923786.10066423 0 -188923786.10066423 -211835285.94686007 0 0 0 0 -222289762.16256714 -117857122.05239075 0 -117857122.05239075 -220902329.96178463 0 0 0 0 -346090349.44592285 -264467191.45904994 0 -264467191.45904994 -710190608.29938495 0 0 0 0 90370982.167098999 -260571888.26040828 0 -260571888.26040828 -711078814.2445761 0 0 0 0 -120902958.77196503 -402739263.73761779 0 -402739263.73761779 -282234307.80610812 0 0 0 0 7926421.1544908378 18839210.182806432 0 18839210.182806432 -2826377.2964619612 0 0 0 0 -2198800.3770675659 81793960.537726149 0 81793960.537726149 -107348192.97112262 0 0 0 0 168027794.38092041 132120720.92699355 0 132120720.92699355 88974548.143938601 0 0 0 0 1401812.0454140604 5332408.3908959068 0 5332408.3908959068 -56235.813668960087 0 0 0 0 111357275.43000031 61704039.452521637 0 61704039.452521637 1606179.5678203106 0 0 0 0 35195334.152721405 29246440.207306385 0 29246440.207306385 -62326328.864262581 0 0 0 0 1903479.1082114168 797609.76160836592 0 797609.76160836592 -54535.330032283295 0 0 0 0 57945881.629516602 -51478034.818325758 0 -51478034.818325758 -14388457.097216845 0 0 0 0 218643459.46588326 -43034548.270469949 0 -43034548.270469949 -58490973.610465169 0 0 0 0 34637952.658461042 -22163810.486096356 0 -22163810.486096356 -20972285.400995512 0 0 0 0 280624622.7144165 -23837564.457351297 0 -23837564.457351297 -242098239.86319846 0 0 0 0 333274896.20132446 -243191322.56821859 0 -243191322.56821859 -651731830.13038433 0 0 0 0 32993279.5834198 5710682.894277513 0 5710682.894277513 -41058999.580088913 0 0 0 0 98888552.669921875 -246978354.39693797 0 -246978354.39693797 -177946606.49353826 0 0 0 0 67237045.510650635 -190581228.19000697 0 -190581228.19000697 -212428024.18154868 0 0 0 0 34390631.862287015 -20278755.191644125 0 -20278755.191644125 -22419833.430295065 0 0 0 0 -27739408.48828125 -104663387.97280116 0 -104663387.97280116 -87481399.628000319 0 0 0 0 181767568.52569008 -337676507.2015686 0 -337676507.2015686 -101011136.71559143 0 0 0 0 -23029179.91027832 -122748274.73784477 0 -122748274.73784477 -73480195.942654252 0 0 0 0 -49920052.703025818 -31573732.136634827 0 -31573732.136634827 65284008.958145142 0 0 0 0 490976358.76939964 -26003684.559776306 0 -26003684.559776306 -8549487.7894439697 0 0 0 0 513232282.43150961 146269106.78886604 0 146269106.78886604 -21223201.604255676 0 0 0 0 -376910468.60279465 -104100337.14677429 0 -104100337.14677429 -145779616.53513718 0 0 0 0 277231234.57950592 -74962618.704467773 0 -74962618.704467773 69325633.435020447 0 0 0 0 -2725936.5222344822 -3446576.2559621073 0 -3446576.2559621073 -2280105.7171308212 0 0 0 0 371668455.82185745 66272674.876564026 0 66272674.876564026 55028394.829925537 0 0 0 0 415943626.02550888 135114258.29454041 0 135114258.29454041 29161832.341873169 0 0 0 0 276378469.12368774 136186838.72391129 0 136186838.72391129 68898520.356040955 0 0 0 0 403459269.23894882 210179391.56678009 0 210179391.56678009 93230536.050109863 0 0 0 0 480329880.65999222 149846210.30157852 0 149846210.30157852 38482075.321173668 0 0 0 0 410301435.56781733 164086595.72292876 0 164086595.72292876 35953765.395294189 0 0 0 0 -318761093.35929489 -233297207.72208405 0 -233297207.72208405 -46915184.732467651 0 0 0 0 -14419613.493312789 -9344768.237404447 0 -9344768.237404447 -4325745.2068903837 0 0 0 0 174660350.32303429 11838010.854408264 0 11838010.854408264 61876368.889465332 0 0 0 0 -116219968.53741455 -74848465.654245377 0 -74848465.654245377 -44219723.295379639 0 0 0 0 542154389.58992386 -57235685.160793304 0 -57235685.160793304 -22873345.234383583 0 0 0 0 203194133.68353462 -3963511.5177688599 0 -3963511.5177688599 -61228546.816177368 0 0 0 0 -118821427.40555763 -57106844.58505249 0 -57106844.58505249 -78447581.781173706 0 0 0 0 1199004884.9067192 273488221.28931046 0 273488221.28931046 -53424650.351821899 0 0 0 0 -325479593.81353378 131096574.02663803 0 131096574.02663803 155489363.69458771 0 0 0 0 1218780510.9705715 513468478.92006302 0 513468478.92006302 -342809152.39074707 0 0 0 0 603097994.1518898 741279492.01873398 0 741279492.01873398 546634122.91787338 0 0 0 0 241611827.01546633 157908135.48716903 0 157908135.48716903 147247585.8066864 0 0 0 0 396334266.45687675 370192510.50981903 0 370192510.50981903 422725158.81390762 0 0 0 0 51734591.670142174 -397547023.19287109 0 -397547023.19287109 -383922400.34715271 0 0 0 0 3517558.5004274892 -205551.52273762878 0 -205551.52273762878 444292.7474095542 0 0 0 0 315080732.38869286 -513579950.17761421 0 -513579950.17761421 -459522943.84611511 0 0 0 0 371507090.75203037 -148237430.01914406 0 -148237430.01914406 -584932915.5392189 0 0 0 0 391620218.86968327 -230611117.00045586 0 -230611117.00045586 -313116589.78885651 0 0 0 0 1577921143.7428589 -260514775.19763184 0 -260514775.19763184 -621081846.80345154 0 0 0 0 297512861.82761955 106510545.53471375 0 106510545.53471375 29949101.636882782 0 0 0 0 1366132232.5996583 -667363334.44466686 0 -667363334.44466686 134642637.23097229 0 0 0 0 167756634.51499176 1868934897.6292953 0 1868934897.6292953 -179793343.08021545 0 0 0 0 3613072.428177767 -3167451.9401170574 0 -3167451.9401170574 -3895993.7550083529 0 0 0 0 -3188649.12058724 -2366529.5280964435 0 -2366529.5280964435 -891784.9644501619 0 0 0 0 31986952.352071762 61341583.252826691 0 61341583.252826691 78538076.562942505 0 0 0 0 -16519053.410636097 -32741176.210676804 0 -32741176.210676804 -6290557.2307702992 0 0 0 0 431162010.43665743 7373307.0720148087 0 7373307.0720148087 -182583662.23020172 0 0 0 0 9287703.0690734759 -16131823.010686215 0 -16131823.010686215 -15681710.732661217 0 0 0 0 136825377.31496906 -103736629.77784538 0 -103736629.77784538 -37870445.045209885 0 0 0 0 181652853.82828188 -214615606.93710136 0 -214615606.93710136 -132972968.6952858 0 0 0 0 191792569.48673439 -211582392.55867386 0 -211582392.55867386 -276871748.39836502 0 0 0 0 148390979.93802786 -236398467.72743034 0 -236398467.72743034 -78116714.229545593 0 0 0 0 150166125.68237209 -231947653.06060791 0 -231947653.06060791 -137021944.25844955 0 0 0 0 177014876.20777702 -171963923.30628014 0 -171963923.30628014 -7270183.3541069031 0 0 0 0 53490494.202630043 -169144076.31980133 0 -169144076.31980133 -3643591.4282608032 0 0 0 0 63334130.824175835 -197139349.99031067 0 -197139349.99031067 75498128.141716003 0 0 0 0 6236050.5477809906 -125912053.77832413 0 -125912053.77832413 105757169.11746407 0 0 0 0 12521193.312876701 -89858511.718939543 0 -89858511.718939543 14648660.452102661 0 0 0 0 34573801.111595154 -38311651.702297688 0 -38311651.702297688 -64080282.873565674 0 0 0 0 -9191519.2838764191 -23150804.492870331 0 -23150804.492870331 -22928959.539726257 0 0 0 0 44129220.621816635 -77190462.241542816 0 -77190462.241542816 14473986.050499916 0 0 0 0 80361294.315303802 -139032105.45803452 0 -139032105.45803452 29548918.800183296 0 0 0 0 64912394.771632671 -68536266.472365379 0 -68536266.472365379 18991317.770736694 0 0 0 0 -1185222.0094284825 -4154383.3146751029 0 -4154383.3146751029 -1900607.2388381576 0 0 0 0 133572716.52564812 -90108802.446352005 0 -90108802.446352005 -4350064.4989547729 0 0 0 0 13706698.889314186 -16670586.536229674 0 -16670586.536229674 -19014151.455206558 0 0 0 0 -15424931.245147705 -29162975.97203064 0 -29162975.97203064 -4817535.7381182909 0 0 0 0 32051542.742294312 -31295107.719668329 0 -31295107.719668329 -91137952.067833304 0 0 0 0 -19115252.76385498 -80832819.520612121 0 -80832819.520612121 -81410616.064789534 0 0 0 0 -178691985.1625061 146101187.42151165 0 146101187.42151165 261733326.09686184 0 0 0 0 -127928316.6875 -128933910.50814986 0 -128933910.50814986 4238680.9935050011 0 0 0 0 -113374686.15258789 -151938390.61927974 0 -151938390.61927974 -130198772.1136781 0 0 0 0 -17273506.762382507 -45503798.340559483 0 -45503798.340559483 26013850.192593813 0 0 0 0 6170886.3155822754 -25500443.653854519 0 -25500443.653854519 -161269960.16383505 0 0 0 0 24933645.381728966 -10991964.09724097 0 -10991964.09724097 -17160520.04388335 0 0 0 0 -9538746.7854427099 43750002.966197014 0 43750002.966197014 -84723297.816248894 0 0 0 0 29007120.270894215 -12543095.839115148 0 -12543095.839115148 -15994261.51808203 0 0 0 0 9962273.869468689 -10944747.977993011 0 -10944747.977993011 -10348384.437623978 0 0 0 0 18541768.803547341 -5611559.2077182401 0 -5611559.2077182401 -16175512.387627924 0 0 0 0 123814613.17228699 47797895.212065011 0 47797895.212065011 -274969475.08187497 0 0 0 0 35608529.849343449 -9649739.2728497498 0 -9649739.2728497498 -7270379.8580558347 0 0 0 0 174901895.07165146 -28600361.185743332 0 -28600361.185743332 -118069944.92042446 0 0 0 0 11467139.336056687 -6957340.1420529652 0 -6957340.1420529652 -9453933.7060548589 0 0 0 0 -39171439.702629089 -109536590.89826512 0 -109536590.89826512 -65549716.289123535 0 0 0 0 -372720084.27949524 -108083660.0496459 0 -108083660.0496459 96754298.446275711 0 0 0 0 -467285.20243493654 -848598.26495866477 0 -848598.26495866477 -208748.57245864347 0 0 0 0 292960845.58428192 -229611653.28787035 0 -229611653.28787035 -372569996.0534246 0 0 0 0 279797511.69348907 -155749264.08751088 0 -155749264.08751088 -125328148.45356512 0 0 0 0 52028844.706371307 -272475918.19905055 0 -272475918.19905055 48917048.285653114 0 0 0 0 -271732434.53054142 -971112.74283227324 0 -971112.74283227324 -7285357.9043521881 0 0 0 0 9575555.2140579224 -191569491.22147191 0 -191569491.22147191 2330618.8891401291 0 0 0 0 -1499763.1347223762 -2627914.01052415 0 -2627914.01052415 -932917.01861572731 0 0 0 0 72566746.957626343 -70688891.612973928 0 -70688891.612973928 80870188.618503094 0 0 0 0 -29643332.390468597 -236756784.71437675 0 -236756784.71437675 102069329.57143497 0 0 0 0 -215833.81475830078 -220485228.58697176 0 -220485228.58697176 -95470240.761336327 0 0 0 0 -281945640.67860413 -213526466.0248673 0 -213526466.0248673 73426813.534067154 0 0 0 0 -68839331.498088837 -139085695.14817715 0 -139085695.14817715 18459704.584836483 0 0 0 0 -98835107.352905273 -67683243.000024557 0 -67683243.000024557 33091784.3027668 0 0 0 0 -38365530.320072174 -28596197.555545419 0 -28596197.555545419 -30058650.863909721 0 0 0 0 116995509.1778183 -35715440.469115973 0 -35715440.469115973 -191948060.64777446 0 0 0 0 -3154202.0591318123 -1776544.9208588712 0 -1776544.9208588712 -641165.75714541413 0 0 0 0 -113264648.25448608 -40471484.586536646 0 -40471484.586536646 20193792.433533192 0 0 0 0 -77073732.45324707 -79843025.197888613 0 -79843025.197888613 38643795.255972862 0 0 0 0 -86840253.494171143 -55227726.427894592 0 -55227726.427894592 29703638.68800807 0 0 0 0 -99084873.56741333 -55470850.069982767 0 -55470850.069982767 32054660.726373911 0 0 0 0 10404649.139587402 -44487019.820335865 0 -44487019.820335865 -35640796.821366787 0 0 0 0 -10529555.740342535 -5336678.013780646 0 -5336678.013780646 -1635378.6174118342 0 0 0 0 -62340064.605484009 -28393770.392225504 0 -28393770.392225504 -4740810.9047832489 0 0 0 0 14496395.712661743 -18369537.994965076 0 -18369537.994965076 -30089485.274993896 0 0 0 0 -4148201.0329606831 -41391960.524257481 0 -41391960.524257481 -17815710.809630368 0 0 0 0 -19864204.151535034 -19936627.138991356 0 -19936627.138991356 -15463509.702616692 0 0 0 0 -6222439.2527707405 -4956262.4975165408 0 -4956262.4975165408 -1875165.3552468326 0 0 0 0 4259726.4390024096 507868.86544032767 0 507868.86544032767 -4262165.5158137809 0 0 0 0 -22138483.194274902 -48672266.158897877 0 -48672266.158897877 -24177567.981243134 0 0 0 0 5672308.5697937012 -936816.96518421173 0 -936816.96518421173 -4348166.551961422 0 0 0 0 -422418709.52721596 -36316571.407990873 0 -36316571.407990873 175639494.3986721 0 0 0 0 21315648.340827942 -252822217.99281961 0 -252822217.99281961 113373231.46747303 0 0 0 0 -174781941.73109436 77293955.480718732 0 77293955.480718732 18138379.472764015 0 0 0 0 -386657880.86700439 -62483740.73037529 0 -62483740.73037529 99281852.599650383 0 0 0 0 -261787459.6701355 -58366950.679422855 0 -58366950.679422855 -27870266.211732864 0 0 0 0 -592923974.67414856 -279744840.57465553 0 -279744840.57465553 -62332956.493114471 0 0 0 0 -160808.94446732849 -210463.04739999771 0 -210463.04739999771 -326759.59142843192 0 0 0 0 755127573.99653625 -29512382.613193274 0 -29512382.613193274 130218269.15047431 0 0 0 0 342801007.83988953 -20194356.270846605 0 -20194356.270846605 140505382.25660849 0 0 0 0 587302202.46351624 -322939447.4996655 0 -322939447.4996655 -12701388.535923362 0 0 0 0 846054655.90511322 -520089704.24553144 0 -520089704.24553144 290536991.95118427 0 0 0 0 1448761147.1267586 81876692.803976178 0 81876692.803976178 17964979.342970848 0 0 0 0 3024785403.8547134 -1140600748.9981935 0 -1140600748.9981935 61075470.566683054 0 0 0 0 3713203692.6048508 1570078582.9696987 0 1570078582.9696987 -23580697.815601587 0 0 0 0 1868025884.4642982 579350055.04559112 0 579350055.04559112 -205826929.88325489 0 0 0 0 1043025069.4737396 -207608604.12646759 0 -207608604.12646759 -76147375.583459854 0 0 0 0 476730444.76369476 28611817.800283849 0 28611817.800283849 32891366.481222868 0 0 0 0 -226022546.90722656 -137809254.31516117 0 -137809254.31516117 12635563.700376257 0 0 0 0 897804512.26275635 192059690.23020405 0 192059690.23020405 -372227311.57074153 0 0 0 0 -23430853.710739136 -132665666.45208585 0 -132665666.45208585 -91068213.204764545 0 0 0 0 24521344.417186316 -6740825.7198807374 0 -6740825.7198807374 -1625174.3883772106 0 0 0 0 719339887.10881042 481694513.27678818 0 481694513.27678818 198021752.05681205 0 0 0 0 1336136019.3303909 406281784.96326637 0 406281784.96326637 -289562728.73697948 0 0 0 0 846701200.96986389 220253609.14853352 0 220253609.14853352 -126800991.86075908 0 0 0 0 1304588704.8635902 451287595.28264165 0 451287595.28264165 186052450.53959364 0 0 0 0 2071503175.7098465 1382239157.6143353 0 1382239157.6143353 430939042.20716882 0 0 0 0 5965898576.1272945 3528518715.329947 0 3528518715.329947 1601622287.4814563 0 0 0 0 5980247262.1298523 1062968677.3522109 0 1062968677.3522109 -855258557.26190829 0 0 0 0 5912474.5234930255 233179.67211631872 0 233179.67211631872 -2080415.4920543083 0 0 0 0 2017477994.8695564 -633846116.68394363 0 -633846116.68394363 -1366842838.4932065 0 0 0 0 1602850315.4474144 932803517.43394685 0 932803517.43394685 -175582404.11872983 0 0 0 0 1612904131.7976837 980046478.93278897 0 980046478.93278897 -42993126.856688619 0 0 0 0 3243779.6871234365 -504032.01246922463 0 -504032.01246922463 -481151.00993097282 0 0 0 0 1184453439.5592957 -1942794795.0827737 0 -1942794795.0827737 -1057276554.4789741 0 0 0 0 5977098575.3771057 2382624327.2096028 0 2382624327.2096028 -639085258.85592401 0 0 0 0 2515030953.6262493 1177550276.7396493 0 1177550276.7396493 -904081198.10039353 0 0 0 0 4174457082.3843689 -231725705.91837227 0 -231725705.91837227 -2503213642.1174827 0 0 0 0 3134521898.0790291 -1825541453.7968187 0 -1825541453.7968187 -134238102.81002402 0 0 0 0 3452342040.2913818 823802007.00600076 0 823802007.00600076 -3078269942.7575703 0 0 0 0 4094496561.3368301 -226621674.78178024 0 -226621674.78178024 -2501833792.5662265 0 0 0 0 -467366361.1450386 -2248881345.0121255 0 -2248881345.0121255 636082311.6479367 0 0 0 0 -308848054.12635803 -1062155504.377346 0 -1062155504.377346 -3448802055.2798443 0 0 0 0 826143216.39603043 -583739725.79413748 0 -583739725.79413748 -1328892334.3646698 0 0 0 0 -2169607666.2114868 516294148.3306694 0 516294148.3306694 -2088371683.6490507 0 0 0 0 303549489.03688049 73034341.239675522 0 73034341.239675522 -2041025353.5693412 0 0 0 0 -3248059400.9972229 -1805733644.1635532 0 -1805733644.1635532 -1024585203.3120346 0 0 0 0 -1219638963.3719025 -2137102862.6850119 0 -2137102862.6850119 -1005502461.32687 0 0 0 0 -842473516.64837265 -1739358036.5591202 0 -1739358036.5591202 -730798012.39573193 0 0 0 0 1060802812.9690704 -2469288881.4021664 0 -2469288881.4021664 -466145124.47613704 0 0 0 0 1244599871.552002 -327565459.25530493 0 -327565459.25530493 -1255198791.2221456 0 0 0 0 11239967.097175321 -5574632.088970229 0 -5574632.088970229 -5838258.8997151339 0 0 0 0 772268249.90072632 -1250946191.7943535 0 -1250946191.7943535 1181931379.2765727 0 0 0 0 2421667398.1325989 -848899752.82511139 0 -848899752.82511139 512208069.24287987 0 0 0 0 1961104431.3400631 -2642040086.0419703 0 -2642040086.0419703 692550232.76561201 0 0 0 0 2788562441.1111298 -1461134268.579407 0 -1461134268.579407 1533768198.3784356 0 0 0 0 5988996241.249136 -1974238282.541275 0 -1974238282.541275 -991957690.11937129 0 0 0 0 1167746186.2150078 -534495707.55405903 0 -534495707.55405903 799302556.43464768 0 0 0 0 5974575815.5855608 -3669901777.9316325 0 -3669901777.9316325 2618947305.7302341 0 0 0 0 11131826.956743233 -5584359.8229516791 0 -5584359.8229516791 -4559906.6321478859 0 0 0 0 5918157467.447773 -3674152920.5181217 0 -3674152920.5181217 844290288.78177655 0 0 0 0 497534757.14746857 -1641502121.939518 0 -1641502121.939518 4223615184.3385544 0 0 0 0 8958950.5324495211 -3400337.982777758 0 -3400337.982777758 1093182.5734872511 0 0 0 0 -215993449.51263237 -218728595.21292424 0 -218728595.21292424 1940746579.5421352 0 0 0 0 468274186.04347992 -1053276851.3288358 0 -1053276851.3288358 1220468877.2358253 0 0 0 0 803604849.74288702 -1336316717.4317362 0 -1336316717.4317362 1445640080.991468 0 0 0 0 407275497.13196993 -619197877.39408171 0 -619197877.39408171 944494024.4680624 0 0 0 0 343036011.5737915 -295082493.48629707 0 -295082493.48629707 336161840.00521058 0 0 0 0 114615900.28603268 53710091.023330927 0 53710091.023330927 110033621.86791039 0 0 0 0 -15370632.867368698 -247907424.16045821 0 -247907424.16045821 760781048.11361814 0 0 0 0 477676363.09276962 -695226505.34509563 0 -695226505.34509563 701606648.66964722 0 0 0 0 293924196.96764469 -436286745.27034086 0 -436286745.27034086 430129977.55409002 0 0 0 0 195295612.09522629 -538844221.72766471 0 -538844221.72766471 907606839.52362061 0 0 0 0 504396186.78776932 -793277938.52239227 0 -793277938.52239227 756255207.47968912 0 0 0 0 484822052.28674793 -713691939.10796547 0 -713691939.10796547 1241584683.4460325 0 0 0 0 260867181.74902153 -748257339.77227879 0 -748257339.77227879 1102961621.5997753 0 0 0 0 918789922.24577332 -854285195.95081425 0 -854285195.95081425 928227027.28089476 0 0 0 0 6250743184.5791702 -669629468.3027277 0 -669629468.3027277 -904846503.6460253 0 0 0 0 7095005.2870160043 -2286039.9813616341 0 -2286039.9813616341 -1008288.3123161006 0 0 0 0 -691873169.90606689 -3302271477.4635773 0 -3302271477.4635773 -2045691283.5400193 0 0 0 0 3852536425.4615078 2834337586.5714622 0 2834337586.5714622 -150920147.1228838 0 0 0 0 854166682.7004776 -2039097971.2864561 0 -2039097971.2864561 -1155115298.4057789 0 0 0 0 327573413.00697136 -3123141627.6918902 0 -3123141627.6918902 -2037413912.2479944 0 0 0 0 9503805.0395831782 -5337523.0590115646 0 -5337523.0590115646 -4932276.835616475 0 0 0 0 543650104.63653946 -1092851773.5992098 0 -1092851773.5992098 1289914637.7181311 0 0 0 0 638271472.52131748 -858245699.57283974 0 -858245699.57283974 973272592.37924004 0 0 0 0 155838479.06603527 -725174736.95204306 0 -725174736.95204306 1193953313.3633299 0 0 0 0 259971882.60328102 -644625793.05783653 0 -644625793.05783653 1107773459.4149337 0 0 0 0 18387589.996149778 -547582766.16613197 0 -547582766.16613197 1625158395.127202 0 0 0 0 -7511956.1355834007 -649509989.81773281 0 -649509989.81773281 1225882181.8457336 0 0 0 0 126054720.90212297 -993967564.33325577 0 -993967564.33325577 1379590259.2505398 0 0 0 0 159019763.13254213 -753522048.24634433 0 -753522048.24634433 636440626.22737598 0 0 0 0 -106575884.84441316 -803540813.6331439 0 -803540813.6331439 404828341.30169392 0 0 0 0 -170013553.03481245 -729413243.34602642 0 -729413243.34602642 652384079.34091377 0 0 0 0 216457721.26058275 -500983548.75618893 0 -500983548.75618893 166609635.13732815 0 0 0 0 49486440.271667957 -813144942.49336171 0 -813144942.49336171 1149831327.4613094 0 0 0 0 299206512.17885017 -779792060.64538574 0 -779792060.64538574 653613302.37295485 0 0 0 0 154954694.42498016 -529992967.23798966 0 -529992967.23798966 778914395.68506801 0 0 0 0 142937886.14608955 -301402805.54276204 0 -301402805.54276204 414193300.5258494 0 0 0 0 241394142.03811359 -623386567.76853597 0 -623386567.76853597 351203374.65472794 0 0 0 0 73613040.483926296 -50220610.281853259 0 -50220610.281853259 140112550.03472829 0 0 0 0 196703152.58994198 -392044466.40938056 0 -392044466.40938056 20733483.950609446 0 0 0 0 232597304.44444656 -457309214.61639166 0 -457309214.61639166 435731991.92446971 0 0 0 0 192593037.31948662 -78079744.836942196 0 -78079744.836942196 47770819.840226173 0 0 0 0 5485716.4874229431 -8725643.3686494827 0 -8725643.3686494827 47291060.734588623 0 0 0 0 78732548.059919357 -94075277.994557381 0 -94075277.994557381 477947655.29078555 0 0 0 0 94989384.019011497 -76375115.583493233 0 -76375115.583493233 71722003.403108597 0 0 0 0 32659139.768027544 12121389.113551617 0 12121389.113551617 40465393.920927048 0 0 0 0 -46442762.783164501 12581246.841224432 0 12581246.841224432 29466469.487695217 0 0 0 0 16215556.817699416 1776934.2755408315 0 1776934.2755408315 -12701835.779968731 0 0 0 0 -15285284.820950657 50260671.918046474 0 50260671.918046474 17293743.05109024 0 0 0 0 -33000329.408300877 22651914.094078302 0 22651914.094078302 18857047.29842186 0 0 0 0 12990131.017694473 -14699497.668269157 0 -14699497.668269157 4944659.1192530394 0 0 0 0 58781858.355741501 -87008415.951377511 0 -87008415.951377511 65388887.538622528 0 0 0 0 23365296.998176098 -40567702.92359066 0 -40567702.92359066 -35837293.976149321 0 0 0 0 -5367066.9878220558 -43470614.560788393 0 -43470614.560788393 -19286667.628190994 0 0 0 0 1803188.8514835846 -1642399.2119017346 0 -1642399.2119017346 -1026697.5435578356 0 0 0 0 -492314286.13440597 -325128875.75251848 0 -325128875.75251848 -436028303.79613912 0 0 0 0 37144765.560438633 -24912556.447434306 0 -24912556.447434306 -30749891.881836891 0 0 0 0 5870999.5903847218 -31397334.203214169 0 -31397334.203214169 -18618359.659986019 0 0 0 0 153704983.32688391 -508374214.44658673 0 -508374214.44658673 -690376323.56623936 0 0 0 0 137350275.73496079 -413987737.90405846 0 -413987737.90405846 293824283.15812492 0 0 0 0 71039652.830956578 -148367812.37455893 0 -148367812.37455893 -215828248.9151001 0 0 0 0 317707200.57825994 -255931370.70914051 0 -255931370.70914051 -646197606.3686043 0 0 0 0 54008296.4895401 -480371875.47914237 0 -480371875.47914237 -407156326.5530566 0 0 0 0 137948563.78959084 -250633529.01601326 0 -250633529.01601326 -603479842.8050071 0 0 0 0 8834862.9291018825 -16599763.59821723 0 -16599763.59821723 -8005969.0835501533 0 0 0 0 10012320.329074545 -10733335.389623623 0 -10733335.389623623 -6308726.2445258591 0 0 0 0 9704565.4378281832 -9326676.3045297861 0 -9326676.3045297861 -5275507.1776199341 0 0 0 0 18817162.506817818 -13005086.237316132 0 -13005086.237316132 -25711138.526580811 0 0 0 0 17784771.78999266 -45984872.48448658 0 -45984872.48448658 13293872.422756195 0 0 0 0 8204697.5975361988 -15070432.754637929 0 -15070432.754637929 -3836579.3096466404 0 0 0 0 -875210.84135913849 -17839652.908981323 0 -17839652.908981323 17745783.041702747 0 0 0 0 2644394.028911259 -3639168.354052159 0 -3639168.354052159 463838.24856549967 0 0 0 0 313896867.98660564 524229404.07516742 0 524229404.07516742 -816212197.31476593 0 0 0 0 1196129.8420209885 -128819491.16053653 0 -128819491.16053653 -292596691.77294445 0 0 0 0 965682768.10513878 -569976512.89795828 0 -569976512.89795828 212093549.19251728 0 0 0 0 587694181.23925066 365690614.67921007 0 365690614.67921007 427405688.51067257 0 0 0 0 492647921.05049515 5747300.025701046 0 5747300.025701046 -261901161.09263039 0 0 0 0 666525325.18433237 -541529484.29597855 0 -541529484.29597855 434692521.77231264 0 0 0 0 281707781.46873283 -639041612.73645592 0 -639041612.73645592 409986188.96171379 0 0 0 0 2053274216.6529427 -1508369885.4206648 0 -1508369885.4206648 1347116577.7444954 0 0 0 0 406440285.97121906 -457751614.2848947 0 -457751614.2848947 1012787910.6098366 0 0 0 0 1318772678.2981186 412968046.10273361 0 412968046.10273361 1416328891.6218472 0 0 0 0 501205544.558465 -382242379.63110828 0 -382242379.63110828 723490009.85442352 0 0 0 0 800666242.10233498 -606313889.63066268 0 -606313889.63066268 -208776348.57143688 0 0 0 0 1334205336.466198 -1625937729.1976228 0 -1625937729.1976228 1727993089.5065742 0 0 0 0 1285067007.10853 -48137916.234838963 0 -48137916.234838963 -1687746267.7736921 0 0 0 0 -491251.81944656372 -707006250.52471638 0 -707006250.52471638 3980765117.4993362 0 0 0 0 2574626.4588231379 -2653366.7660960248 0 -2653366.7660960248 386218.22138573229 0 0 0 0 -71743866.068580627 -96960787.207980156 0 -96960787.207980156 -893193930.22072983 0 0 0 0 2034845941.6142416 -810836869.51662827 0 -810836869.51662827 -1226802419.2351599 0 0 0 0 887633449.84222198 -104563012.43637282 0 -104563012.43637282 -697073037.73576355 0 0 0 0 886945579.91557956 -71626080.895437479 0 -71626080.895437479 -1123182765.8410244 0 0 0 0 1211687289.3797188 -209822081.78987074 0 -209822081.78987074 -783387046.15872049 0 0 0 0 1124234004.5300429 -573299393.37388515 0 -573299393.37388515 -215484220.52535439 0 0 0 0 833830128.14506817 -106032064.95957732 0 -106032064.95957732 -115598881.80147648 0 0 0 0 458350340.84428978 -192476941.50456178 0 -192476941.50456178 -39763941.381579876 0 0 0 0 727473075.33515167 -166466431.1419856 0 -166466431.1419856 -569708234.42320442 0 0 0 0 791206115.00354385 18940971.420004129 0 18940971.420004129 -421554347.16611242 0 0 0 0 -9890550.150182724 -114944212.52527404 0 -114944212.52527404 119336832.60129595 0 0 0 0 287021760.90860081 367531572.48164535 0 367531572.48164535 -601747664.13403869 0 0 0 0 1011040.8558416497 -83452.637375162682 0 -83452.637375162682 -261959.76160889148 0 0 0 0 2799116.2322487617 -675577.27482306492 0 -675577.27482306492 -673123.63706112711 0 0 0 0 129917081.48284149 -166896992.98296893 0 -166896992.98296893 -725132953.0974102 0 0 0 0 -306616669.24740219 -267189899.89293933 0 -267189899.89293933 -453668376.07449913 0 0 0 0 -268707971.12940216 -266265456.46399498 0 -266265456.46399498 -709206652.77570033 0 0 0 0 35408442.521406651 -278429887.62412196 0 -278429887.62412196 -1435656109.7056253 0 0 0 0 13462290.088207245 -114720017.3356266 0 -114720017.3356266 -1962429998.2349911 0 0 0 0 35481405.285190582 -194641906.28180408 0 -194641906.28180408 -548139390.64838171 0 0 0 0 -303555171.41339302 -619152337.83518028 0 -619152337.83518028 -1211422261.4481468 0 0 0 0 -83836978.964250565 58161828.479822874 0 58161828.479822874 -1019461174.7886477 0 0 0 0 6861895.479593046 -7455893.3804097492 0 -7455893.3804097492 561987.72319537308 0 0 0 0 -500386112.49988174 -786061694.16225815 0 -786061694.16225815 -1159330463.5824013 0 0 0 0 91580038.466435432 -403995019.37560654 0 -403995019.37560654 1433120336.0010033 0 0 0 0 1418633.2929910952 -865713.75349771418 0 -865713.75349771418 -989441.54875086481 0 0 0 0 -48687849.81599617 -639820151.01023388 0 -639820151.01023388 -1560015587.761662 0 0 0 0 -30108604.330109805 -417131598.38810277 0 -417131598.38810277 1463993626.8720016 0 0 0 0 15040086.75816012 -1217110.4979914033 0 -1217110.4979914033 -3157790.7178697241 0 0 0 0 6190860.8752935808 -8511445.6745156348 0 -8511445.6745156348 -4749244.0751478225 0 0 0 0 154297238.14289093 -520208248.76758575 0 -520208248.76758575 1107648914.750752 0 0 0 0 171318915.66521168 -452391212.44057846 0 -452391212.44057846 1376706458.5238247 0 0 0 0 -707114118.41196728 -279611726.32199645 0 -279611726.32199645 -112166752.9502281 0 0 0 0 -589373453.31332684 -592409141.70783961 0 -592409141.70783961 716282038.6808393 0 0 0 0 3570203047.6282673 2040298481.1351175 0 2040298481.1351175 451041108.60410261 0 0 0 0 3500674755.1344919 3744999546.0509076 0 3744999546.0509076 1600222534.6609898 0 0 0 0 3235620031.5467272 2038228012.8359623 0 2038228012.8359623 1080701486.1740322 0 0 0 0 6734759.5455881385 1795.697098140954 0 1795.697098140954 -1257525.869823867 0 0 0 0 3453761290.3638339 1681938556.924294 0 1681938556.924294 283082488.6369462 0 0 0 0 541480647.96746635 -787034832.43711078 0 -787034832.43711078 -1314792872.9539237 0 0 0 0 -60661527.487491608 -157586300.49425709 0 -157586300.49425709 -1385563913.7761154 0 0 0 0 -410128779.75411034 -95762521.321966052 0 -95762521.321966052 -733152967.79123163 0 0 0 0 -122292862.1048317 -213917465.64607191 0 -213917465.64607191 -756569214.64287257 0 0 0 0 247512590.1480751 220561572.88164175 0 220561572.88164175 -889510328.19322717 0 0 0 0 1737171732.7659836 -917995033.93232226 0 -917995033.93232226 -174015006.82609755 0 0 0 0 1063307765.8718586 -1024986218.4956813 0 -1024986218.4956813 -48548850.08155036 0 0 0 0 3725180.0344524384 -394132966.09836531 0 -394132966.09836531 -116061368.72896791 0 0 0 0 1799403.6219736403 -654380.73031570984 0 -654380.73031570984 -449209.46644302772 0 0 0 0 51771074.07915163 -127265561.50457996 0 -127265561.50457996 -1213530722.3735976 0 0 0 0 2649142348.2920532 527788912.21875787 0 527788912.21875787 -1247166793.8300118 0 0 0 0 3130626618.6692286 621320020.95078278 0 621320020.95078278 -45009916.545283616 0 0 0 0 8443865.3576324526 -4262516.6380793117 0 -4262516.6380793117 164242.73096586415 0 0 0 0 3109865510.8990717 395042521.59557271 0 395042521.59557271 -1984633069.9617314 0 0 0 0 3644230143.3885899 317733746.8743031 0 317733746.8743031 101119748.13673782 0 0 0 0 2092120260.1824703 -457477155.37923574 0 -457477155.37923574 -241371966.79167867 0 0 0 0 2019556071.2664223 -332561864.9184351 0 -332561864.9184351 -445836753.14672899 0 0 0 0 2497010072.5291157 -102160139.15103233 0 -102160139.15103233 -545793250.31507659 0 0 0 0 6480336.7462304747 -3559620.896660537 0 -3559620.896660537 -771549.61940824578 0 0 0 0 5986359334.9412651 650564903.13253963 0 650564903.13253963 -357015395.06936747 0 0 0 0 5974610462.7872448 -441786807.85067505 0 -441786807.85067505 -1065295803.1468141 0 0 0 0 3312281685.32937 -812327235.79044521 0 -812327235.79044521 -39448808.028809309 0 0 0 0 3826349032.0063438 -76318828.495929897 0 -76318828.495929897 -600928937.87553656 0 0 0 0 4893060347.515152 -1477595141.6806533 0 -1477595141.6806533 -833315323.68722475 0 0 0 0 3936958528.4958534 -218078322.75856245 0 -218078322.75856245 -1360770871.6658483 0 0 0 0 5390723655.7140827 1831251075.8891473 0 1831251075.8891473 -1866016701.7945311 0 0 0 0 3187198229.2234192 1600532825.7858958 0 1600532825.7858958 712358313.58496475 0 0 0 0 2732207157.619318 635584157.30596447 0 635584157.30596447 1214547096.7298775 0 0 0 0 4909492530.9423666 -1481591606.0707603 0 -1481591606.0707603 1972321713.1616468 0 0 0 0 2850833800.9579539 1882857287.4610567 0 1882857287.4610567 1278723930.8944874 0 0 0 0 2477820930.6609893 966384120.74256516 0 966384120.74256516 1319187992.8567619 0 0 0 0 10289389.746463491 -3415979.5755507257 0 -3415979.5755507257 -3316675.2398350891 0 0 0 0 3069426541.0703468 1755813746.894083 0 1755813746.894083 649242381.61416817 0 0 0 0 2604546453.3713331 1664444243.6400528 0 1664444243.6400528 1089932456.7343969 0 0 0 0 3243199937.1391602 1482468958.3626754 0 1482468958.3626754 1078821001.1282082 0 0 0 0 679773.52949808445 -311856.9976401655 0 -311856.9976401655 -1077930.0548308804 0 0 0 0 16881060.260749817 -192714441.67807436 0 -192714441.67807436 -2235831945.3026462 0 0 0 0 -3032011911.0427856 -3809855435.7140894 0 -3809855435.7140894 -6518566622.9962807 0 0 0 0 5971899539.1657352 -252959668.27390903 0 -252959668.27390903 -3239757997.4828534 0 0 0 0 430636.73895482346 -6227861.5896972697 0 -6227861.5896972697 1173760.4603472794 0 0 0 0 578055156.1690073 -936666402.49179006 0 -936666402.49179006 1491791565.5985408 0 0 0 0 3902509624.0710888 798230908.58967352 0 798230908.58967352 -1999871287.4701073 0 0 0 0 412667981.98532891 -393250300.21997166 0 -393250300.21997166 -257458325.05799103 0 0 0 0 -96449279.512142897 -154186578.91042137 0 -154186578.91042137 -306566896.80070257 0 0 0 0 451955917.54702771 -382973404.46708012 0 -382973404.46708012 -337822736.21589279 0 0 0 0 590641524.78883076 -614641483.43618393 0 -614641483.43618393 -190406520.71527815 0 0 0 0 685246945.4180212 -411056602.1024189 0 -411056602.1024189 -287759400.53476906 0 0 0 0 650188406.28877759 -572889910.60237694 0 -572889910.60237694 -165108202.08487511 0 0 0 0 580533657.5603559 -175076955.13985825 0 -175076955.13985825 -195111285.19117355 0 0 0 0 444170626.66176462 -15596407.283100128 0 -15596407.283100128 -382947604.82288742 0 0 0 0 295319399.43622303 -283010627.47617149 0 -283010627.47617149 -210413195.53814697 0 0 0 0 166152140.00755405 237595489.3637867 0 237595489.3637867 -255873611.90019226 0 0 0 0 279446846.64352798 319586012.36462688 0 319586012.36462688 -302347546.02679062 0 0 0 0 425597005.96725273 82082423.745723724 0 82082423.745723724 -173192381.0147438 0 0 0 0 228321859.09087276 333982772.39163113 0 333982772.39163113 -109241898.86048508 0 0 0 0 270959224.38176918 280955017.79515076 0 280955017.79515076 -483834097.44771194 0 0 0 0 43534528.051000595 368160270.00213242 0 368160270.00213242 -302922516.34629822 0 0 0 0 -29681346.195192337 378113530.68902969 0 378113530.68902969 -473283182.48595214 0 0 0 0 -194307052.52412224 553617962.66170692 0 553617962.66170692 -651650544.50058365 0 0 0 0 36209718.481480598 -180041877.93654823 0 -180041877.93654823 -235145485.62590599 0 0 0 0 131840579.89857483 122659345.50822067 0 122659345.50822067 -438147413.35223007 0 0 0 0 -66638037.739374161 77140020.866281509 0 77140020.866281509 -419932899.00654411 0 0 0 0 -13475641.092027783 -169731500.20131874 0 -169731500.20131874 -630757285.25188065 0 0 0 0 -392288357.47486591 341930954.9090271 0 341930954.9090271 -590959028.72153473 0 0 0 0 -370989065.60893869 412067770.45652771 0 412067770.45652771 -1507620779.0317001 0 0 0 0 -605651881.58060408 259170470.5874157 0 259170470.5874157 -617434970.60533905 0 0 0 0 -97884169.155409604 569371015.60548663 0 569371015.60548663 -656311154.03852081 0 0 0 0 -663968612.13354301 85819263.789791107 0 85819263.789791107 -811800599.77610016 0 0 0 0 -765864664.28971291 733165705.6887722 0 733165705.6887722 -666000122.26881409 0 0 0 0 -250808753.30709839 942339315.99520493 0 942339315.99520493 -967751853.7543335 0 0 0 0 117776417.98263073 -137164047.58320236 0 -137164047.58320236 -258236529.89678192 0 0 0 0 -57611874.609363556 409941608.69783974 0 409941608.69783974 -1194895325.417469 0 0 0 0 666155.69336279249 -1217400.6300213668 0 -1217400.6300213668 -1447270.5282802954 0 0 0 0 -1705499316.5365777 1282205980.3562794 0 1282205980.3562794 -749233432.02874756 0 0 0 0 -1161105988.9882793 1153939888.8144722 0 1153939888.8144722 -1289041854.9532909 0 0 0 0 -597955877.94141746 533845493.49371719 0 533845493.49371719 -848634535.3687973 0 0 0 0 -1611763438.0468819 751609103.43523788 0 751609103.43523788 -427222169.40428162 0 0 0 0 -276759238.92761058 241450877.4276619 0 241450877.4276619 -541519044.38345289 0 0 0 0 -318433552.47696793 209253056.58878517 0 209253056.58878517 -132340442.18552399 0 0 0 0 171792651.64749956 -16973271.314096451 0 -16973271.314096451 -457074280.6905899 0 0 0 0 -676208110.54171276 497462241.49670887 0 497462241.49670887 -592082722.71437836 0 0 0 0 -157627067.20584929 10290194.409450531 0 10290194.409450531 -724009016.61745071 0 0 0 0 334533595.69189715 -287737049.61873245 0 -287737049.61873245 -485928904.82482529 0 0 0 0 -214974325.60234344 5580167.2469177246 0 5580167.2469177246 -258249513.66737366 0 0 0 0 285328725.52911806 -419661357.35353279 0 -419661357.35353279 -76015949.105754852 0 0 0 0 611587520.68760872 -292740916.57393265 0 -292740916.57393265 -274413195.12887001 0 0 0 0 127893992.58091927 -132188994.37512207 0 -132188994.37512207 97549058.033061981 0 0 0 0 479989032.36861712 -28875354.366620541 0 -28875354.366620541 -181956613.87467194 0 0 0 0 444412980.59869957 -135696847.09082174 0 -135696847.09082174 519068370.24510193 0 0 0 0 1076668543.5952072 -468846579.3535347 0 -468846579.3535347 29821402.784599304 0 0 0 0 1199368711.0741243 -243100554.20629311 0 -243100554.20629311 92994222.523239136 0 0 0 0 1675568464.4473438 -669035703.2595253 0 -669035703.2595253 375699542.29495621 0 0 0 0 2136010156.8687458 -608568163.162117 0 -608568163.162117 278606287.25126648 0 0 0 0 938612172.9624486 -156792021.77938557 0 -156792021.77938557 846981529.72779846 0 0 0 0 3427802654.1636171 -618391911.638731 0 -618391911.638731 93336378.558799744 0 0 0 0 2956202611.3063431 -423047110.54327393 0 -423047110.54327393 147865488.32247925 0 0 0 0 2328140328.4732895 -71027223.648618698 0 -71027223.648618698 378664227.42111206 0 0 0 0 62651.059597982967 -3784104.9647632889 0 -3784104.9647632889 1686180.8597141281 0 0 0 0 -93439885.307283729 271134826.27005827 0 271134826.27005827 528101391.22373962 0 0 0 0 79844.885548458435 -215490.34389618039 0 -215490.34389618039 -247744.24017231632 0 0 0 0 1636812243.0909939 -177316920.10611343 0 -177316920.10611343 416703321.8453331 0 0 0 0 2801812135.2522202 312411176.90944672 0 312411176.90944672 -167398416.76902294 0 0 0 0 5502914.3400635524 -2178826.7834103862 0 -2178826.7834103862 -14944635.121961683 0 0 0 0 1682143429.7466936 -129947270.79068375 0 -129947270.79068375 -119240661.90319061 0 0 0 0 1610123861.9911766 -59098225.129652977 0 -59098225.129652977 -131326329.39837646 0 0 0 0 21095533.311288834 63371368.890119314 0 63371368.890119314 -179347717.31818962 0 0 0 0 696405308.79514408 -493177694.1410234 0 -493177694.1410234 -25766252.009906769 0 0 0 0 610874160.42670953 -402449485.59944093 0 -402449485.59944093 119754541.67712402 0 0 0 0 1078131243.4319115 -345623041.81750488 0 -345623041.81750488 -151471576.79732895 0 0 0 0 1188436602.6359048 -517091802.08389282 0 -517091802.08389282 33244821.205566406 0 0 0 0 -76661350.528723717 27868608.583992004 0 27868608.583992004 134407648.01726532 0 0 0 0 218327213.26481867 -59112708.770328522 0 -59112708.770328522 23889020.743670464 0 0 0 0 6797159.516817119 -11261506.591291817 0 -11261506.591291817 -2445350.0172965322 0 0 0 0 -44644539.589828491 2703929.8927764893 0 2703929.8927764893 18507040.018989086 0 0 0 0 -73485006.91382131 -116170320.70221254 0 -116170320.70221254 335344300.49237061 0 0 0 0 31000806.805639267 -31515495.223408461 0 -31515495.223408461 15610437.174634337 0 0 0 0 43307733.643976212 -67306895.620795965 0 -67306895.620795965 -194223687.7203722 0 0 0 0 253172130.61085892 -149485299.07559347 0 -149485299.07559347 -334462389.35727882 0 0 0 0 -203992391.5930109 430892485.58511972 0 430892485.58511972 111052267.75675297 0 0 0 0 -73913831.337890625 298911191.49000144 0 298911191.49000144 -467367943.62086606 0 0 0 0 -386943311.27501488 158582712.78712273 0 158582712.78712273 102953700.53420782 0 0 0 0 -29969781.395411015 138052994.29991817 0 138052994.29991817 -23187546.541870117 0 0 0 0 -167865672.69513226 175866949.28967285 0 175866949.28967285 -55288642.454297066 0 0 0 0 -86045788.246077538 -80623260.481322765 0 -80623260.481322765 455947746.32884526 0 0 0 0 189448267.60266733 230034020.46436608 0 230034020.46436608 780874844.53839588 0 0 0 0 924873425.47238636 -506408209.6655817 0 -506408209.6655817 -198087200.54113579 0 0 0 0 896432616.72664022 -286522049.14999771 0 -286522049.14999771 -133335023.83882141 0 0 0 0 2786676.8668120671 -1268192.6306109983 0 -1268192.6306109983 -9591325.4940131418 0 0 0 0 926831345.24734306 -203646310.91960144 0 -203646310.91960144 -831166.30182647705 0 0 0 0 571979755.52182102 -240996580.23528671 0 -240996580.23528671 -76825213.505503654 0 0 0 0 543373867.15986538 -566908101.94050407 0 -566908101.94050407 -128660407.99241734 0 0 0 0 671146986.56348419 -500530622.6233077 0 -500530622.6233077 -95549933.626739502 0 0 0 0 1223779.9227798479 -1561815.9078427716 0 -1561815.9078427716 -4625914.1230439534 0 0 0 0 25157860.396652222 -408441193.76258707 0 -408441193.76258707 47458629.624839783 0 0 0 0 -18397137.20126915 -156036032.88401508 0 -156036032.88401508 -182305213.48206139 0 0 0 0 -961550120.04851055 -280583991.05379343 0 -280583991.05379343 377918016.85030079 0 0 0 0 321388.01959638239 -957301.76198961819 0 -957301.76198961819 -1217305.7076010802 0 0 0 0 272893118.34033585 -618631732.79809046 0 -618631732.79809046 190266742.28838348 0 0 0 0 429300324.09094977 -430150477.3484087 0 -430150477.3484087 74849990.372051239 0 0 0 0 590174727.97330093 -850025736.2785058 0 -850025736.2785058 514592076.91036785 0 0 0 0 -623386938.69059634 -135868162.01679432 0 -135868162.01679432 477467294.02392483 0 0 0 0 16704538.803750038 -348112407.44601512 0 -348112407.44601512 40528750.440185547 0 0 0 0 199956726.98795128 -315523539.43454981 0 -315523539.43454981 -137997123.32653141 0 0 0 0 175148494.64653254 -354720012.33108485 0 -354720012.33108485 8643259.1849308014 0 0 0 0 708574303.96848106 -317476556.55047035 0 -317476556.55047035 -302793489.93318367 0 0 0 0 644660460.88635635 -504659470.63937259 0 -504659470.63937259 -113874757.87234139 0 0 0 0 315752613.47177219 -263408354.55255222 0 -263408354.55255222 -141902702.2411108 0 0 0 0 458005303.40693283 -384038933.91018558 0 -384038933.91018558 -99778629.407955647 0 0 0 0 -67986825.478859901 31667061.575082302 0 31667061.575082302 235540505.95171541 0 0 0 0 495613445.56721878 -281740856.24619985 0 -281740856.24619985 157454797.36989951 0 0 0 0 227566067.66797781 -322143365.6260469 0 -322143365.6260469 706571494.64308548 0 0 0 0 129417146.68146896 -70002538.462790012 0 -70002538.462790012 80090400.482865572 0 0 0 0 340406833.52245522 17400235.667387724 0 17400235.667387724 388895484.83710051 0 0 0 0 -219707675.58568573 -512723523.82061684 0 -512723523.82061684 43658953.141963005 0 0 0 0 133522043.89982462 262071855.4173336 0 262071855.4173336 168725165.15744877 0 0 0 0 19187946.424949169 293499021.50015301 0 293499021.50015301 997648040.4527421 0 0 0 0 -17670963.096955627 311601189.57974398 0 311601189.57974398 1476459784.2279878 0 0 0 0 612719442.80908108 179296851.32205129 0 179296851.32205129 968370861.30520892 0 0 0 0 834536547.08930683 -331960201.62092519 0 -331960201.62092519 2143774133.156683 0 0 0 0 1038672190.670146 737053054.169137 0 737053054.169137 1348446123.7463017 0 0 0 0 1547352996.8011439 -7787846.4142278433 0 -7787846.4142278433 1480058172.7906275 0 0 0 0 1153182197.0941544 -312376985.43353963 0 -312376985.43353963 612748051.84188652 0 0 0 0 1308120303.984201 -739199850.23199391 0 -739199850.23199391 1674926449.3250866 0 0 0 0 452319168.44393444 -333353680.58873463 0 -333353680.58873463 1475686167.6689181 0 0 0 0 753346856.35959721 -656785544.43653584 0 -656785544.43653584 199614150.17838383 0 0 0 0 776584688.68292284 -411164275.68180704 0 -411164275.68180704 278202414.86331558 0 0 0 0 1105850697.4810119 -749201292.61889744 0 -749201292.61889744 625093854.16381514 0 0 0 0 1347055596.04003 -193711726.91705179 0 -193711726.91705179 259569666.40027618 0 0 0 0 1163581455.3724663 -400464100.2414999 0 -400464100.2414999 106548048.20670223 0 0 0 0 918871521.7280637 -218454636.43974513 0 -218454636.43974513 -28634182.535678864 0 0 0 0 926336279.13191926 -668422952.94960475 0 -668422952.94960475 54988622.877876282 0 0 0 0 676575932.22022343 -492973289.27949715 0 -492973289.27949715 -68194577.295942307 0 0 0 0 668371328.49607086 -657698042.33876562 0 -657698042.33876562 -65625112.121909142 0 0 0 0 512648341.29249573 397341629.70531368 0 397341629.70531368 224791081.40606689 0 0 0 0 739357604.48733902 185675198.33733749 0 185675198.33733749 39698204.527783155 0 0 0 0 512368418.00610733 355804303.67940617 0 355804303.67940617 80859232.804832458 0 0 0 0 257743534.2152462 384044360.41838932 0 384044360.41838932 86217922.420288086 0 0 0 0 452287043.02621365 230778618.84819221 0 230778618.84819221 37662369.585575104 0 0 0 0 495146807.51133251 238857554.06560898 0 238857554.06560898 -92573544.166725159 0 0 0 0 677674348.92639828 146751742.59149361 0 146751742.59149361 -162908847.32531929 0 0 0 0 871312298.14913297 -313914096.11455917 0 -313914096.11455917 -137705803.0485096 0 0 0 0 541617510.95221281 993238.00672912598 0 993238.00672912598 -7216874.003276825 0 0 0 0 706159809.11419964 212352200.89089775 0 212352200.89089775 237587204.33449554 0 0 0 0 1033963042.9935722 -61120884.948020935 0 -61120884.948020935 599534.85600471497 0 0 0 0 1088684090.9276943 143214710.52836609 0 143214710.52836609 238326789.85131645 0 0 0 0 1077810348.9601095 16528067.62983036 0 16528067.62983036 124252329.33190536 0 0 0 0 1473981363.3785782 -203778530.75323868 0 -203778530.75323868 228923356.38944435 0 0 0 0 1274308847.2564156 -279237382.80317974 0 -279237382.80317974 589802634.53099537 0 0 0 0 1254442421.3929076 363275852.13409829 0 363275852.13409829 513274119.83140087 0 0 0 0 947387275.07161522 570034276.14953232 0 570034276.14953232 519060335.15222359 0 0 0 0 590846102.76381683 568810282.98735619 0 568810282.98735619 793957519.25015545 0 0 0 0 728507997.9830246 306975059.9251833 0 306975059.9251833 244128917.08023453 0 0 0 0 443108855.0269742 423470313.73439312 0 423470313.73439312 369609051.86414719 0 0 0 0 441852426.71656704 445214884.89366627 0 445214884.89366627 694953963.56997204 0 0 0 0 1110879501.998491 923082776.40867805 0 923082776.40867805 1460823519.3570569 0 0 0 0 873387425.52030087 451613886.76684988 0 451613886.76684988 770002844.92966294 0 0 0 0 290410211.65247154 405013118.22447658 0 405013118.22447658 1461533667.2869678 0 0 0 0 2237601594.9134655 -291066469.7206769 0 -291066469.7206769 589799409.41103935 0 0 0 0 2014123083.2714274 231339998.73128581 0 231339998.73128581 534878932.16404033 0 0 0 0 3715993515.6061306 -427224209.95666492 0 -427224209.95666492 988585579.6740489 0 0 0 0 1770685071.8341243 38957231.162953854 0 38957231.162953854 925555298.54247522 0 0 0 0 28335548.678617954 -16179060.31231308 0 -16179060.31231308 1713551462.6155109 0 0 0 0 1689390744.6178315 -656912134.57870531 0 -656912134.57870531 3721692476.5793114 0 0 0 0 1632328380.9112084 1385412462.2324004 0 1385412462.2324004 2707125446.7473297 0 0 0 0 3573435141.8066726 1171559961.0523677 0 1171559961.0523677 1935904845.048882 0 0 0 0 205564796.73219299 257648385.80391407 0 257648385.80391407 1621425683.63239 0 0 0 0 705523567.4072628 208022784.87018633 0 208022784.87018633 1663833164.537498 0 0 0 0 698292506.854002 267956322.37537432 0 267956322.37537432 1180567422.3162951 0 0 0 0 87313779.732868195 -370332227.44712543 0 -370332227.44712543 1597795444.9179716 0 0 0 0 130187454.3677063 -199639793.31162548 0 -199639793.31162548 993308969.29577112 0 0 0 0 -71028272.570430756 -40232083.36345768 0 -40232083.36345768 1176338709.539042 0 0 0 0 77622607.571912766 -309861297.59569931 0 -309861297.59569931 952146067.64942932 0 0 0 0 141189550.07667923 -16478022.236956716 0 -16478022.236956716 1054956253.0992117 0 0 0 0 -151693908.07691574 151558936.88448495 0 151558936.88448495 898985595.24675274 0 0 0 0 -59132315.680052757 -36487754.797494173 0 -36487754.797494173 838645952.29026794 0 0 0 0 -221808257.04030609 -17773921.848731756 0 -17773921.848731756 666152341.5990057 0 0 0 0 -215009060.09408188 -531124.09352493286 0 -531124.09352493286 703475434.8528955 0 0 0 0 -291533119.16156578 135573767.73413396 0 135573767.73413396 674768901.31119633 0 0 0 0 -164170430.83821869 -94848242.744556904 0 -94848242.744556904 866584331.34639931 0 0 0 0 -217738260.04224205 47852913.039499372 0 47852913.039499372 742391555.63549435 0 0 0 0 -239789934.92418289 270552024.7698226 0 270552024.7698226 685028837.37327099 0 0 0 0 -183173285.93769455 303387327.52720273 0 303387327.52720273 699829656.40095258 0 0 0 0 -59895695.321949005 238934655.14217782 0 238934655.14217782 623964807.01042843 0 0 0 0 -2434837.2314949036 374016460.09908056 0 374016460.09908056 938518178.38290358 0 0 0 0 113944633.26461411 244900688.85245371 0 244900688.85245371 842582344.83393478 0 0 0 0 292294157.41339087 372052241.42808735 0 372052241.42808735 897668000.95362997 0 0 0 0 -2301961.8864936829 236970229.52467585 0 236970229.52467585 1293611372.7297096 0 0 0 0 -47121838.951131821 94524323.544081539 0 94524323.544081539 842455853.90509689 0 0 0 0 -165094216.50982118 197034866.50785616 0 197034866.50785616 650845841.06826496 0 0 0 0 -444543992.87519836 115326599.46104956 0 115326599.46104956 654387055.67964268 0 0 0 0 -336980289.58063126 71273648.327837586 0 71273648.327837586 593744359.66939712 0 0 0 0 -353922966.5707531 186186206.22941372 0 186186206.22941372 434252437.62064362 0 0 0 0 -228303372.37189865 297824643.02547455 0 297824643.02547455 348395905.62163639 0 0 0 0 -300197462.67715836 138258240.0741244 0 138258240.0741244 214046658.73490566 0 0 0 0 -388622040.83394623 38842361.70100069 0 38842361.70100069 439806997.53750867 0 0 0 0 -399649756.99332952 316085013.75766611 0 316085013.75766611 782656254.65607357 0 0 0 0 -341473055.70070267 538672203.25932086 0 538672203.25932086 -381024644.68723631 0 0 0 0 -502763399.2738266 273900712.00525761 0 273900712.00525761 271675555.13836503 0 0 0 0 -365467280.6587677 594715356.2440424 0 594715356.2440424 10983656.090353608 0 0 0 0 -286218209.95832825 283504818.49098539 0 283504818.49098539 -19300038.908837318 0 0 0 0 -339520801.66711807 316020363.76179695 0 316020363.76179695 398325859.18866634 0 0 0 0 -263956602.68087578 469263255.83276606 0 469263255.83276606 24420061.591720581 0 0 0 0 -274854044.7173233 624440833.0338583 0 624440833.0338583 -45328561.50869751 0 0 0 0 -314699310.32598495 559244029.48574257 0 559244029.48574257 -119611467.33525085 0 0 0 0 -335289022.36643219 584514165.21977806 0 584514165.21977806 -48221210.0384202 0 0 0 0 -529733116.56208169 372329025.01740253 0 372329025.01740253 -102296883.6228466 0 0 0 0 -534091345.88510132 479593385.16894436 0 479593385.16894436 -35088931.505367279 0 0 0 0 3367122.4161605835 490658443.18169785 0 490658443.18169785 426027875.12950468 0 0 0 0 30846662.119548798 509003320.59667683 0 509003320.59667683 197318365.73799896 0 0 0 0 176633663.66256332 538207824.95699716 0 538207824.95699716 769598689.47501564 0 0 0 0 111338291.7029953 376444133.34685612 0 376444133.34685612 369020607.35030222 0 0 0 0 -84442944.059104919 431574241.49320436 0 431574241.49320436 746253990.59139156 0 0 0 0 -99536636.947872162 319310330.77570105 0 319310330.77570105 361337754.07375145 0 0 0 0 -135568103.08231354 417187174.00267315 0 417187174.00267315 182574500.37577629 0 0 0 0 -202906762.16085815 447667917.63288116 0 447667917.63288116 457829777.76511478 0 0 0 0 -132968503.96759129 449804975.74204886 0 449804975.74204886 190488230.67868423 0 0 0 0 -125075655.92418671 573646073.28463554 0 573646073.28463554 37261157.357854843 0 0 0 0 -284548883.69106293 506855067.25539207 0 506855067.25539207 233404544.5111618 0 0 0 0 -266570521.57397461 625039051.58681107 0 625039051.58681107 -73566647.611675262 0 0 0 0 -229014414.38059902 507638077.87387943 0 507638077.87387943 -4544015.4770774841 0 0 0 0 -17052817.869945526 559437359.0138092 0 559437359.0138092 -15793497.451729774 0 0 0 0 43502008.773545265 410920828.54663372 0 410920828.54663372 -52605498.965938568 0 0 0 0 211523782.36378098 458444840.39055443 0 458444840.39055443 412001905.96853542 0 0 0 0 214768459.7308197 407794688.03236675 0 407794688.03236675 145124170.42233658 0 0 0 0 285498440.9208889 361099418.98971462 0 361099418.98971462 -90567922.660110474 0 0 0 0 73569378.264823914 499870779.78616714 0 499870779.78616714 152205675.38670981 0 0 0 0 65397921.6183815 413826548.15195465 0 413826548.15195465 -87430595.571738243 0 0 0 0 106032606.09720993 421586478.17504311 0 421586478.17504311 -282623694.16416931 0 0 0 0 -69593527.602851868 495640100.9733429 0 495640100.9733429 -71498148.462253571 0 0 0 0 -42793375.929849625 518900184.20719242 0 518900184.20719242 -224848411.18801117 0 0 0 0 -40244983.406618118 466778239.98998642 0 466778239.98998642 -474887604.69816589 0 0 0 0 103514337.81729031 423703702.84121227 0 423703702.84121227 -537173149.51843262 0 0 0 0 -86235085.147251129 436524992.92371368 0 436524992.92371368 -281820421.99612808 0 0 0 0 13500965.779997826 593610555.75215101 0 593610555.75215101 -788862812.13735962 0 0 0 0 -13650470.183353424 432750991.33951187 0 432750991.33951187 -526048197.10379219 0 0 0 0 12094108.777021408 459107804.96694851 0 459107804.96694851 -774756510.06550598 0 0 0 0 -260984210.02548218 431720400.98925209 0 431720400.98925209 -479721399.52344513 0 0 0 0 123426433.83713531 543427876.12943268 0 543427876.12943268 -1050979058.2549324 0 0 0 0 -74370855.963294983 391125697.55224991 0 391125697.55224991 -811367965.74620438 0 0 0 0 -111939551.99226284 262788979.66300964 0 262788979.66300964 -1067219387.6688995 0 0 0 0 85927632.54095459 359805950.2281723 0 359805950.2281723 -1070367290.78514 0 0 0 0 82558238.96572876 400537304.65388107 0 400537304.65388107 -1216439247.2633896 0 0 0 0 126021552.71221924 584479303.53157425 0 584479303.53157425 -834075348.04688263 0 0 0 0 -453448656.63496113 446093817.47536278 0 446093817.47536278 -904940024.54168701 0 0 0 0 -516943605.06163025 622573881.0395937 0 622573881.0395937 -731063030.82044983 0 0 0 0 -233956197.2481842 565213598.03901672 0 565213598.03901672 -1075845744.8203583 0 0 0 0 -290152041.43029785 550024145.95028687 0 550024145.95028687 -1078503163.2075424 0 0 0 0 -1085247901.2869415 745186128.39330292 0 745186128.39330292 -1003131586.8361454 0 0 0 0 -385921571.36791992 583693830.96512604 0 583693830.96512604 -781734027.01396942 0 0 0 0 -211654382.86354065 414569250.09742737 0 414569250.09742737 -644063069.06486273 0 0 0 0 -586512288.21842575 366590925.31872559 0 366590925.31872559 -646501261.71199799 0 0 0 0 -440824942.63890839 523979038.39532089 0 523979038.39532089 -417378117.79167938 0 0 0 0 -307970158.61897278 611783685.37107086 0 611783685.37107086 -553895025.03481293 0 0 0 0 -484581898.04484558 522850090.83109283 0 522850090.83109283 -585639124.34577179 0 0 0 0 -309456007.05253601 591978162.94478607 0 591978162.94478607 -727728854.85599518 0 0 0 0 -339850778.67008209 527040482.77323341 0 527040482.77323341 -417542328.82998276 0 0 0 0 -260270477.92670059 598488487.1782999 0 598488487.1782999 -295746118.91529846 0 0 0 0 -326715295.33857346 627744072.17515326 0 627744072.17515326 -304436305.63105011 0 0 0 0 -230780268.68979645 442101747.20463371 0 442101747.20463371 -255587939.46038437 0 0 0 0 -217467928.64762878 574394552.72736549 0 574394552.72736549 -311866713.14394379 0 0 0 0 -297452773.0856514 480741290.33151484 0 480741290.33151484 -406663294.2746048 0 0 0 0 -179944753.71714783 484809786.52897263 0 484809786.52897263 -49983463.712078094 0 0 0 0 -141846894.12297249 556457920.84057999 0 556457920.84057999 -152812037.84664917 0 0 0 0 -282782914.07846069 520580995.11185455 0 520580995.11185455 -161767244.59635162 0 0 0 0 -290873282.01893616 549090109.99874115 0 549090109.99874115 -141449523.06202126 0 0 0 0 -290215004.4133606 641847457.45085526 0 641847457.45085526 -194911816.87358856 0 0 0 0 -233014784.98943329 539878752.26414108 0 539878752.26414108 -298761732.64296913 0 0 0 0 -234229405.06588364 526713233.60860252 0 526713233.60860252 -361751826.51446152 0 0 0 0 -452238688.42948151 463631342.55159569 0 463631342.55159569 -167477035.56668091 0 0 0 0 -193614258.85115814 432816907.40810966 0 432816907.40810966 -178411762.07067776 0 0 0 0 -22032014.958931446 64035632.353410006 0 64035632.353410006 -95721972.274162292 0 0 0 0 -45837472.527923584 286182362.57592201 0 286182362.57592201 -514408031.05165863 0 0 0 0 -68173570.574621201 244942764.83324337 0 244942764.83324337 -472849394.89999008 0 0 0 0 -266008472.13681793 619581064.49279404 0 619581064.49279404 -535699323.53028107 0 0 0 0 -146281822.82019043 503905002.28030777 0 503905002.28030777 -584953411.61256409 0 0 0 0 -281654706.60076904 616845224.49091434 0 616845224.49091434 -374592629.70820618 0 0 0 0 -332062432.22497559 587802576.9451828 0 587802576.9451828 -510824760.7905426 0 0 0 0 -164291720.61079407 452728852.4304924 0 452728852.4304924 -338281837.16128349 0 0 0 0 -182490401.4730072 576916474.47872543 0 576916474.47872543 -707003596.81624603 0 0 0 0 -234175727.04048157 546728098.88285828 0 546728098.88285828 -694394910.44821167 0 0 0 0 -13041966.388427734 273799943.10800171 0 273799943.10800171 -876018872.01768494 0 0 0 0 100016164.62120056 210919783.40329742 0 210919783.40329742 -1044660504.8522034 0 0 0 0 -133608964.70874023 561522246.21711349 0 561522246.21711349 -1462599743.2918091 0 0 0 0 -30193252.507553101 322650158.00798035 0 322650158.00798035 -915593514.76472473 0 0 0 0 115865719.44976425 261642165.20213318 0 261642165.20213318 -1466923395.1786957 0 0 0 0 114925545.59762573 259615143.94146729 0 259615143.94146729 -1445675053.5071716 0 0 0 0 46748965.36140798 12185840.98287851 0 12185840.98287851 -6923273.8289061636 0 0 0 0 54697971.065002441 3473451.8384380341 0 3473451.8384380341 3485057.0925521851 0 0 0 0 43967564.935440063 32332218.948383331 0 32332218.948383331 -19388092.02759552 0 0 0 0 47061277.525695801 27135318.398509979 0 27135318.398509979 -27492290.502227783 0 0 0 0 115015178.25567627 13455854.463713169 0 13455854.463713169 -174907455.3398056 0 0 0 0 115003282.73266602 5807841.0595989227 0 5807841.0595989227 -61263968.121055603 0 0 0 0 45828720.084106445 143120794.63125706 0 143120794.63125706 -53521483.026985168 0 0 0 0 79697682.131118774 58465985.243000031 0 58465985.243000031 -109296723.5004425 0 0 0 0 92642157.207885742 219640603.05869198 0 219640603.05869198 5976297.8245849609 0 0 0 0 46739881.474807739 38212647.564367294 0 38212647.564367294 -11519645.81652832 0 0 0 0 53241334.026702881 34849470.811416626 0 34849470.811416626 -22964059.628461838 0 0 0 0 20235744.917022705 51174183.831203461 0 51174183.831203461 -16731169.916591644 0 0 0 0 14302587.356994629 29327760.386852264 0 29327760.386852264 4677634.6333866119 0 0 0 0 37825346.769878387 20384653.204245567 0 20384653.204245567 -6988481.7629470825 0 0 0 0 427560901.30096436 -995279710.5459671 0 -995279710.5459671 -142019485.49841809 0 0 0 0 628687925.92479229 220903112.02048111 0 220903112.02048111 -2091196.3397903442 0 0 0 0 -54334651.572788239 478418333.48961639 0 478418333.48961639 -535043930.96953583 0 0 0 0 1036323.5401275335 1584256.4311543591 0 1584256.4311543591 1915012.939833058 0 0 0 0 -123692724.61170197 770656046.59365845 0 770656046.59365845 -777467455.66553497 0 0 0 0 135490281.85933685 1100237129.85112 0 1100237129.85112 -358367531.15888405 0 0 0 0 261376385.96218109 976737425.56273651 0 976737425.56273651 -850081103.63288879 0 0 0 0 -89572171.134484708 781019620.90892863 0 781019620.90892863 -956048819.77370453 0 0 0 0 846955533.76602173 1313557794.5927658 0 1313557794.5927658 -915308530.21987915 0 0 0 0 340850867.04630566 781711805.73786736 0 781711805.73786736 -1452057470.7209778 0 0 0 0 1218960674.9941149 366027050.41863823 0 366027050.41863823 -2144327172.34935 0 0 0 0 -857389626.57154846 -274615865.84154129 0 -274615865.84154129 -1404863136.1864395 0 0 0 0 31451248.135080788 19487179.289929751 0 19487179.289929751 3863588.9205121845 0 0 0 0 -104942550.05290604 669199692.890028 0 669199692.890028 432603109.89736176 0 0 0 0 -985914122.05996704 -364920646.15560913 0 -364920646.15560913 -305353523.82989502 0 0 0 0 -464312733.58849335 858959834.44866943 0 858959834.44866943 -1583423072.4595795 0 0 0 0 -110001669.79928589 659085727.7408905 0 659085727.7408905 -1848286138.5562439 0 0 0 0 -3872224.2461244334 11304861.553847449 0 11304861.553847449 2440974.2577664643 0 0 0 0 1286712846.3535461 -737703882.01688385 0 -737703882.01688385 89522852.579624176 0 0 0 0 760058175.86090088 -402461575.92090607 0 -402461575.92090607 -102732724.42028046 0 0 0 0 133631888.54882812 -1093431021.4866829 0 -1093431021.4866829 -14652634.941101074 0 0 0 0 2785070768.3027649 -1094066763.4401932 0 -1094066763.4401932 -722381382.03321743 0 0 0 0 3134117980.7961731 -367273149.0817337 0 -367273149.0817337 -994776474.40186048 0 0 0 0 1662029437.4165497 -244563020.77249336 0 -244563020.77249336 -625222433.4974823 0 0 0 0 1985596661.6590271 -191444811.27905273 0 -191444811.27905273 -1000923920.8564478 0 0 0 0 1793466705.5851135 -902106360.65721512 0 -902106360.65721512 -747543530.33985043 0 0 0 0 1459277269.6486206 -703534914.0048027 0 -703534914.0048027 -426297983.67598724 0 0 0 0 1531136862.9672852 -382418805.50606155 0 -382418805.50606155 -276638768.2095108 0 0 0 0 1510967606.8924866 -454445314.2280426 0 -454445314.2280426 -363819614.53116989 0 0 0 0 967227091.55000305 86833740.129154205 0 86833740.129154205 -728919627.15357971 0 0 0 0 1735035183.4628983 -619548872.66772461 0 -619548872.66772461 -1069506.4980964661 0 0 0 0 2725546956.9269714 165502932.93083954 0 165502932.93083954 -417743894.92854309 0 0 0 0 1654434393.0174725 -180581301.62087679 0 -180581301.62087679 -440932292.98390198 0 0 0 0 1653106148.3254395 -559122471.28614426 0 -559122471.28614426 -507304444.82012367 0 0 0 0 232132731.74998474 392629764.8596096 0 392629764.8596096 38388774.413146973 0 0 0 0 1308513744.674408 -93309583.094299316 0 -93309583.094299316 -417266437.40391541 0 0 0 0 1623691836.0410767 801360778.55347443 0 801360778.55347443 -235209761.58850098 0 0 0 0 1805300054.9000244 738665955.9402771 0 738665955.9402771 -216789608.61136246 0 0 0 0 1777233537.2930908 691865922.7913475 0 691865922.7913475 -294761528.40592194 0 0 0 0 3476929574.3446655 971939956.41884613 0 971939956.41884613 -258472428.10749626 0 0 0 0 2345953.1074056923 1434616.2537290677 0 1434616.2537290677 -787603.68962877989 0 0 0 0 644690654.03057861 493603689.53526306 0 493603689.53526306 185196134.40789413 0 0 0 0 361569920.74041748 -784927654.20774078 0 -784927654.20774078 -2121588597.1455383 0 0 0 0 692264560.78097534 1187253918.4273739 0 1187253918.4273739 -490525895.1827774 0 0 0 0 602547408.91261292 1215415006.599762 0 1215415006.599762 -34504645.047805786 0 0 0 0 1271453905.2319336 1036407828.1316528 0 1036407828.1316528 -599357584.27722168 0 0 0 0 1476137235.1611481 1426373104.2306633 0 1426373104.2306633 130682229.18562317 0 0 0 0 427307013.70544434 -115148744.67403412 0 -115148744.67403412 -1453184627.3537827 0 0 0 0 288895882.59637451 333719279.49654388 0 333719279.49654388 -426755085.89862823 0 0 0 0 268544762.64352417 207714718.22224426 0 207714718.22224426 -1156774681.9075928 0 0 0 0 -66509769.384540558 3252273076.9134989 0 3252273076.9134989 199062135.94645691 0 0 0 0 88757025.795776367 -94846786.12310791 0 -94846786.12310791 -761014466.53422546 0 0 0 0 91931899.188964844 -53623297.260734558 0 -53623297.260734558 -225764225.83620834 0 0 0 0 -54685116.405883789 -70841605.721809387 0 -70841605.721809387 80688548.897008896 0 0 0 0 10486087.191152932 725392.6870374456 0 725392.6870374456 -5512343.2330051176 0 0 0 0 44169866.718399137 9551191.8678234145 0 9551191.8678234145 -7722698.9833435146 0 0 0 0 -46766628.93019104 -145600077.1179018 0 -145600077.1179018 -284125824.09751892 0 0 0 0 578885392.16847229 1055636175.4382515 0 1055636175.4382515 -864115903.4996376 0 0 0 0 -705461970.04036713 49616698.023710251 0 49616698.023710251 460590514.93270874 0 0 0 0 379059834.35286713 131165662.78081894 0 131165662.78081894 11003023.097854614 0 0 0 0 71054988.130348206 77274145.460987091 0 77274145.460987091 191620864.98989868 0 0 0 0 31257263.424498513 9666127.3648015149 0 9666127.3648015149 -6424572.5856817393 0 0 0 0 -48070558.84727478 139324795.40123177 0 139324795.40123177 -169851413.47880173 0 0 0 0 20027971.675222095 -2489656.5277150944 0 -2489656.5277150944 -13886320.543436481 0 0 0 0 -658473708.07729721 319639671.61297512 0 319639671.61297512 -34849852.986542702 0 0 0 0 -355738623.5011158 240155991.9020896 0 240155991.9020896 -22633198.054962158 0 0 0 0 796981514.33140564 319290528.32292175 0 319290528.32292175 -39680843.402112961 0 0 0 0 449328555.15403748 272314287.31781864 0 272314287.31781864 108724994.12664604 0 0 0 0 732054837.87500763 383025731.96476173 0 383025731.96476173 -23358364.016418457 0 0 0 0 1252345031.8419189 712771562.02542877 0 712771562.02542877 -415849594.5640831 0 0 0 0 1173326779.8186188 481817501.86532211 0 481817501.86532211 -236281924.71267319 0 0 0 0 1256180576.8083801 800580352.06046677 0 800580352.06046677 -179755218.10781097 0 0 0 0 962540414.5671463 758744319.03995132 0 758744319.03995132 67596567.296195984 0 0 0 0 1640108220.0427704 -1374088212.6494942 0 -1374088212.6494942 -261964955.68008423 0 0 0 0 17855614.871063232 345755861.84599304 0 345755861.84599304 1255407111.9254112 0 0 0 0 11387972.044512577 3344771.533944767 0 3344771.533944767 -1638913.3067737292 0 0 0 0 1220317786.3556824 1202995896.2578354 0 1202995896.2578354 280710156.03663635 0 0 0 0 333432229.45664215 1723329463.0819931 0 1723329463.0819931 3882042476.2396164 0 0 0 0 1317941951.8596764 1010461563.1234598 0 1010461563.1234598 -425108035.15737915 0 0 0 0 -875978794.43623352 1929431101.8963165 0 1929431101.8963165 8348722362.5007477 0 0 0 0 2278881456.9985962 3443596156.8024597 0 3443596156.8024597 2046424264.4991913 0 0 0 0 5640902146.2446899 3400365762.3565102 0 3400365762.3565102 -4009900220.0279083 0 0 0 0 -395645127.92843723 -297213738.16390228 0 -297213738.16390228 -284179871.50079346 0 0 0 0 37592609.821982138 -37250027.309863493 0 -37250027.309863493 26529675.271642275 0 0 0 0 447700803.17677307 -723509384.30873299 0 -723509384.30873299 -861669402.93215179 0 0 0 0 -364044281.35986876 -348575108.74773312 0 -348575108.74773312 -297782144.97993469 0 0 0 0 2591037134.0101624 -500028078.97283554 0 -500028078.97283554 -2534171086.912735 0 0 0 0 -490958005.30106258 -344392122.12195206 0 -344392122.12195206 -267575925.81557846 0 0 0 0 -1024924134.6456356 -790988413.9210186 0 -790988413.9210186 -597006360.61328888 0 0 0 0 243957483.28206015 456539165.01699448 0 456539165.01699448 -987815916.45462799 0 0 0 0 -503238717.4790597 -278949763.36720133 0 -278949763.36720133 -234841070.93099976 0 0 0 0 917454009.29494476 538617954.19294548 0 538617954.19294548 324662789.50827789 0 0 0 0 1074275427.9339828 516549765.63832378 0 516549765.63832378 190381729.42301559 0 0 0 0 1376867430.1344299 640991120.62761688 0 640991120.62761688 149133819.22558022 0 0 0 0 1421448491.2141991 563911810.66795588 0 563911810.66795588 38365531.878948212 0 0 0 0 1315686145.4588165 939868600.13272285 0 939868600.13272285 295115672.21171272 0 0 0 0 1693331108.4485931 812761456.78918886 0 812761456.78918886 148768543.46570778 0 0 0 0 -225161307.12296295 -1700641658.4423523 0 -1700641658.4423523 -345033652.8326416 0 0 0 0 -793900064.19567108 -1713197609.2871704 0 -1713197609.2871704 114789972.89245605 0 0 0 0 3753721.959838789 -1443873.1475260109 0 -1443873.1475260109 -2304895.6899508424 0 0 0 0 34919569.911318496 -34812293.402694613 0 -34812293.402694613 20436977.692945853 0 0 0 0 1871961394.6018829 419698498.82204056 0 419698498.82204056 269866118.32319069 0 0 0 0 1794710346.3526001 511084769.36975288 0 511084769.36975288 167539983.1456604 0 0 0 0 1740768273.4881287 185148702.28497458 0 185148702.28497458 641007422.4917717 0 0 0 0 -133799584.84166718 -431399073.18713379 0 -431399073.18713379 -214410958.50627136 0 0 0 0 -87224830.42010498 909110858.32975769 0 909110858.32975769 -2075866201.7817764 0 0 0 0 -422004542.64173317 -814565387.90426636 0 -814565387.90426636 -581242146.25535583 0 0 0 0 -556451377.35754013 -976449677.43540955 0 -976449677.43540955 80075522.564086914 0 0 0 0 -976296987.28983688 -1735298959.4347954 0 -1735298959.4347954 845813486.17398071 0 0 0 0 -529894090.9922905 -888032044.24996185 0 -888032044.24996185 227986759.65361404 0 0 0 0 -524354285.91489029 -1279964317.0163612 0 -1279964317.0163612 1843308253.2095451 0 0 0 0 777862293.61970854 -1713950601.5415039 0 -1713950601.5415039 705778212.68725586 0 0 0 0 -1312105826.4141045 -604713308.06098557 0 -604713308.06098557 175875487.55892944 0 0 0 0 10142015.732859604 -4945414.769633498 0 -4945414.769633498 -8385572.6662730128 0 0 0 0 -431446179.9812851 420971085.93423033 0 420971085.93423033 -84278776.135139465 0 0 0 0 834531049.20327759 110288123.69947815 0 110288123.69947815 41710423.584777832 0 0 0 0 1187716503.5758972 365198210.72826481 0 365198210.72826481 21851634.215521693 0 0 0 0 1165699564.9885712 465676569.96953773 0 465676569.96953773 -50144443.03155899 0 0 0 0 1485725835.2410583 320586629.12435412 0 320586629.12435412 237297220.76208878 0 0 0 0 1224902800.2965431 247202005.89735842 0 247202005.89735842 297076506.7003231 0 0 0 0 1439291458.1168518 429780724.10505295 0 429780724.10505295 443758418.79760742 0 0 0 0 1318863091.0541382 920063086.05029154 0 920063086.05029154 1014690046.0688825 0 0 0 0 1229917907.333786 535474051.24783325 0 535474051.24783325 459624598.61590004 0 0 0 0 1411097987.2471313 430962315.0449028 0 430962315.0449028 1087209447.0242214 0 0 0 0 1414101883.7892723 459847761.75339127 0 459847761.75339127 471690840.01633835 0 0 0 0 1346665976.2141571 1027825800.7371726 0 1027825800.7371726 646283956.31719732 0 0 0 0 1156977562.2928162 562489774.99974418 0 562489774.99974418 -372414443.69002342 0 0 0 0 1174914899.6099091 432741346.06570816 0 432741346.06570816 271418104.05802727 0 0 0 0 1039757110.8458672 330587338.37429893 0 330587338.37429893 125688557.79126406 0 0 0 0 -1629187430.6058807 503336092.81887794 0 503336092.81887794 46373327.218025923 0 0 0 0 3217966.9309553187 -3100816.2625264972 0 -3100816.2625264972 -2870709.3172616446 0 0 0 0 -373927456.2093811 -87422934.273483992 0 -87422934.273483992 57639753.085042 0 0 0 0 512843625.91467285 1599206677.6901765 0 1599206677.6901765 -639533045.67105985 0 0 0 0 576974239.93746948 174899270.24975395 0 174899270.24975395 856309312.50107002 0 0 0 0 -770852322.03312683 666294489.79780126 0 666294489.79780126 874730820.80088043 0 0 0 0 -1628865750.7117805 -116207867.1084137 0 -116207867.1084137 198097087.81887817 0 0 0 0 1545696979.3758011 1319665686.8288565 0 1319665686.8288565 381815233.70286369 0 0 0 0 1627577124.3605804 1138819909.6174173 0 1138819909.6174173 384284061.92901611 0 0 0 0 30018602.196572073 -29776937.407622941 0 -29776937.407622941 15481990.944430389 0 0 0 0 1656378244.1640015 1124993027.5485926 0 1124993027.5485926 89959626.434912682 0 0 0 0 1485799692.1213379 871529224.17638302 0 871529224.17638302 -57743825.232989401 0 0 0 0 964213612.97842407 906940542.09637368 0 906940542.09637368 144401498.79877877 0 0 0 0 1535831843.180851 1321008651.8324356 0 1321008651.8324356 28876784.63968277 0 0 0 0 1347156898.0860901 1057174730.297266 0 1057174730.297266 -208055924.26258945 0 0 0 0 1124092091.8698502 1253892836.9090614 0 1253892836.9090614 145077245.00366163 0 0 0 0 -1358542845.1096954 -189393593.22592163 0 -189393593.22592163 59864416.463317871 0 0 0 0 -1187261171.4451866 21717996.424331665 0 21717996.424331665 -200911158.44530487 0 0 0 0 1599206951.0182457 963284844.20917606 0 963284844.20917606 2171038069.4440918 0 0 0 0 1699877631.7739105 582993216.9758997 0 582993216.9758997 14825818.398893356 0 0 0 0 1535487.5188313313 -596103.69433241338 0 -596103.69433241338 500640.5885982858 0 0 0 0 8282245.006886729 -14971890.969517004 0 -14971890.969517004 20517686.488963984 0 0 0 0 553590766.27296448 617361175.86303234 0 617361175.86303234 435490437.7596817 0 0 0 0 291468369.76876068 898419838.32989407 0 898419838.32989407 1246932192.789432 0 0 0 0 -141740365.21917677 382111349.35801899 0 382111349.35801899 669905150.53041077 0 0 0 0 6130502.8873443604 379200503.75671005 0 379200503.75671005 636851061.42784214 0 0 0 0 -702988829.86164284 -64843873.482883453 0 -64843873.482883453 515117025.35945702 0 0 0 0 185802855.23915529 200920276.33253956 0 200920276.33253956 850031352.15995789 0 0 0 0 -365458118.18746376 -337656928.11864471 0 -337656928.11864471 367999863.31657219 0 0 0 0 -779237912.89893723 -139424052.71994019 0 -139424052.71994019 365681637.11644936 0 0 0 0 -428937491.86568832 -78764768.926156998 0 -78764768.926156998 83296646.159378052 0 0 0 0 -845001432.03562164 99179295.681800842 0 99179295.681800842 -483950641.41540527 0 0 0 0 -1758704981.9515743 545557766.70611191 0 545557766.70611191 -83306477.147033691 0 0 0 0 -1228511747.6859455 -27236059.690288544 0 -27236059.690288544 280834540.37210083 0 0 0 0 -975449676.47367668 -28656345.226840973 0 -28656345.226840973 148163223.18222809 0 0 0 0 -1334151154.7857437 141231351.18120575 0 141231351.18120575 219870942.08149719 0 0 0 0 -893572087.54009247 173919056.86391449 0 173919056.86391449 333056113.73360825 0 0 0 0 -1008308277.2222872 379501048.73562241 0 379501048.73562241 28297526.001861572 0 0 0 0 -1044133925.1644955 301345354.59072876 0 301345354.59072876 -80007012.634475708 0 0 0 0 -944082289.15006089 148627811.57910776 0 148627811.57910776 344979064.88274384 0 0 0 0 -1168577503.7457218 170687337.7228241 0 170687337.7228241 350423821.15784836 0 0 0 0 -391740606.1808567 240338396.56354904 0 240338396.56354904 161192970.41328812 0 0 0 0 -222769110.09129047 -500789210.77019739 0 -500789210.77019739 856898990.4006424 0 0 0 0 71438507.941224098 -570848555.66591072 0 -570848555.66591072 442280230.31214905 0 0 0 0 854775166.63326836 -858866845.04933167 0 -858866845.04933167 534159888.11779022 0 0 0 0 938922673.87231922 -418561127.07243156 0 -418561127.07243156 868096763.86017227 0 0 0 0 1428333078.3797331 -14829586.23866272 0 -14829586.23866272 820410213.40406036 0 0 0 0 -138078678.06819534 -401090522.16337204 0 -401090522.16337204 1412667579.897583 0 0 0 0 3202492759.7605653 2185971987.3205738 0 2185971987.3205738 2141369647.476078 0 0 0 0 858463074.76487637 527050544.6438694 0 527050544.6438694 969389392.37205505 0 0 0 0 5420734134.6689987 903324173.5790863 0 903324173.5790863 -79880719.137486458 0 0 0 0 1590432928.3249607 201253302.21060181 0 201253302.21060181 18291064.036445618 0 0 0 0 536939.30579498038 2424958.4623283669 0 2424958.4623283669 6431817.506269224 0 0 0 0 -212484659.71504974 -510844439.46407318 0 -510844439.46407318 3064486903.5492096 0 0 0 0 165922527.92593002 2283907731.7519035 0 2283907731.7519035 3950140832.4979982 0 0 0 0 5051527600.5168037 520946577.21457291 0 520946577.21457291 338670600.01521301 0 0 0 0 -329243116.24463844 127956666.24494934 0 127956666.24494934 3579499019.8587093 0 0 0 0 2021934611.8875909 -1130466133.7512302 0 -1130466133.7512302 -2390309545.9203606 0 0 0 0 13819725.005533159 2796753.9563736515 0 2796753.9563736515 -4096257.1383248391 0 0 0 0 -505214586.13580084 439559054.58412457 0 439559054.58412457 492231055.39486694 0 0 0 0 82407147.948677063 -192764913.47588158 0 -192764913.47588158 -637118449.85954571 0 0 0 0 218153862.7594347 -14069128.885473251 0 -14069128.885473251 -512363627.98339272 0 0 0 0 155519886.12169886 -21725456.750131607 0 -21725456.750131607 -490564112.01093674 0 0 0 0 173581959.56890774 22099685.64044714 0 22099685.64044714 -404260187.06650543 0 0 0 0 215610035.02671504 -507798794.05272198 0 -507798794.05272198 -1224568802.6874323 0 0 0 0 45745797.656954765 -78766266.03383255 0 -78766266.03383255 -381519133.41003227 0 0 0 0 1361536369.2284148 -99121952.375053883 0 -99121952.375053883 -749186533.82781982 0 0 0 0 474818422.84459352 626283093.30994701 0 626283093.30994701 152776924.75085831 0 0 0 0 83939888.418475151 -1424750932.6353607 0 -1424750932.6353607 122169049.48420715 0 0 0 0 5953448.4738713661 1027449.2525435463 0 1027449.2525435463 -1614526.4790212354 0 0 0 0 -1265783074.4851398 -250274487.81646729 0 -250274487.81646729 966670454.70508003 0 0 0 0 60947081.755630493 -130377757.72426414 0 -130377757.72426414 326607735.16719055 0 0 0 0 -337999228.83740997 227497959.10902405 0 227497959.10902405 30869040.138383865 0 0 0 0 214717195.77111816 101622094.97405243 0 101622094.97405243 -469366870.8947258 0 0 0 0 3591012.2598437294 5690049.9235580713 0 5690049.9235580713 -1659440.1315475143 0 0 0 0 -169625099.2114296 -136007609.21605873 0 -136007609.21605873 -62053413.355751038 0 0 0 0 148288468.32842255 708670350.61767387 0 708670350.61767387 384247755.08189201 0 0 0 0 681878998.44417572 1052664983.5133457 0 1052664983.5133457 490939792.40186977 0 0 0 0 -52140248.841056824 403626017.15251541 0 403626017.15251541 675095565.20290947 0 0 0 0 64946842.135476112 409312810.14323044 0 409312810.14323044 295089963.69937897 0 0 0 0 -102402417.78470802 296380838.17113495 0 296380838.17113495 75309674.220428467 0 0 0 0 108212152.24907494 -205310221.76642609 0 -205310221.76642609 231998037.47538376 0 0 0 0 33213888.725328445 1529448165.8628578 0 1529448165.8628578 1347457819.6585178 0 0 0 0 -168261843.25258064 204175826.13725281 0 204175826.13725281 2091457680.7537994 0 0 0 0 508422236.76998901 1380367243.1694746 0 1380367243.1694746 973293507.8741951 0 0 0 0 13931374.948691338 4669342.5806571767 0 4669342.5806571767 -4935004.8859542552 0 0 0 0 1509613957.86586 767319742.04557514 0 767319742.04557514 -1147871059.4414768 0 0 0 0 6363363.2900208682 3329087.5644406863 0 3329087.5644406863 -2738968.0776672913 0 0 0 0 809933166.23433113 1850531953.8990116 0 1850531953.8990116 1656853302.8996716 0 0 0 0 262451906.12008286 1402947306.1106873 0 1402947306.1106873 979046318.94550705 0 0 0 0 228643522.61763191 582782375.99545479 0 582782375.99545479 571121402.79416656 0 0 0 0 1775964564.1164665 979587751.92310238 0 979587751.92310238 548024000.33790481 0 0 0 0 509945533.95733643 407383389.96763802 0 407383389.96763802 524528240.05393982 0 0 0 0 659205121.13899231 97659385.929237366 0 97659385.929237366 1130126600.3327751 0 0 0 0 1317082752.8958111 721775612.80689669 0 721775612.80689669 188477532.6110096 0 0 0 0 487003423.37744141 606913956.75078201 0 606913956.75078201 449871251.64284325 0 0 0 0 377299614.56779861 583024353.19728494 0 583024353.19728494 444705361.71303558 0 0 0 0 616403084.90917778 890916242.98494482 0 890916242.98494482 1055765724.2728348 0 0 0 0 1096415639.2203712 -236210596.20538092 0 -236210596.20538092 -371487845.63691139 0 0 0 0 304855603.68029308 69890171.597844005 0 69890171.597844005 38717183.206813812 0 0 0 0 282328553.966259 -524020150.63866806 0 -524020150.63866806 -323861216.74147892 0 0 0 0 -71022632.769952774 20857458.401303291 0 20857458.401303291 -193631513.37547302 0 0 0 0 17210572.595769882 -193860923.5961628 0 -193860923.5961628 -53017873.197381973 0 0 0 0 262567658.8012085 -97330805.019517899 0 -97330805.019517899 -34267881.326932907 0 0 0 0 -2537459.641494751 -84685667.299966574 0 -84685667.299966574 18162518.310207367 0 0 0 0 6000349.9569625854 -210575974.00424647 0 -210575974.00424647 -260850639.46953654 0 0 0 0 -17127098.657852173 -67810231.55478096 0 -67810231.55478096 -89381429.189959407 0 0 0 0 188894255.99931145 -97669493.563068509 0 -97669493.563068509 -211135133.47011375 0 0 0 0 256637557.6697464 43710801.734682083 0 43710801.734682083 -141142894.47401953 0 0 0 0 219858535.21595764 -65279234.865198135 0 -65279234.865198135 -116447103.08523846 0 0 0 0 222044042.25018692 -96342689.178223133 0 -96342689.178223133 17574737.541538239 0 0 0 0 525783625.87686157 145266657.03751314 0 145266657.03751314 -82675037.160960197 0 0 0 0 598846634.05825806 183857143.87808084 0 183857143.87808084 -195703003.46780539 0 0 0 0 241410298.95496368 34640676.131246567 0 34640676.131246567 -111316556.2798866 0 0 0 0 206418714.53152275 294154141.43174058 0 294154141.43174058 3849898.5927143097 0 0 0 0 680687843.41766739 584290238.60851145 0 584290238.60851145 190770838.20253515 0 0 0 0 417951584.94530296 341396864.87341589 0 341396864.87341589 -31969312.463304043 0 0 0 0 -319310340.5300045 -243451128.06352043 0 -243451128.06352043 -93136389.88919735 0 0 0 0 419021989.40925694 109908284.24220562 0 109908284.24220562 -264548505.95440865 0 0 0 0 4144322.1587664653 -867458.40083413664 0 -867458.40083413664 -3300808.1874070074 0 0 0 0 -456484325.33848906 -235780518.96178818 0 -235780518.96178818 -35068100.47590065 0 0 0 0 -372314006.23761034 -327936802.41825867 0 -327936802.41825867 -112202928.23453712 0 0 0 0 -385249370.21534824 -226058192.68402863 0 -226058192.68402863 -61057880.915065765 0 0 0 0 -321680361.91342068 -228401183.93448639 0 -228401183.93448639 -175040469.71337128 0 0 0 0 -423029807.30033088 -409144964.90882778 0 -409144964.90882778 -327159699.56897354 0 0 0 0 7137351.6093438584 -2227088.390726544 0 -2227088.390726544 -4745034.3689533938 0 0 0 0 -306093732.97008038 -381525373.00853729 0 -381525373.00853729 -374193713.3585701 0 0 0 0 -315069345.53994179 -288955801.74469376 0 -288955801.74469376 -342080418.80738831 0 0 0 0 -364801800.88720363 -372916520.33662164 0 -372916520.33662164 -258366972.93331909 0 0 0 0 79828907.346960068 -26164759.585786819 0 -26164759.585786819 -301123432.5012207 0 0 0 0 -47697810.941495895 -90723251.405861855 0 -90723251.405861855 -259450878.82257843 0 0 0 0 121444731.10471916 -80515521.021522522 0 -80515521.021522522 -263787902.06131053 0 0 0 0 -58443582.245350838 -108906743.92212534 0 -108906743.92212534 60152826.996839523 0 0 0 0 243450180.62681532 -268958801.57253432 0 -268958801.57253432 19496270.142593384 0 0 0 0 151537567.65677452 25057712.88927269 0 25057712.88927269 150332124.61051655 0 0 0 0 22814585.943565369 -127272158.58144379 0 -127272158.58144379 -26938327.498361588 0 0 0 0 -15220809.184616089 -60337243.856646776 0 -60337243.856646776 -33395436.069042742 0 0 0 0 -24286609.113101959 -73126404.350321293 0 -73126404.350321293 50940702.400870442 0 0 0 0 6210769.151345253 -108237402.34872532 0 -108237402.34872532 -55573474.85969162 0 0 0 0 81282799.275760651 -96020838.974820614 0 -96020838.974820614 -453599853.72007442 0 0 0 0 -27892746.070907593 -76891747.580116272 0 -76891747.580116272 -68394652.541794181 0 0 0 0 14489186.932796478 -120240994.51320851 0 -120240994.51320851 -228352214.30922365 0 0 0 0 -11822493.367221832 -54771917.873376608 0 -54771917.873376608 -247773057.99257958 0 0 0 0 103968740.38115883 -41929130.702877045 0 -41929130.702877045 -252348612.19404316 0 0 0 0 25020737.221569706 10436252.293195074 0 10436252.293195074 -16303466.218019942 0 0 0 0 16920245.134624481 -155885104.84933352 0 -155885104.84933352 -312390598.60204411 0 0 0 0 -581601023.78410339 91052991.150956631 0 91052991.150956631 52689234.760219574 0 0 0 0 41647113.239322342 -21518284.706223682 0 -21518284.706223682 15814805.168792725 0 0 0 0 -31068321.638919353 -356356258.7106111 0 -356356258.7106111 -22474370.013763428 0 0 0 0 372397266.68030357 -519278375.27363205 0 -519278375.27363205 116638758.85125017 0 0 0 0 -54482802.774364471 62104589.045814037 0 62104589.045814037 76729468.547963619 0 0 0 0 7770838.956733657 3173349.9441800769 0 3173349.9441800769 -4991831.4872301323 0 0 0 0 32193083.649593353 -362555455.54593658 0 -362555455.54593658 -55318152.281770706 0 0 0 0 374877198.40784836 -480658402.8008728 0 -480658402.8008728 -136561927.13326645 0 0 0 0 625426279.67005241 9342586.4256412983 0 9342586.4256412983 -664193583.14180756 0 0 0 0 -353300717.98012686 -103030684.05933762 0 -103030684.05933762 -67878294.189552307 0 0 0 0 536371718.53646803 -354082263.28006172 0 -354082263.28006172 -265573258.26241302 0 0 0 0 36190846.184278786 -31988052.338491559 0 -31988052.338491559 28939568.809799612 0 0 0 0 -975051911.33357668 -1421122229.3860192 0 -1421122229.3860192 1421119058.4933853 0 0 0 0 -505871591.45225787 -217304410.80029011 0 -217304410.80029011 -25207203.915821075 0 0 0 0 -534627705.56967282 -50995913.122437477 0 -50995913.122437477 -71072466.699775696 0 0 0 0 1069985135.9547729 646485111.06554794 0 646485111.06554794 -890886819.65092468 0 0 0 0 -661444360.79199219 597149316.56045341 0 597149316.56045341 -197092852.10226822 0 0 0 0 176461276.24835205 213184433.90101242 0 213184433.90101242 -28384557.237998962 0 0 0 0 273888096.56915283 321564325.90723991 0 321564325.90723991 -151843777.90031624 0 0 0 0 417344028.56427002 17298176.043254852 0 17298176.043254852 33225644.583602905 0 0 0 0 409267765.07022095 177916790.13504028 0 177916790.13504028 -175708123.40223694 0 0 0 0 -252252859.65949249 103288944.41512871 0 103288944.41512871 -161442448.7718811 0 0 0 0 22290556.800811097 -13237211.502406834 0 -13237211.502406834 3931687.6243385659 0 0 0 0 -171385341.61035156 -9284143.162279129 0 -9284143.162279129 473769571.69272614 0 0 0 0 99355273.134170532 -116034560.57204437 0 -116034560.57204437 380755319.02454567 0 0 0 0 -146112459.96298218 132378050.36291885 0 132378050.36291885 179297658.51214027 0 0 0 0 341050636.16061401 181738479.83980179 0 181738479.83980179 148260299.58583069 0 0 0 0 135030182.84667969 291547352.58960342 0 291547352.58960342 269346474.92398834 0 0 0 0 -1029315331.063385 514820457.72506332 0 514820457.72506332 59453722.327519417 0 0 0 0 626243.31720515341 -407360.77568370849 0 -407360.77568370849 -794523.41861188598 0 0 0 0 533748915.96232605 250527971.88185024 0 250527971.88185024 -301804531.51665497 0 0 0 0 171079677.81791687 -349030113.94440794 0 -349030113.94440794 676532344.47303391 0 0 0 0 710103805.07449341 3766450.7071056366 0 3766450.7071056366 -157553065.97306061 0 0 0 0 62116467.724029541 35316545.764282227 0 35316545.764282227 -21808973.398162842 0 0 0 0 52825637.574676514 97642834.571219444 0 97642834.571219444 -133642726.77929115 0 0 0 0 67672962.244118616 -16081434.390762864 0 -16081434.390762864 2570544.4028224666 0 0 0 0 1297446.4187426344 -10744416.330041824 0 -10744416.330041824 733853.93996354949 0 0 0 0 -45933781.957778931 -126824303.18094254 0 -126824303.18094254 -1714429.9859625101 0 0 0 0 120156169.79755592 -116106539.34167564 0 -116106539.34167564 -489941618.21455002 0 0 0 0 67872635.588029057 -12675331.399849931 0 -12675331.399849931 -4102240.9477396617 0 0 0 0 317737441.02227783 443216450.12024021 0 443216450.12024021 -585188718.58239937 0 0 0 0 13024618.864372253 278530382.73028469 0 278530382.73028469 414082739.00076866 0 0 0 0 17729152.758357301 -1758575.6295760497 0 -1758575.6295760497 -5150562.9902145984 0 0 0 0 -97546052.762207031 996889490.51077271 0 996889490.51077271 -329509982.98121643 0 0 0 0 -98284430.480514526 519629757.12148952 0 519629757.12148952 940620456.29789352 0 0 0 0 17733491.341674805 112113967.53710175 0 112113967.53710175 -97535858.92505455 0 0 0 0 369623410.68694305 -274172832.60903835 0 -274172832.60903835 -160260270.06512451 0 0 0 0 756998762.86692047 319407441.83805561 0 319407441.83805561 -65975574.34740448 0 0 0 0 -33023387.941192627 52111591.358791351 0 52111591.358791351 -154296189.23502541 0 0 0 0 134887651.76895142 505515500.42811203 0 505515500.42811203 354639886.08075142 0 0 0 0 233149396.43388367 279560813.14009094 0 279560813.14009094 -95715064.913818359 0 0 0 0 -165162399.0383606 276624777.81900787 0 276624777.81900787 181208532.37530899 0 0 0 0 -153287901.89440823 436926347.34922504 0 436926347.34922504 1198592195.9279976 0 0 0 0 112594.77654434741 4503639.8659793744 0 4503639.8659793744 1570935.3509649569 0 0 0 0 315521825.71881485 -3231210.979824543 0 -3231210.979824543 -55970395.446304321 0 0 0 0 627882313.67483521 -153534653.99414062 0 -153534653.99414062 -28691105.791669369 0 0 0 0 4786416.3639814258 484248.79216060415 0 484248.79216060415 -2012004.7131624985 0 0 0 0 465164473.36389923 -454139028.12020922 0 -454139028.12020922 211610182.35561371 0 0 0 0 -1584482.0523147583 4138823.0453667641 0 4138823.0453667641 -6071842.7075386047 0 0 0 0 3671937.4680161178 4053453.7166710543 0 4053453.7166710543 -152302.91981882788 0 0 0 0 97951047.755569458 -66909347.450583458 0 -66909347.450583458 -183581846.5754509 0 0 0 0 66387.291320800781 6860108.2545013428 0 6860108.2545013428 -12643148.252197266 0 0 0 0 3935897.2351130843 2785535.7460449599 0 2785535.7460449599 -1425282.2655223999 0 0 0 0 -41169.605346679688 4810887.9250583649 0 4810887.9250583649 -6145960.0998773575 0 0 0 0 -269161100.68774414 210362370.8803978 0 210362370.8803978 -348651410.61581802 0 0 0 0 6792843.7963539362 1337124.9432807341 0 1337124.9432807341 -3482595.6084340867 0 0 0 0 57143521.499053955 357813511.44690132 0 357813511.44690132 -504576119.12604904 0 0 0 0 -664987.12728881836 1721139.3601856232 0 1721139.3601856232 -21375958.379258156 0 0 0 0 2800087.0931708068 2861364.7901903931 0 2861364.7901903931 -856234.43799555581 0 0 0 0 -121603498.04005432 304283784.85056114 0 304283784.85056114 -239492735.54310989 0 0 0 0 36445154.69606781 407310877.37623978 0 407310877.37623978 -223012921.77243042 0 0 0 0 -129822642.62356567 203295472.27740479 0 203295472.27740479 -70086001.966417313 0 0 0 0 291410191.62535858 70336159.19935894 0 70336159.19935894 -192696591.89928436 0 0 0 0 249436281.98207855 318589636.98896718 0 318589636.98896718 167027210.75272751 0 0 0 0 241975835.75217438 272945672.79205632 0 272945672.79205632 -79518661.670894623 0 0 0 0 3005360.8307662755 -145753.78542190045 0 -145753.78542190045 -4085147.315050019 0 0 0 0 -201246172.65626526 -163204839.22932816 0 -163204839.22932816 -65611699.369998932 0 0 0 0 -146493300.75143588 172393655.17957002 0 172393655.17957002 -158965844.36988068 0 0 0 0 -212880965.91189575 447483251.54895782 0 447483251.54895782 -246161616.78862476 0 0 0 0 -553300296.02961731 413698166.43145275 0 413698166.43145275 -154223754.72594833 0 0 0 0 160239985.77878475 86353934.973250508 0 86353934.973250508 -78920250.244501114 0 0 0 0 151151051.19317627 92317241.584751129 0 92317241.584751129 -64667366.282763958 0 0 0 0 390035142.37891769 159913542.81134844 0 159913542.81134844 -105446083.2468214 0 0 0 0 205260656.07184792 -2197224.3771958351 0 -2197224.3771958351 -131975205.24653244 0 0 0 0 1396735.085975647 -46909495.233343124 0 -46909495.233343124 -78751644.328467369 0 0 0 0 61311003.873191833 -144166770.13089752 0 -144166770.13089752 -177468237.29879284 0 0 0 0 433981720.71442413 -1261521050.5708098 0 -1261521050.5708098 -345099861.78870773 0 0 0 0 58199868.758846685 -14305188.178067211 0 -14305188.178067211 -2356235.4812900154 0 0 0 0 112695059.88895607 -76784648.789592028 0 -76784648.789592028 -164035277.3560257 0 0 0 0 96897340.86806488 -61156106.070111275 0 -61156106.070111275 -142376058.79535198 0 0 0 0 -44381925.011940002 -167880699.06866169 0 -167880699.06866169 -171652146.8361764 0 0 0 0 -698467147.5191803 174480138.16501427 0 174480138.16501427 47109246.407035828 0 0 0 0 1790446661.7668457 528171253.62259293 0 528171253.62259293 87317824.554602623 0 0 0 0 639493899.48728943 -1200596284.6883478 0 -1200596284.6883478 -302387372.46646118 0 0 0 0 1763292784.0612106 1045877121.6991301 0 1045877121.6991301 964690704.95248032 0 0 0 0 1068819.7632594258 1613094.3672724944 0 1613094.3672724944 437054.70765742939 0 0 0 0 612790836.81616211 -807670823.15876389 0 -807670823.15876389 415059411.24181747 0 0 0 0 104716390.0955658 109608897.81340599 0 109608897.81340599 615913843.59705162 0 0 0 0 1147201768.7897034 -172873080.61479187 0 -172873080.61479187 -89660503.375328064 0 0 0 0 490381298.99951172 -105063115.07595062 0 -105063115.07595062 -82314096.631220579 0 0 0 0 1311267.6493338868 1163288.783425346 0 1163288.783425346 591509.71926774085 0 0 0 0 -105110876.00467682 -269077624.2695775 0 -269077624.2695775 199984700.52005005 0 0 0 0 535852600.00366211 -1056908110.0492783 0 -1056908110.0492783 -462971121.67825317 0 0 0 0 108637655.8150177 788791769.62260056 0 788791769.62260056 -173679345.21240389 0 0 0 0 50691855.781476982 -11009800.60343954 0 -11009800.60343954 -3122249.3507385459 0 0 0 0 85550427.278491974 -30989645.726746559 0 -30989645.726746559 -116169517.09417343 0 0 0 0 -41407387.492019653 -193945905.29590321 0 -193945905.29590321 -66413548.807230949 0 0 0 0 86822491.653366089 75647397.2983675 0 75647397.2983675 19120285.980827332 0 0 0 0 46035344.694934845 4877276.1804256439 0 4877276.1804256439 -8639724.1259222031 0 0 0 0 71860399.888824463 38427002.057928085 0 38427002.057928085 26374254.755958557 0 0 0 0 54215009.41619873 66018564.499526978 0 66018564.499526978 44711752.546134949 0 0 0 0 28059932.493133545 17615518.798688889 0 17615518.798688889 38684504.058681488 0 0 0 0 21953180.96938324 27112981.551819801 0 27112981.551819801 24554699.146438599 0 0 0 0 -66091014.01008606 -55623125.546792984 0 -55623125.546792984 43189502.512054443 0 0 0 0 -47091056.204309464 39666934.220923305 0 39666934.220923305 141293555.09727669 0 0 0 0 59100605.314472198 99371442.153176546 0 99371442.153176546 72884209.538724899 0 0 0 0 4209766.8778083324 5037955.161263071 0 5037955.161263071 2541281.0281078611 0 0 0 0 136489020.05950928 78926778.633511543 0 78926778.633511543 28213274.677714825 0 0 0 0 -228513427.16329956 -98502686.127677917 0 -98502686.127677917 86808994.229333878 0 0 0 0 51432913.891235352 58573190.161197662 0 58573190.161197662 24792303.819875717 0 0 0 0 -83742286.712402344 -10057770.707496643 0 -10057770.707496643 -129920414.77503204 0 0 0 0 -77500521.988891602 33910682.873031616 0 33910682.873031616 -115189248.78306198 0 0 0 0 -66356390.888793945 56321185.519508362 0 56321185.519508362 -70124110.121110916 0 0 0 0 -102267650.29187012 -22593506.400375366 0 -22593506.400375366 -35457412.728996277 0 0 0 0 -96787311.688354492 -52501694.987449646 0 -52501694.987449646 -95425208.15927124 0 0 0 0 -110050996.45617676 -50683351.526752472 0 -50683351.526752472 -66812160.018943787 0 0 0 0 -449591.67078971863 40778657.11763519 0 40778657.11763519 32656402.915435791 0 0 0 0 -120775329.21563721 439119.8158493042 0 439119.8158493042 31061212.628341675 0 0 0 0 -445214.046875 40331850.940410614 0 40331850.940410614 -45297297.783847809 0 0 0 0 -67533295.518005371 47216163.888008118 0 47216163.888008118 -2924507.2969284058 0 0 0 0 111934098.10185242 59102752.17537117 0 59102752.17537117 94491884.798156738 0 0 0 0 101921130.41003418 27677043.148300171 0 27677043.148300171 1279974.0577049255 0 0 0 0 111497773.77452087 -50936939.144825935 0 -50936939.144825935 92696588.761276245 0 0 0 0 -44907750.847045898 47971106.13772583 0 47971106.13772583 44192426.581878662 0 0 0 0 91990198.670593262 -5490316.7944755554 0 -5490316.7944755554 43724078.344276026 0 0 0 0 285035763.60983276 178961120.62684631 0 178961120.62684631 -154104373.82372093 0 0 0 0 -279401427.36854935 135906679.03466439 0 135906679.03466439 134092748.81911087 0 0 0 0 340544717.07321167 167481717.9050808 0 167481717.9050808 59029462.257642746 0 0 0 0 411004661.40063477 13048226.198501587 0 13048226.198501587 -77512709.820579529 0 0 0 0 500551178.98704529 -77410141.408261299 0 -77410141.408261299 -23721283.408241272 0 0 0 0 429684251.39344978 -91544197.628556252 0 -91544197.628556252 116197227.41911316 0 0 0 0 946862.80536551774 555186.27333404124 0 555186.27333404124 -734415.13088619336 0 0 0 0 686992761.07479668 -288914948.6400125 0 -288914948.6400125 65212930.876747131 0 0 0 0 721873065.13673401 -27148698.94613266 0 -27148698.94613266 -104479717.5167923 0 0 0 0 410025260.3114624 -112489120.57134438 0 -112489120.57134438 50010509.870994568 0 0 0 0 680897899.23940277 -291007303.04345751 0 -291007303.04345751 67546260.911270142 0 0 0 0 85155082.506652832 -5643223.8511610031 0 -5643223.8511610031 527295.31098937988 0 0 0 0 606827.44391281158 651224.75484668463 0 651224.75484668463 -234428.77603594027 0 0 0 0 82742504.812164307 -16662012.501186371 0 -16662012.501186371 37759792.91318059 0 0 0 0 73004268.380859375 -13336639.321809769 0 -13336639.321809769 -3684400.1648292542 0 0 0 0 53545743.591659546 1581825.0637769699 0 1581825.0637769699 -20208931.573062897 0 0 0 0 21327218.52822876 18179143.248217583 0 18179143.248217583 -4588198.5429115295 0 0 0 0 34222513.600891113 21495137.069338799 0 21495137.069338799 -31870348.33849144 0 0 0 0 -30163498.433135986 39464230.917528152 0 39464230.917528152 -4485492.2470378876 0 0 0 0 -17953552.12651062 75170022.779808044 0 75170022.779808044 5018841.0681610107 0 0 0 0 39466656.752937317 46018725.851857662 0 46018725.851857662 -13098434.746238708 0 0 0 0 31521355.81628418 42050405.359851837 0 42050405.359851837 -8151248.7149028778 0 0 0 0 35364354.943756104 99034370.938781738 0 99034370.938781738 14360472.263773918 0 0 0 0 141747920.52325439 22598750.967866898 0 22598750.967866898 -16237701.590351105 0 0 0 0 8840575.600692749 59139996.039194107 0 59139996.039194107 -19117011.655067444 0 0 0 0 -66882144.407409668 51786444.111370087 0 51786444.111370087 3589122.7770030499 0 0 0 0 4196105.4125061035 4824481.0980796814 0 4824481.0980796814 2559371.5044555664 0 0 0 0 1337649.346503377 8079358.4313407242 0 8079358.4313407242 8704229.878798943 0 0 0 0 -110404233.12395477 40765982.403021812 0 40765982.403021812 7731356.1270027161 0 0 0 0 -81591081.036590576 79451190.697248459 0 79451190.697248459 -28556916.170776367 0 0 0 0 6265318.0461098775 2725070.7253401279 0 2725070.7253401279 -1699988.0552615076 0 0 0 0 35731951.739318848 40974294.872489929 0 40974294.872489929 43711602.523710251 0 0 0 0 10272055.111407936 12192162.700952288 0 12192162.700952288 966828.10569826327 0 0 0 0 -70409430.473007202 36231443.344976425 0 36231443.344976425 -3237684.7498779297 0 0 0 0 4251490.9766540527 -23316488.524914265 0 -23316488.524914265 -147551044.38964844 0 0 0 0 16509730.567260742 10879907.304717064 0 10879907.304717064 -129294388.48635101 0 0 0 0 -24937161.535617828 53651222.52829504 0 53651222.52829504 783455.52442169189 0 0 0 0 10304229.854360804 14304702.583661269 0 14304702.583661269 12095038.572393786 0 0 0 0 -18399215.137466431 26996963.126996994 0 26996963.126996994 54931529.436256409 0 0 0 0 1338057.4240448475 5953811.5567156449 0 5953811.5567156449 3440138.5779886506 0 0 0 0 13360376.951577134 4699303.5674137622 0 4699303.5674137622 -12288524.421605926 0 0 0 0 86643313.546661377 116040356.29773903 0 116040356.29773903 -23462564.416891098 0 0 0 0 14903579.106472552 3184830.0698351264 0 3184830.0698351264 -11507457.606087562 0 0 0 0 34056310.425201416 30826152.533046722 0 30826152.533046722 4935223.4379653931 0 0 0 0 58941973.77255249 45088159.288719177 0 45088159.288719177 9371740.6691389084 0 0 0 0 25369762.650131226 17131560.638695717 0 17131560.638695717 50196113.569869995 0 0 0 0 84971097.308624268 7665814.9331817627 0 7665814.9331817627 -19683102.100603104 0 0 0 0 40642975.616577148 34258416.367534637 0 34258416.367534637 4173647.4300689697 0 0 0 0 35753624.860229492 1435962.3151195645 0 1435962.3151195645 -6343156.2292556763 0 0 0 0 35167797.374071121 45997901.240264654 0 45997901.240264654 74189857.855438232 0 0 0 0 3106977.9332465008 -217195.67345372215 0 -217195.67345372215 -3131317.4110431559 0 0 0 0 -6762645.9417266846 5903869.72315979 0 5903869.72315979 -850982.38697624207 0 0 0 0 6471514.3271931298 2949516.1290986165 0 2949516.1290986165 -2944634.5062368382 0 0 0 0 -4924821.7291107178 11789104.514551163 0 11789104.514551163 -13159728.680869579 0 0 0 0 -3107893.8679351807 3658456.6414661407 0 3658456.6414661407 -5977971.9557514191 0 0 0 0 -22608870.179901123 -94656153.075788498 0 -94656153.075788498 65510219.518756866 0 0 0 0 286025844.74749756 2519938.2685222626 0 2519938.2685222626 -26859791.73698616 0 0 0 0 -181884353.09597969 -21166925.406716943 0 -21166925.406716943 133378.95133972168 0 0 0 0 -60733048.683288574 -34452209.324920177 0 -34452209.324920177 -29243546.376853943 0 0 0 0 -758880.0190436691 1501218.6863742564 0 1501218.6863742564 -303710.66808295343 0 0 0 0 -3543895.1567459106 2715045.4225387573 0 2715045.4225387573 2947318.6078681946 0 0 0 0 10699471.315704346 21010836.732376099 0 21010836.732376099 -11672096.468923569 0 0 0 0 -10349565.771484375 17033183.380508423 0 17033183.380508423 28491401.749108911 0 0 0 0 24270011.169178009 54212935.80096674 0 54212935.80096674 32053728.867485046 0 0 0 0 817637307.80586243 72776466.059295654 0 72776466.059295654 -132937963.91338921 0 0 0 0 587262252.51742554 -212124418.82025337 0 -212124418.82025337 35224667.454574585 0 0 0 0 897963.95976025611 529696.91597077623 0 529696.91597077623 -403506.50551544875 0 0 0 0 304493169.77116394 53884774.058580399 0 53884774.058580399 68191260.052936554 0 0 0 0 672974059.95375824 -379201933.00625396 0 -379201933.00625396 126806516.86658859 0 0 0 0 2218140.3366088867 2301536.9411888123 0 2301536.9411888123 -9344252.8706054688 0 0 0 0 327069046.21972656 -200102514.60353851 0 -200102514.60353851 124446084.48672464 0 0 0 0 1646653.700553827 1701418.1948862113 0 1701418.1948862113 -534615.62334514409 0 0 0 0 376627472.71148682 -118023596.0109148 0 -118023596.0109148 -43047695.722160339 0 0 0 0 204646149.72846985 -43012504.772521973 0 -43012504.772521973 -750714.3854675293 0 0 0 0 327559069.34210205 -168161446.31189346 0 -168161446.31189346 22114555.205687523 0 0 0 0 423778824.29598999 -172148322.16511631 0 -172148322.16511631 14268325.376689911 0 0 0 0 463414682.74720764 -136448430.68649483 0 -136448430.68649483 23458183.572184563 0 0 0 0 1538757.0875380859 814089.05944980681 0 814089.05944980681 -1312579.6168968938 0 0 0 0 539588464.05964661 -187916319.75153255 0 -187916319.75153255 -43467116.711112976 0 0 0 0 475940684.82052612 -105941943.23552322 0 -105941943.23552322 67707327.731342316 0 0 0 0 1545837.7325767204 1585747.5214708671 0 1585747.5214708671 -449011.92257538438 0 0 0 0 438088155.793396 -32143675.372502327 0 -32143675.372502327 57512820.577697754 0 0 0 0 149731422.17788696 -124625980.89098167 0 -124625980.89098167 162180.89103126526 0 0 0 0 426292260.8495636 -67345152.483411312 0 -67345152.483411312 -42582298.784114838 0 0 0 0 315129098.11854553 -170192926.23790073 0 -170192926.23790073 40959306.837089539 0 0 0 0 757429.89470820129 3006721.7619631961 0 3006721.7619631961 80038.837788306177 0 0 0 0 23490204.006820679 126096627.59440255 0 126096627.59440255 -60832883.233213425 0 0 0 0 188128856.77355194 -43247193.164833784 0 -43247193.164833784 -75135385.595218658 0 0 0 0 -2258741.773727417 7010838.3500614166 0 7010838.3500614166 -8065176.8767929077 0 0 0 0 36741931.082763672 125601407.51088524 0 125601407.51088524 101133823.57126999 0 0 0 0 6993806.9862669818 4005841.8390112519 0 4005841.8390112519 -2548284.6885972954 0 0 0 0 912927637.35244751 -170448224.98283577 0 -170448224.98283577 -62655625.355501175 0 0 0 0 1131844529.8457794 171405347.07906771 0 171405347.07906771 -221302094.10870743 0 0 0 0 1005260583.6441956 223166100.85970497 0 223166100.85970497 -209956070.70862913 0 0 0 0 1034030655.8580399 125794658.93443775 0 125794658.93443775 -226796947.74118423 0 0 0 0 344455724.23345947 -109565102.28998566 0 -109565102.28998566 -27286802.020198822 0 0 0 0 978257026.25346375 137658927.70809841 0 137658927.70809841 -124849112.53377533 0 0 0 0 -98578.647767409682 550624.91141973436 0 550624.91141973436 -22539.743751931004 0 0 0 0 996332228.01010132 65365707.991949081 0 65365707.991949081 -110809577.42731667 0 0 0 0 124793798.51756287 215136697.47204471 0 215136697.47204471 130917209.86708069 0 0 0 0 449503200.34655762 328822374.19706202 0 328822374.19706202 64182333.747745514 0 0 0 0 991976059.21783447 73396139.830384254 0 73396139.830384254 -76271628.149816513 0 0 0 0 1521715506.9098816 11076355.713477135 0 11076355.713477135 -70820085.057962894 0 0 0 0 1155750904.746666 -313044687.83340931 0 -313044687.83340931 82605615.829151154 0 0 0 0 496372992.88418579 290845802.34627914 0 290845802.34627914 225939157.21300983 0 0 0 0 786123661.4624939 117349479.39008713 0 117349479.39008713 -56516260.062322617 0 0 0 0 1159278254.4429855 488693722.27207756 0 488693722.27207756 -43718508.155879974 0 0 0 0 1432134.0733724535 748178.33615051722 0 748178.33615051722 -344228.66860641818 0 0 0 0 -155437596.06217575 -121718792.32136941 0 -121718792.32136941 140837626.68373871 0 0 0 0 381236741.64497375 99970748.234682083 0 99970748.234682083 103839630.56470108 0 0 0 0 860898742.5753479 -82979170.877550125 0 -82979170.877550125 -8237193.9297175407 0 0 0 0 851445295.4084549 -113634997.854424 0 -113634997.854424 119466043.9823246 0 0 0 0 1067534891.9633331 -47097920.005056858 0 -47097920.005056858 52051741.052309036 0 0 0 0 444120928.02302551 244737496.01424789 0 244737496.01424789 108227104.9956646 0 0 0 0 154377.41931658238 296364.48557149246 0 296364.48557149246 841914.70961515233 0 0 0 0 153302273.81896973 -62326984.961473465 0 -62326984.961473465 386628444.85352325 0 0 0 0 902998984.10661316 279423374.50897169 0 279423374.50897169 -211444847.41797829 0 0 0 0 959631672.04977417 165033191.70493698 0 165033191.70493698 14530946.33177495 0 0 0 0 973799542.88228989 160639486.00267053 0 160639486.00267053 -240523754.4362793 0 0 0 0 107052.44631783664 553910.89929106459 0 553910.89929106459 2121342.4189108312 0 0 0 0 78809029.441078186 -160769263.34738922 0 -160769263.34738922 108732913.24865532 0 0 0 0 -158168084.56243134 -167971000.12630033 0 -167971000.12630033 -19584117.628757477 0 0 0 0 164457781.83073425 -76202517.521556854 0 -76202517.521556854 6807699.5554237366 0 0 0 0 -39827868.954544067 -37487380.494636536 0 -37487380.494636536 106434050.98035306 0 0 0 0 -24165027.439048767 117917918.73160887 0 117917918.73160887 -63297745.558891296 0 0 0 0 -68861142.298355103 9288795.9446125031 0 9288795.9446125031 87626152.666740417 0 0 0 0 -117617966.32579041 44947172.939397812 0 44947172.939397812 89969432.358231544 0 0 0 0 -99281423.696334839 23482391.159389496 0 23482391.159389496 102598640.86539936 0 0 0 0 -439681238.69909668 127365647.66744328 0 127365647.66744328 70975770.66368103 0 0 0 0 -62815754.072620392 303319560.97666931 0 303319560.97666931 -154032602.37500763 0 0 0 0 103150524.76751709 95588960.498630524 0 95588960.498630524 -69013180.271877289 0 0 0 0 287896831.26239014 220380037.16657066 0 220380037.16657066 -240255217.82843399 0 0 0 0 4462126.6083526611 156565006.31694221 0 156565006.31694221 -102325206.53877258 0 0 0 0 290652474.27359009 -142825.94764518738 0 -142825.94764518738 -137296323.92413521 0 0 0 0 66066997.024414062 42292209.74786377 0 42292209.74786377 -145212262.55744362 0 0 0 0 11358538.396484375 197330084.652771 0 197330084.652771 60795615.632910252 0 0 0 0 2099380.8873021007 23676.865948405117 0 23676.865948405117 -2575109.1125103151 0 0 0 0 255369755.15319824 2879937111.937233 0 2879937111.937233 -1017086892.1034622 0 0 0 0 -44871307.432067871 -507319230.39698029 0 -507319230.39698029 1201667084.8627472 0 0 0 0 -385073567.84051895 91009738.895189285 0 91009738.895189285 30705049.071479797 0 0 0 0 2281692.5625936836 3657973.4123665802 0 3657973.4123665802 55868.431443961337 0 0 0 0 75745505.56464386 -253234042.8923645 0 -253234042.8923645 -332964079.57460022 0 0 0 0 -338413002.78683472 -9176193.3856754303 0 -9176193.3856754303 13229778.324108124 0 0 0 0 3889978.6010138616 13286077.428051516 0 13286077.428051516 12237807.21913328 0 0 0 0 -254487340.42649841 -321727.13175582886 0 -321727.13175582886 9415291.6860046387 0 0 0 0 -233004503.61714172 112665363.43217087 0 112665363.43217087 29032694.829179764 0 0 0 0 -880086.09738922119 36094350.75399971 0 36094350.75399971 -15439034.934234619 0 0 0 0 -2190659.2338638306 30699298.892799854 0 30699298.892799854 -15736400.667144775 0 0 0 0 5212910.8462061882 31763415.101864934 0 31763415.101864934 -22795983.475616455 0 0 0 0 -1600358.4613800049 167364679.63739014 0 167364679.63739014 69882125.588551521 0 0 0 0 -59955753.931838989 -39422617.787484169 0 -39422617.787484169 192770342.20428276 0 0 0 0 -75444917.667633057 56295862.973484039 0 56295862.973484039 -154830394.34148693 0 0 0 0 -297365610.75868225 179196034.30901909 0 179196034.30901909 18504219.615535736 0 0 0 0 -269143830.24407959 148728518.77485466 0 148728518.77485466 54239267.964114189 0 0 0 0 -69593790.940139771 77665462.565533638 0 77665462.565533638 6250341.6667671204 0 0 0 0 -219401682.56008148 173023303.74065828 0 173023303.74065828 -110673968.61566544 0 0 0 0 65355550.033752441 182050667.92999077 0 182050667.92999077 39725952.973578453 0 0 0 0 214108900.93223572 -41043377.638308525 0 -41043377.638308525 88248169.449546814 0 0 0 0 -14740455.794433594 70271481.603854179 0 70271481.603854179 -116266354.11030769 0 0 0 0 -52158270.779541016 296947420.65847206 0 296947420.65847206 -138967373.26495123 0 0 0 0 618577.90761979669 -29127.856437388808 0 -29127.856437388808 -542461.25883184653 0 0 0 0 -240173031.48729706 365935015.47557706 0 365935015.47557706 -20451979.928237915 0 0 0 0 3109705.9158025533 10078566.937111791 0 10078566.937111791 12417054.665534955 0 0 0 0 -31939335.923721313 64305262.603622437 0 64305262.603622437 -44013339.273635864 0 0 0 0 -63732166.490600586 48798052.949016571 0 48798052.949016571 -31968126.663963318 0 0 0 0 -25388935.728668213 43045728.375167847 0 43045728.375167847 -52973780.81098938 0 0 0 0 -269335407.62218761 -156485173.91231391 0 -156485173.91231391 -106176152.86839294 0 0 0 0 -301784167.4077301 564441679.73912716 0 564441679.73912716 65463.366275787354 0 0 0 0 4812957.972869873 33669904.020904541 0 33669904.020904541 -23790866.757453918 0 0 0 0 6786414.9263305664 35058943.548397064 0 35058943.548397064 -34185667.883247375 0 0 0 0 -1767203.4686813354 41818360.635055542 0 41818360.635055542 -32299956.750389099 0 0 0 0 -35877244.644454956 52007176.275234222 0 52007176.275234222 -25805325.668426514 0 0 0 0 -16477662.917701721 33841905.371047974 0 33841905.371047974 -15920148.342819214 0 0 0 0 -2578439.4358825684 43004768.396476746 0 43004768.396476746 -46722125.745761871 0 0 0 0 -23525278.616378784 48812842.441904068 0 48812842.441904068 -35355617.475448608 0 0 0 0 -7034144.2392044067 41478802.407178879 0 41478802.407178879 -33651424.787063599 0 0 0 0 -5501899.8206481934 42269507.112297058 0 42269507.112297058 -41928081.232128143 0 0 0 0 11178549.850845337 35983708.92388916 0 35983708.92388916 -38399565.798110962 0 0 0 0 8669381.5511016846 31556641.304237366 0 31556641.304237366 -29913134.974273682 0 0 0 0 6920000.5487213135 35590252.093296051 0 35590252.093296051 -32460003.243644714 0 0 0 0 15568948.427033424 33740140.426942348 0 33740140.426942348 -35182119.906387329 0 0 0 0 23525557.966609955 36717565.665674448 0 36717565.665674448 -28745929.132652283 0 0 0 0 5968255.7028656006 31002722.707740784 0 31002722.707740784 -7194200.3883209229 0 0 0 0 8957903.8623962402 27705176.862094879 0 27705176.862094879 -30376653.893640518 0 0 0 0 -4599750.0872344971 37622541.55904007 0 37622541.55904007 -26679015.450592041 0 0 0 0 -12302693.986114502 32016098.883392334 0 32016098.883392334 -30087177.071632385 0 0 0 0 -2385754.2431716919 39873190.445402145 0 39873190.445402145 -24193642.65637207 0 0 0 0 16787432.402069092 37435371.798908234 0 37435371.798908234 -9243535.3574371338 0 0 0 0 3978726.3207397461 26270878.347093582 0 26270878.347093582 -18273126.231201172 0 0 0 0 30605538.103131827 18508392.106870163 0 18508392.106870163 -1223190.6603047736 0 0 0 0 20125799.585845947 16076112.440776825 0 16076112.440776825 -12479168.305416107 0 0 0 0 -121908383.56579971 136361586.48873377 0 136361586.48873377 135920025.74766159 0 0 0 0 2750527.1257580072 7480358.3836622871 0 7480358.3836622871 9724987.5450693686 0 0 0 0 -64833074.893432617 101707588.35103416 0 101707588.35103416 -58192102.254150391 0 0 0 0 -9402416.2077789307 65620717.298694611 0 65620717.298694611 -75614639.038866997 0 0 0 0 -16692508.957641602 56200460.588336945 0 56200460.588336945 -45636864.029308319 0 0 0 0 -27027303.306106567 33229121.22019577 0 33229121.22019577 -18300492.50428772 0 0 0 0 5787702.0795898438 52158153.640293121 0 52158153.640293121 -4926501.2767906189 0 0 0 0 -7871187.8105354309 52009707.545741081 0 52009707.545741081 -3482156.7643432617 0 0 0 0 -56606533.760192871 2496206.5678710938 0 2496206.5678710938 40906428.79366684 0 0 0 0 -19908088.912658691 95375589.08624649 0 95375589.08624649 7486950.9399223328 0 0 0 0 -609523.99810791016 140367851.9634037 0 140367851.9634037 97037904.960479736 0 0 0 0 -72390361.283569336 222623597.2371521 0 222623597.2371521 6481823.8171663284 0 0 0 0 2496479.0482394621 4321751.2405652478 0 4321751.2405652478 4258702.2415208444 0 0 0 0 -317030898.81207275 368431100.23575974 0 368431100.23575974 851998852.27791405 0 0 0 0 -67024041.592025757 -59367634.006710052 0 -59367634.006710052 464229693.0244751 0 0 0 0 -1202024205.1017456 591132409.19555855 0 591132409.19555855 83970537.306735992 0 0 0 0 108787244.37243652 691165320.84534645 0 691165320.84534645 -139751721.96929789 0 0 0 0 2327875.8143919185 70104.49861882627 0 70104.49861882627 -1483607.6437563477 0 0 0 0 -204676408.09528923 -409062556.14653653 0 -409062556.14653653 -3468938.7973880768 0 0 0 0 3156822465.0829773 -1013528325.7261696 0 -1013528325.7261696 -623162776.49705696 0 0 0 0 1111787775.0848694 -1223719892.4287701 0 -1223719892.4287701 -454953102.91700268 0 0 0 0 4656953055.7803955 2180258743.7929688 0 2180258743.7929688 3470707926.3003235 0 0 0 0 2379582.5927019417 13495.260919809341 0 13495.260919809341 -1507913.4201478735 0 0 0 0 178454328.16834164 -755809942.04465175 0 -755809942.04465175 -232793226.89599609 0 0 0 0 223500571.48059082 -507463060.5399971 0 -507463060.5399971 700927378.66830063 0 0 0 0 -484809603.52409363 -652986231.75827026 0 -652986231.75827026 413883217.28421021 0 0 0 0 -592338065.53573608 -928274645.0872612 0 -928274645.0872612 -282635229.45796204 0 0 0 0 677041598.8057251 361744187.62731171 0 361744187.62731171 -569557499.53453064 0 0 0 0 718372761.9163208 617909465.78041458 0 617909465.78041458 337688886.14574242 0 0 0 0 -212815287.27867126 -3368618692.99473 0 -3368618692.99473 -965732588.28618622 0 0 0 0 1490378293.221344 1278998451.6292572 0 1278998451.6292572 903534136.94359589 0 0 0 0 2912448645.3340874 -870695830.64550829 0 -870695830.64550829 40949134.1782341 0 0 0 0 7608044.6638611853 -3372387.9178720172 0 -3372387.9178720172 1401323.8847403717 0 0 0 0 884295624.44229126 935407011.67162514 0 935407011.67162514 1831086902.5874696 0 0 0 0 531773493.68280029 -1125588756.5059013 0 -1125588756.5059013 1253297257.1794829 0 0 0 0 334785964.75740433 -251076713.53949261 0 -251076713.53949261 293895610.02706909 0 0 0 0 1557230076.4798889 392507135.23549652 0 392507135.23549652 -138061633.93487167 0 0 0 0 73513188.421600342 75612744.81964314 0 75612744.81964314 921271585.55962753 0 0 0 0 735691187.02630615 653831382.50993538 0 653831382.50993538 673932755.16530132 0 0 0 0 3324604402.2855225 1135574304.0594978 0 1135574304.0594978 172087747.51616478 0 0 0 0 1472533124.499115 186899302.39479637 0 186899302.39479637 -258742708.73475456 0 0 0 0 1410822188.9569244 -163612351.21717453 0 -163612351.21717453 -582279840.75695992 0 0 0 0 2125245092.9114227 -10757328.479043007 0 -10757328.479043007 -629784931.18289566 0 0 0 0 1419059436.1575317 -164702239.29723978 0 -164702239.29723978 -625865002.47430801 0 0 0 0 878866405.05691528 232712796.16902542 0 232712796.16902542 -250044477.18078232 0 0 0 0 842219961.82406616 79052275.19070816 0 79052275.19070816 -266335848.61828613 0 0 0 0 721069486.67553711 59864835.410490036 0 59864835.410490036 -256762981.42002678 0 0 0 0 740789196.23709106 208218812.32538605 0 208218812.32538605 -245523661.97417688 0 0 0 0 798158359.71369934 -423333146.02764893 0 -423333146.02764893 -375551782.97145081 0 0 0 0 1415655606.2530212 -97353880.30708313 0 -97353880.30708313 -556873996.75814438 0 0 0 0 1298392768.485672 238526814.28990173 0 238526814.28990173 102467857.79062247 0 0 0 0 920361388.57967186 -42637553.521371603 0 -42637553.521371603 -184047827.92805481 0 0 0 0 904343644.97146606 -156001055.95985794 0 -156001055.95985794 -292534541.38505554 0 0 0 0 310123270.57910156 -88307668.643188477 0 -88307668.643188477 -142462818.26883793 0 0 0 0 -101328984.72705841 92156584.498809814 0 92156584.498809814 24433582.379055023 0 0 0 0 344619549.46911621 16185626.935603142 0 16185626.935603142 -62533697.984500885 0 0 0 0 7898561.8491821289 93706730.842832565 0 93706730.842832565 -199640974.16440392 0 0 0 0 308257986.20988464 -96336733.533350945 0 -96336733.533350945 -170517486.00800705 0 0 0 0 -113482672.33421326 -457238565.01670933 0 -457238565.01670933 -93658839.579769135 0 0 0 0 933258253.0368576 -431999331.83332729 0 -431999331.83332729 -198926871.61657715 0 0 0 0 1200869523.8470306 -100874600.304636 0 -100874600.304636 -304199001.7212739 0 0 0 0 
</DataArray>
<DataArray type="Float64" Name="cross_section_updated" format="ascii">
1 1 1 1 1 0.052943283315646322 1 1 1 1 1 1 1 0.050111189151327597 1 1 1 1 0.049814530250710552 1 1 0.054711476980122617 1 1 1 1 0.052018073755715516 1 1 1 1 0.057077195998715108 1 1 1 1 1 1 1 1 1 1 1 1 1 0.049923456605131145 1 1 0.049852089499772191 1 1 1 1 1 0.050684443999512843 1 1 1 1 1 1 1 0.053837457732069598 1 1 1 1 0.053080205964649269 1 1 1 1 1 1 1 1 1 0.053219293212476475 1 1 0.056834868797261615 1 1 0.066179229536550421 1 1 1 1 0.04962845191776568 1 1 1 1 1 1 1 0.066022598813206435 0.049946555171277454 0.041288971997921503 1 1 0.043608983359811747 1 1 1 1 1 0.055912301995165656 1 1 1 1 1 1 1 1 1 1 1 1 1 0.049228912893436561 1 1 1 0.047228879370489432 1 1 1 1 1 1 0.049414660304374955 1 1 1 1 1 1 1 1 1 1 1 1 1 1 1 1 1 1 1 1 1 1 1 1 1 0.049982143584898713 1 1 1 0.050701596606116325 1 1 0.049084016498079225 1 1 1 1 1 1 1 1 1 1 1 0.050395797461782008 1 1 1 1 1 1 1 1 0.051658595981514024 1 1 1 1 1 1 1 1 0.053309267975344077 1 1 1 1 1 1 1 1 1 0.050225108745211078 1 1 1 1 1 1 1 1 1 1 1 1 1 1 1 1 1 1 1 1 1 1 1 0.05001468759643761 1 1 1 0.05566317653216047 1 0.050063298736827314 1 0.05194551770294447 1 1 0.063186743572089213 1 1 1 0.051369253401743441 1 0.052729145263704244 1 0.054209615851713119 1 0.052283592765113511 0.060694321015805269 1 0.054517311535507679 1 1 0.057825121214698766 1 0.053390899576280418 1 1 1 0.052346096021394194 1 0.051347222223112478 0.053469762709643209 1 1 0.053529318625536865 1 1 1 0.050639914002883958 1 0.052800661300542048 0.052824589256457333 0.049543831636303194 1 0.052271146422177103 1 1 1 0.049951225352976136 1 0.052529665884445721 0.053317130080593064 0.049957372732025211 1 1 0.059237128679931805 0.060598353480754652 1 1 1 1 0.064003521650234499 1 0.049916704109171109 1 1 0.052033723346588574 1 1 1 0.050550594357759993 1 0.050102374914266827 0.05122163106513096 0.049151222409728565 1 1 1 0.051794945684579402 1 0.050957352217451575 0.055223620469692175 0.051842878527280117 0.053977266122671105 1 1 1 0.052129806917406298 0.049999695812004467 1 1 0.049492580619010081 0.053350747886464822 0.051465783565995987 1 0.051114267942775002 1 1 1 1 0.049998755234573665 1 1 1 1 1 1 1 0.054491425891384823 1 1 1 1 1 1 0.050879173294318993 0.049998088020208914 1 1 1 0.054484212174042396 1 1 1 0.050034798195063644 1 0.051680552214085337 1 0.043088693320071453 0.062400653498414282 1 1 1 1 0.050149060315500871 1 1 0.061929472159708537 1 1 1 1 0.050041584259817605 1 0.049937868821801512 1 1 1 1 1 0.047141527897173741 0.064866656150616486 1 1 1 1 1 1 1 1 0.049822429658915798 1 1 1 0.048739639487578701 1 1 0.058685885060926646 1 0.049993056128201208 1 1 1 1 1 1 1 1 1 1 1 0.060661954431187402 1 0.050558062043597585 1 0.059289563415875983 1 1 1 0.048403776890716697 1 0.050011161815609828 1 0.050989244174407762 1 1 1 1 1 1 0.054085584031194012 1 0.055003012186383073 1 1 1 0.054226061736898853 1 1 1 0.054827850314394314 1 0.05266583737115163 0.049741655704324428 1 1 1 1 0.06058443606317198 1 1 1 1 0.060631418173943109 0.048609274938509708 1 1 0.048746080018173835 1 0.051950064954496784 1 0.059471712482679316 0.058099000548281668 1 1 1 0.050072005436788629 1 1 1 1 0.055748599431666768 1 1 1 1 1 1 1 1 1 1 1 0.050007712832268486 1 1 1 1 0.059143134627282712 1 1 1 0.053100872822122981 1 0.049834959269413788 0.050017388657920381 0.049999313732301709 1 1 1 0.055529195248387182 0.062595000941510145 1 0.066058664595691263 1 1 0.050380407469513735 1 1 1 1 0.066326171871251435 1 1 1 1 1 1 1 1 1 1 1 0.068279996182311703 0.046312236866427575 1 1 0.059842842950783355 1 1 1 0.049990420559377156 1 1 1 1 1 1 0.0603522489242663 1 1 1 0.041881112855765179 1 1 1 0.056806090804194201 1 1 1 1 1 1 1 1 1 1 1 0.056075574144248741 1 1 1 0.051650411567321676 1 1 1 1 1 1 1 0.0502363063096396 1 1 1 1 1 0.050260313529402953 1 1 1 1 1 1 1 1 1 1 1 1 1 1 1 1 1 1 1 0.074504552944932856 1 1 1 1 0.069022314758480557 1 1 0.057794503004212502 1 1 1 1 1 1 1 0.049908586700049336 1 1 1 1 1 1 1 1 0.04937934824539672 1 0.048916930257555793 1 1 0.070565947947646618 1 1 1 0.069190031500269686 1 1 0.078125602071453804 1 1 1 0.051121339903120497 1 0.053818798182533462 1 1 0.049983119916950342 1 0.077964827840525941 1 1 1 1 1 1 1 1 1 1 1 1 1 1 1 1 1 1 1 1 1 1 0.051301576353683806 1 0.050448939943494094 1 0.050228390053042291 1 1 1 1 1 1 1 1 1 1 1 1 1 1 1 0.050576315015827863 1 1 1 1 1 1 1 1 1 0.050725261337855959 1 1 1 1 1 1 1 1 1 1 1 1 1 1 1 1 1 1 1 1 1 1 1 1 1 1 1 1 1 0.052526014870683119 1 1 0.05235008977160191 1 1 1 0.061538496090652067 0.049687024197828569 1 0.054846913189543572 1 1 1 1 1 0.062078281201547014 1 1 1 1 1 0.060371782960673109 1 1 1 1 1 1 1 1 1 1 1 1 1 1 1 1 1 1 1 1 1 1 1 1 1 1 1 1 1 1 1 1 1 1 1 1 1 1 1 1 1 1 1 1 1 1 1 1 1 0.052649934132575654 1 1 1 1 1 1 1 1 1 1 1 1 1 1 1 0.056889393093155376 1 1 1 1 0.053508242755334071 1 1 1 1 1 1 1 1 1 1 1 1 1 1 1 1 1 1 1 1 1 1 1 1 1 1 1 0.055750122951920576 1 1 0.050769373763199593 1 0.058653908743769939 0.051093425575554796 0.046287615792289738 0.049276858672585661 1 1 0.049893991344518294 1 1 1 1 1 1 1 1 1 1 1 1 1 1 1 1 1 0.060727011988398569 1 1 0.062880678134732526 1 0.055148902054452859 1 1 1 1 0.065905668148290145 1 0.04954214996988264 1 1 1 1 0.050086204807219051 1 1 1 0.052235117854845234 1 1 1 1 1 0.05146575260173062 1 0.056233183871712611 1 1 0.050519640616895282 0.056331776102857861 1 0.054200039830982566 1 1 1 1 1 1 1 1 1 1 1 0.069175154780721615 1 1 1 0.064693095511105608 1 1 1 0.05794889607079471 1 1 0.064734682838176877 0.049248963631316769 0.049768004018151471 1 1 1 1 1 1 1 1 1 1 1 0.049993725521142493 1 1 1 1 1 1 1 1 0.062424350116625879 0.072821231109453391 0.060068043945499999 1 1 1 1 1 1 1 1 0.069870908303516749 0.050139846574014865 1 1 1 0.046078092219528653 1 1 0.05060875118266555 1 1 1 1 1 1 1 1 1 1 1 0.050251874489432483 1 1 1 1 1 1 1 1 0.049789483981872523 1 1 1 1 1 1 1 1 1 1 0.049954561673394293 1 0.054880039071567341 0.070463532465156159 0.049258659416289131 1 1 1 1 1 1 1 0.06187727820288641 0.077376800355492117 1 0.0484781329285143 1 1 1 1 1 0.054034953811911327 1 0.049569754048528446 0.05352178500599182 1 1 1 0.057687744024295287 1 0.06073162351196644 1 1 1 1 0.050018873052617673 1 1 1 1 1 1 1 1 1 1 1 1 1 1 1 1 1 0.057429026104396722 1 1 1 0.064259870990436341 1 1 1 1 1 0.053125751120506048 1 1 1 1 1 1 0.060421433383881257 1 0.054048441300695249 1 1 1 1 1 1 1 1 0.048752613365694669 1 1 1 0.053244672007509687 1 1 1 1 1 1 1 1 1 1 1 1 1 1 1 1 1 1 1 1 1 1 1 1 1 0.046773432894385528 0.04957979721156891 0.069391705385701954 1 1 1 1 0.044595561634737393 1 1 1 1 0.040374113298708561 1 1 1 1 1 1 1 0.053539601704216372 1 1 1 1 1 1 1 1 0.056293337119163463 1 1 1 1 1 1 1 1 1 1 1 1 0.054541470603868561 1 1 1 1 1 1 0.050473516847191251 1 1 1 1 1 1 1 1 0.046697028313454597 1 1 1 0.06314351214111362 1 1 1 1 1 1 1 1 1 1 1 1 0.05275373541494708 1 1 1 1 1 1 1 1 1 1 1 1 1 1 1 1 1 1 1 1 1 1 1 1 1 1 1 1 1 1 1 1 1 1 1 1 1 1 1 1 1 1 1 1 1 1 1 0.050156230900935815 1 1 1 1 1 1 1 1 1 1 1 1 1 1 1 1 1 1 1 1 1 1 1 1 0.052964390019542201 1 1 1 1 1 1 1 1 1 1 0.053679148635904742 1 1 0.056301122928474903 1 1 1 1 1 1 1 1 1 0.058041161365417065 1 0.059301520057446294 1 1 1 1 0.056836575764040088 1 1 0.065990273579668357 1 0.051649491205545905 1 1 1 1 1 0.057812638986130697 1 1 1 1 1 1 1 1 0.058938654633776053 1 1 1 1 1 1 1 1 1 1 1 1 1 1 0.067267185949680425 1 0.061672315432559882 0.047503088065316029 1 1 1 1 1 0.049118589222021045 1 1 1 1 1 1 1 1 1 1 1 1 1 1 1 0.056538109782978282 1 1 1 1 1 1 1 1 1 1 1 1 1 1 1 1 0.049131198855906853 1 1 1 1 1 0.073194876984844073 0.051642309374395595 1 1 0.066808134541513867 1 1 1 1 1 1 1 1 1 1 0.049816669102079832 1 1 1 1 1 1 1 1 1 0.051590749374552852 1 0.087791998406176228 1 1 1 1 1 0.049662226099764471 1 1 1 1 0.089562543184402474 1 1 1 0.048337930677478415 1 1 1 0.087713864688686388 1 1 0.046698898727310707 1 1 1 1 1 1 1 1 1 1 1 1 1 1 1 1 0.050922101957917985 1 1 1 1 1 1 1 0.047152943548116652 1 1 1 1 1 1 1 1 1 1 1 1 1 1 1 1 1 1 1 1 1 1 1 1 1 1 1 0.093877447998893235 1 1 1 1 0.048972881216410878 1 1 1 0.0155697208233373 1 1 1 1 1 1 1 1 1 0.018470796331940924 1 0.050009434619205831 1 1 1 1 1 1 1 1 1 1 1 1 1 1 1 1 1 1 0.050046605106845887 0.078738173974518891 1 1 1 0.04517705255945615 1 1 0.065294553027776883 1 1 0.06104179362030078 1 1 1 0.050052251163912168 1 1 0.054063709910926801 1 1 1 1 1 1 1 1 1 1 1 1 1 1 1 1 1 1 1 1 0.049183450019819011 1 0.05038448545927228 1 1 1 1 1 1 1 1 1 1 1 0.048512342914089381 1 0.043146672605243089 1 1 1 0.065137540357703402 1 1 1 1 1 0.050444281588789427 1 1 1 1 1 1 0.057935577248504191 1 1 1 1 1 1 1 1 1 1 1 0.064574424661479765 1 1 1 1 1 1 1 1 0.055984390705805256 1 1 1 0.048715651699087842 1 1 0.070944343297260071 1 1 1 1 1 0.051219207589360459 1 1 1 1 1 1 1 1 1 0.050108856438054301 1 1 0.060055256268405383 1 0.056940669303412239 1 0.050356730122538162 0.05234517141778823 0.050828563998580399 1 0.050061022515140552 1 1 1 1 1 1 0.045014099330492614 1 1 1 1 1 1 0.050234828469177401 1 1 1 1 1 1 1 0.041061958819046895 1 1 1 1 0.036820552674492003 1 1 1 1 1 0.05623331402701378 1 0.050062113618504545 1 1 1 1 1 1 1 1 1 1 0.050533732956766567 1 1 1 1 1 1 1 0.078360896107683098 1 1 1 1 1 1 1 0.049991057468051867 1 0.050708471144823575 1 1 1 1 1 1 1 1 0.075631955534058173 1 1 1 0.10879141397719924 0.050045460574455983 1 1 1 1 1 0.071911396920263992 0.049687653869161054 1 0.064759244473277355 1 1 0.051720413272568835 1 1 0.08201429871443372 1 1 1 1 1 1 1 1 0.078664831855627559 1 1 1 1 1 0.090486282333089404 1 1 1 1 0.13016248802468217 1 1 0.12074069473232546 1 1 1 1 1 1 1 1 1 1 1 1 1 1 1 1 1 1 1 1 1 1 1 1 1 1 1 1 1 1 1 1 1 1 1 1 1 1 1 1 1 0.047770904912295381 1 1 0.050185559340083036 1 1 1 1 1 0.054259098857218496 1 1 1 1 0.048583757693949257 1 1 1 1 1 1 1 1 1 1 1 1 1 1 1 1 1 1 1 1 1 1 1 1 0.053393600711732443 1 1 1 0.051434768437397048 1 1 1 1 1 1 0.05041819030825713 1 1 1 1 1 1 1 1 1 1 1 0.05595512080708949 1 0.047524702559931957 0.054920724180933383 1 1 0.053097974022960147 1 1 1 1 1 1 1 1 1 1 1 0.06062940872398806 1 1 0.05548018563719273 1 1 1 1 1 1 1 1 1 1 1 1 1 1 1 0.057745510263260094 1 1 1 1 1 1 1 0.050065618004586816 1 0.052305013455565395 1 1 1 1 0.04924328305239864 1 0.05066864741663487 1 1 1 1 1 1 1 1 1 0.053220356607855804 1 1 1 1 1 1 1 1 1 1 1 1 1 1 1 1 1 0.049672527946457663 1 1 1 1 1 1 1 1 1 1 1 1 1 1 1 1 1 1 1 1 1 1 1 1 1 0.050062471624813525 0.050275743285514249 1 1 1 1 1 1 1 1 1 1 1 0.050972569878860945 1 1 1 1 0.048914136448613345 1 1 1 1 0.049769795999019192 1 1 1 1 1 1 1 1 0.0516101779172638 1 1 1 1 1 1 1 1 1 0.050728984261991183 1 1 1 1 1 1 1 1 1 1 1 1 1 1 1 1 1 1 1 1 0.06347897442704227 1 1 1 1 1 1 1 1 1 1 1 1 1 1 0.04794913683916345 1 0.050350111669878267 1 1 1 1 1 1 1 1 0.051934318548484015 1 1 0.05076830197813538 1 1 1 1 1 1 1 1 1 1 1 1 1 1 1 1 1 1 1 1 1 1 1 1 1 1 1 1 1 1 1 1 1 1 1 1 0.050139068941884066 1 1 0.050368875071578764 1 1 1 1 0.040679125707671911 1 0.072998244365449633 1 1 0.06715646921926309 1 0.05375475180986368 1 1 1 1 1 0.051623583352693236 1 1 1 1 1 1 1 1 1 1 1 1 0.055375223962243217 1 1 1 0.033404216198042236 1 1 1 1 1 1 1 1 1 0.064520787068151564 1 1 1 1 0.062804433772600823 0.042499384509514043 1 1 1 1 1 1 1 1 0.050347149286628215 1 1 1 1 1 0.049535957420751536 1 1 1 0.050088566813613816 1 1 1 0.060183522102656588 1 1 1 1 0.043738734543832619 1 1 1 1 1 1 1 1 1 1 1 1 1 1 0.055884607253385454 1 1 1 1 1 1 0.040772595994722161 1 0.054722634210540758 0.050005281832196255 1 0.025084641187663292 1 0.059480460948536866 1 1 1 1 0.049828920853237514 1 1 1 1 0.049335311280067837 1 1 1 1 1 1 1 1 1 0.051867072486593946 1 1 1 1 1 1 1 1 1 1 1 1 1 1 0.053998240943764368 1 1 1 0.050300147629077446 1 1 1 0.050804339916388663 1 0.050037187503313457 1 1 1 1 1 1 1 1 1 1 1 1 1 1 1 1 0.053329562198239464 1 1 1 1 1 1 0.060771408125264173 1 1 1 1 1 1 1 1 1 1 1 1 1 1 1 1 1 1 0.074080488820226872 1 1 1 1 1 1 1 1 1 1 1 1 1 1 1 1 1 1 1 1 1 1 1 1 1 1 1 1 1 1 1 1 1 1 0.048318358149272253 1 1 1 1 0.050500309874320651 1 1 1 1 1 1 1 0.071313956997654276 1 1 1 1 1 1 1 1 1 0.047065271246533494 1 1 0.084536126689721297 1 1 1 1 1 0.050002776230291729 1 1 1 0.049928839681739459 1 1 0.052653372549203763 1 1 1 1 1 1 1 1 1 1 1 1 1 1 1 1 1 1 1 1 0.055231528118561177 1 1 1 1 1 1 1 1 1 1 0.051828341179113488 0.062540041763682927 1 0.10075128734790292 1 1 1 1 1 0.10800076907276671 1 1 1 1 0.050989795338164459 1 1 1 1 1 0.049728328651665252 1 0.049902357555085278 1 1 0.047206696198321546 1 1 1 1 1 1 1 1 0.04907857123147491 1 1 1 1 1 1 0.050710416368694569 1 1 1 1 1 1 0.051050014198369548 1 1 1 1 0.052936564812483725 1 1 0.049897191498008302 1 0.054587643339628011 1 1 0.050408628126951606 1 1 1 1 1 1 0.050331805376195193 1 1 1 1 0.050140406640522106 1 1 1 1 1 1 1 1 0.052998678747248798 0.056131029156451476 1 1 1 1 1 1 1 1 0.050943192408647607 1 1 1 1 1 1 0.050449988082634192 1 1 1 1 1 1 1 0.053600635315448411 1 1 1 0.059142322709402617 1 1 1 1 1 1 1 1 1 1 1 1 0.049984113693237013 1 1 1 1 0.053427703684646832 1 1 0.050056617448275317 1 1 1 1 0.048518790672970984 1 1 1 0.05005158318685525 0.047217443628343833 1 1 1 0.051278960807277355 1 1 1 0.049616598579175449 1 1 1 1 1 1 1 1 1 0.047528189013670313 1 1 1 0.049993044263533098 1 1 1 1 1 1 1 1 1 1 1 1 0.045603589420647621 1 0.05030062758738009 1 1 0.050415059345011698 1 1 0.051152317678941017 1 1 1 1 1 1 1 0.050028058108822639 1 1 1 1 1 0.04994608539294474 1 0.04809190498535218 1 1 1 0.040010169162528461 0.065195968850829372 1 0.055870365968930233 0.042078743879886638 1 0.047125402303138289 1 1 1 1 1 1 0.050504660822022152 1 0.066690742551479026 1 1 1 1 1 1 1 1 1 1 1 1 1 0.0498837459200503 1 1 0.059221058180472734 1 0.051608460350396221 1 1 0.064897324741105752 1 1 1 0.052288901268248388 0.0521691997867062 1 1 0.065910867705044229 1 1 1 1 1 1 1 1 1 1 1 1 1 1 1 1 1 1 1 1 1 1 1 0.050072133326087495 0.0499296676744913 1 0.051117447450282488 1 0.054616584714464012 1 1 0.050000225698756881 0.04556248153104079 1 1 0.049995591207654816 1 1 0.053838128327708623 1 1 0.048203927648324041 1 0.054876480668380537 1 1 1 1 0.049914659682357101 1 1 1 1 0.050757373517097304 1 0.052274440388147589 0.052380243805208754 1 0.049719064991100431 1 1 0.063767085495770121 0.050677172553396099 1 1 1 0.055451251175407446 1 1 1 1 0.059449132995767873 0.050560621640853412 1 1 1 1 1 0.049520440662282131 1 1 1 1 1 1 1 1 1 1 1 0.04806454168542075 1 0.050052363134057358 1 0.054601106193147612 1 1 0.049995599099660892 1 0.057267796614449001 1 1 1 1 1 1 1 1 0.053028058503487241 1 1 0.04806531526537311 1 1 1 1 0.049999440510236817 1 1 1 1 1 1 1 1 1 1 1 1 0.05216602599147388 1 1 1 1 1 1 1 1 1 1 1 0.050213020073083189 1 1 1 1 1 1 0.050048790103085675 1 0.048434001546544425 1 1 0.050604517300797416 1 1 1 1 1 1 1 1 1 1 1 1 1 1 1 1 1 0.05044708388436564 0.059299259911062913 1 1 1 0.049862584294245303 1 1 0.060237854864658491 1 1 1 1 1 1 1 1 1 1 1 1 1 1 1 1 1 1 1 1 1 1 1 1 1 0.050004934959866035 0.054940301264487096 1 1 1 1 1 1 1 1 1 1 1 0.055586518064055686 1 1 1 1 1 1 1 1 1 1 1 1 1 1 1 1 1 1 1 1 1 1 1 1 1 1 1 1 1 1 1 1 1 0.05012864225963827 1 1 1 1 1 0.050143663652600576 1 1 0.049374044334449148 1 1 0.057204135308730933 0.045799240502236251 1 1 1 1 1 1 1 1 1 1 1 1 1 0.046004995148718301 1 1 0.049792047322471722 1 1 1 1 1 1 0.049997391556238072 1 1 0.046283415827032305 1 1 1 1 1 1 1 1 1 1 1 1 1 0.049929115993657902 1 1 1 1 1 1 1 0.049996898095493125 1 1 1 1 1 1 1 1 1 1 1 1 0.050067532617786889 1 1 0.050018742514701203 1 1 1 1 1 1 1 1 1 1 1 1 1 1 1 1 1 1 1 1 0.050138981420221385 1 1 0.049981147000531946 1 0.049598135440500027 1 1 1 0.050006373050633712 1 1 0.05402518359231296 1 0.050661525096714774 1 1 1 0.052850627461284022 1 1 1 1 0.050084985987200389 1 1 1 1 1 1 1 0.050246474570564692 1 1 1 0.050972403709830513 1 1 1 1 1 1 1 1 1 1 1 1 0.049983390419913051 1 1 1 1 1 1 1 1 0.05105975320059164 1 1 1 1 1 1 1 1 1 1 1 0.051756819580228347 1 1 1 1 1 1 1 1 1 1 1 1 1 1 1 1 1 1 1 0.052412332896471361 0.051018521330941743 1 1 1 0.050385546093260292 1 1 1 1 1 1 1 1 1 1 1 1 0.050068080896062447 1 1 1 1 1 1 1 1 1 0.050217779616195085 1 1 1 1 1 1 1 1 1 1 1 1 1 1 1 1 0.064437078012421586 1 0.050885043380893051 1 1 1 1 1 0.060830400410686297 1 1 1 1 0.050902429040393091 1 1 1 0.049972938772966616 1 1 1 0.052474521364384144 1 1 1 1 1 1 1 1 1 0.052556339985601941 1 1 1 0.057043827496062127 1 1 0.051158441724964601 1 1 1 1 1 1 0.050589773026737256 1 1 1 1 1 1 1 1 0.051927710017393977 1 1 1 0.050942994112833664 1 1 1 1 1 1 1 1 1 1 1 1 1 1 1 1 1 1 1 1 1 1 1 1 1 1 1 0.050708511772900998 1 1 1 1 1 1 1 0.050446937650386339 1 1 1 1 1 1 1 1 1 1 1 1 1 1 1 1 1 1 1 1 1 1 1 1 1 0.050183487151427994 1 0.050136724714603675 1 1 1 1 1 1 0.050038020329952262 1 1 1 0.04975841261939859 1 1 0.049344772625138297 1 1 1 1 1 1 1 1 1 1 1 1 0.070325791346688704 1 1 1 1 1 0.066822495461816955 1 1 1 1 1 1 1 1 1 1 1 1 1 0.049991257893127958 1 1 1 0.050004723965843781 1 1 1 1 1 1 1 1 1 1 1 1 0.049981762608209593 0.053049362687408057 1 1 1 1 0.050613217165601639 1 1 1 1 1 1 1 1 1 0.049890580563778777 0.057411387268279532 1 1 1 1 1 0.059992524479395723 1 1 1 1 1 0.05042607194248136 1 1 1 1 1 0.049973132804816245 1 0.048282807198770455 1 1 1 1 0.052785798751316726 1 0.048473446859106581 1 0.051644493713587765 0.05000858777717495 1 1 1 1 1 1 1 0.049891220743513931 0.051452236952019656 1 1 1 1 1 1 0.049998153250100347 0.06060870166677039 0.052103327566663457 1 0.049484611800786595 0.048212179772803614 1 1 1 0.049679731718572193 1 1 1 1 1 0.059244123746280214 0.052613730747189641 0.049998794319002726 1 0.048610641898308153 1 1 1 0.050004757073815534 1 0.060064821550216169 0.050087712922832907 1 1 1 1 1 1 1 0.052372937786656706 0.047205019010592437 1 1 0.061692069296476915 0.067269393205919875 0.044163302895214376 1 1 1 1 1 1 1 1 1 1 1 1 1 1 1 1 1 1 1 1 1 1 1 1 1 1 1 1 1 1 1 1 1 1 1 1 1 1 1 1 0.050032411258707062 1 1 1 1 1 1 1 1 1 1 0.05011815630571366 1 1 1 1 1 1 0.050261885499523241 1 1 0.049367986462680175 1 1 1 1 1 1 1 1 1 1 1 1 1 0.049927290371143455 1 0.049028250647143772 1 1 1 1 0.053072817111466011 1 1 1 0.072455219079687938 1 1 0.071356296310063461 1 1 1 0.049992284565090563 1 1 0.050157290121242662 1 1 1 1 1 0.050080241126233146 1 1 1 1 1 1 1 0.050022816627331351 1 1 1 1 1 1 1 0.069542644485855218 1 1 0.067444860007015967 1 1 1 1 0.04965989768447638 1 0.050018581668821796 1 1 1 1 1 0.048950029937582289 1 1 1 1 0.050721089113193847 1 1 1 1 1 1 0.052295282575719734 0.046011868225767943 1 1 1 1 1 0.06169369014331437 1 1 0.055946859607231822 1 1 1 1 1 1 1 1 1 1 0.055801119329802439 1 1 1 1 1 1 1 1 1 1 1 1 1 1 1 1 1 1 0.051972143944767582 1 1 1 1 1 1 0.049725183228088603 1 1 1 1 1 1 1 0.042619331527388608 0.049093073949764594 1 1 1 1 0.049906059225128294 1 1 1 1 1 1 1 0.046688200756540468 1 1 0.051785468761621614 1 0.05770884407871428 0.046017265184952361 0.055912477494892282 1 1 1 1 1 1 0.051436810701056906 1 1 1 1 1 0.049995508024768334 1 1 1 1 0.054212700414707327 1 1 1 0.041617705005982886 1 1 1 0.05201749340181952 1 1 1 1 1 1 1 1 1 1 1 1 1 1 1 1 1 1 1 1 1 1 1 1 1 0.054334795933351929 1 1 1 1 1 1 1 0.050138941040128594 1 0.052658227458927495 1 1 1 1 1 1 0.065922567078586999 1 1 0.050883112215675708 1 1 1 0.050036334924762935 1 1 0.053254447986824612 1 1 1 1 1 0.049848305486191485 1 1 1 0.049944118575241711 0.050811793833201162 1 1 1 1 1 1 1 1 1 1 1 1 0.048734560192205865 1 1 1 1 1 1 1 1 1 0.04550585924354536 1 1 1 1 1 0.04994865145106997 0.053142351486522355 1 1 1 1 1 1 1 1 1 0.050428381659485308 1 1 1 1 1 1 1 1 0.052008706869284646 1 1 1 1 1 1 1 1 1 1 1 1 1 1 1 1 1 1 0.050721457078822044 1 1 1 1 0.051693860788652554 1 0.050695355131382236 1 0.050059105267900736 1 1 1 1 1 1 1 1 1 1 1 1 1 1 1 1 1 0.049713458602119523 1 1 1 1 1 0.054257135266596562 1 1 1 0.048624287034658265 0.055523015613159803 1 1 1 1 1 0.051353113506445655 1 1 1 1 0.049620891758095045 1 1 1 1 1 1 1 1 0.054016770738902924 1 1 1 1 1 1 1 0.052192632585547377 1 1 1 1 1 1 1 1 1 0.049554815391889634 1 1 1 1 1 1 1 1 1 1 1 1 1 1 1 1 1 1 0.04983292297181776 1 1 1 1 1 1 1 1 1 1 1 1 1 0.049959216820371549 1 1 1 1 1 1 0.050150216846852919 1 1 0.050984715904560329 1 1 0.050142070865323511 1 1 1 1 1 1 1 1 1 1 1 1 1 1 1 1 1 1 1 1 1 1 1 1 1 1 0.050082626557207535 1 0.050902234879054653 1 0.050000510783688043 0.048331130769783598 1 1 1 0.051063029442932215 1 1 1 1 1 1 1 1 1 0.049526089346420922 0.049859957485647463 1 0.054076150432923555 1 1 1 1 1 1 1 1 1 1 1 1 1 1 0.0499996236304414 1 0.04795166319519506 0.046913493274987977 1 0.051795779729662005 1 1 1 1 1 1 1 1 1 0.043563472085337875 0.049226881840221892 1 1 1 1 1 1 1 1 1 1 1 1 1 1 1 1 1 1 1 1 1 1 0.052430356846472889 1 1 1 1 1 0.048715092706592578 1 1 1 1 1 0.045666962968100376 1 1 1 0.057823996671288097 1 1 1 1 1 1 1 1 1 0.054394205215448799 1 1 1 1 0.056184051872389673 1 1 1 1 1 1 0.043374684770233499 1 1 1 1 1 1 1 0.050634363538269382 1 1 1 1 0.043443608625282626 1 1 1 1 1 1 1 1 1 1 0.051515569713606393 1 1 1 1 0.055167104872890366 1 1 1 0.060974947811517063 1 1 1 1 1 0.048171377913229986 1 1 1 1 1 1 1 1 1 1 1 1 1 1 0.047095399950689572 0.069872357653821798 1 1 0.063896398779546948 1 1 1 1 1 1 1 0.048963071823899883 1 1 1 1 1 1 0.050517274089129718 1 1 1 1 1 1 1 1 1 1 1 1 1 1 1 1 1 1 1 1 1 1 1 0.052336561859119543 1 1 1 1 1 1 1 1 0.05009430435420073 1 1 1 1 0.05018806546058939 1 1 1 1 1 0.05491144328742522 1 0.049966034619934298 1 0.054482516636972914 1 1 1 1 1 1 1 0.049691287294523163 1 1 1 0.066510327266724692 1 1 1 1 1 0.058170094624052787 1 1 1 1 1 0.049324285698281262 1 0.051550304567570052 1 1 0.052322428347963829 1 0.048759507318440469 1 1 1 1 1 0.049981667461746399 1 1 1 0.049627145960359609 1 1 1 1 1 1 1 1 1 1 0.04894968806125774 1 1 1 1 1 1 1 1 1 1 1 1 1 1 1 1 1 1 1 1 1 1 0.057743637958454393 1 1 1 1 1 1 1 1 1 1 1 1 1 1 1 1 1 1 0.069796633112352069 1 1 1 0.077935075055359779 1 1 1 1 1 1 0.10194540236464923 1 1 1 0.055388358902004824 0.061225194634784187 1 0.079429926332323195 1 0.05196493319642724 0.072001376591418947 1 0.069582225307284584 1 1 0.059883387807391317 1 1 0.045795318872720293 0.060589814882698399 1 1 1 1 1 1 1 1 0.054473888044343638 1 0.054227118863339356 1 1 1 1 1 1 1 1 1 1 1 1 1 1 1 1 1 1 1 1 1 1 0.060548012339884702 1 1 1 1 1 1 1 1 0.065513538520120665 1 1 0.050143199882393741 1 1 0.068679025932705126 0.050457814346277739 1 1 0.050130092292377894 1 1 1 1 1 1 1 1 1 1 1 1 1 1 1 1 1 1 1 1 1 1 1 1 1 1 1 1 1 1 1 1 1 1 1 1 1 1 1 0.12998869320312756 1 0.11673886280076715 1 1 1 1 1 1 1 1 1 1 1 1 1 1 1 1 1 1 1 1 1 1 1 1 1 1 1 1 1 1 1 1 1 1 1 1 1 1 1 1 0.055897149263194612 1 1 0.055879752557436664 1 1 1 1 1 0.048893672320750529 1 0.050120377817058304 1 1 0.047941117622835032 1 1 1 1 1 1 0.037617887925538399 1 1 1 1 1 1 1 1 1 1 1 0.049957226367207827 1 1 0.06826936865207639 0.12443914492909292 1 0.15142207957459183 1 1 0.030229922669599583 1 1 1 1 0.14131509995731181 1 1 1 1 1 1 1 1 1 0.050153296269701948 1 0.045833301919685251 1 1 1 1 1 1 1 0.050294393048391534 1 0.034964345083786354 1 1 1 1 1 1 1 1 1 0.049112952753811494 1 0.039266019111236006 1 1 1 1 1 1 1 1 1 1 0.047256371752296022 1 1 1 0.043111287539226398 1 1 0.050014076161316534 1 1 0.064250496789377581 1 1 1 1 0.058464248516500464 1 1 1 0.049991854018470602 1 1 1 1 1 1 1 1 1 1 1 1 1 1 0.052810313396154177 1 1 1 1 1 1 0.056855426337098142 1 0.047293013082198618 1 0.13199131883234977 1 1 1 0.054164472244754625 1 1 1 1 1 1 1 1 0.14488835449519935 1 1 1 1 1 0.050105038005501562 1 1 0.1494598640073313 1 1 1 1 1 1 1 1 1 0.065675856500621743 1 1 1 0.055382007804637146 1 1 1 1 1 1 0.074943325136484482 1 1 1 1 1 1 1 1 1 1 1 1 1 1 1 1 1 1 1 1 1 1 1 1 1 1 1 1 1 1 1 0.055895817159499178 1 1 1 1 1 0.051480779694629178 1 1 0.048537608737844282 0.052934976591564854 1 1 1 1 0.054017952376991259 1 1 1 1 1 0.051443993458220157 1 1 1 1 1 1 1 1 1 1 1 1 1 1 1 1 0.052353521306466352 1 1 1 1 1 1 1 1 0.053632171053256225 0.058286361107895972 1 1 1 1 1 1 0.057097561514948353 1 1 1 1 0.054722061081333706 1 1 1 1 1 1 1 1 1 1 1 1 1 1 1 1 1 1 1 1 1 1 1 1 0.055536008709787539 1 1 0.051993712856754706 1 1 1 1 1 1 1 1 1 1 1 1 1 1 1 1 1 1 1 1 1 1 1 1 1 1 1 0.052640906909648746 1 0.056310787091804114 1 1 1 1 1 0.06302589205055395 1 1 1 1 1 1 1 1 1 1 1 1 1 1 1 1 1 1 1 1 0.058040405134544504 0.055008558363780172 1 0.060812255311301078 1 1 1 1 1 1 1 1 1 1 1 1 1 1 1 1 0.060838200678479386 1 1 1 0.055015755232808411 1 1 1 1 1 1 1 1 1 1 1 1 1 0.056715104958749825 1 1 1 1 1 1 1 1 1 1 1 1 1 1 1 1 1 1 1 1 1 1 0.11004024814669949 1 1 1 1 1 1 1 1 1 1 1 1 1 0.10915646452748695 1 0.081511582105726677 1 1 0.096124867017002263 0.078717522208251151 1 1 1 1 1 1 1 1 1 1 1 1 1 1 1 1 1 1 1 1 0.047466584585601233 1 1 0.085461207346294726 1 1 1 0.050653556322016235 1 1 1 1 1 1 0.082429596073178124 1 1 1 0.050743536857877442 1 1 1 1 1 1 1 1 0.050057867424514263 1 1 0.053690070258698756 1 1 0.062492874200921714 1 0.062094977916867376 1 1 1 1 0.06310227574837303 0.087341411500563293 1 1 0.048820067897863792 0.087026399578563104 1 1 0.062965739476327443 1 1 1 1 0.050046959072884957 1 1 0.061493819795475725 0.050652604290690392 1 0.050019579340213269 1 1 1 1 1 1 1 1 1 1 1 1 1 1 1 1 1 1 1 1 0.049980506713695867 1 1 1 1 0.052500019496585303 1 1 1 1 0.049805131058490305 0.050729638102096922 1 1 1 1 1 1 1 1 1 1 1 1 0.050270577528442453 1 1 1 0.074073025954627503 1 1 1 1 1 1 1 0.077527972258788741 1 1 1 0.049015481272732073 1 1 0.049966595300831695 0.049389462853345903 1 1 1 0.080009328925148449 1 1 1 0.049807725681374974 1 1 1 1 1 1 1 1 1 1 1 1 1 1 1 1 1 1 0.0509524851934679 1 1 1 1 1 1 1 1 1 1 1 1 1 1 1 1 1 1 0.049784320501993197 0.052674542306055991 1 1 1 1 1 0.054141408852789438 0.049386930940804021 1 0.055525684225986999 1 1 1 1 1 1 1 1 1 0.12549586742449068 1 1 1 0.11874015686435679 1 1 1 1 1 1 1 1 1 1 1 1 1 1 0.083398909275435237 1 1 1 1 1 1 1 0.10400828647702512 1 1 0.11158073379357816 1 1 1 1 1 1 0.067437147736387829 1 1 1 1 0.072778145975167852 1 1 1 1 1 1 0.045570463187907417 1 1 1 1 1 1 1 1 0.049670881205978346 0.062304105152022587 1 1 1 0.05583033764496062 0.045927443565922932 1 1 1 1 1 0.05191708891431368 1 1 1 1 1 1 0.050858362275033431 1 1 1 1 0.050357962475081793 1 1 1 1 1 0.050425803879892601 1 1 1 1 0.041162171725914937 1 1 1 1 1 1 1 1 1 1 1 1 1 1 1 1 1 1 1 1 1 1 1 1 1 0.04985004435527008 1 1 1 1 0.080769331897605975 1 0.054058562524820004 1 0.093559568127122086 1 1 0.050114324046773941 1 1 0.047157216895268021 1 1 0.049244994611606772 1 1 1 1 1 1 0.037121255708177529 1 1 0.042836956051856417 1 0.053048130152980037 0.048391341658959343 0.046084207276396158 1 1 0.052327475461638601 1 0.0522745411929579 0.052146214607696452 1 1 1 0.049739057668761973 1 0.049978932878833815 1 1 1 1 1 1 0.053809972866592753 1 1 1 0.049953709038821806 1 1 1 1 1 1 1 0.052958187675329095 1 1 1 0.059150586114971815 1 0.026436456207819412 0.031650273409735578 1 1 1 1 1 1 1 0.051365966079983019 1 1 1 1 1 1 1 1 0.049275114154418147 0.056791936862928882 1 1 1 1 0.060471215649829692 1 1 0.060527316651808903 1 1 1 0.049998495746817237 1 1 1 0.057906814911738304 0.053054758087156088 1 1 1 1 0.049507090791072988 1 1 1 1 1 0.053639314258618717 0.057256773727220371 1 1 1 1 1 1 1 1 1 1 1 1 1 1 1 1 1 1 1 1 1 1 1 1 1 1 1 1 1 1 1 0.053363839491213934 1 1 1 0.05021817036535392 1 1 1 1 1 1 1 1 1 1 1 1 1 1 1 0.057415796342839102 1 0.049257655597548605 0.044225854485719807 1 1 0.058883321233151896 1 1 1 1 1 1 1 1 1 1 1 1 1 1 1 1 1 1 1 1 1 1 1 0.048706418381797761 1 1 0.055929715523564905 0.050097938433811891 1 1 1 1 1 1 1 0.053703212271752877 1 1 1 0.046653407679694232 1 1 1 1 0.04933715767576622 0.049779079523378233 1 1 1 1 1 1 1 0.058204600294119606 1 1 1 1 0.055278005052807007 1 1 1 1 0.050878654370924474 1 1 1 1 1 1 1 1 1 1 1 1 1 1 1 1 1 1 1 0.048732170552869332 1 1 1 1 1 1 1 1 1 1 1 1 1 1 1 1 0.048402549771711864 1 1 1 0.049436039009190504 1 1 1 1 1 1 1 1 1 0.051882493919817245 1 1 1 1 1 1 1 1 1 1 1 1 1 1 1 1 1 1 1 1 1 0.051477299961645434 1 1 1 1 1 1 1 1 1 1 1 1 1 1 1 1 1 0.053947752712279813 1 1 1 1 1 0.04977315500728792 1 1 1 1 1 1 1 1 1 1 1 1 1 1 1 1 1 1 1 1 1 1 1 1 1 1 1 0.049418004370881383 1 1 0.03035782481451018 1 1 1 0.026871441301013398 1 1 1 1 1 1 1 1 1 1 1 1 1 1 1 0.022426275121032978 1 0.055391300916065749 1 1 1 1 1 1 1 1 1 0.029271589029102256 1 1 1 1 1 1 1 1 1 0.046920164048560933 0.037620560546114117 1 1 1 1 1 1 1 1 1 1 1 1 1 1 1 1 1 1 1 1 1 1 1 1 1 1 1 1 1 1 1 1 1 1 1 1 1 1 1 1 1 1 1 1 1 1 1 1 1 1 1 1 1 1 1 1 1 1 1 1 1 1 1 1 1 1 1 1 1 1 1 0.047250654711937803 1 1 1 1 1 1 0.042167482065053691 1 1 1 1 1 1 1 1 1 0.046112535427207224 1 0.041836991401676835 1 1 1 1 1 1 1 1 1 1 1 1 1 1 1 1 1 1 1 1 1 1 1 1 1 1 1 1 1 1 1 1 1 1 0.052853050626113951 1 1 1 0.052665792090721017 0.048475375186895119 1 1 1 1 1 1 1 1 1 1 1 1 1 1 1 1 1 1 1 1 1 1 0.051339938738214207 0.051748502067104761 1 1 1 1 1 1 1 1 0.046493056264624459 1 1 1 1 1 1 0.047656549367538242 1 1 1 1 1 0.051626805136639031 1 1 1 1 0.050595406732139157 1 1 1 0.036606095595932447 1 1 1 0.041813012409929115 1 1 0.046584208976272357 1 1 1 1 1 1 1 1 1 1 1 1 1 0.050902762031388778 1 1 1 1 1 1 1 1 0.052624570317822597 1 1 1 1 1 1 1 1 1 1 1 0.050042897675710039 1 1 1 0.050037657537371598 1 1 1 1 0.05251335811738294 1 1 1 1 1 1 1 1 0.051494612239342478 1 0.047126194984081632 1 1 0.057231892753927947 1 1 1 1 1 0.049934839814014809 1 1 1 1 1 1 1 1 1 1 1 1 0.051019461135273919 1 1 1 1 1 1 1 1 1 0.052595229723370225 1 1 1 1 1 1 0.049371399479115341 1 1 1 1 1 1 1 0.051078161352940223 1 1 1 1 1 0.052097622488214111 1 1 1 1 1 1 1 1 1 1 1 1 1 1 1 1 1 1 1 1 1 1 1 1 1 1 1 1 1 1 1 1 1 1 1 1 1 1 1 1 1 1 1 1 1 1 1 0.050650983314541154 1 0.051164320479036018 1 1 1 1 1 1 1 1 1 1 1 1 1 1 0.0498321829471879 1 1 1 1 1 1 1 1 1 1 1 1 1 1 1 0.056413012537614736 1 1 0.051651243181515566 1 0.045741419354202201 1 1 1 1 1 0.051885600543714924 1 1 1 1 1 1 1 1 1 1 1 1 1 1 1 1 1 1 1 1 0.059315973504396519 1 1 1 1 1 1 1 1 1 1 1 0.05827591863453746 1 0.050399835157804176 1 1 0.056115551963072226 1 0.071872715170265195 1 1 1 1 1 1 1 0.0499192168066988 1 0.061534056084046669 1 1 1 1 0.060540942575171994 1 1 1 1 0.051254938157900803 0.052139531066134497 1 1 0.043386366413041021 1 1 1 1 1 1 1 1 1 1 1 1 1 1 1 1 0.049489722418852369 1 1 1 1 1 1 1 1 1 1 1 1 1 1 0.048497664674027927 1 0.050333727951095711 1 1 1 1 1 1 1 0.070486240020757832 1 0.07159889920106155 1 1 1 1 1 1 1 1 1 0.050181246586249464 0.067388485734001469 1 1 1 0.066576877653519578 1 1 1 1 0.076586170359669942 1 0.06264765501113824 1 1 0.04918088186855786 1 0.077090404010037 0.076475434632529829 0.050388397456178249 1 1 0.050005542160383144 1 1 1 0.051515834269858125 0.058787517640723305 0.047130114287598592 1 1 1 1 1 1 1 1 1 1 1 0.048665806035345691 1 1 1 1 1 1 0.076266252503689513 1 1 1 0.050112915548613468 1 1 1 1 1 1 1 1 0.049505993258260148 1 1 1 0.049843130721239588 1 1 1 1 1 1 1 1 1 1 1 1 1 1 1 1 1 1 1 1 1 1 1 1 1 1 1 1 1 1 1 1 1 1 1 1 1 1 1 1 1 1 1 1 1 1 1 1 1 1 1 1 1 1 1 1 1 1 1 1 0.053820706937123673 1 1 1 1 1 0.059764785942473531 1 1 1 1 0.053223827912839639 1 1 1 0.063159811991093245 1 1 1 1 1 1 1 1 1 1 1 1 1 1 1 1 1 1 1 1 1 1 1 1 1 1 1 1 1 1 1 1 1 1 1 1 1 1 1 1 0.056230914539732862 1 1 0.065854028996601449 1 1 1 1 1 1 1 0.049018070807803842 1 1 1 1 1 1 1 1 1 1 1 0.045597359358884676 1 1 0.050147824606036666 1 0.054997379780046776 1 1 1 0.071337871882064779 1 1 1 1 1 1 1 1 0.049590847057082305 1 1 1 1 0.048587953005176286 1 1 1 1 0.069145618630407815 1 0.054077149345769369 1 1 1 1 1 1 1 1 1 1 1 1 0.057518301284704462 1 0.06376379105448414 1 1 1 1 1 1 1 1 1 1 1 1 1 0.050395080517390001 1 1 1 1 1 1 1 1 1 0.051004969457142696 1 1 1 0.050609888939752712 1 1 1 1 1 1 1 1 1 1 1 1 1 1 1 1 1 1 1 1 1 1 1 1 1 1 1 1 1 1 1 1 1 1 1 0.050982937566026079 1 1 0.049943868597062957 1 1 1 1 0.053359821268805577 1 1 1 1 1 1 1 1 1 1 1 1 1 1 1 0.052126762260646296 1 1 1 1 1 1 1 1 1 0.051258604237839595 1 0.051056500035840044 1 1 1 1 1 1 1 0.051443648164966091 1 1 1 1 1 1 1 1 1 1 1 1 1 1 0.053142266058263887 1 1 1 1 1 1 1 1 1 1 1 0.057692821986097799 1 1 1 1 1 1 1 1 1 1 1 1 1 1 1 1 1 1 1 1 1 1 1 0.049619892543501271 1 0.049118123398453117 1 1 1 1 1 1 0.056653849003113897 1 0.054169531118105956 1 1 1 0.056115221036635472 1 1 1 0.047158475010144557 1 1 1 0.055818233196161068 1 1 0.046953691097864778 1 1 1 1 1 1 1 0.048495548754863338 1 1 1 1 1 1 1 0.065055689923679924 1 1 1 1 1 1 1 1 1 1 1 1 1 0.053372828170965433 1 1 1 1 1 1 1 1 0.066105203167344181 1 1 1 1 1 1 1 1 1 1 1 1 1 1 1 1 1 1 1 1 0.060877231896688484 1 1 1 1 1 1 1 1 1 1 1 1 1 1 1 1 1 1 1 1 1 1 1 1 1 1 1 1 1 1 1 1 1 1 1 1 1 1 1 1 1 1 1 1 1 1 1 1 1 1 0.048160250769437217 1 0.057725769749385369 1 1 1 0.050607958465016388 1 1 0.0496894217058126 0.059662782999119195 1 0.044266525564903451 1 1 1 1 1 1 1 1 1 1 1 1 1 1 1 1 1 1 1 1 1 1 1 1 1 1 1 1 1 1 1 1 1 1 1 0.049376483592872084 1 1 1 1 0.046572634007286867 1 1 0.053863086553814353 1 1 1 0.052305008785893621 1 1 1 1 0.042981747653695439 1 0.050154307485116595 0.063367438512827279 1 1 1 1 0.061289611519955781 1 1 1 0.04153835247493734 1 1 1 0.054851759772671989 1 1 1 1 1 1 0.049970445610616913 1 1 1 1 1 1 1 1 1 1 1 1 1 1 1 1 1 1 1 1 0.04748333887872349 1 1 1 1 1 1 1 1 1 1 1 1 1 1 1 1 1 1 0.04916315302385009 1 1 0.047708819787895429 1 1 0.077527863787094989 1 1 1 1 1 1 1 1 1 1 1 0.046032208310483047 1 1 1 1 0.050600902235392459 1 1 1 1 0.055387572887519783 1 1 1 0.05365837723446952 1 1 1 1 1 1 1 1 1 1 1 1 1 1 1 1 1 1 1 1 1 1 1 1 1 0.051638502204333005 1 1 1 1 1 1 1 1 0.053650710667194158 1 1 1 0.075451459156787359 1 1 1 1 1 1 1 1 1 1 1 1 1 1 1 1 1 1 1 1 1 1 1 1 0.044774095916991899 1 1 1 0.054856345908514292 1 1 1 1 1 1 1 1 0.045361624280618691 1 1 0.052852545124287983 1 1 1 1 0.050794255896435742 1 1 1 1 1 1 1 0.073214438545874977 1 0.046234617005792046 1 1 0.04239953025069064 1 1 0.07947219062254933 0.050012077000503252 1 1 1 1 1 1 1 1 1 1 1 1 1 1 1 1 1 1 1 1 1 0.059488210452767531 1 1 1 1 0.066445469906746796 1 1 1 1 1 1 1 1 1 1 1 1 1 0.05485764081732749 1 1 0.050116927717433778 1 1 1 1 1 1 1 1 1 1 1 1 1 1 1 1 1 1 1 1 1 1 1 1 1 1 1 1 1 1 1 1 1 1 1 1 1 1 1 1 1 1 1 1 1 1 1 1 1 1 1 1 1 1 1 1 1 1 1 1 1 1 1 1 1 1 1 1 1 1 1 1 1 1 1 1 1 1 1 1 1 1 1 1 1 1 1 1 1 1 1 1 1 1 1 1 1 1 1 1 1 1 1 1 1 1 1 1 1 1 1 1 1 1 1 1 1 1 1 1 1 1 1 1 1 1 1 1 0.048887787329139204 1 1 1 1 1 1 1 0.048151023034564068 1 1 1 1 1 1 1 1 1 0.045379400079108907 1 0.061842925831705184 1 1 1 0.055272648106105472 1 1 0.05737618921251883 1 1 1 1 1 1 1 1 1 1 1 1 1 1 1 1 1 1 1 1 1 1 1 1 1 1 1 1 1 1 1 1 1 1 1 1 1 0.047578118187296708 1 1 0.056632741676189667 0.043383965783360248 1 1 0.049163643805857062 1 1 0.068033936588243082 1 1 1 0.063800369919621125 1 1 1 1 1 1 1 1 1 0.055063888093589489 1 1 1 1 1 1 0.049466834526663145 1 1 1 1 1 1 1 1 1 1 1 1 1 1 1 1 1 1 1 1 1 1 1 1 1 1 1 1 1 1 1 0.046370256506514773 1 1 1 1 1 1 1 1 1 1 1 1 1 1 1 1 1 1 1 1 1 1 1 1 1 1 1 1 1 1 1 1 1 1 1 1 1 1 1 1 1 1 1 1 1 1 0.066622732975024551 1 0.050805183813201801 1 1 1 1 0.050139824826137033 1 1 1 1 0.064700877830545525 1 1 1 1 0.049716176645841686 1 1 1 1 1 1 1 1 0.051133918217357494 1 1 0.050620239756609162 1 0.050373015074425778 1 1 1 1 0.051753503833942019 1 1 0.052100049610034962 0.056158679315497423 1 1 1 1 1 1 0.050090813014265018 1 1 1 1 1 1 1 1 1 1 0.051844056572512648 0.063349229294056036 1 1 1 1 1 0.063836723991763517 1 1 0.050946613452718385 1 1 1 1 0.052235850838999932 1 1 0.050003677564922619 1 1 1 1 1 1 1 1 1 1 1 1 1 1 1 1 1 1 1 1 1 1 1 1 1 1 1 1 1 0.050137038923393946 1 0.050040265929260475 1 1 1 1 1 1 1 1 1 1 1 1 1 0.049940353790792098 1 1 1 1 0.075484274190608297 0.076141692246672832 1 1 1 1 1 1 1 1 1 1 1 1 1 1 1 1 1 1 1 1 1 1 1 1 1 1 1 1 1 1 1 1 1 1 1 1 1 1 1 1 1 1 0.050063797562350708 1 1 1 0.050123443771558633 1 1 1 1 1 1 1 1 1 1 1 1 1 1 1 1 1 1 1 1 0.074729855000283105 1 1 0.073840965184583982 1 1 1 1 1 1 1 1 1 0.050002092173537294 1 1 1 1 1 0.067880464752680308 1 1 1 1 1 0.049844808521124814 1 0.049868241464689975 1 1 1 1 1 1 1 1 1 1 1 1 1 0.054685777613952241 1 1 1 0.059281084153233896 0.066351462837277539 1 1 1 1 1 1 1 1 0.05000173694559925 1 1 0.062272975554451951 1 1 0.05000457110443679 0.055292831482092242 1 1 1 1 1 0.049909800659567134 1 1 1 1 1 1 1 0.051409093381336063 1 1 0.053220102882393816 0.05098905840447103 1 1 1 1 1 1 0.060134424559629598 0.046686615135439508 1 1 1 0.05400264981954063 1 1 1 1 1 1 1 0.053490267327329248 1 1 1 1 1 1 1 1 1 1 1 1 1 1 1 1 1 1 1 1 1 1 1 1 1 1 0.065988827700052141 1 1 1 1 1 1 1 0.050114246326270012 1 1 1 1 1 1 1 1 1 1 1 0.066945891559429954 1 1 1 1 1 1 1 1 0.053558430194431586 1 1 1 1 1 1 1 1 1 1 1 1 1 1 1 1 0.053593056154018076 1 1 1 0.05216120177914492 1 1 1 1 1 0.058903921352840727 1 1 1 1 1 1 1 1 1 1 1 1 1 1 0.04926579936379652 1 1 1 1 0.047476819641098712 1 1 0.045117304569721108 1 1 1 1 1 0.049998217069863508 1 1 1 1 1 1 1 1 1 1 1 1 1 1 0.050342917087507835 1 0.044467049089005534 1 1 1 0.051999362459090918 1 0.052479095748789686 1 0.053024072923569074 1 1 1 1 1 1 0.050194945146184007 0.058273265400000607 1 1 1 1 1 1 0.059133568087552393 1 0.050836049264906723 1 1 1 1 1 1 1 1 1 1 1 1 1 1 1 1 1 0.059594240123262907 1 1 1 0.049702278209833022 0.05924197837061769 1 1 1 1 1 0.052103785265398599 1 1 0.050150801757024549 0.050887001737486719 1 1 1 1 1 1 1 1 1 1 1 1 1 1 1 1 1 1 1 1 1 1 1 1 1 1 1 1 1 1 1 1 1 1 1 1 1 1 1 1 1 1 1 1 0.043901951786642558 1 1 0.059681119639139961 0.056097076281229841 0.050563057816553084 1 1 1 1 1 1 0.049536719879091667 1 1 1 1 1 1 1 1 1 0.050483577085886133 1 1 1 0.048957159527058383 1 1 1 1 1 1 1 1 1 1 1 1 1 1 1 1 1 1 1 1 0.051648455320471028 1 1 1 1 0.051042269742594737 1 1 1 1 1 1 1 1 1 1 1 1 1 1 1 1 1 1 1 1 1 1 1 1 1 1 1 1 1 1 1 1 1 1 0.04901203351627148 1 0.050648990258738466 1 1 1 1 1 1 1 1 0.051317935890209949 1 1 1 0.047993068096667493 1 0.050668945631471514 1 1 1 1 1 1 1 1 0.064133732781616798 1 1 1 1 0.055702496483344952 1 1 1 1 0.050035121430374356 1 1 1 1 1 1 1 0.052308775308423039 1 1 1 1 0.051254688458444692 1 1 1 1 1 1 1 1 1 1 1 1 1 1 1 1 1 1 1 1 1 1 1 1 1 1 1 1 1 1 1 1 1 1 1 1 1 1 1 1 1 1 1 1 1 1 0.051405794237136732 1 1 1 1 0.050006320203024326 0.050716441868932406 1 1 0.051512927508408315 0.051688179414701121 1 1 1 1 1 1 1 1 1 1 1 1 1 1 1 1 1 1 1 0.050762800108036521 1 1 1 0.050190466763472552 0.050002643252963372 1 1 1 1 1 1 1 1 1 1 1 1 1 1 1 1 1 1 1 1 1 1 1 1 1 1 1 0.050525558083509226 1 1 1 1 1 1 1 0.049767489287877366 1 1 1 1 1 1 1 1 1 1 1 1 1 1 1 0.048586318312124462 1 1 1 1 1 1 1 1 0.051068244528414172 1 0.049149025163086606 0.052758026253934068 1 1 1 1 1 1 1 1 1 1 1 1 0.051397228415286642 1 1 1 1 1 1 1 1 1 1 1 1 1 1 1 1 1 1 0.065768200580232972 1 1 1 0.052043151852748104 1 1 1 1 1 1 1 1 0.050688348159544136 1 1 1 1 1 1 1 1 1 1 1 1 1 1 1 0.053039744234031905 1 1 1 0.051060794542240495 1 1 1 1 1 1 1 1 1 1 1 1 1 1 1 1 1 1 1 1 1 1 1 1 1 1 1 1 1 1 1 1 1 0.050949408812191378 1 0.05042435123233744 1 1 1 1 1 1 1 1 0.049958199112901058 1 1 1 1 1 1 1 1 1 0.049767615624195523 1 1 0.049927999401392101 1 1 1 1 1 0.0499409052033397 1 1 1 1 0.049978998627228488 1 1 1 1 0.048940087857223674 1 1 1 0.050105576123373907 1 0.047779712298487424 1 1 0.049029122671282864 1 1 1 1 1 1 1 1 1 1 1 1 1 1 0.049992744867193288 1 1 0.050014559050454321 1 0.049976574246754904 1 1 1 0.050042580401326503 1 1 0.045886167453983259 1 1 1 1 0.051502628380162264 1 0.051202158350958302 1 1 1 1 1 1 0.050446253651972695 1 0.050321333795590235 1 1 1 1 1 0.070845653042607704 1 1 1 1 0.051284375964800524 1 1 1 1 1 1 0.07013544287260616 1 1 1 1 1 1 1 1 1 1 1 1 1 1 1 1 1 1 1 1 1 1 1 1 1 1 1 1 1 1 1 1 1 0.050105809738690048 0.049999316316694908 1 1 1 1 1 1 1 1 1 1 0.070814766308131064 1 1 0.051010938981626425 0.068039412223125512 1 0.049970451056170609 1 1 1 1 1 1 1 0.068414730816045197 1 1 1 1 1 1 1 1 1 1 1 1 0.048659806087046634 1 1 1 1 0.049513160419540472 1 1 1 1 1 1 1 1 1 1 1 1 0.053381347100470905 1 1 1 1 1 1 1 1 1 1 1 1 1 1 1 1 1 0.053008844400309021 1 1 1 1 1 0.050911458806675851 1 1 1 0.056536750047789491 1 1 1 1 1 1 0.054357897641006021 1 0.054358537982784151 1 1 1 0.052859455456267607 1 1 1 1 1 1 1 1 1 0.058093000276909099 1 1 0.05004281724472856 1 1 1 1 1 1 1 0.051740483395187678 1 1 1 1 1 1 1 1 1 1 1 1 1 0.047781928060265447 1 1 0.050570796444938795 1 1 1 1 1 1 0.049849501861555442 1 1 1 1 1 1 0.061213766008373298 1 1 1 1 1 1 1 0.065887426890207879 1 1 1 1 1 1 1 1 1 1 1 1 1 1 1 1 1 1 1 1 1 1 0.051120194711319872 1 1 1 1 1 1 1 1 1 1 0.056908752792825229 1 1 1 1 0.056463253109556563 0.052267097279697451 1 1 1 1 0.05201045087480341 1 1 1 1 1 1 1 1 1 0.051668577012645274 1 1 1 1 1 1 1 1 1 1 1 0.058290799298195091 1 1 1 0.053741156662461473 1 1 1 0.053184437660173896 1 1 1 1 1 1 1 1 1 1 1 1 0.057292998542313747 1 1 1 1 1 0.049988430169713445 1 1 0.049913796683763771 1 1 1 1 1 1 1 1 1 1 1 1 1 1 0.056760465143552055 1 1 1 1 1 1 1 0.068002444806237711 1 1 1 0.074930551324467465 1 1 1 1 1 0.049834493542520737 1 1 1 1 1 1 1 1 1 0.04990912702847039 1 1 1 1 1 1 1 1 0.078589312739190592 1 1 1 1 1 0.051859584551952581 1 1 1 1 1 1 1 0.050675719658067345 1 1 1 1 1 1 1 1 1 1 1 1 1 1 1 1 1 1 1 1 1 1 1 1 1 1 1 1 1 1 1 1 1 1 1 1 1 1 1 1 1 1 1 1 1 1 1 1 0.053919335801971134 1 1 1 1 1 1 1 0.051519803767646963 1 1 1 1 1 1 1 1 1 1 1 1 1 1 1 1 1 1 1 1 1 1 0.0504251943291458 0.050714697402446621 1 1 0.054547457985978938 0.061864575835149122 1 1 1 1 1 1 1 0.068024845648654672 1 1 1 1 1 1 1 1 1 1 1 1 1 1 0.050073216059892948 1 1 1 1 1 1 1 1 0.04995386691188132 1 1 0.05015274553325455 1 1 1 0.050473960263548619 1 1 1 1 1 1 1 1 1 1 1 1 1 1 1 1 1 1 1 1 1 1 1 1 1 1 1 1 0.049752074639257585 1 1 1 1 1 1 1 1 0.049977821336173664 1 1 1 1 1 1 0.048921519502449495 0.04992164066988887 1 1 1 1 0.050039389999434011 1 1 0.049630364007552871 1 1 0.048322364999542025 1 1 1 1 1 1 0.050007176715048424 1 1 1 1 1 1 1 1 0.050002804498373826 1 1 1 1 1 1 1 1 1 1 1 0.050010970763036594 1 1 0.050008169439127184 1 1 1 1 1 1 1 0.049972928794332558 1 1 1 0.050039566605233066 1 0.050159559295848664 1 0.050001964643702587 1 1 1 1 1 1 1 1 1 1 1 1 1 1 1 1 1 0.050174944302262686 1 0.049999635354292291 1 1 1 1 1 1 1 1 1 1 0.050266857371278145 1 1 1 1 1 1 1 0.050311870772505263 1 1 1 0.04999417297308642 1 0.054760548595733871 0.054068449604083274 1 1 0.059019352332428929 1 1 1 1 0.052460718952383724 1 1 1 0.054604667088273245 1 1 1 0.055002704583245479 1 0.058853125069197779 0.048357790151128538 1 1 1 1 1 1 0.060067503460589269 1 1 1 1 1 1 1 1 0.043852542889579557 0.050001932117920034 0.046717454066438721 1 0.04053189115773459 1 1 0.063246985889473376 0.050001353859722125 1 1 0.080703212910155697 1 1 1 1 1 1 1 1 1 1 1 0.049965672384079035 1 1 1 1 1 1 1 1 1 1 1 1 1 0.048171184022595362 0.045167889455597007 1 1 1 1 0.04738524604921103 1 1 1 0.052614028460137088 1 1 1 1 1 0.047177691406632735 0.049996450845680669 1 1 1 0.053373235477869312 1 1 1 1 1 1 1 1 1 1 1 1 1 1 1 0.051658979234118441 1 1 1 0.051941057705202527 1 1 1 0.050796831587135868 1 1 1 1 1 1 0.056418678408977921 1 1 1 1 1 0.055150057440776876 1 1 1 1 1 1 1 1 0.050015982891553061 1 1 1 1 1 1 1 1 1 0.050056139328482976 1 1 1 1 0.05001899697277825 1 0.050033500789964422 1 1 0.049163026060594146 1 0.051633579708058097 1 1 1 1 1 1 0.050972250224582807 1 0.05003016378219019 0.051047309855184589 1 1 1 1 1 1 1 1 0.057841158414179375 1 0.050374847165744113 1 0.050095277941226431 1 0.049369271042306109 1 1 1 1 1 1 1 1 1 1 1 0.05088798475000067 1 1 1 0.050840303029245901 1 1 1 1 1 1 1 1 0.049952318279245206 1 1 1 1 1 1 1 1 1 0.050869074600084205 1 1 1 1 0.057974515183749187 1 1 0.070257583606040591 1 1 1 1 1 1 1 1 1 0.079896834334325956 1 1 1 0.076933570804497198 1 1 1 1 1 1 1 1 1 1 1 1 1 1 1 1 1 1 1 0.080565191758598192 1 1 1 1 1 1 1 1 1 1 0.049308564811123758 1 1 1 1 1 1 1 1 1 1 1 1 1 1 1 1 1 1 1 1 1 1 1 1 1 1 1 1 1 1 1 1 1 1 1 1 1 1 1 1 1 1 1 1 1 0.044079039581349649 0.050064788927664056 1 1 1 1 1 1 1 1 1 1 1 1 1 0.041451415724653863 0.065390011187093824 1 1 1 0.061368748458433778 1 1 0.0461263278582284 1 1 1 0.040749369418888411 1 1 1 0.043510370359920864 1 1 1 1 1 1 1 1 0.050701246374940008 1 1 0.049061617810493598 1 0.055290771199908162 0.049722960309450934 1 1 1 1 1 1 0.047536802437402485 1 0.053382472047802915 0.049568300263533586 0.049875691612178259 1 1 0.051608125490590302 1 1 0.045763201208134277 0.045865377007868503 1 1 1 1 1 1 1 1 1 1 1 1 1 1 1 1 1 1 1 1 1 0.080807759505226007 1 1 1 1 1 1 1 1 1 0.050576390510316108 1 1 1 1 1 1 1 0.052109552625830946 0.080453150667535472 1 1 1 1 1 1 1 1 1 1 1 1 1 1 1 1 1 1 1 1 1 1 1 0.048746810627940888 1 0.050035549982019145 1 1 1 1 1 1 1 0.047870613589588357 1 1 1 0.057752370197727561 0.083855212680999158 1 1 0.055162430747867836 1 1 1 1 0.056323577294033741 1 1 1 0.079980711900207002 1 1 1 0.046198172227282112 1 1 1 1 1 1 1 1 1 0.041132813531622549 0.056498258688114422 1 1 1 1 1 0.046195773511785165 1 1 0.05456480015896812 0.040809333644342541 0.042926352706585416 1 1 1 1 1 0.078731464028549608 1 1 1 1 1 1 1 1 1 0.050806162615599275 1 0.050342670588873248 1 1 1 1 1 1 1 1 1 1 1 1 1 1 1 1 1 1 1 1 1 1 1 1 0.052863247801460143 1 1 1 1 0.047935765021475216 0.058594325083993745 1 1 1 0.043309595123146097 1 1 1 1 1 1 1 1 1 1 1 1 1 1 1 1 0.070232211295236185 1 1 1 0.050081047589497781 1 1 0.074732595733400964 1 1 1 1 1 1 1 1 1 1 1 1 1 0.064138722049150609 1 1 0.061825240231356521 1 1 1 0.06630607062582286 1 0.051271532004934929 1 0.050555775478932308 1 0.044334878882717005 0.066119581051084717 0.050155330626193421 1 1 1 1 1 1 1 1 0.051683113131792247 1 1 1 1 1 1 1 1 0.074823365445061296 1 1 0.036255212432277785 1 1 1 1 1 1 1 1 1 1 1 1 1 1 1 1 1 1 1 1 1 0.061545695165700721 1 1 1 1 1 1 1 1 1 1 0.057188371040905545 1 0.046504721324569384 1 1 0.053875780429974283 1 0.063863443021125788 1 0.049888404524463865 1 1 0.049841789506125465 1 0.0680737059667893 1 1 0.052558392261181808 1 1 1 0.048492449417146678 1 1 1 1 1 1 1 1 1 1 1 1 1 1 1 1 1 1 1 1 1 1 1 1 1 1 1 1 1 1 1 1 1 1 1 1 1 1 1 1 1 1 1 1 1 1 1 1 1 1 1 1 1 1 1 1 1 1 1 1 1 0.057968381116706429 1 1 0.066780661454492352 1 1 1 1 1 1 0.045108442844079416 0.064353659109190539 1 1 1 1 1 1 1 1 1 1 1 1 1 1 1 1 1 1 0.060288900736703302 1 1 1 0.050202446004191617 1 1 1 1 1 1 1 1 1 1 1 1 1 1 1 1 0.049954400243683333 1 1 1 1 1 1 1 0.067938294098107366 1 1 1 1 1 1 1 1 0.063596009213598592 1 0.050572324932738243 1 1 1 1 1 1 1 1 1 1 1 1 1 1 1 1 0.058264638603923516 1 1 1 1 1 1 1 0.071285084286881267 1 1 1 1 0.048107062559572727 1 1 1 1 1 1 1 0.042586720613186489 1 1 0.063061925820369541 0.049452968483909301 1 1 0.073952433675237003 1 1 1 1 1 1 0.079862752379941351 1 1 1 1 1 1 1 1 1 0.043348614380253607 1 1 0.050191508670537434 1 1 0.049799223454930069 1 1 0.06113730676411884 1 1 1 1 1 0.058914952164144468 1 1 1 1 1 1 1 1 0.050278050500972178 1 1 1 1 1 1 1 0.050871801893317858 1 1 1 1 1 1 1 1 1 1 1 1 0.052502760812049791 1 1 1 1 1 1 1 0.049633579792368036 0.04977230222683296 1 0.017627741654839484 1 0.041444553467034032 1 1 1 1 1 1 1 1 1 1 1 1 1 1 1 0.049994146874648045 1 0.039034897788733855 1 1 1 1 1 1 1 1 0.071590142826037415 1 0.053254812989672273 1 0.038911496470119197 1 0.0797432756456046 1 0.049093556103443514 1 1 0.050037270699452137 1 1 1 1 1 0.049892594421634927 1 1 1 1 1 1 1 1 0.050218930365105177 1 1 1 1 1 0.050683152970075571 1 1 0.018067215493881662 1 0.051075186989569518 0.046658117752776375 1 1 1 1 1 1 1 1 0.049925742774517903 1 1 1 1 1 1 1 1 1 1 1 1 1 0.070560624133358812 1 1 1 1 1 1 1 0.051636791449664349 1 1 1 0.051634487988368068 1 1 1 1 1 1 1 1 1 1 1 1 1 1 1 1 1 0.049256521325754254 1 1 1 1 1 1 1 0.049596705438753705 1 1 0.057753742552860754 1 1 1 1 1 1 1 1 1 1 1 1 1 1 1 0.05587522004176701 1 1 1 1 0.048888714695034544 1 1 1 1 1 1 1 1 1 1 1 1 1 1 1 1 1 1 1 1 1 1 1 1 1 0.039972294791832841 1 1 1 1 1 1 0.049585618234433491 1 1 1 1 1 1 1 1 1 0.040967703554748887 0.059298355674153515 1 1 1 0.058472707956170267 1 0.048939314707728263 1 1 1 1 1 1 1 1 1 1 1 1 1 1 1 0.05289864836147521 1 1 1 1 1 1 1 1 1 1 1 1 0.050782904352654798 0.052105812575257857 1 1 1 1 1 1 1 1 0.057842903152125771 1 1 0.049701440109288154 1 1 0.06159788173733198 0.044890852452249851 1 1 1 1 1 1 1 0.055004605458821174 1 1 1 1 1 1 1 1 1 0.051322908222603061 1 1 1 0.051594171119097074 1 1 1 1 1 0.050619361613930339 1 1 1 1 1 1 1 1 1 1 1 1 0.048732217646453864 1 1 1 0.049283225528970999 1 1 1 0.0542254001461406 1 1 1 1 1 1 1 1 1 1 1 1 1 1 1 1 1 1 1 1 1 1 1 1 1 1 1 1 1 1 1 1 0.048413181966067587 1 1 1 1 1 1 1 1 1 1 1 1 1 1 1 1 1 1 1 1 1 1 1 1 0.051661274246856403 1 0.050090514588616464 1 1 0.038375580732965243 1 1 1 1 1 1 1 1 1 0.056858568365757048 1 1 1 1 1 1 1 1 1 1 1 1 1 1 0.042526558651588761 1 1 1 1 0.046477334970713206 1 1 1 0.049120201040280947 1 1 1 1 1 1 1 1 1 1 1 1 1 1 1 1 1 1 1 1 1 1 1 1 1 1 1 1 1 1 1 1 1 1 1 1 1 1 1 1 1 1 1 1 1 1 1 1 1 1 1 1 1 1 1 1 1 1 1 1 1 1 1 1 1 1 1 1 1 1 1 1 1 1 1 1 1 1 1 1 1 1 1 1 1 1 1 1 1 1 1 1 1 1 1 1 1 1 1 1 1 1 1 1 1 1 1 1 1 1 1 1 1 1 1 1 1 1 1 1 1 1 1 1 1 1 1 1 1 1 1 1 1 1 1 1 1 1 1 1 1 1 1 1 1 1 1 1 1 1 1 1 1 1 1 1 1 1 1 1 1 1 1 1 1 1 1 1 1 1 1 1 1 1 1 1 1 1 1 1 1 1 1 1 1 1 1 1 1 0.088502426323751798 1 1 1 1 1 1 1 1 1 1 1 1 1 1 1 1 0.052424378276639566 1 1 1 1 1 1 1 1 0.075894490266559395 1 1 1 1 0.048594356668409652 1 1 1 1 1 1 1 1 1 1 1 1 1 1 1 1 1 1 1 1 1 1 0.051548693513871049 1 1 1 1 1 1 1 1 1 1 1 1 1 0.045609444971526927 0.086088256416805856 1 1 1 1 1 0.075950076704953823 1 0.039415575584641538 1 1 1 1 1 1 1 1 1 1 1 0.059433570232315158 1 1 1 1 1 1 1 0.098639839213231828 1 1 1 1 1 1 1 1 1 1 1 1 1 1 1 0.051618477265686538 0.092805145721944732 1 1 1 1 1 1 1 1 1 1 1 1 0.044001371308382775 1 1 1 1 1 1 1 1 1 1 1 1 1 1 1 1 0.048109529430175435 1 1 1 1 1 1 1 0.085445203367356434 1 1 1 1 1 1 1 1 1 1 0.050284336755168059 0.074126109784628205 1 1 1 1 1 1 1 1 1 1 1 1 1 1 1 1 1 1 1 1 1 1 1 1 1 1 1 1 1 1 0.055689838356729568 1 1 1 1 1 0.058416332466553207 1 1 1 1 1 1 1 1 1 1 0.053717036999654966 1 1 1 1 0.048561298606513426 1 1 1 1 1 1 1 1 1 1 0.057586045455714635 1 0.052886749988816373 1 1 1 1 1 1 1 1 1 1 1 1 1 1 1 1 1 1 1 1 1 1 1 1 1 1 1 1 1 1 1 0.05089801118379076 1 1 1 1 1 0.052516488449477303 1 1 1 1 1 1 1 1 1 1 1 1 1 1 1 1 1 1 0.051628084569558433 1 1 0.082267824941736206 1 1 1 0.050574129417445615 1 1 1 1 1 0.096218400550534225 1 1 1 1 1 1 1 1 1 1 0.066042029378516789 1 1 1 1 1 1 0.049284262289330319 1 1 1 1 1 0.10151544827754651 0.049755021112345428 1 1 0.094964060498774594 1 1 0.051563270628244472 1 1 1 1 1 1 1 1 1 1 0.051872813153820134 1 1 0.052960784875635471 1 1 0.054270165199753244 1 1 0.05402794717917301 1 1 0.048148786405769119 1 1 0.053133028374677337 1 1 1 1 1 1 0.047006341987794228 1 1 1 1 1 1 1 1 1 1 1 0.091395925633638658 1 1 1 1 1 1 1 0.051787789532319405 1 1 1 1 0.049951255226759209 1 1 1 0.084710020678635756 1 1 1 1 1 1 1 1 1 1 1 0.049644020655847755 1 1 1 1 1 1 1 1 1 1 1 1 1 1 1 1 1 1 1 1 1 1 1 1 0.049968661590702269 1 1 1 1 1 0.050065605365336323 1 1 1 1 1 1 1 1 1 1 1 1 1 1 0.052210784616045773 1 1 0.04867468745432494 1 0.064421763656823838 1 1 1 1 0.07013606149474258 1 0.049564186560354398 0.043351727167460122 1 0.045292636903415007 1 1 1 1 1 1 1 0.050034869005861418 1 0.049114770707308186 1 1 1 1 1 1 0.05044986448241047 1 1 1 1 1 1 0.050612275735436404 1 1 1 1 0.051784333979320106 1 1 1 1 1 0.049818163452257737 1 1 0.050254416373554558 1 1 1 1 0.052716285561216519 1 1 1 1 0.049811668978138685 1 1 1 1 1 1 0.050292322704885734 1 1 1 1 1 1 1 1 1 0.051334946535118837 1 1 1 1 1 1 0.050666849822033067 1 1 1 1 0.051432720162351314 1 1 1 1 1 1 1 1 1 1 1 1 1 1 1 1 0.049539934733166688 1 1 1 0.049286318580881429 1 1 0.067332513702758182 1 1 1 1 1 1 1 1 1 1 1 1 1 1 1 1 0.050032336467353535 1 0.064639132424915952 1 1 1 1 1 1 1 1 1 1 1 1 1 1 1 1 1 1 1 1 1 1 1 1 1 1 0.072332695003345396 1 1 0.061246926767350322 1 1 1 1 1 1 1 1 1 1 0.056177725909901416 1 1 1 1 0.050473355697287316 1 1 1 1 0.050441019229933819 1 1 1 1 1 1 1 1 1 0.055611257649089682 1 1 1 1 1 1 1 1 1 1 1 1 1 1 1 1 1 1 1 1 1 1 1 1 1 1 1 1 
</DataArray>
</CellData>
</Piece>
</UnstructuredGrid>
</VTKFile>
